# vtk DataFile Version 2.0
               (MEGA VTK FILE)
ASCII
DATASET UNSTRUCTURED_GRID
POINTS       1950    double
  0.18230E-02  0.12229E-02 -0.11462E-01
  0.30699E-02  0.21806E-02 -0.11449E-01
  0.40668E-02  0.10537E-02 -0.11455E-01
  0.29458E-02 -0.59559E-03 -0.11468E-01
  0.19597E-02  0.14032E-02 -0.11750E-01
  0.33092E-02  0.24131E-02 -0.11750E-01
  0.44372E-02  0.11927E-02 -0.11750E-01
  0.31521E-02 -0.61753E-03 -0.11750E-01
  0.53409E-02  0.29165E-03 -0.11464E-01
  0.49158E-02 -0.11754E-02 -0.11467E-01
  0.58233E-02  0.43387E-03 -0.11750E-01
  0.53701E-02 -0.11960E-02 -0.11750E-01
  0.22640E-02  0.32532E-02 -0.11444E-01
  0.11513E-02  0.26121E-02 -0.11450E-01
  0.24176E-02  0.35611E-02 -0.11750E-01
  0.12464E-02  0.28877E-02 -0.11750E-01
  0.20617E-03  0.55620E-03 -0.11463E-01
 -0.22621E-03  0.21000E-02 -0.11451E-01
  0.19795E-03  0.78178E-03 -0.11750E-01
 -0.24773E-03  0.23850E-02 -0.11750E-01
  0.16641E-02  0.40048E-02 -0.11438E-01
  0.19996E-02  0.49183E-02 -0.11440E-01
  0.30863E-02  0.42156E-02 -0.11443E-01
  0.17760E-02  0.43825E-02 -0.11750E-01
  0.21396E-02  0.53160E-02 -0.11750E-01
  0.33236E-02  0.45296E-02 -0.11750E-01
  0.71823E-03  0.38388E-02 -0.11438E-01
  0.69998E-03  0.51170E-02 -0.11431E-01
  0.80105E-03  0.41317E-02 -0.11750E-01
  0.72310E-03  0.55052E-02 -0.11750E-01
 -0.14038E-02 -0.18295E-02 -0.11479E-01
 -0.15667E-02  0.14276E-03 -0.11466E-01
  0.79900E-03 -0.12687E-02 -0.11479E-01
 -0.15401E-02 -0.18962E-02 -0.11750E-01
 -0.17240E-02  0.29297E-03 -0.11750E-01
  0.83251E-03 -0.12790E-02 -0.11750E-01
 -0.32893E-02 -0.13026E-02 -0.11466E-01
 -0.32774E-02  0.14350E-03 -0.11460E-01
 -0.36254E-02 -0.14057E-02 -0.11750E-01
 -0.35547E-02  0.19437E-03 -0.11750E-01
 -0.48380E-02 -0.13932E-02 -0.11465E-01
 -0.49352E-02  0.88703E-04 -0.11456E-01
 -0.53337E-02 -0.14707E-02 -0.11750E-01
 -0.53360E-02  0.16671E-03 -0.11750E-01
 -0.45316E-02 -0.27472E-02 -0.11467E-01
 -0.34698E-02 -0.24148E-02 -0.11468E-01
 -0.50717E-02 -0.30218E-02 -0.11750E-01
 -0.38883E-02 -0.26096E-02 -0.11750E-01
 -0.17564E-02  0.17754E-02 -0.11454E-01
 -0.19061E-02  0.20169E-02 -0.11750E-01
 -0.25883E-02 -0.31567E-02 -0.11473E-01
 -0.28343E-02 -0.33895E-02 -0.11750E-01
 -0.54563E-03  0.35811E-02 -0.11435E-01
 -0.55480E-03  0.38919E-02 -0.11750E-01
 -0.19233E-02  0.32948E-02 -0.11437E-01
 -0.20381E-02  0.35875E-02 -0.11750E-01
 -0.32649E-02  0.30362E-02 -0.11436E-01
 -0.32804E-02  0.16233E-02 -0.11448E-01
 -0.34812E-02  0.32891E-02 -0.11750E-01
 -0.35262E-02  0.18013E-02 -0.11750E-01
 -0.28254E-03 -0.35921E-02 -0.11477E-01
 -0.16794E-02 -0.42593E-02 -0.11478E-01
 -0.26474E-03 -0.39145E-02 -0.11750E-01
 -0.18371E-02 -0.46965E-02 -0.11750E-01
  0.14224E-02 -0.30902E-02 -0.11476E-01
  0.16004E-02 -0.33555E-02 -0.11750E-01
  0.30849E-02 -0.26735E-02 -0.11473E-01
  0.34412E-02 -0.29508E-02 -0.11750E-01
  0.56354E-02  0.13563E-02 -0.11457E-01
  0.49312E-02  0.21944E-02 -0.11450E-01
  0.61777E-02  0.15844E-02 -0.11750E-01
  0.53318E-02  0.23938E-02 -0.11750E-01
  0.40645E-02  0.32606E-02 -0.11447E-01
  0.43754E-02  0.35325E-02 -0.11750E-01
 -0.70038E-03  0.50551E-02 -0.11426E-01
 -0.75363E-03  0.54006E-02 -0.11750E-01
 -0.20791E-02  0.47383E-02 -0.11428E-01
 -0.22394E-02  0.50658E-02 -0.11750E-01
 -0.33433E-02  0.43014E-02 -0.11431E-01
 -0.35938E-02  0.45778E-02 -0.11750E-01
 -0.43031E-02  0.39167E-02 -0.11432E-01
 -0.45439E-02  0.29092E-02 -0.11440E-01
 -0.46825E-02  0.43399E-02 -0.11750E-01
 -0.48094E-02  0.32420E-02 -0.11750E-01
 -0.48144E-02  0.15591E-02 -0.11448E-01
 -0.51587E-02  0.17784E-02 -0.11750E-01
 -0.37783E-02 -0.38743E-02 -0.11474E-01
 -0.41865E-02 -0.42628E-02 -0.11750E-01
 -0.28783E-02 -0.48734E-02 -0.11478E-01
 -0.32129E-02 -0.53620E-02 -0.11750E-01
 -0.21551E-02 -0.56598E-02 -0.11486E-01
 -0.10475E-02 -0.54958E-02 -0.11484E-01
 -0.25580E-02 -0.63408E-02 -0.11750E-01
 -0.12707E-02 -0.61105E-02 -0.11750E-01
  0.40074E-03 -0.51847E-02 -0.11484E-01
  0.43382E-03 -0.57659E-02 -0.11750E-01
  0.19385E-02 -0.47454E-02 -0.11482E-01
  0.22039E-02 -0.52543E-02 -0.11750E-01
  0.33390E-02 -0.42407E-02 -0.11477E-01
  0.38429E-02 -0.46949E-02 -0.11750E-01
  0.44251E-02 -0.38150E-02 -0.11476E-01
  0.46498E-02 -0.26752E-02 -0.11472E-01
  0.50511E-02 -0.41662E-02 -0.11750E-01
  0.51610E-02 -0.28534E-02 -0.11750E-01
  0.67032E-02  0.16878E-02 -0.11461E-01
  0.69462E-02  0.73420E-04 -0.11462E-01
  0.72526E-02  0.18807E-02 -0.11750E-01
  0.74530E-02  0.13579E-03 -0.11750E-01
  0.61087E-02  0.32281E-02 -0.11459E-01
  0.65501E-02  0.34650E-02 -0.11750E-01
  0.51618E-02  0.45512E-02 -0.11454E-01
  0.55243E-02  0.48620E-02 -0.11750E-01
  0.39222E-02  0.55849E-02 -0.11447E-01
  0.42037E-02  0.59660E-02 -0.11750E-01
  0.24689E-02  0.62978E-02 -0.11441E-01
  0.26401E-02  0.67385E-02 -0.11750E-01
  0.85697E-03  0.66821E-02 -0.11436E-01
  0.92671E-03  0.71197E-02 -0.11750E-01
 -0.79634E-03  0.66886E-02 -0.11433E-01
 -0.82013E-03  0.70866E-02 -0.11750E-01
 -0.23768E-02  0.63141E-02 -0.11431E-01
 -0.25264E-02  0.67019E-02 -0.11750E-01
 -0.38200E-02  0.55724E-02 -0.11432E-01
 -0.40759E-02  0.59329E-02 -0.11750E-01
 -0.50445E-02  0.45411E-02 -0.11437E-01
 -0.54230E-02  0.49265E-02 -0.11750E-01
 -0.59579E-02  0.32351E-02 -0.11439E-01
 -0.63366E-02  0.34889E-02 -0.11750E-01
 -0.66068E-02  0.17215E-02 -0.11452E-01
 -0.70239E-02  0.18479E-02 -0.11750E-01
 -0.68936E-02  0.54150E-04 -0.11462E-01
 -0.73882E-02  0.87073E-04 -0.11750E-01
 -0.67537E-02 -0.16220E-02 -0.11466E-01
 -0.73513E-02 -0.17235E-02 -0.11750E-01
 -0.62118E-02 -0.32120E-02 -0.11471E-01
 -0.68571E-02 -0.34888E-02 -0.11750E-01
 -0.52885E-02 -0.46496E-02 -0.11482E-01
 -0.58941E-02 -0.50818E-02 -0.11750E-01
 -0.40483E-02 -0.58131E-02 -0.11489E-01
 -0.45677E-02 -0.63917E-02 -0.11750E-01
 -0.25548E-02 -0.66149E-02 -0.11492E-01
 -0.29118E-02 -0.73466E-02 -0.11750E-01
 -0.85801E-03 -0.70217E-02 -0.11492E-01
 -0.10102E-02 -0.77366E-02 -0.11750E-01
  0.88363E-03 -0.70164E-02 -0.11492E-01
  0.95783E-03 -0.77671E-02 -0.11750E-01
  0.25654E-02 -0.65775E-02 -0.11490E-01
  0.28505E-02 -0.73034E-02 -0.11750E-01
  0.40778E-02 -0.57646E-02 -0.11485E-01
  0.45319E-02 -0.63762E-02 -0.11750E-01
  0.53180E-02 -0.45968E-02 -0.11481E-01
  0.58957E-02 -0.50651E-02 -0.11750E-01
  0.62372E-02 -0.31648E-02 -0.11477E-01
  0.68235E-02 -0.34375E-02 -0.11750E-01
  0.67854E-02 -0.15643E-02 -0.11469E-01
  0.73205E-02 -0.16683E-02 -0.11750E-01
  0.17427E-02  0.11189E-02 -0.11130E-01
  0.29162E-02  0.20324E-02 -0.11104E-01
  0.38392E-02  0.96352E-03 -0.11106E-01
  0.27832E-02 -0.58850E-03 -0.11135E-01
  0.49705E-02  0.23890E-03 -0.11116E-01
  0.45639E-02 -0.11243E-02 -0.11122E-01
  0.21474E-02  0.30432E-02 -0.11095E-01
  0.11004E-02  0.24323E-02 -0.11113E-01
  0.21172E-03  0.46903E-03 -0.11138E-01
 -0.20647E-03  0.19387E-02 -0.11123E-01
  0.15736E-02  0.37533E-02 -0.11083E-01
  0.18726E-02  0.46048E-02 -0.11075E-01
  0.28950E-02  0.39340E-02 -0.11082E-01
  0.68480E-03  0.36012E-02 -0.11090E-01
  0.65949E-03  0.48105E-02 -0.11068E-01
 -0.13128E-02 -0.17699E-02 -0.11155E-01
 -0.14700E-02  0.82230E-04 -0.11140E-01
  0.76273E-03 -0.12477E-02 -0.11158E-01
 -0.30778E-02 -0.12570E-02 -0.11132E-01
 -0.30849E-02  0.99713E-04 -0.11124E-01
 -0.44859E-02 -0.13194E-02 -0.11121E-01
 -0.46133E-02  0.57094E-04 -0.11106E-01
 -0.41765E-02 -0.25753E-02 -0.11122E-01
 -0.32278E-02 -0.22875E-02 -0.11127E-01
 -0.16616E-02  0.16337E-02 -0.11120E-01
 -0.24067E-02 -0.29793E-02 -0.11134E-01
 -0.51412E-03  0.33549E-02 -0.11091E-01
 -0.18260E-02  0.30806E-02 -0.11087E-01
 -0.30939E-02  0.28307E-02 -0.11078E-01
 -0.31026E-02  0.14931E-02 -0.11104E-01
 -0.26639E-03 -0.33903E-02 -0.11143E-01
 -0.15473E-02 -0.39787E-02 -0.11135E-01
  0.13203E-02 -0.29275E-02 -0.11142E-01
  0.28663E-02 -0.25211E-02 -0.11133E-01
  0.52438E-02  0.12224E-02 -0.11104E-01
  0.46210E-02  0.20172E-02 -0.11094E-01
  0.38212E-02  0.30311E-02 -0.11092E-01
 -0.65509E-03  0.47536E-02 -0.11057E-01
 -0.19577E-02  0.44502E-02 -0.11059E-01
 -0.31508E-02  0.40272E-02 -0.11063E-01
 -0.40430E-02  0.36470E-02 -0.11066E-01
 -0.42776E-02  0.26937E-02 -0.11077E-01
 -0.45263E-02  0.14258E-02 -0.11093E-01
 -0.34672E-02 -0.36133E-02 -0.11127E-01
 -0.26143E-02 -0.45054E-02 -0.11130E-01
 -0.19297E-02 -0.51850E-02 -0.11131E-01
 -0.94222E-03 -0.50578E-02 -0.11134E-01
  0.36019E-03 -0.47866E-02 -0.11134E-01
  0.17627E-02 -0.43894E-02 -0.11131E-01
  0.30457E-02 -0.39254E-02 -0.11126E-01
  0.40333E-02 -0.35296E-02 -0.11126E-01
  0.42804E-02 -0.25040E-02 -0.11127E-01
  0.61673E-02  0.15071E-02 -0.11118E-01
  0.63630E-02  0.23156E-04 -0.11128E-01
  0.56382E-02  0.29386E-02 -0.11112E-01
  0.47669E-02  0.41825E-02 -0.11103E-01
  0.36157E-02  0.51721E-02 -0.11096E-01
  0.22728E-02  0.58690E-02 -0.11092E-01
  0.77981E-03  0.62486E-02 -0.11079E-01
 -0.75160E-03  0.62597E-02 -0.11069E-01
 -0.22175E-02  0.59050E-02 -0.11077E-01
 -0.35582E-02  0.51944E-02 -0.11079E-01
 -0.46925E-02  0.42049E-02 -0.11075E-01
 -0.55556E-02  0.29693E-02 -0.11105E-01
 -0.61370E-02  0.15499E-02 -0.11110E-01
 -0.63369E-02  0.19494E-05 -0.11116E-01
 -0.61481E-02 -0.15307E-02 -0.11131E-01
 -0.56224E-02 -0.29693E-02 -0.11141E-01
 -0.47522E-02 -0.42642E-02 -0.11146E-01
 -0.36019E-02 -0.52949E-02 -0.11142E-01
 -0.22484E-02 -0.59823E-02 -0.11144E-01
 -0.74003E-03 -0.63347E-02 -0.11154E-01
  0.79590E-03 -0.63215E-02 -0.11163E-01
  0.22869E-02 -0.59327E-02 -0.11160E-01
  0.36487E-02 -0.52301E-02 -0.11149E-01
  0.47855E-02 -0.42011E-02 -0.11139E-01
  0.56437E-02 -0.29244E-02 -0.11134E-01
  0.61751E-02 -0.14739E-02 -0.11132E-01
  0.16694E-02  0.10131E-02 -0.10766E-01
  0.27907E-02  0.18972E-02 -0.10725E-01
  0.36590E-02  0.88425E-03 -0.10715E-01
  0.26366E-02 -0.59346E-03 -0.10762E-01
  0.47265E-02  0.20377E-03 -0.10709E-01
  0.43186E-02 -0.10899E-02 -0.10719E-01
  0.20645E-02  0.28747E-02 -0.10716E-01
  0.10609E-02  0.22785E-02 -0.10749E-01
  0.21453E-03  0.39506E-03 -0.10779E-01
 -0.19088E-03  0.18030E-02 -0.10765E-01
  0.15188E-02  0.35745E-02 -0.10701E-01
  0.18066E-02  0.44261E-02 -0.10680E-01
  0.27787E-02  0.37593E-02 -0.10684E-01
  0.66471E-03  0.34227E-02 -0.10717E-01
  0.64082E-03  0.46335E-02 -0.10678E-01
 -0.12197E-02 -0.17057E-02 -0.10789E-01
 -0.13793E-02  0.31719E-04 -0.10780E-01
  0.72954E-03 -0.12185E-02 -0.10797E-01
 -0.28956E-02 -0.12260E-02 -0.10756E-01
 -0.29209E-02  0.50861E-04 -0.10754E-01
 -0.42338E-02 -0.12766E-02 -0.10720E-01
 -0.43865E-02  0.26900E-04 -0.10709E-01
 -0.39224E-02 -0.24467E-02 -0.10711E-01
 -0.30261E-02 -0.21820E-02 -0.10734E-01
 -0.15786E-02  0.15094E-02 -0.10758E-01
 -0.22485E-02 -0.28201E-02 -0.10742E-01
 -0.49191E-03  0.31787E-02 -0.10724E-01
 -0.17543E-02  0.29122E-02 -0.10715E-01
 -0.29759E-02  0.26775E-02 -0.10693E-01
 -0.29600E-02  0.13795E-02 -0.10730E-01
 -0.24643E-03 -0.32018E-02 -0.10755E-01
 -0.14458E-02 -0.37397E-02 -0.10728E-01
  0.12343E-02 -0.27747E-02 -0.10758E-01
  0.26869E-02 -0.23970E-02 -0.10742E-01
  0.50011E-02  0.11463E-02 -0.10690E-01
  0.44120E-02  0.19024E-02 -0.10686E-01
  0.36558E-02  0.28765E-02 -0.10692E-01
 -0.63551E-03  0.45755E-02 -0.10664E-01
 -0.19006E-02  0.42782E-02 -0.10667E-01
 -0.30557E-02  0.38691E-02 -0.10667E-01
 -0.39230E-02  0.35055E-02 -0.10664E-01
 -0.41278E-02  0.25649E-02 -0.10680E-01
 -0.43372E-02  0.13388E-02 -0.10696E-01
 -0.32476E-02 -0.34047E-02 -0.10712E-01
 -0.24456E-02 -0.42264E-02 -0.10709E-01
 -0.18029E-02 -0.48568E-02 -0.10697E-01
 -0.88484E-03 -0.47428E-02 -0.10708E-01
  0.32724E-03 -0.45000E-02 -0.10714E-01
  0.16384E-02 -0.41340E-02 -0.10710E-01
  0.28429E-02 -0.37027E-02 -0.10707E-01
  0.37757E-02 -0.33395E-02 -0.10706E-01
  0.40250E-02 -0.23842E-02 -0.10718E-01
  0.58944E-02  0.14246E-02 -0.10695E-01
  0.60547E-02 -0.21675E-05 -0.10709E-01
  0.53995E-02  0.28016E-02 -0.10695E-01
  0.45774E-02  0.40153E-02 -0.10693E-01
  0.34849E-02  0.49981E-02 -0.10688E-01
  0.22064E-02  0.57067E-02 -0.10685E-01
  0.76386E-03  0.61072E-02 -0.10673E-01
 -0.74478E-03  0.61229E-02 -0.10663E-01
 -0.21901E-02  0.57662E-02 -0.10665E-01
 -0.34902E-02  0.50688E-02 -0.10670E-01
 -0.45872E-02  0.40940E-02 -0.10670E-01
 -0.53885E-02  0.28722E-02 -0.10692E-01
 -0.59090E-02  0.14922E-02 -0.10694E-01
 -0.60570E-02 -0.24806E-05 -0.10697E-01
 -0.58307E-02 -0.14704E-02 -0.10713E-01
 -0.53040E-02 -0.28228E-02 -0.10718E-01
 -0.44608E-02 -0.40264E-02 -0.10723E-01
 -0.33629E-02 -0.49814E-02 -0.10713E-01
 -0.20890E-02 -0.56142E-02 -0.10706E-01
 -0.68567E-03 -0.59571E-02 -0.10713E-01
  0.74359E-03 -0.59534E-02 -0.10727E-01
  0.21346E-02 -0.55902E-02 -0.10726E-01
  0.34069E-02 -0.49329E-02 -0.10719E-01
  0.44795E-02 -0.39807E-02 -0.10713E-01
  0.53176E-02 -0.27948E-02 -0.10713E-01
  0.58489E-02 -0.14287E-02 -0.10714E-01
  0.15922E-02  0.95692E-03 -0.10361E-01
  0.26631E-02  0.17985E-02 -0.10313E-01
  0.34971E-02  0.83347E-03 -0.10288E-01
  0.25164E-02 -0.57081E-03 -0.10342E-01
  0.45201E-02  0.18240E-03 -0.10273E-01
  0.41248E-02 -0.10528E-02 -0.10285E-01
  0.19684E-02  0.27344E-02 -0.10310E-01
  0.10101E-02  0.21657E-02 -0.10356E-01
  0.20843E-03  0.37562E-03 -0.10375E-01
 -0.18135E-03  0.17124E-02 -0.10373E-01
  0.14480E-02  0.34050E-02 -0.10297E-01
  0.17206E-02  0.42205E-02 -0.10263E-01
  0.26479E-02  0.35850E-02 -0.10264E-01
  0.63310E-03  0.32568E-02 -0.10324E-01
  0.61004E-03  0.44131E-02 -0.10274E-01
 -0.11524E-02 -0.16150E-02 -0.10372E-01
 -0.13035E-02  0.29070E-04 -0.10376E-01
  0.69917E-03 -0.11522E-02 -0.10383E-01
 -0.27503E-02 -0.11683E-02 -0.10337E-01
 -0.27764E-02  0.40115E-04 -0.10347E-01
 -0.40344E-02 -0.12318E-02 -0.10284E-01
 -0.41805E-02  0.62752E-05 -0.10287E-01
 -0.37383E-02 -0.23367E-02 -0.10262E-01
 -0.28778E-02 -0.20763E-02 -0.10296E-01
 -0.15009E-02  0.14284E-02 -0.10359E-01
 -0.21393E-02 -0.26819E-02 -0.10300E-01
 -0.47259E-03  0.30209E-02 -0.10334E-01
 -0.16798E-02  0.27644E-02 -0.10319E-01
 -0.28482E-02  0.25405E-02 -0.10288E-01
 -0.28224E-02  0.13035E-02 -0.10324E-01
 -0.23624E-03 -0.30416E-02 -0.10316E-01
 -0.13841E-02 -0.35649E-02 -0.10275E-01
  0.11751E-02 -0.26336E-02 -0.10324E-01
  0.25618E-02 -0.22874E-02 -0.10304E-01
  0.47859E-02  0.10854E-02 -0.10254E-01
  0.42194E-02  0.18073E-02 -0.10256E-01
  0.34896E-02  0.27374E-02 -0.10271E-01
 -0.61108E-03  0.43518E-02 -0.10263E-01
 -0.18245E-02  0.40646E-02 -0.10261E-01
 -0.29271E-02  0.36708E-02 -0.10257E-01
 -0.37484E-02  0.33210E-02 -0.10250E-01
 -0.39427E-02  0.24303E-02 -0.10262E-01
 -0.41362E-02  0.12613E-02 -0.10277E-01
 -0.31006E-02 -0.32477E-02 -0.10259E-01
 -0.23444E-02 -0.40399E-02 -0.10248E-01
 -0.17333E-02 -0.46493E-02 -0.10231E-01
 -0.85401E-03 -0.45340E-02 -0.10245E-01
  0.30480E-03 -0.42988E-02 -0.10256E-01
  0.15588E-02 -0.39496E-02 -0.10252E-01
  0.27119E-02 -0.35433E-02 -0.10248E-01
  0.36031E-02 -0.32052E-02 -0.10250E-01
  0.38404E-02 -0.22897E-02 -0.10274E-01
  0.56410E-02  0.13460E-02 -0.10268E-01
  0.57870E-02 -0.24740E-04 -0.10283E-01
  0.51683E-02  0.26688E-02 -0.10267E-01
  0.43761E-02  0.38285E-02 -0.10273E-01
  0.33276E-02  0.47647E-02 -0.10270E-01
  0.21043E-02  0.54316E-02 -0.10273E-01
  0.72345E-03  0.57990E-02 -0.10269E-01
 -0.70928E-03  0.58062E-02 -0.10255E-01
 -0.20782E-02  0.54600E-02 -0.10259E-01
 -0.33126E-02  0.47890E-02 -0.10265E-01
 -0.43541E-02  0.38639E-02 -0.10261E-01
 -0.51159E-02  0.27048E-02 -0.10281E-01
 -0.56211E-02  0.13832E-02 -0.10273E-01
 -0.57707E-02 -0.36133E-04 -0.10274E-01
 -0.55553E-02 -0.14275E-02 -0.10287E-01
 -0.50548E-02 -0.27095E-02 -0.10282E-01
 -0.42614E-02 -0.38577E-02 -0.10279E-01
 -0.32232E-02 -0.47766E-02 -0.10256E-01
 -0.20056E-02 -0.53841E-02 -0.10241E-01
 -0.65683E-03 -0.57105E-02 -0.10257E-01
  0.70776E-03 -0.57112E-02 -0.10276E-01
  0.20316E-02 -0.53680E-02 -0.10276E-01
  0.32472E-02 -0.47379E-02 -0.10264E-01
  0.42747E-02 -0.38289E-02 -0.10263E-01
  0.50780E-02 -0.26961E-02 -0.10271E-01
  0.55897E-02 -0.13921E-02 -0.10284E-01
  0.15359E-02  0.93478E-03 -0.99218E-02
  0.25669E-02  0.17401E-02 -0.98651E-02
  0.33791E-02  0.81448E-03 -0.98253E-02
  0.24360E-02 -0.53675E-03 -0.98913E-02
  0.43686E-02  0.18268E-03 -0.97931E-02
  0.39883E-02 -0.10121E-02 -0.98116E-02
  0.18940E-02  0.26361E-02 -0.98677E-02
  0.97228E-03  0.20929E-02 -0.99229E-02
  0.19953E-03  0.38043E-03 -0.99365E-02
 -0.17575E-03  0.16617E-02 -0.99411E-02
  0.13930E-02  0.32801E-02 -0.98544E-02
  0.16554E-02  0.40674E-02 -0.98043E-02
  0.25471E-02  0.34562E-02 -0.98049E-02
  0.61041E-03  0.31360E-02 -0.98901E-02
  0.58952E-03  0.42482E-02 -0.98245E-02
 -0.11126E-02 -0.15428E-02 -0.99254E-02
 -0.12563E-02  0.40565E-04 -0.99365E-02
  0.67590E-03 -0.10906E-02 -0.99400E-02
 -0.26507E-02 -0.11153E-02 -0.98842E-02
 -0.26741E-02  0.43780E-04 -0.99031E-02
 -0.38965E-02 -0.11811E-02 -0.98068E-02
 -0.40315E-02  0.58808E-05 -0.98213E-02
 -0.36160E-02 -0.22459E-02 -0.97737E-02
 -0.27792E-02 -0.19915E-02 -0.98268E-02
 -0.14453E-02  0.13826E-02 -0.99227E-02
 -0.20718E-02 -0.25805E-02 -0.98304E-02
 -0.45398E-03  0.29100E-02 -0.99042E-02
 -0.16170E-02  0.26613E-02 -0.98842E-02
 -0.27431E-02  0.24466E-02 -0.98416E-02
 -0.27173E-02  0.12573E-02 -0.98820E-02
 -0.23382E-03 -0.29292E-02 -0.98511E-02
 -0.13521E-02 -0.34451E-02 -0.97944E-02
  0.11396E-02 -0.25315E-02 -0.98635E-02
  0.24873E-02 -0.22038E-02 -0.98342E-02
  0.46231E-02  0.10554E-02 -0.97694E-02
  0.40710E-02  0.17491E-02 -0.97824E-02
  0.33597E-02  0.26401E-02 -0.98084E-02
 -0.58582E-03  0.41835E-02 -0.98159E-02
 -0.17605E-02  0.39086E-02 -0.98101E-02
 -0.28279E-02  0.35342E-02 -0.97986E-02
 -0.36228E-02  0.32005E-02 -0.97785E-02
 -0.38042E-02  0.23427E-02 -0.97928E-02
 -0.39881E-02  0.12149E-02 -0.98139E-02
 -0.30064E-02 -0.31314E-02 -0.97700E-02
 -0.22852E-02 -0.39099E-02 -0.97540E-02
 -0.16963E-02 -0.45086E-02 -0.97294E-02
 -0.84089E-03 -0.43926E-02 -0.97492E-02
  0.28907E-03 -0.41595E-02 -0.97686E-02
  0.15126E-02 -0.38212E-02 -0.97675E-02
  0.26374E-02 -0.34311E-02 -0.97567E-02
  0.34995E-02 -0.31074E-02 -0.97552E-02
  0.37203E-02 -0.22140E-02 -0.97920E-02
  0.54422E-02  0.12979E-02 -0.97746E-02
  0.55796E-02 -0.29312E-04 -0.97900E-02
  0.49746E-02  0.25674E-02 -0.97826E-02
  0.42064E-02  0.36783E-02 -0.97993E-02
  0.32037E-02  0.45844E-02 -0.97890E-02
  0.20278E-02  0.52320E-02 -0.97895E-02
  0.69653E-03  0.55818E-02 -0.97848E-02
 -0.68115E-03  0.55857E-02 -0.97694E-02
 -0.20017E-02  0.52526E-02 -0.97669E-02
 -0.32033E-02  0.46120E-02 -0.97672E-02
 -0.42172E-02  0.37174E-02 -0.97632E-02
 -0.49495E-02  0.25882E-02 -0.97783E-02
 -0.54311E-02  0.13151E-02 -0.97800E-02
 -0.55699E-02 -0.44690E-04 -0.97779E-02
 -0.53707E-02 -0.13800E-02 -0.97807E-02
 -0.48880E-02 -0.26199E-02 -0.97745E-02
 -0.41270E-02 -0.37245E-02 -0.97780E-02
 -0.31333E-02 -0.46216E-02 -0.97575E-02
 -0.19568E-02 -0.52233E-02 -0.97339E-02
 -0.64400E-03 -0.55356E-02 -0.97477E-02
  0.68025E-03 -0.55345E-02 -0.97702E-02
  0.19628E-02 -0.52059E-02 -0.97725E-02
  0.31481E-02 -0.45977E-02 -0.97631E-02
  0.41488E-02 -0.37172E-02 -0.97663E-02
  0.49093E-02 -0.26141E-02 -0.97802E-02
  0.53911E-02 -0.13510E-02 -0.97944E-02
  0.14931E-02  0.92626E-03 -0.94498E-02
  0.24953E-02  0.17017E-02 -0.93835E-02
  0.32922E-02  0.80212E-03 -0.93326E-02
  0.23764E-02 -0.51085E-03 -0.94081E-02
  0.42626E-02  0.18651E-03 -0.92913E-02
  0.38948E-02 -0.97853E-03 -0.93134E-02
  0.18417E-02  0.25733E-02 -0.93905E-02
  0.94655E-03  0.20573E-02 -0.94579E-02
  0.18516E-03  0.39727E-03 -0.94696E-02
 -0.17840E-03  0.16508E-02 -0.94789E-02
  0.13579E-02  0.31991E-02 -0.93784E-02
  0.16119E-02  0.39605E-02 -0.93199E-02
  0.24730E-02  0.33673E-02 -0.93174E-02
  0.59819E-03  0.30638E-02 -0.94242E-02
  0.57993E-03  0.41342E-02 -0.93506E-02
 -0.10916E-02 -0.14942E-02 -0.94463E-02
 -0.12395E-02  0.60448E-04 -0.94654E-02
  0.65457E-03 -0.10464E-02 -0.94669E-02
 -0.25945E-02 -0.10785E-02 -0.93962E-02
 -0.26204E-02  0.53066E-04 -0.94248E-02
 -0.38085E-02 -0.11437E-02 -0.93080E-02
 -0.39366E-02  0.11617E-04 -0.93318E-02
 -0.35350E-02 -0.21824E-02 -0.92655E-02
 -0.27166E-02 -0.19338E-02 -0.93264E-02
 -0.14202E-02  0.13730E-02 -0.94536E-02
 -0.20266E-02 -0.25122E-02 -0.93311E-02
 -0.44170E-03  0.28507E-02 -0.94409E-02
 -0.15763E-02  0.26051E-02 -0.94149E-02
 -0.26713E-02  0.23877E-02 -0.93671E-02
 -0.26569E-02  0.12357E-02 -0.94077E-02
 -0.23129E-03 -0.28535E-02 -0.93602E-02
 -0.13283E-02 -0.33634E-02 -0.92897E-02
  0.11139E-02 -0.24612E-02 -0.93762E-02
  0.24335E-02 -0.21434E-02 -0.93379E-02
  0.45076E-02  0.10370E-02 -0.92649E-02
  0.39624E-02  0.17098E-02 -0.92839E-02
  0.32625E-02  0.25729E-02 -0.93193E-02
 -0.56468E-03  0.40703E-02 -0.93461E-02
 -0.17102E-02  0.38019E-02 -0.93375E-02
 -0.27478E-02  0.34349E-02 -0.93230E-02
 -0.35218E-02  0.31104E-02 -0.92984E-02
 -0.37033E-02  0.22810E-02 -0.93105E-02
 -0.38888E-02  0.11868E-02 -0.93293E-02
 -0.29417E-02 -0.30504E-02 -0.92610E-02
 -0.22415E-02 -0.38203E-02 -0.92404E-02
 -0.16686E-02 -0.44113E-02 -0.92101E-02
 -0.83133E-03 -0.42950E-02 -0.92363E-02
  0.27880E-03 -0.40621E-02 -0.92644E-02
  0.14809E-02 -0.37300E-02 -0.92643E-02
  0.25842E-02 -0.33498E-02 -0.92464E-02
  0.34268E-02 -0.30350E-02 -0.92405E-02
  0.36379E-02 -0.21564E-02 -0.92860E-02
  0.53059E-02  0.12675E-02 -0.92738E-02
  0.54445E-02 -0.25167E-04 -0.92924E-02
  0.48424E-02  0.25013E-02 -0.92813E-02
  0.40911E-02  0.35804E-02 -0.93035E-02
  0.31181E-02  0.44610E-02 -0.92978E-02
  0.19745E-02  0.50953E-02 -0.93065E-02
  0.67961E-03  0.54358E-02 -0.93101E-02
 -0.66372E-03  0.54361E-02 -0.93012E-02
 -0.19535E-02  0.51046E-02 -0.93011E-02
 -0.31224E-02  0.44817E-02 -0.92989E-02
 -0.41059E-02  0.36138E-02 -0.92854E-02
 -0.48234E-02  0.25231E-02 -0.92996E-02
 -0.52927E-02  0.12843E-02 -0.92964E-02
 -0.54386E-02 -0.40886E-04 -0.92863E-02
 -0.52538E-02 -0.13462E-02 -0.92853E-02
 -0.47832E-02 -0.25586E-02 -0.92727E-02
 -0.40410E-02 -0.36369E-02 -0.92679E-02
 -0.30697E-02 -0.45205E-02 -0.92386E-02
 -0.19223E-02 -0.51131E-02 -0.92134E-02
 -0.64048E-03 -0.54156E-02 -0.92350E-02
  0.65835E-03 -0.54091E-02 -0.92647E-02
  0.19187E-02 -0.50868E-02 -0.92676E-02
  0.30821E-02 -0.44923E-02 -0.92512E-02
  0.40599E-02 -0.36338E-02 -0.92536E-02
  0.48013E-02 -0.25551E-02 -0.92771E-02
  0.52668E-02 -0.13174E-02 -0.92965E-02
  0.14559E-02  0.92509E-03 -0.89599E-02
  0.24363E-02  0.16778E-02 -0.88795E-02
  0.32252E-02  0.79712E-03 -0.88196E-02
  0.23276E-02 -0.48548E-03 -0.89117E-02
  0.41799E-02  0.19204E-03 -0.87591E-02
  0.38217E-02 -0.94889E-03 -0.87900E-02
  0.17934E-02  0.25273E-02 -0.88863E-02
  0.92149E-03  0.20285E-02 -0.89667E-02
  0.17705E-03  0.41881E-03 -0.89889E-02
 -0.17607E-03  0.16399E-02 -0.89943E-02
  0.13200E-02  0.31339E-02 -0.88719E-02
  0.15636E-02  0.38723E-02 -0.87997E-02
  0.24050E-02  0.33002E-02 -0.87980E-02
  0.58210E-03  0.30016E-02 -0.89260E-02
  0.56036E-03  0.40348E-02 -0.88389E-02
 -0.10686E-02 -0.14388E-02 -0.89573E-02
 -0.12137E-02  0.87996E-04 -0.89816E-02
  0.63914E-03 -0.99779E-03 -0.89820E-02
 -0.25486E-02 -0.10382E-02 -0.88938E-02
 -0.25687E-02  0.71260E-04 -0.89276E-02
 -0.37461E-02 -0.11111E-02 -0.87785E-02
 -0.38630E-02  0.23331E-04 -0.88097E-02
 -0.34770E-02 -0.21308E-02 -0.87309E-02
 -0.26711E-02 -0.18823E-02 -0.88116E-02
 -0.13883E-02  0.13675E-02 -0.89636E-02
 -0.19920E-02 -0.24522E-02 -0.88195E-02
 -0.43066E-03  0.27991E-02 -0.89458E-02
 -0.15397E-02  0.25599E-02 -0.89155E-02
 -0.26117E-02  0.23445E-02 -0.88599E-02
 -0.25998E-02  0.12263E-02 -0.89083E-02
 -0.22900E-03 -0.27860E-02 -0.88589E-02
 -0.13102E-02 -0.32960E-02 -0.87702E-02
  0.10918E-02 -0.23991E-02 -0.88777E-02
  0.23894E-02 -0.20942E-02 -0.88270E-02
  0.44153E-02  0.10252E-02 -0.87235E-02
  0.38764E-02  0.16830E-02 -0.87540E-02
  0.31823E-02  0.25250E-02 -0.87997E-02
 -0.55432E-03  0.39724E-02 -0.88379E-02
 -0.16718E-02  0.37131E-02 -0.88234E-02
 -0.26826E-02  0.33544E-02 -0.88010E-02
 -0.34350E-02  0.30363E-02 -0.87670E-02
 -0.36183E-02  0.22352E-02 -0.87842E-02
 -0.38064E-02  0.11729E-02 -0.88086E-02
 -0.28922E-02 -0.29842E-02 -0.87278E-02
 -0.22060E-02 -0.37446E-02 -0.87021E-02
 -0.16427E-02 -0.43249E-02 -0.86620E-02
 -0.82237E-03 -0.42137E-02 -0.86985E-02
  0.26933E-03 -0.39838E-02 -0.87391E-02
  0.14518E-02 -0.36569E-02 -0.87404E-02
  0.25371E-02 -0.32847E-02 -0.87141E-02
  0.33647E-02 -0.29739E-02 -0.87006E-02
  0.35719E-02 -0.21075E-02 -0.87562E-02
  0.51824E-02  0.12433E-02 -0.87192E-02
  0.53201E-02 -0.22530E-04 -0.87393E-02
  0.47232E-02  0.24482E-02 -0.87386E-02
  0.39826E-02  0.34969E-02 -0.87695E-02
  0.30315E-02  0.43515E-02 -0.87600E-02
  0.19129E-02  0.49661E-02 -0.87650E-02
  0.65005E-03  0.52870E-02 -0.87749E-02
 -0.65574E-03  0.52804E-02 -0.87710E-02
 -0.19086E-02  0.49568E-02 -0.87600E-02
 -0.30372E-02  0.43521E-02 -0.87523E-02
 -0.39903E-02  0.35121E-02 -0.87392E-02
 -0.46967E-02  0.24589E-02 -0.87432E-02
 -0.51636E-02  0.12591E-02 -0.87467E-02
 -0.53162E-02 -0.30804E-04 -0.87366E-02
 -0.51447E-02 -0.13087E-02 -0.87305E-02
 -0.46842E-02 -0.24975E-02 -0.87161E-02
 -0.39548E-02 -0.35477E-02 -0.87171E-02
 -0.30070E-02 -0.44097E-02 -0.86864E-02
 -0.18811E-02 -0.49932E-02 -0.86486E-02
 -0.62266E-03 -0.52909E-02 -0.86725E-02
  0.64336E-03 -0.52849E-02 -0.87085E-02
  0.18705E-02 -0.49725E-02 -0.87143E-02
  0.30100E-02 -0.43927E-02 -0.86955E-02
  0.39739E-02 -0.35486E-02 -0.86994E-02
  0.46968E-02 -0.24893E-02 -0.87332E-02
  0.51477E-02 -0.12846E-02 -0.87533E-02
  0.14061E-02  0.91408E-03 -0.84402E-02
  0.23618E-02  0.16515E-02 -0.83536E-02
  0.31384E-02  0.79369E-03 -0.82903E-02
  0.22542E-02 -0.45312E-03 -0.83924E-02
  0.40874E-02  0.19911E-03 -0.82165E-02
  0.37335E-02 -0.91546E-03 -0.82530E-02
  0.17362E-02  0.24738E-02 -0.83550E-02
  0.89044E-03  0.19805E-02 -0.84440E-02
  0.17046E-03  0.42129E-03 -0.84713E-02
 -0.16913E-03  0.16022E-02 -0.84779E-02
  0.12768E-02  0.30609E-02 -0.83366E-02
  0.15155E-02  0.37874E-02 -0.82597E-02
  0.23371E-02  0.32368E-02 -0.82592E-02
  0.56264E-03  0.29244E-02 -0.83982E-02
  0.54033E-03  0.39383E-02 -0.83052E-02
 -0.10307E-02 -0.13743E-02 -0.84410E-02
 -0.11689E-02  0.99786E-04 -0.84652E-02
  0.61540E-03 -0.94492E-03 -0.84645E-02
 -0.24690E-02 -0.99122E-03 -0.83751E-02
 -0.24848E-02  0.83963E-04 -0.84113E-02
 -0.36621E-02 -0.10719E-02 -0.82484E-02
 -0.37690E-02  0.36505E-04 -0.82826E-02
 -0.34035E-02 -0.20691E-02 -0.81934E-02
 -0.25984E-02 -0.18133E-02 -0.82877E-02
 -0.13407E-02  0.13410E-02 -0.84448E-02
 -0.19369E-02 -0.23673E-02 -0.82981E-02
 -0.41562E-03  0.27281E-02 -0.84235E-02
 -0.14917E-02  0.25003E-02 -0.83901E-02
 -0.25395E-02  0.22978E-02 -0.83298E-02
 -0.25200E-02  0.12084E-02 -0.83872E-02
 -0.22314E-03 -0.26879E-02 -0.83444E-02
 -0.12794E-02 -0.31990E-02 -0.82444E-02
  0.10566E-02 -0.23110E-02 -0.83624E-02
  0.23233E-02 -0.20263E-02 -0.83036E-02
  0.43213E-02  0.10173E-02 -0.81742E-02
  0.37844E-02  0.16605E-02 -0.82121E-02
  0.30982E-02  0.24819E-02 -0.82633E-02
 -0.53955E-03  0.38757E-02 -0.83088E-02
 -0.16263E-02  0.36269E-02 -0.82916E-02
 -0.26150E-02  0.32827E-02 -0.82621E-02
 -0.33561E-02  0.29779E-02 -0.82232E-02
 -0.35342E-02  0.21977E-02 -0.82472E-02
 -0.37137E-02  0.11608E-02 -0.82787E-02
 -0.28311E-02 -0.29046E-02 -0.81852E-02
 -0.21639E-02 -0.36546E-02 -0.81521E-02
 -0.16153E-02 -0.42304E-02 -0.81041E-02
 -0.80681E-03 -0.41133E-02 -0.81552E-02
  0.26328E-03 -0.38808E-02 -0.82073E-02
  0.14166E-02 -0.35613E-02 -0.82089E-02
  0.24796E-02 -0.32046E-02 -0.81746E-02
  0.32968E-02 -0.29073E-02 -0.81518E-02
  0.34938E-02 -0.20520E-02 -0.82155E-02
  0.50785E-02  0.12314E-02 -0.81558E-02
  0.52165E-02 -0.18462E-04 -0.81822E-02
  0.46197E-02  0.24073E-02 -0.81772E-02
  0.38928E-02  0.34280E-02 -0.82122E-02
  0.29620E-02  0.42615E-02 -0.82068E-02
  0.18621E-02  0.48596E-02 -0.82170E-02
  0.62747E-03  0.51673E-02 -0.82357E-02
 -0.63947E-03  0.51597E-02 -0.82340E-02
 -0.18595E-02  0.48473E-02 -0.82253E-02
 -0.29662E-02  0.42580E-02 -0.82078E-02
 -0.39053E-02  0.34423E-02 -0.81879E-02
 -0.46092E-02  0.24116E-02 -0.81977E-02
 -0.50726E-02  0.12350E-02 -0.82009E-02
 -0.52308E-02 -0.27603E-04 -0.81883E-02
 -0.50687E-02 -0.12851E-02 -0.81798E-02
 -0.46093E-02 -0.24546E-02 -0.81565E-02
 -0.38885E-02 -0.34806E-02 -0.81481E-02
 -0.29618E-02 -0.43198E-02 -0.81037E-02
 -0.18575E-02 -0.48964E-02 -0.80623E-02
 -0.61593E-03 -0.51921E-02 -0.80981E-02
  0.62962E-03 -0.51850E-02 -0.81415E-02
  0.18332E-02 -0.48793E-02 -0.81504E-02
  0.29513E-02 -0.43102E-02 -0.81261E-02
  0.39038E-02 -0.34788E-02 -0.81264E-02
  0.46131E-02 -0.24397E-02 -0.81705E-02
  0.50505E-02 -0.12617E-02 -0.81978E-02
  0.13671E-02  0.89902E-03 -0.78928E-02
  0.22972E-02  0.16224E-02 -0.78039E-02
  0.30582E-02  0.78319E-03 -0.77416E-02
  0.21963E-02 -0.43487E-03 -0.78495E-02
  0.39898E-02  0.19800E-03 -0.76540E-02
  0.36433E-02 -0.88657E-03 -0.76984E-02
  0.16853E-02  0.24195E-02 -0.77983E-02
  0.86103E-03  0.19351E-02 -0.78892E-02
  0.15850E-03  0.41622E-03 -0.79259E-02
 -0.17254E-03  0.15704E-02 -0.79305E-02
  0.12372E-02  0.29894E-02 -0.77759E-02
  0.14730E-02  0.37061E-02 -0.76942E-02
  0.22731E-02  0.31726E-02 -0.76966E-02
  0.54233E-03  0.28530E-02 -0.78398E-02
  0.52423E-03  0.38528E-02 -0.77425E-02
 -0.10109E-02 -0.13398E-02 -0.78894E-02
 -0.11504E-02  0.10166E-03 -0.79183E-02
  0.59393E-03 -0.92116E-03 -0.79168E-02
 -0.24066E-02 -0.95849E-03 -0.78252E-02
 -0.24277E-02  0.87312E-04 -0.78638E-02
 -0.35650E-02 -0.10319E-02 -0.76954E-02
 -0.36722E-02  0.43371E-04 -0.77324E-02
 -0.33151E-02 -0.19988E-02 -0.76380E-02
 -0.25308E-02 -0.17534E-02 -0.77388E-02
 -0.13178E-02  0.13176E-02 -0.78996E-02
 -0.18882E-02 -0.22928E-02 -0.77507E-02
 -0.40828E-03  0.26671E-02 -0.78702E-02
 -0.14589E-02  0.24494E-02 -0.78384E-02
 -0.24851E-02  0.22524E-02 -0.77744E-02
 -0.24672E-02  0.11855E-02 -0.78387E-02
 -0.22038E-03 -0.26107E-02 -0.77995E-02
 -0.12463E-02 -0.30988E-02 -0.76973E-02
  0.10250E-02 -0.22468E-02 -0.78189E-02
  0.22629E-02 -0.19674E-02 -0.77596E-02
  0.42208E-02  0.10003E-02 -0.76036E-02
  0.36916E-02  0.16324E-02 -0.76502E-02
  0.30175E-02  0.24367E-02 -0.77041E-02
 -0.52679E-03  0.37956E-02 -0.77486E-02
 -0.15872E-02  0.35555E-02 -0.77278E-02
 -0.25544E-02  0.32184E-02 -0.76915E-02
 -0.32805E-02  0.29204E-02 -0.76468E-02
 -0.34562E-02  0.21547E-02 -0.76824E-02
 -0.36265E-02  0.11392E-02 -0.77238E-02
 -0.27591E-02 -0.28095E-02 -0.76302E-02
 -0.21080E-02 -0.35388E-02 -0.75931E-02
 -0.15706E-02 -0.41023E-02 -0.75398E-02
 -0.78043E-03 -0.39877E-02 -0.75994E-02
  0.26013E-03 -0.37658E-02 -0.76561E-02
  0.13797E-02 -0.34602E-02 -0.76572E-02
  0.24154E-02 -0.31149E-02 -0.76187E-02
  0.32154E-02 -0.28269E-02 -0.75893E-02
  0.34084E-02 -0.19918E-02 -0.76603E-02
  0.49690E-02  0.12079E-02 -0.75587E-02
  0.51006E-02 -0.16161E-04 -0.75906E-02
  0.45164E-02  0.23619E-02 -0.75872E-02
  0.38020E-02  0.33648E-02 -0.76262E-02
  0.28910E-02  0.41815E-02 -0.76201E-02
  0.18178E-02  0.47684E-02 -0.76254E-02
  0.61193E-03  0.50703E-02 -0.76447E-02
 -0.62990E-03  0.50658E-02 -0.76448E-02
 -0.18238E-02  0.47565E-02 -0.76333E-02
 -0.28997E-02  0.41765E-02 -0.76042E-02
 -0.38181E-02  0.33778E-02 -0.75861E-02
 -0.45079E-02  0.23668E-02 -0.75995E-02
 -0.49585E-02  0.12142E-02 -0.76159E-02
 -0.51036E-02 -0.18462E-04 -0.76083E-02
 -0.49443E-02 -0.12399E-02 -0.75933E-02
 -0.44987E-02 -0.23790E-02 -0.75661E-02
 -0.37987E-02 -0.33802E-02 -0.75616E-02
 -0.28965E-02 -0.41979E-02 -0.75148E-02
 -0.18120E-02 -0.47648E-02 -0.74737E-02
 -0.59767E-03 -0.50537E-02 -0.75104E-02
  0.61734E-03 -0.50500E-02 -0.75534E-02
  0.17908E-02 -0.47560E-02 -0.75637E-02
  0.28795E-02 -0.42011E-02 -0.75387E-02
  0.38126E-02 -0.33886E-02 -0.75394E-02
  0.45092E-02 -0.23757E-02 -0.75878E-02
  0.49373E-02 -0.12286E-02 -0.76148E-02
  0.13333E-02  0.87940E-03 -0.73162E-02
  0.22400E-02  0.15856E-02 -0.72256E-02
  0.29839E-02  0.76735E-03 -0.71667E-02
  0.21471E-02 -0.42065E-03 -0.72741E-02
  0.38939E-02  0.19520E-03 -0.70715E-02
  0.35588E-02 -0.86093E-03 -0.71137E-02
  0.16413E-02  0.23640E-02 -0.72143E-02
  0.83511E-03  0.18905E-02 -0.73055E-02
  0.15521E-03  0.41201E-03 -0.73546E-02
 -0.17138E-03  0.15349E-02 -0.73560E-02
  0.12022E-02  0.29219E-02 -0.71910E-02
  0.14339E-02  0.36211E-02 -0.71122E-02
  0.22168E-02  0.30992E-02 -0.71136E-02
  0.52326E-03  0.27870E-02 -0.72563E-02
  0.50671E-03  0.37652E-02 -0.71647E-02
 -0.98690E-03 -0.12968E-02 -0.73072E-02
 -0.11240E-02  0.10898E-03 -0.73443E-02
  0.58376E-03 -0.89153E-03 -0.73427E-02
 -0.23541E-02 -0.92450E-03 -0.72412E-02
 -0.23747E-02  0.91588E-04 -0.72844E-02
 -0.34842E-02 -0.10003E-02 -0.71111E-02
 -0.35896E-02  0.43508E-04 -0.71508E-02
 -0.32374E-02 -0.19396E-02 -0.70508E-02
 -0.24737E-02 -0.16996E-02 -0.71529E-02
 -0.12870E-02  0.12888E-02 -0.73279E-02
 -0.18446E-02 -0.22263E-02 -0.71640E-02
 -0.40087E-03  0.26040E-02 -0.72935E-02
 -0.14237E-02  0.23890E-02 -0.72644E-02
 -0.24279E-02  0.21957E-02 -0.71977E-02
 -0.24115E-02  0.11573E-02 -0.72630E-02
 -0.21422E-03 -0.25405E-02 -0.72183E-02
 -0.12156E-02 -0.30131E-02 -0.71127E-02
  0.10026E-02 -0.21884E-02 -0.72420E-02
  0.22127E-02 -0.19159E-02 -0.71817E-02
  0.41177E-02  0.98093E-03 -0.70218E-02
  0.36015E-02  0.15976E-02 -0.70720E-02
  0.29440E-02  0.23801E-02 -0.71233E-02
 -0.51580E-03  0.37092E-02 -0.71749E-02
 -0.15487E-02  0.34753E-02 -0.71526E-02
 -0.24959E-02  0.31439E-02 -0.71112E-02
 -0.32086E-02  0.28517E-02 -0.70654E-02
 -0.33800E-02  0.21008E-02 -0.71044E-02
 -0.35451E-02  0.11092E-02 -0.71457E-02
 -0.26928E-02 -0.27286E-02 -0.70397E-02
 -0.20548E-02 -0.34386E-02 -0.70031E-02
 -0.15284E-02 -0.39878E-02 -0.69512E-02
 -0.75813E-03 -0.38787E-02 -0.70143E-02
  0.25524E-03 -0.36656E-02 -0.70713E-02
  0.13466E-02 -0.33709E-02 -0.70736E-02
  0.23576E-02 -0.30333E-02 -0.70339E-02
  0.31382E-02 -0.27492E-02 -0.69997E-02
  0.33288E-02 -0.19355E-02 -0.70741E-02
  0.48436E-02  0.11815E-02 -0.69610E-02
  0.49748E-02 -0.17228E-04 -0.69916E-02
  0.44058E-02  0.23136E-02 -0.69903E-02
  0.37109E-02  0.32912E-02 -0.70291E-02
  0.28203E-02  0.40850E-02 -0.70259E-02
  0.17712E-02  0.46565E-02 -0.70382E-02
  0.59227E-03  0.49583E-02 -0.70685E-02
 -0.61902E-03  0.49579E-02 -0.70708E-02
 -0.17826E-02  0.46574E-02 -0.70581E-02
 -0.28382E-02  0.40892E-02 -0.70205E-02
 -0.37377E-02  0.33018E-02 -0.70010E-02
 -0.44106E-02  0.23097E-02 -0.70205E-02
 -0.48384E-02  0.11860E-02 -0.70345E-02
 -0.49761E-02 -0.86478E-05 -0.70210E-02
 -0.48222E-02 -0.11986E-02 -0.70016E-02
 -0.43855E-02 -0.23087E-02 -0.69701E-02
 -0.37049E-02 -0.32837E-02 -0.69589E-02
 -0.28265E-02 -0.40768E-02 -0.69114E-02
 -0.17647E-02 -0.46322E-02 -0.68752E-02
 -0.57918E-03 -0.49182E-02 -0.69150E-02
  0.60556E-03 -0.49151E-02 -0.69549E-02
  0.17492E-02 -0.46300E-02 -0.69626E-02
  0.28085E-02 -0.40873E-02 -0.69351E-02
  0.37172E-02 -0.32918E-02 -0.69330E-02
  0.43976E-02 -0.23068E-02 -0.69856E-02
  0.48175E-02 -0.11944E-02 -0.70160E-02
  0.12830E-02  0.86082E-03 -0.67095E-02
  0.21631E-02  0.15461E-02 -0.66195E-02
  0.28896E-02  0.75307E-03 -0.65629E-02
  0.20775E-02 -0.39804E-03 -0.66739E-02
  0.37824E-02  0.19619E-03 -0.64563E-02
  0.34600E-02 -0.82983E-03 -0.65002E-02
  0.15824E-02  0.22995E-02 -0.66037E-02
  0.80034E-03  0.18392E-02 -0.66910E-02
  0.14952E-03  0.41072E-03 -0.67477E-02
 -0.16611E-03  0.14938E-02 -0.67423E-02
  0.11565E-02  0.28389E-02 -0.65769E-02
  0.13827E-02  0.35158E-02 -0.64944E-02
  0.21456E-02  0.30150E-02 -0.65009E-02
  0.49979E-03  0.27058E-02 -0.66400E-02
  0.48388E-03  0.36497E-02 -0.65454E-02
 -0.95315E-03 -0.12387E-02 -0.67027E-02
 -0.10812E-02  0.12119E-03 -0.67365E-02
  0.56561E-03 -0.84815E-03 -0.67415E-02
 -0.22829E-02 -0.87871E-03 -0.66346E-02
 -0.22950E-02  0.10523E-03 -0.66773E-02
 -0.33902E-02 -0.95798E-03 -0.64952E-02
 -0.34837E-02  0.55825E-04 -0.65365E-02
 -0.31543E-02 -0.18731E-02 -0.64342E-02
 -0.24046E-02 -0.16342E-02 -0.65463E-02
 -0.12368E-02  0.12574E-02 -0.67187E-02
 -0.17915E-02 -0.21476E-02 -0.65585E-02
 -0.38890E-03  0.25265E-02 -0.66805E-02
 -0.13725E-02  0.23167E-02 -0.66574E-02
 -0.23428E-02  0.21324E-02 -0.65927E-02
 -0.23255E-02  0.11339E-02 -0.66576E-02
 -0.20652E-03 -0.24546E-02 -0.66143E-02
 -0.11811E-02 -0.29190E-02 -0.65046E-02
  0.97320E-03 -0.21134E-02 -0.66428E-02
  0.21496E-02 -0.18534E-02 -0.65811E-02
  0.39996E-02  0.96119E-03 -0.64028E-02
  0.34934E-02  0.15595E-02 -0.64600E-02
  0.28526E-02  0.23177E-02 -0.65126E-02
 -0.50150E-03  0.35939E-02 -0.65592E-02
 -0.14978E-02  0.33686E-02 -0.65417E-02
 -0.24127E-02  0.30467E-02 -0.64996E-02
 -0.31036E-02  0.27636E-02 -0.64465E-02
 -0.32704E-02  0.20423E-02 -0.64896E-02
 -0.34331E-02  0.10872E-02 -0.65320E-02
 -0.26227E-02 -0.26433E-02 -0.64240E-02
 -0.19996E-02 -0.33383E-02 -0.63871E-02
 -0.14873E-02 -0.38770E-02 -0.63314E-02
 -0.73724E-03 -0.37687E-02 -0.63972E-02
  0.24877E-03 -0.35593E-02 -0.64575E-02
  0.13104E-02 -0.32743E-02 -0.64639E-02
  0.22954E-02 -0.29468E-02 -0.64225E-02
  0.30578E-02 -0.26701E-02 -0.63801E-02
  0.32409E-02 -0.18752E-02 -0.64590E-02
  0.47073E-02  0.11533E-02 -0.63153E-02
  0.48392E-02 -0.15550E-04 -0.63425E-02
  0.42782E-02  0.22566E-02 -0.63520E-02
  0.36020E-02  0.32045E-02 -0.63949E-02
  0.27348E-02  0.39741E-02 -0.63884E-02
  0.17080E-02  0.45206E-02 -0.63947E-02
  0.56681E-03  0.47969E-02 -0.64262E-02
 -0.59551E-03  0.47941E-02 -0.64263E-02
 -0.17156E-02  0.45091E-02 -0.64106E-02
 -0.27397E-02  0.39566E-02 -0.63705E-02
 -0.36134E-02  0.31899E-02 -0.63504E-02
 -0.42707E-02  0.22315E-02 -0.63642E-02
 -0.46914E-02  0.11524E-02 -0.63796E-02
 -0.48365E-02  0.28819E-05 -0.63708E-02
 -0.46947E-02 -0.11533E-02 -0.63473E-02
 -0.42761E-02 -0.22373E-02 -0.63169E-02
 -0.36149E-02 -0.31893E-02 -0.63136E-02
 -0.27549E-02 -0.39626E-02 -0.62757E-02
 -0.17196E-02 -0.45094E-02 -0.62417E-02
 -0.56335E-03 -0.47872E-02 -0.62771E-02
  0.59356E-03 -0.47828E-02 -0.63117E-02
  0.17074E-02 -0.45093E-02 -0.63168E-02
  0.27387E-02 -0.39805E-02 -0.62924E-02
  0.36250E-02 -0.32008E-02 -0.62906E-02
  0.42887E-02 -0.22416E-02 -0.63421E-02
  0.46919E-02 -0.11611E-02 -0.63698E-02
  0.12343E-02  0.83254E-03 -0.60543E-02
  0.20866E-02  0.15005E-02 -0.59748E-02
  0.27848E-02  0.73515E-03 -0.59256E-02
  0.19986E-02 -0.37712E-03 -0.60294E-02
  0.36541E-02  0.19839E-03 -0.58202E-02
  0.33430E-02 -0.79339E-03 -0.58613E-02
  0.15292E-02  0.22271E-02 -0.59544E-02
  0.76868E-03  0.17782E-02 -0.60324E-02
  0.14340E-03  0.39718E-03 -0.60862E-02
 -0.16417E-03  0.14461E-02 -0.60816E-02
  0.11176E-02  0.27503E-02 -0.59255E-02
  0.13410E-02  0.34135E-02 -0.58465E-02
  0.20802E-02  0.29291E-02 -0.58559E-02
  0.47856E-03  0.26207E-02 -0.59840E-02
  0.46700E-03  0.35446E-02 -0.58937E-02
 -0.91442E-03 -0.11851E-02 -0.60486E-02
 -0.10397E-02  0.12381E-03 -0.60775E-02
  0.54421E-03 -0.81178E-03 -0.60853E-02
 -0.21958E-02 -0.83536E-03 -0.59880E-02
 -0.22105E-02  0.11418E-03 -0.60279E-02
 -0.32718E-02 -0.91512E-03 -0.58550E-02
 -0.33642E-02  0.65694E-04 -0.58961E-02
 -0.30456E-02 -0.18004E-02 -0.57957E-02
 -0.23151E-02 -0.15648E-02 -0.59058E-02
 -0.11953E-02  0.12226E-02 -0.60613E-02
 -0.17241E-02 -0.20587E-02 -0.59169E-02
 -0.38212E-03  0.24508E-02 -0.60256E-02
 -0.13313E-02  0.22502E-02 -0.60054E-02
 -0.22681E-02  0.20750E-02 -0.59432E-02
 -0.22463E-02  0.11080E-02 -0.60081E-02
 -0.19666E-03 -0.23550E-02 -0.59706E-02
 -0.11380E-02 -0.28031E-02 -0.58648E-02
  0.93700E-03 -0.20281E-02 -0.60008E-02
  0.20709E-02 -0.17798E-02 -0.59441E-02
  0.38673E-02  0.94276E-03 -0.57675E-02
  0.33756E-02  0.15208E-02 -0.58229E-02
  0.27603E-02  0.22545E-02 -0.58700E-02
 -0.49057E-03  0.34923E-02 -0.59102E-02
 -0.14559E-02  0.32762E-02 -0.58965E-02
 -0.23402E-02  0.29659E-02 -0.58527E-02
 -0.30104E-02  0.26938E-02 -0.57997E-02
 -0.31687E-02  0.19913E-02 -0.58458E-02
 -0.33207E-02  0.10646E-02 -0.58915E-02
 -0.25331E-02 -0.25424E-02 -0.57836E-02
 -0.19333E-02 -0.32132E-02 -0.57461E-02
 -0.14403E-02 -0.37379E-02 -0.56922E-02
 -0.71228E-03 -0.36307E-02 -0.57594E-02
  0.24251E-03 -0.34281E-02 -0.58192E-02
  0.12672E-02 -0.31541E-02 -0.58272E-02
  0.22181E-02 -0.28400E-02 -0.57868E-02
  0.29577E-02 -0.25752E-02 -0.57405E-02
  0.31323E-02 -0.18035E-02 -0.58200E-02
  0.45675E-02  0.11367E-02 -0.56698E-02
  0.46986E-02 -0.16115E-05 -0.56926E-02
  0.41531E-02  0.22075E-02 -0.57022E-02
  0.34987E-02  0.31261E-02 -0.57400E-02
  0.26577E-02  0.38739E-02 -0.57377E-02
  0.16585E-02  0.44122E-02 -0.57475E-02
  0.55381E-03  0.46862E-02 -0.57776E-02
 -0.57591E-03  0.46848E-02 -0.57752E-02
 -0.16686E-02  0.44069E-02 -0.57653E-02
 -0.26677E-02  0.38708E-02 -0.57258E-02
 -0.35203E-02  0.31218E-02 -0.57033E-02
 -0.41649E-02  0.21865E-02 -0.57183E-02
 -0.45728E-02  0.11297E-02 -0.57316E-02
 -0.47084E-02  0.81304E-05 -0.57222E-02
 -0.45678E-02 -0.11130E-02 -0.56974E-02
 -0.41572E-02 -0.21667E-02 -0.56670E-02
 -0.35105E-02 -0.30883E-02 -0.56606E-02
 -0.26759E-02 -0.38346E-02 -0.56234E-02
 -0.16710E-02 -0.43641E-02 -0.55978E-02
 -0.55109E-03 -0.46387E-02 -0.56328E-02
  0.57537E-03 -0.46379E-02 -0.56623E-02
  0.16600E-02 -0.43691E-02 -0.56635E-02
  0.26612E-02 -0.38559E-02 -0.56399E-02
  0.35170E-02 -0.30981E-02 -0.56352E-02
  0.41636E-02 -0.21676E-02 -0.56846E-02
  0.45586E-02 -0.11195E-02 -0.57144E-02
  0.11930E-02  0.80960E-03 -0.53538E-02
  0.20135E-02  0.14557E-02 -0.52849E-02
  0.26836E-02  0.71491E-03 -0.52399E-02
  0.19306E-02 -0.35831E-03 -0.53351E-02
  0.35210E-02  0.19747E-03 -0.51360E-02
  0.32257E-02 -0.75745E-03 -0.51750E-02
  0.14752E-02  0.21570E-02 -0.52661E-02
  0.73892E-03  0.17227E-02 -0.53325E-02
  0.13897E-03  0.39036E-03 -0.53805E-02
 -0.16157E-03  0.14024E-02 -0.53768E-02
  0.10751E-02  0.26602E-02 -0.52385E-02
  0.12910E-02  0.32996E-02 -0.51608E-02
  0.20070E-02  0.28355E-02 -0.51706E-02
  0.45646E-03  0.25332E-02 -0.52899E-02
  0.44696E-03  0.34230E-02 -0.52033E-02
 -0.88507E-03 -0.11342E-02 -0.53486E-02
 -0.10067E-02  0.13017E-03 -0.53730E-02
  0.52870E-03 -0.77722E-03 -0.53823E-02
 -0.21253E-02 -0.79277E-03 -0.52934E-02
 -0.21378E-02  0.12177E-03 -0.53289E-02
 -0.31583E-02 -0.87006E-03 -0.51662E-02
 -0.32441E-02  0.73050E-04 -0.52049E-02
 -0.29443E-02 -0.17259E-02 -0.51107E-02
 -0.22410E-02 -0.14986E-02 -0.52184E-02
 -0.11561E-02  0.11882E-02 -0.53594E-02
 -0.16684E-02 -0.19765E-02 -0.52283E-02
 -0.37238E-03  0.23693E-02 -0.53277E-02
 -0.12848E-02  0.21771E-02 -0.53103E-02
 -0.21885E-02  0.20092E-02 -0.52521E-02
 -0.21708E-02  0.10769E-02 -0.53118E-02
 -0.18717E-03 -0.22645E-02 -0.52777E-02
 -0.10982E-02 -0.26962E-02 -0.51788E-02
  0.90681E-03 -0.19499E-02 -0.53085E-02
  0.19992E-02 -0.17091E-02 -0.52583E-02
  0.37250E-02  0.91681E-03 -0.50861E-02
  0.32520E-02  0.14742E-02 -0.51400E-02
  0.26630E-02  0.21840E-02 -0.51833E-02
 -0.47519E-03  0.33698E-02 -0.52173E-02
 -0.14036E-02  0.31644E-02 -0.52045E-02
 -0.22546E-02  0.28688E-02 -0.51629E-02
 -0.29006E-02  0.26062E-02 -0.51113E-02
 -0.30556E-02  0.19270E-02 -0.51563E-02
 -0.32020E-02  0.10330E-02 -0.52006E-02
 -0.24499E-02 -0.24441E-02 -0.50997E-02
 -0.18679E-02 -0.30940E-02 -0.50645E-02
 -0.13898E-02 -0.36035E-02 -0.50139E-02
 -0.68473E-03 -0.34978E-02 -0.50785E-02
  0.23736E-03 -0.33014E-02 -0.51351E-02
  0.12247E-02 -0.30362E-02 -0.51443E-02
  0.21407E-02 -0.27315E-02 -0.51072E-02
  0.28545E-02 -0.24765E-02 -0.50607E-02
  0.30229E-02 -0.17306E-02 -0.51377E-02
  0.44055E-02  0.11059E-02 -0.49826E-02
  0.45341E-02  0.83693E-05 -0.50000E-02
  0.40106E-02  0.21410E-02 -0.50152E-02
  0.33796E-02  0.30320E-02 -0.50471E-02
  0.25614E-02  0.37530E-02 -0.50417E-02
  0.15922E-02  0.42637E-02 -0.50471E-02
  0.53116E-03  0.45222E-02 -0.50756E-02
 -0.55391E-03  0.45167E-02 -0.50754E-02
 -0.16041E-02  0.42493E-02 -0.50622E-02
 -0.25653E-02  0.37383E-02 -0.50270E-02
 -0.33867E-02  0.30143E-02 -0.50116E-02
 -0.40061E-02  0.21100E-02 -0.50233E-02
 -0.44011E-02  0.10935E-02 -0.50407E-02
 -0.45362E-02  0.17176E-04 -0.50300E-02
 -0.44048E-02 -0.10580E-02 -0.50013E-02
 -0.40184E-02 -0.20747E-02 -0.49720E-02
 -0.34002E-02 -0.29729E-02 -0.49713E-02
 -0.25917E-02 -0.37028E-02 -0.49432E-02
 -0.16146E-02 -0.42163E-02 -0.49207E-02
 -0.53070E-03 -0.44788E-02 -0.49498E-02
  0.55888E-03 -0.44785E-02 -0.49732E-02
  0.16074E-02 -0.42186E-02 -0.49706E-02
  0.25758E-02 -0.37206E-02 -0.49498E-02
  0.34012E-02 -0.29875E-02 -0.49468E-02
  0.40259E-02 -0.20878E-02 -0.49942E-02
  0.44049E-02 -0.10728E-02 -0.50207E-02
  0.11445E-02  0.78730E-03 -0.45972E-02
  0.19358E-02  0.14123E-02 -0.45391E-02
  0.25804E-02  0.69949E-03 -0.45009E-02
  0.18547E-02 -0.33453E-03 -0.45831E-02
  0.33948E-02  0.20235E-03 -0.44079E-02
  0.31093E-02 -0.71924E-03 -0.44404E-02
  0.14213E-02  0.20856E-02 -0.45204E-02
  0.71022E-03  0.16650E-02 -0.45750E-02
  0.13253E-03  0.38175E-03 -0.46178E-02
 -0.15468E-03  0.13539E-02 -0.46123E-02
  0.10379E-02  0.25687E-02 -0.44941E-02
  0.12483E-02  0.31864E-02 -0.44247E-02
  0.19381E-02  0.27421E-02 -0.44354E-02
  0.44115E-03  0.24443E-02 -0.45368E-02
  0.43325E-03  0.33036E-02 -0.44601E-02
 -0.85307E-03 -0.10800E-02 -0.45951E-02
 -0.96583E-03  0.13331E-03 -0.46099E-02
  0.50709E-03 -0.73668E-03 -0.46228E-02
 -0.20451E-02 -0.75309E-03 -0.45431E-02
 -0.20532E-02  0.12703E-03 -0.45714E-02
 -0.30457E-02 -0.82974E-03 -0.44270E-02
 -0.31249E-02  0.82254E-04 -0.44605E-02
 -0.28435E-02 -0.16602E-02 -0.43803E-02
 -0.21611E-02 -0.14354E-02 -0.44798E-02
 -0.11078E-02  0.11493E-02 -0.45971E-02
 -0.16099E-02 -0.18948E-02 -0.44903E-02
 -0.35644E-03  0.22853E-02 -0.45700E-02
 -0.12330E-02  0.21011E-02 -0.45571E-02
 -0.21039E-02  0.19434E-02 -0.45066E-02
 -0.20843E-02  0.10457E-02 -0.45580E-02
 -0.18008E-03 -0.21699E-02 -0.45325E-02
 -0.10595E-02 -0.25904E-02 -0.44453E-02
  0.87223E-03 -0.18666E-02 -0.45599E-02
  0.19231E-02 -0.16357E-02 -0.45165E-02
  0.35937E-02  0.89835E-03 -0.43654E-02
  0.31337E-02  0.14332E-02 -0.44115E-02
  0.25677E-02  0.21159E-02 -0.44477E-02
 -0.45701E-03  0.32525E-02 -0.44708E-02
 -0.13535E-02  0.30583E-02 -0.44615E-02
 -0.21754E-02  0.27766E-02 -0.44253E-02
 -0.28019E-02  0.25274E-02 -0.43777E-02
 -0.29470E-02  0.18711E-02 -0.44182E-02
 -0.30847E-02  0.10088E-02 -0.44574E-02
 -0.23675E-02 -0.23553E-02 -0.43721E-02
 -0.18050E-02 -0.29839E-02 -0.43408E-02
 -0.13444E-02 -0.34798E-02 -0.42967E-02
 -0.66155E-03 -0.33728E-02 -0.43560E-02
  0.22964E-03 -0.31796E-02 -0.44061E-02
  0.11818E-02 -0.29214E-02 -0.44146E-02
  0.20646E-02 -0.26254E-02 -0.43813E-02
  0.27543E-02 -0.23808E-02 -0.43383E-02
  0.29137E-02 -0.16586E-02 -0.44080E-02
  0.42641E-02  0.10853E-02 -0.42721E-02
  0.43934E-02  0.24589E-04 -0.42847E-02
  0.38799E-02  0.20815E-02 -0.42986E-02
  0.32717E-02  0.29432E-02 -0.43226E-02
  0.24818E-02  0.36415E-02 -0.43175E-02
  0.15433E-02  0.41337E-02 -0.43206E-02
  0.51645E-03  0.43823E-02 -0.43466E-02
 -0.53377E-03  0.43798E-02 -0.43488E-02
 -0.15561E-02  0.41274E-02 -0.43370E-02
 -0.24919E-02  0.36334E-02 -0.43015E-02
 -0.32863E-02  0.29328E-02 -0.42846E-02
 -0.38862E-02  0.20614E-02 -0.42973E-02
 -0.42626E-02  0.10757E-02 -0.43149E-02
 -0.43940E-02  0.33688E-04 -0.43065E-02
 -0.42731E-02 -0.10138E-02 -0.42788E-02
 -0.38995E-02 -0.20073E-02 -0.42544E-02
 -0.32976E-02 -0.28826E-02 -0.42555E-02
 -0.25121E-02 -0.35887E-02 -0.42299E-02
 -0.15696E-02 -0.40858E-02 -0.42126E-02
 -0.52401E-03 -0.43432E-02 -0.42389E-02
  0.53752E-03 -0.43404E-02 -0.42585E-02
  0.15607E-02 -0.40834E-02 -0.42549E-02
  0.24996E-02 -0.35946E-02 -0.42360E-02
  0.32943E-02 -0.28828E-02 -0.42314E-02
  0.38970E-02 -0.20132E-02 -0.42740E-02
  0.42669E-02 -0.10272E-02 -0.42991E-02
  0.11075E-02  0.77169E-03 -0.37836E-02
  0.18705E-02  0.13766E-02 -0.37376E-02
  0.24912E-02  0.68664E-03 -0.37051E-02
  0.17908E-02 -0.31159E-03 -0.37742E-02
  0.32807E-02  0.20627E-03 -0.36250E-02
  0.30064E-02 -0.68436E-03 -0.36529E-02
  0.13759E-02  0.20269E-02 -0.37203E-02
  0.68886E-03  0.16213E-02 -0.37636E-02
  0.12859E-03  0.37903E-03 -0.37947E-02
 -0.14840E-03  0.13209E-02 -0.37917E-02
  0.10053E-02  0.24939E-02 -0.36963E-02
  0.12080E-02  0.30914E-02 -0.36341E-02
  0.18753E-02  0.26634E-02 -0.36456E-02
  0.42768E-03  0.23744E-02 -0.37319E-02
  0.41830E-03  0.32056E-02 -0.36637E-02
 -0.82599E-03 -0.10363E-02 -0.37816E-02
 -0.93454E-03  0.13784E-03 -0.37871E-02
  0.48854E-03 -0.70136E-03 -0.38039E-02
 -0.19766E-02 -0.72116E-03 -0.37373E-02
 -0.19856E-02  0.13153E-03 -0.37599E-02
 -0.29449E-02 -0.79549E-03 -0.36381E-02
 -0.30237E-02  0.88496E-04 -0.36657E-02
 -0.27508E-02 -0.15983E-02 -0.36002E-02
 -0.20895E-02 -0.13805E-02 -0.36868E-02
 -0.10713E-02  0.11226E-02 -0.37780E-02
 -0.15582E-02 -0.18233E-02 -0.36982E-02
 -0.34432E-03  0.22208E-02 -0.37592E-02
 -0.11914E-02  0.20412E-02 -0.37487E-02
 -0.20333E-02  0.18885E-02 -0.37079E-02
 -0.20159E-02  0.10217E-02 -0.37506E-02
 -0.17434E-03 -0.20876E-02 -0.37344E-02
 -0.10256E-02 -0.24943E-02 -0.36630E-02
  0.84158E-03 -0.17931E-02 -0.37560E-02
  0.18574E-02 -0.15685E-02 -0.37195E-02
  0.34729E-02  0.88081E-03 -0.35888E-02
  0.30268E-02  0.13977E-02 -0.36275E-02
  0.24819E-02  0.20586E-02 -0.36577E-02
 -0.44360E-03  0.31551E-02 -0.36718E-02
 -0.13093E-02  0.29662E-02 -0.36655E-02
 -0.21019E-02  0.26936E-02 -0.36364E-02
 -0.27080E-02  0.24534E-02 -0.35961E-02
 -0.28501E-02  0.18198E-02 -0.36306E-02
 -0.29848E-02  0.98696E-03 -0.36639E-02
 -0.22937E-02 -0.22704E-02 -0.35964E-02
 -0.17487E-02 -0.28781E-02 -0.35732E-02
 -0.13013E-02 -0.33592E-02 -0.35380E-02
 -0.63939E-03 -0.32534E-02 -0.35891E-02
  0.22343E-03 -0.30672E-02 -0.36290E-02
  0.11440E-02 -0.28172E-02 -0.36334E-02
  0.19974E-02 -0.25280E-02 -0.36032E-02
  0.26660E-02 -0.22922E-02 -0.35661E-02
  0.28183E-02 -0.15923E-02 -0.36270E-02
  0.41277E-02  0.10633E-02 -0.35079E-02
  0.42540E-02  0.38828E-04 -0.35215E-02
  0.37582E-02  0.20261E-02 -0.35304E-02
  0.31700E-02  0.28632E-02 -0.35499E-02
  0.24012E-02  0.35392E-02 -0.35429E-02
  0.14884E-02  0.40134E-02 -0.35416E-02
  0.49477E-03  0.42519E-02 -0.35609E-02
 -0.51790E-03  0.42467E-02 -0.35633E-02
 -0.15039E-02  0.40004E-02 -0.35541E-02
 -0.24079E-02  0.35280E-02 -0.35253E-02
 -0.31769E-02  0.28493E-02 -0.35153E-02
 -0.37632E-02  0.20045E-02 -0.35208E-02
 -0.41308E-02  0.10498E-02 -0.35388E-02
 -0.42583E-02  0.39977E-04 -0.35344E-02
 -0.41385E-02 -0.97327E-03 -0.35119E-02
 -0.37799E-02 -0.19346E-02 -0.34928E-02
 -0.32020E-02 -0.27844E-02 -0.34988E-02
 -0.24383E-02 -0.34723E-02 -0.34812E-02
 -0.15212E-02 -0.39550E-02 -0.34676E-02
 -0.51081E-03 -0.42040E-02 -0.34889E-02
  0.51954E-03 -0.42017E-02 -0.35052E-02
  0.15157E-02 -0.39515E-02 -0.34983E-02
  0.24258E-02 -0.34734E-02 -0.34784E-02
  0.31945E-02 -0.27830E-02 -0.34736E-02
  0.37774E-02 -0.19394E-02 -0.35126E-02
  0.41341E-02 -0.98150E-03 -0.35356E-02
  0.10774E-02  0.75718E-03 -0.29105E-02
  0.18151E-02  0.13436E-02 -0.28756E-02
  0.24168E-02  0.67414E-03 -0.28531E-02
  0.17362E-02 -0.29291E-03 -0.29065E-02
  0.31856E-02  0.20814E-03 -0.27931E-02
  0.29185E-02 -0.65466E-03 -0.28123E-02
  0.13352E-02  0.19735E-02 -0.28612E-02
  0.67078E-03  0.15818E-02 -0.28937E-02
  0.12863E-03  0.37628E-03 -0.29212E-02
 -0.13998E-03  0.12911E-02 -0.29189E-02
  0.97549E-03  0.24261E-02 -0.28431E-02
  0.11749E-02  0.30063E-02 -0.27956E-02
  0.18222E-02  0.25918E-02 -0.28043E-02
  0.41607E-03  0.23096E-02 -0.28699E-02
  0.40866E-03  0.31170E-02 -0.28173E-02
 -0.80096E-03 -0.10021E-02 -0.29115E-02
 -0.90566E-03  0.14145E-03 -0.29151E-02
  0.47479E-03 -0.67369E-03 -0.29281E-02
 -0.19186E-02 -0.69511E-03 -0.28773E-02
 -0.19263E-02  0.13480E-03 -0.28937E-02
 -0.28626E-02 -0.76842E-03 -0.27985E-02
 -0.29369E-02  0.92200E-04 -0.28194E-02
 -0.26753E-02 -0.15507E-02 -0.27691E-02
 -0.20295E-02 -0.13368E-02 -0.28383E-02
 -0.10372E-02  0.10987E-02 -0.29054E-02
 -0.15128E-02 -0.17668E-02 -0.28489E-02
 -0.33135E-03  0.21603E-02 -0.28906E-02
 -0.11532E-02  0.19864E-02 -0.28815E-02
 -0.19718E-02  0.18398E-02 -0.28494E-02
 -0.19550E-02  0.99954E-03 -0.28845E-02
 -0.16956E-03 -0.20215E-02 -0.28782E-02
 -0.99643E-03 -0.24183E-02 -0.28241E-02
  0.81474E-03 -0.17329E-02 -0.28953E-02
  0.18004E-02 -0.15126E-02 -0.28662E-02
  0.33735E-02  0.86317E-03 -0.27679E-02
  0.29391E-02  0.13644E-02 -0.27940E-02
  0.24109E-02  0.20055E-02 -0.28143E-02
 -0.42882E-03  0.30676E-02 -0.28197E-02
 -0.12705E-02  0.28856E-02 -0.28161E-02
 -0.20408E-02  0.26227E-02 -0.27944E-02
 -0.26310E-02  0.23923E-02 -0.27647E-02
 -0.27682E-02  0.17759E-02 -0.27907E-02
 -0.28985E-02  0.96619E-03 -0.28181E-02
 -0.22293E-02 -0.22046E-02 -0.27696E-02
 -0.16982E-02 -0.27947E-02 -0.27547E-02
 -0.12637E-02 -0.32618E-02 -0.27296E-02
 -0.62228E-03 -0.31565E-02 -0.27704E-02
  0.21496E-03 -0.29752E-02 -0.28007E-02
  0.11091E-02 -0.27314E-02 -0.28032E-02
  0.19395E-02 -0.24479E-02 -0.27770E-02
  0.25913E-02 -0.22190E-02 -0.27459E-02
  0.27366E-02 -0.15364E-02 -0.27932E-02
  0.40136E-02  0.10390E-02 -0.27116E-02
  0.41371E-02  0.46737E-04 -0.27198E-02
  0.36554E-02  0.19732E-02 -0.27265E-02
  0.30852E-02  0.27879E-02 -0.27377E-02
  0.23390E-02  0.34461E-02 -0.27294E-02
  0.14545E-02  0.39075E-02 -0.27257E-02
  0.48824E-03  0.41398E-02 -0.27381E-02
 -0.50193E-03  0.41383E-02 -0.27386E-02
 -0.14648E-02  0.39022E-02 -0.27361E-02
 -0.23460E-02  0.34414E-02 -0.27143E-02
 -0.30931E-02  0.27849E-02 -0.27108E-02
 -0.36653E-02  0.19636E-02 -0.27149E-02
 -0.40205E-02  0.10297E-02 -0.27289E-02
 -0.41454E-02  0.44299E-04 -0.27231E-02
 -0.40322E-02 -0.94460E-03 -0.27058E-02
 -0.36825E-02 -0.18835E-02 -0.26914E-02
 -0.31144E-02 -0.27114E-02 -0.27002E-02
 -0.23665E-02 -0.33775E-02 -0.26896E-02
 -0.14760E-02 -0.38440E-02 -0.26798E-02
 -0.49828E-03 -0.40835E-02 -0.26983E-02
  0.50216E-03 -0.40831E-02 -0.27120E-02
  0.14742E-02 -0.38415E-02 -0.27060E-02
  0.23633E-02 -0.33741E-02 -0.26874E-02
  0.31119E-02 -0.27010E-02 -0.26791E-02
  0.36762E-02 -0.18754E-02 -0.27101E-02
  0.40217E-02 -0.94193E-03 -0.27289E-02
  0.10534E-02  0.74677E-03 -0.19887E-02
  0.17778E-02  0.13198E-02 -0.19670E-02
  0.23666E-02  0.66536E-03 -0.19521E-02
  0.16985E-02 -0.28040E-03 -0.19911E-02
  0.31177E-02  0.20971E-03 -0.19093E-02
  0.28562E-02 -0.63504E-03 -0.19253E-02
  0.13085E-02  0.19358E-02 -0.19546E-02
  0.65626E-03  0.15539E-02 -0.19742E-02
  0.12357E-03  0.37668E-03 -0.19968E-02
 -0.13758E-03  0.12708E-02 -0.19947E-02
  0.95646E-03  0.23793E-02 -0.19409E-02
  0.11514E-02  0.29458E-02 -0.19060E-02
  0.17848E-02  0.25403E-02 -0.19140E-02
  0.40813E-03  0.22657E-02 -0.19587E-02
  0.40113E-03  0.30554E-02 -0.19219E-02
 -0.78363E-03 -0.97361E-03 -0.19960E-02
 -0.88715E-03  0.14755E-03 -0.19950E-02
  0.46258E-03 -0.65127E-03 -0.20035E-02
 -0.18777E-02 -0.67455E-03 -0.19744E-02
 -0.18852E-02  0.13937E-03 -0.19832E-02
 -0.28012E-02 -0.74823E-03 -0.19161E-02
 -0.28743E-02  0.96962E-04 -0.19300E-02
 -0.26164E-02 -0.15163E-02 -0.18960E-02
 -0.19845E-02 -0.13052E-02 -0.19479E-02
 -0.10147E-02  0.10828E-02 -0.19841E-02
 -0.14779E-02 -0.17252E-02 -0.19564E-02
 -0.32405E-03  0.21191E-02 -0.19739E-02
 -0.11287E-02  0.19486E-02 -0.19675E-02
 -0.19305E-02  0.18063E-02 -0.19452E-02
 -0.19131E-02  0.98506E-03 -0.19734E-02
 -0.16482E-03 -0.19732E-02 -0.19748E-02
 -0.97341E-03 -0.23624E-02 -0.19391E-02
  0.79621E-03 -0.16913E-02 -0.19866E-02
  0.17606E-02 -0.14766E-02 -0.19662E-02
  0.33003E-02  0.85068E-03 -0.18898E-02
  0.28764E-02  0.13399E-02 -0.19076E-02
  0.23606E-02  0.19665E-02 -0.19224E-02
 -0.41969E-03  0.30061E-02 -0.19217E-02
 -0.12442E-02  0.28285E-02 -0.19208E-02
 -0.19984E-02  0.25724E-02 -0.19056E-02
 -0.25753E-02  0.23471E-02 -0.18857E-02
 -0.27091E-02  0.17440E-02 -0.19047E-02
 -0.28365E-02  0.95270E-03 -0.19279E-02
 -0.21794E-02 -0.21558E-02 -0.19001E-02
 -0.16598E-02 -0.27322E-02 -0.18904E-02
 -0.12347E-02 -0.31879E-02 -0.18721E-02
 -0.60773E-03 -0.30843E-02 -0.19024E-02
  0.21089E-03 -0.29072E-02 -0.19240E-02
  0.10849E-02 -0.26698E-02 -0.19255E-02
  0.18967E-02 -0.23925E-02 -0.19038E-02
  0.25337E-02 -0.21687E-02 -0.18799E-02
  0.26764E-02 -0.14995E-02 -0.19147E-02
  0.39214E-02  0.10205E-02 -0.18487E-02
  0.40441E-02  0.52127E-04 -0.18588E-02
  0.35709E-02  0.19301E-02 -0.18594E-02
  0.30154E-02  0.27286E-02 -0.18683E-02
  0.22867E-02  0.33737E-02 -0.18579E-02
  0.14227E-02  0.38237E-02 -0.18502E-02
  0.47887E-03  0.40524E-02 -0.18599E-02
 -0.49169E-03  0.40507E-02 -0.18629E-02
 -0.14338E-02  0.38183E-02 -0.18626E-02
 -0.22938E-02  0.33674E-02 -0.18460E-02
 -0.30234E-02  0.27262E-02 -0.18514E-02
 -0.35792E-02  0.19251E-02 -0.18530E-02
 -0.39283E-02  0.10166E-02 -0.18657E-02
 -0.40516E-02  0.50985E-04 -0.18621E-02
 -0.39411E-02 -0.92020E-03 -0.18528E-02
 -0.36006E-02 -0.18402E-02 -0.18438E-02
 -0.30460E-02 -0.26508E-02 -0.18559E-02
 -0.23135E-02 -0.33010E-02 -0.18499E-02
 -0.14412E-02 -0.37558E-02 -0.18398E-02
 -0.48508E-03 -0.39879E-02 -0.18527E-02
  0.49202E-03 -0.39856E-02 -0.18644E-02
  0.14403E-02 -0.37491E-02 -0.18626E-02
  0.23084E-02 -0.32931E-02 -0.18465E-02
  0.30401E-02 -0.26377E-02 -0.18371E-02
  0.35919E-02 -0.18301E-02 -0.18609E-02
  0.39316E-02 -0.91644E-03 -0.18718E-02
  0.10431E-02  0.73681E-03 -0.10370E-02
  0.17579E-02  0.13031E-02 -0.10242E-02
  0.23388E-02  0.65578E-03 -0.10148E-02
  0.16801E-02 -0.27947E-03 -0.10413E-02
  0.30770E-02  0.20556E-03 -0.98867E-03
  0.28196E-02 -0.62786E-03 -0.99960E-03
  0.12947E-02  0.19114E-02 -0.10147E-02
  0.65087E-03  0.15367E-02 -0.10252E-02
  0.12177E-03  0.37069E-03 -0.10434E-02
 -0.13556E-03  0.12570E-02 -0.10408E-02
  0.94705E-03  0.23497E-02 -0.10055E-02
  0.11386E-02  0.29063E-02 -0.98335E-03
  0.17634E-02  0.25057E-02 -0.98844E-03
  0.40594E-03  0.22393E-02 -0.10162E-02
  0.39822E-03  0.30174E-02 -0.99469E-03
 -0.77540E-03 -0.96636E-03 -0.10478E-02
 -0.87773E-03  0.14230E-03 -0.10422E-02
  0.45672E-03 -0.64751E-03 -0.10494E-02
 -0.18536E-02 -0.66958E-03 -0.10345E-02
 -0.18621E-02  0.13330E-03 -0.10370E-02
 -0.27624E-02 -0.73999E-03 -0.99754E-03
 -0.28369E-02  0.93216E-04 -0.10041E-02
 -0.25776E-02 -0.14962E-02 -0.98536E-03
 -0.19577E-02 -0.12901E-02 -0.10199E-02
 -0.10038E-02  0.10695E-02 -0.10311E-02
 -0.14595E-02 -0.17054E-02 -0.10267E-02
 -0.31912E-03  0.20950E-02 -0.10260E-02
 -0.11165E-02  0.19259E-02 -0.10206E-02
 -0.19089E-02  0.17843E-02 -0.10049E-02
 -0.18908E-02  0.97059E-03 -0.10272E-02
 -0.16362E-03 -0.19533E-02 -0.10368E-02
 -0.96207E-03 -0.23346E-02 -0.10159E-02
  0.78558E-03 -0.16744E-02 -0.10436E-02
  0.17383E-02 -0.14602E-02 -0.10292E-02
  0.32562E-02  0.83911E-03 -0.97626E-03
  0.28396E-02  0.13220E-02 -0.98477E-03
  0.23317E-02  0.19402E-02 -0.99378E-03
 -0.41382E-03  0.29686E-02 -0.99199E-03
 -0.12305E-02  0.27938E-02 -0.99186E-03
 -0.19763E-02  0.25406E-02 -0.97913E-03
 -0.25441E-02  0.23161E-02 -0.96486E-03
 -0.26748E-02  0.17202E-02 -0.97903E-03
 -0.28001E-02  0.93822E-03 -0.10002E-02
 -0.21475E-02 -0.21262E-02 -0.99070E-03
 -0.16362E-02 -0.26946E-02 -0.98447E-03
 -0.12167E-02 -0.31425E-02 -0.97299E-03
 -0.59948E-03 -0.30430E-02 -0.99427E-03
  0.20804E-03 -0.28695E-02 -0.10073E-02
  0.10693E-02 -0.26343E-02 -0.10070E-02
  0.18688E-02 -0.23592E-02 -0.98977E-03
  0.24960E-02 -0.21383E-02 -0.97307E-03
  0.26395E-02 -0.14798E-02 -0.99611E-03
  0.38650E-02  0.10047E-02 -0.95284E-03
  0.39831E-02  0.49677E-04 -0.96432E-03
  0.35223E-02  0.19020E-02 -0.95694E-03
  0.29776E-02  0.26891E-02 -0.96195E-03
  0.22601E-02  0.33243E-02 -0.95578E-03
  0.14076E-02  0.37706E-02 -0.94966E-03
  0.47428E-03  0.40005E-02 -0.95549E-03
 -0.48572E-03  0.39982E-02 -0.95909E-03
 -0.14175E-02  0.37676E-02 -0.95859E-03
 -0.22682E-02  0.33221E-02 -0.94072E-03
 -0.29855E-02  0.26859E-02 -0.94361E-03
 -0.35287E-02  0.18968E-02 -0.94807E-03
 -0.38717E-02  0.10007E-02 -0.96482E-03
 -0.39924E-02  0.47945E-04 -0.96775E-03
 -0.38810E-02 -0.91013E-03 -0.96520E-03
 -0.35401E-02 -0.18148E-02 -0.95873E-03
 -0.29914E-02 -0.26083E-02 -0.96967E-03
 -0.22724E-02 -0.32460E-02 -0.96467E-03
 -0.14180E-02 -0.36939E-02 -0.95764E-03
 -0.47888E-03 -0.39229E-02 -0.96854E-03
  0.48495E-03 -0.39208E-02 -0.97685E-03
  0.14178E-02 -0.36874E-02 -0.97440E-03
  0.22693E-02 -0.32387E-02 -0.96126E-03
  0.29899E-02 -0.25964E-02 -0.95242E-03
  0.35341E-02 -0.18019E-02 -0.97056E-03
  0.38698E-02 -0.90362E-03 -0.97678E-03
  0.10385E-02  0.73159E-03 -0.68863E-04
  0.17481E-02  0.12947E-02 -0.61509E-04
  0.23252E-02  0.65084E-03 -0.56862E-04
  0.16719E-02 -0.27929E-03 -0.74447E-04
  0.30550E-02  0.20306E-03 -0.40989E-04
  0.28012E-02 -0.62473E-03 -0.48994E-04
  0.12863E-02  0.18986E-02 -0.52991E-04
  0.64698E-03  0.15271E-02 -0.58580E-04
  0.12195E-03  0.36713E-03 -0.74978E-04
 -0.13424E-03  0.12489E-02 -0.72577E-04
  0.93973E-03  0.23333E-02 -0.46771E-04
  0.11290E-02  0.28820E-02 -0.33479E-04
  0.17497E-02  0.24858E-02 -0.37351E-04
  0.40303E-03  0.22240E-02 -0.53343E-04
  0.39571E-03  0.29930E-02 -0.41448E-04
 -0.77291E-03 -0.96544E-03 -0.80686E-04
 -0.87272E-03  0.13919E-03 -0.74381E-04
  0.45442E-03 -0.64680E-03 -0.78750E-04
 -0.18443E-02 -0.66940E-03 -0.73479E-04
 -0.18517E-02  0.12904E-03 -0.73437E-04
 -0.27429E-02 -0.73838E-03 -0.52697E-04
 -0.28175E-02  0.88276E-04 -0.55384E-04
 -0.25593E-02 -0.14883E-02 -0.45200E-04
 -0.19476E-02 -0.12859E-02 -0.66685E-04
 -0.99693E-03  0.10622E-02 -0.64964E-04
 -0.14530E-02 -0.16986E-02 -0.72268E-04
 -0.31624E-03  0.20807E-02 -0.61243E-04
 -0.11079E-02  0.19123E-02 -0.59068E-04
 -0.18962E-02  0.17706E-02 -0.49477E-04
 -0.18796E-02  0.96168E-03 -0.65901E-04
 -0.16444E-03 -0.19462E-02 -0.77013E-04
 -0.95805E-03 -0.23215E-02 -0.67002E-04
  0.78027E-03 -0.16695E-02 -0.79823E-04
  0.17289E-02 -0.14549E-02 -0.70542E-04
  0.32320E-02  0.83173E-03 -0.33077E-04
  0.28201E-02  0.13112E-02 -0.35871E-04
  0.23157E-02  0.19248E-02 -0.40796E-04
 -0.40861E-03  0.29445E-02 -0.38052E-04
 -0.12185E-02  0.27721E-02 -0.40947E-04
 -0.19599E-02  0.25207E-02 -0.33027E-04
 -0.25254E-02  0.22961E-02 -0.23783E-04
 -0.26572E-02  0.17039E-02 -0.33394E-04
 -0.27817E-02  0.92712E-03 -0.51289E-04
 -0.21327E-02 -0.21129E-02 -0.50439E-04
 -0.16238E-02 -0.26749E-02 -0.46746E-04
 -0.12058E-02 -0.31165E-02 -0.39693E-04
 -0.59565E-03 -0.30198E-02 -0.54843E-04
  0.20472E-03 -0.28510E-02 -0.61293E-04
  0.10605E-02 -0.26196E-02 -0.59716E-04
  0.18553E-02 -0.23454E-02 -0.46446E-04
  0.24768E-02 -0.21251E-02 -0.35391E-04
  0.26215E-02 -0.14716E-02 -0.50885E-04
  0.38302E-02  0.99204E-03 -0.18804E-04
  0.39444E-02  0.47153E-04 -0.26772E-04
  0.34909E-02  0.18809E-02 -0.18600E-04
  0.29487E-02  0.26612E-02 -0.21123E-04
  0.22365E-02  0.32902E-02 -0.17629E-04
  0.13932E-02  0.37303E-02 -0.11382E-04
  0.47041E-03  0.39555E-02 -0.15071E-04
 -0.47815E-03  0.39547E-02 -0.15993E-04
 -0.13996E-02  0.37292E-02 -0.17773E-04
 -0.22443E-02  0.32921E-02 -0.70296E-05
 -0.29617E-02  0.26608E-02 -0.12647E-04
 -0.35011E-02  0.18760E-02 -0.12952E-04
 -0.38358E-02  0.98489E-03 -0.26376E-04
 -0.39514E-02  0.41592E-04 -0.35211E-04
 -0.38390E-02 -0.90427E-03 -0.38062E-04
 -0.35029E-02 -0.17970E-02 -0.34257E-04
 -0.29613E-02 -0.25838E-02 -0.41968E-04
 -0.22469E-02 -0.32166E-02 -0.36713E-04
 -0.13998E-02 -0.36585E-02 -0.32822E-04
 -0.47252E-03 -0.38827E-02 -0.40117E-04
  0.47812E-03 -0.38796E-02 -0.46211E-04
  0.14012E-02 -0.36505E-02 -0.45568E-04
  0.22447E-02 -0.32081E-02 -0.35286E-04
  0.29585E-02 -0.25752E-02 -0.26971E-04
  0.34979E-02 -0.17873E-02 -0.39852E-04
  0.38316E-02 -0.89616E-03 -0.38606E-04
  0.10354E-02  0.72658E-03  0.90609E-03
  0.17422E-02  0.12881E-02  0.91143E-03
  0.23176E-02  0.64524E-03  0.91315E-03
  0.16665E-02 -0.28146E-03  0.89980E-03
  0.30432E-02  0.19811E-03  0.92242E-03
  0.27902E-02 -0.62626E-03  0.91691E-03
  0.12821E-02  0.18897E-02  0.91991E-03
  0.64483E-03  0.15202E-02  0.91624E-03
  0.12126E-03  0.36230E-03  0.89923E-03
 -0.13456E-03  0.12425E-02  0.90311E-03
  0.93683E-03  0.23221E-02  0.92446E-03
  0.11252E-02  0.28667E-02  0.93244E-03
  0.17423E-02  0.24733E-02  0.92944E-03
  0.40169E-03  0.22133E-02  0.91994E-03
  0.39446E-03  0.29779E-02  0.92632E-03
 -0.77245E-03 -0.96755E-03  0.89333E-03
 -0.87148E-03  0.13441E-03  0.89919E-03
  0.45216E-03 -0.64894E-03  0.89628E-03
 -0.18401E-02 -0.67159E-03  0.89843E-03
 -0.18474E-02  0.12425E-03  0.90002E-03
 -0.27304E-02 -0.73934E-03  0.91131E-03
 -0.28058E-02  0.83532E-04  0.91152E-03
 -0.25471E-02 -0.14847E-02  0.91491E-03
 -0.19416E-02 -0.12849E-02  0.90113E-03
 -0.99527E-03  0.10560E-02  0.90981E-03
 -0.14484E-02 -0.16956E-02  0.89567E-03
 -0.31660E-03  0.20710E-02  0.91408E-03
 -0.11062E-02  0.19025E-02  0.91519E-03
 -0.18913E-02  0.17601E-02  0.91997E-03
 -0.18753E-02  0.95455E-03  0.90722E-03
 -0.16514E-03 -0.19432E-02  0.89346E-03
 -0.95515E-03 -0.23142E-02  0.89703E-03
  0.77607E-03 -0.16684E-02  0.89212E-03
  0.17219E-02 -0.14538E-02  0.89913E-03
  0.32188E-02  0.82431E-03  0.92721E-03
  0.28088E-02  0.13020E-02  0.92850E-03
  0.23061E-02  0.19141E-02  0.92665E-03
 -0.40901E-03  0.29303E-02  0.93031E-03
 -0.12169E-02  0.27583E-02  0.92586E-03
 -0.19530E-02  0.25054E-02  0.92871E-03
 -0.25134E-02  0.22803E-02  0.93207E-03
 -0.26464E-02  0.16920E-02  0.92795E-03
 -0.27713E-02  0.91908E-03  0.91454E-03
 -0.21219E-02 -0.21048E-02  0.90839E-03
 -0.16153E-02 -0.26625E-02  0.90901E-03
 -0.12001E-02 -0.31005E-02  0.91325E-03
 -0.59436E-03 -0.30067E-02  0.90371E-03
  0.20210E-03 -0.28414E-02  0.90226E-03
  0.10551E-02 -0.26127E-02  0.90378E-03
  0.18467E-02 -0.23386E-02  0.91419E-03
  0.24640E-02 -0.21182E-02  0.92251E-03
  0.26090E-02 -0.14690E-02  0.91213E-03
  0.38101E-02  0.98145E-03  0.93313E-03
  0.39241E-02  0.40979E-04  0.92636E-03
  0.34733E-02  0.18672E-02  0.93582E-03
  0.29344E-02  0.26452E-02  0.93487E-03
  0.22258E-02  0.32714E-02  0.93729E-03
  0.13876E-02  0.37098E-02  0.94459E-03
  0.46944E-03  0.39354E-02  0.94361E-03
 -0.47640E-03  0.39376E-02  0.94166E-03
 -0.13966E-02  0.37107E-02  0.93652E-03
 -0.22339E-02  0.32702E-02  0.94317E-03
 -0.29432E-02  0.26414E-02  0.93234E-03
 -0.34811E-02  0.18615E-02  0.93498E-03
 -0.38168E-02  0.97452E-03  0.92581E-03
 -0.39294E-02  0.36345E-04  0.91966E-03
 -0.38140E-02 -0.90338E-03  0.91423E-03
 -0.34802E-02 -0.17892E-02  0.91498E-03
 -0.29426E-02 -0.25687E-02  0.90698E-03
 -0.22327E-02 -0.31964E-02  0.90922E-03
 -0.13916E-02 -0.36362E-02  0.91379E-03
 -0.47009E-03 -0.38604E-02  0.91075E-03
  0.47571E-03 -0.38584E-02  0.90782E-03
  0.13942E-02 -0.36320E-02  0.90662E-03
  0.22325E-02 -0.31910E-02  0.91499E-03
  0.29398E-02 -0.25610E-02  0.92335E-03
  0.34757E-02 -0.17824E-02  0.91276E-03
  0.38105E-02 -0.89861E-03  0.91558E-03
  0.10333E-02  0.72091E-03  0.18858E-02
  0.17388E-02  0.12816E-02  0.18887E-02
  0.23140E-02  0.63945E-03  0.18884E-02
  0.16644E-02 -0.28601E-03  0.18791E-02
  0.30378E-02  0.19435E-03  0.18944E-02
  0.27865E-02 -0.62851E-03  0.18911E-02
  0.12797E-02  0.18828E-02  0.18968E-02
  0.64332E-03  0.15150E-02  0.18940E-02
  0.11992E-03  0.35878E-03  0.18789E-02
 -0.13565E-03  0.12393E-02  0.18812E-02
  0.93497E-03  0.23155E-02  0.18999E-02
  0.11224E-02  0.28595E-02  0.19058E-02
  0.17380E-02  0.24661E-02  0.19036E-02
  0.40103E-03  0.22067E-02  0.18957E-02
  0.39345E-03  0.29701E-02  0.18999E-02
 -0.77146E-03 -0.97098E-03  0.18742E-02
 -0.87132E-03  0.13070E-03  0.18778E-02
  0.45129E-03 -0.65268E-03  0.18771E-02
 -0.18390E-02 -0.67490E-03  0.18760E-02
 -0.18457E-02  0.12018E-03  0.18775E-02
 -0.27280E-02 -0.74169E-03  0.18837E-02
 -0.28022E-02  0.80957E-04  0.18853E-02
 -0.25435E-02 -0.14863E-02  0.18866E-02
 -0.19399E-02 -0.12873E-02  0.18774E-02
 -0.99481E-03  0.10516E-02  0.18875E-02
 -0.14464E-02 -0.16977E-02  0.18735E-02
 -0.31622E-03  0.20646E-02  0.18908E-02
 -0.11047E-02  0.18951E-02  0.18924E-02
 -0.18889E-02  0.17531E-02  0.18949E-02
 -0.18730E-02  0.94928E-03  0.18842E-02
 -0.16484E-03 -0.19454E-02  0.18718E-02
 -0.95383E-03 -0.23158E-02  0.18728E-02
  0.77470E-03 -0.16716E-02  0.18695E-02
  0.17199E-02 -0.14580E-02  0.18749E-02
  0.32123E-02  0.81933E-03  0.18976E-02
  0.28030E-02  0.12949E-02  0.19004E-02
  0.23008E-02  0.19062E-02  0.19009E-02
 -0.40831E-03  0.29203E-02  0.19040E-02
 -0.12148E-02  0.27486E-02  0.18997E-02
 -0.19502E-02  0.24969E-02  0.19005E-02
 -0.25097E-02  0.22734E-02  0.19011E-02
 -0.26424E-02  0.16863E-02  0.18993E-02
 -0.27669E-02  0.91539E-03  0.18882E-02
 -0.21178E-02 -0.21055E-02  0.18812E-02
 -0.16116E-02 -0.26621E-02  0.18804E-02
 -0.11975E-02 -0.30983E-02  0.18820E-02
 -0.59431E-03 -0.30058E-02  0.18752E-02
  0.20005E-03 -0.28411E-02  0.18757E-02
  0.10520E-02 -0.26133E-02  0.18756E-02
  0.18432E-02 -0.23403E-02  0.18840E-02
  0.24597E-02 -0.21199E-02  0.18915E-02
  0.26053E-02 -0.14710E-02  0.18847E-02
  0.37987E-02  0.97644E-03  0.19036E-02
  0.39131E-02  0.40021E-04  0.18972E-02
  0.34633E-02  0.18580E-02  0.19065E-02
  0.29266E-02  0.26341E-02  0.19058E-02
  0.22205E-02  0.32599E-02  0.19068E-02
  0.13837E-02  0.36985E-02  0.19148E-02
  0.46697E-03  0.39232E-02  0.19145E-02
 -0.47702E-03  0.39228E-02  0.19120E-02
 -0.13934E-02  0.36962E-02  0.19064E-02
 -0.22286E-02  0.32569E-02  0.19114E-02
 -0.29361E-02  0.26320E-02  0.18988E-02
 -0.34730E-02  0.18533E-02  0.19030E-02
 -0.38064E-02  0.96994E-03  0.18954E-02
 -0.39180E-02  0.32348E-04  0.18887E-02
 -0.38041E-02 -0.90423E-03  0.18827E-02
 -0.34693E-02 -0.17874E-02  0.18817E-02
 -0.29318E-02 -0.25648E-02  0.18744E-02
 -0.22248E-02 -0.31894E-02  0.18763E-02
 -0.13881E-02 -0.36278E-02  0.18787E-02
 -0.47193E-03 -0.38522E-02  0.18780E-02
  0.47160E-03 -0.38512E-02  0.18777E-02
  0.13879E-02 -0.36250E-02  0.18749E-02
  0.22251E-02 -0.31867E-02  0.18813E-02
  0.29332E-02 -0.25592E-02  0.18895E-02
  0.34685E-02 -0.17804E-02  0.18817E-02
  0.38010E-02 -0.89734E-03  0.18869E-02
  0.10322E-02  0.71628E-03  0.28646E-02
  0.17382E-02  0.12770E-02  0.28673E-02
  0.23126E-02  0.63578E-03  0.28679E-02
  0.16629E-02 -0.28949E-03  0.28585E-02
  0.30352E-02  0.18986E-03  0.28723E-02
  0.27847E-02 -0.63251E-03  0.28687E-02
  0.12788E-02  0.18773E-02  0.28750E-02
  0.64228E-03  0.15104E-02  0.28723E-02
  0.11862E-03  0.35538E-03  0.28587E-02
 -0.13582E-03  0.12360E-02  0.28602E-02
  0.93357E-03  0.23099E-02  0.28787E-02
  0.11207E-02  0.28522E-02  0.28835E-02
  0.17366E-02  0.24596E-02  0.28808E-02
  0.40033E-03  0.22014E-02  0.28748E-02
  0.39257E-03  0.29636E-02  0.28785E-02
 -0.77256E-03 -0.97518E-03  0.28521E-02
 -0.87169E-03  0.12649E-03  0.28573E-02
  0.44929E-03 -0.65597E-03  0.28561E-02
 -0.18390E-02 -0.67967E-03  0.28538E-02
 -0.18451E-02  0.11422E-03  0.28567E-02
 -0.27267E-02 -0.74611E-03  0.28615E-02
 -0.28007E-02  0.75213E-04  0.28635E-02
 -0.25422E-02 -0.14890E-02  0.28625E-02
 -0.19397E-02 -0.12908E-02  0.28542E-02
 -0.99390E-03  0.10477E-02  0.28667E-02
 -0.14468E-02 -0.17011E-02  0.28501E-02
 -0.31541E-03  0.20595E-02  0.28698E-02
 -0.11033E-02  0.18896E-02  0.28713E-02
 -0.18880E-02  0.17474E-02  0.28729E-02
 -0.18719E-02  0.94357E-03  0.28632E-02
 -0.16608E-03 -0.19492E-02  0.28502E-02
 -0.95504E-03 -0.23192E-02  0.28497E-02
  0.77277E-03 -0.16752E-02  0.28488E-02
  0.17182E-02 -0.14618E-02  0.28531E-02
  0.32098E-02  0.81557E-03  0.28742E-02
  0.28014E-02  0.12907E-02  0.28772E-02
  0.22999E-02  0.19008E-02  0.28777E-02
 -0.40760E-03  0.29123E-02  0.28812E-02
 -0.12138E-02  0.27411E-02  0.28769E-02
 -0.19499E-02  0.24898E-02  0.28775E-02
 -0.25084E-02  0.22658E-02  0.28762E-02
 -0.26398E-02  0.16791E-02  0.28745E-02
 -0.27640E-02  0.90902E-03  0.28649E-02
 -0.21175E-02 -0.21080E-02  0.28562E-02
 -0.16120E-02 -0.26645E-02  0.28553E-02
 -0.11984E-02 -0.31005E-02  0.28569E-02
 -0.59538E-03 -0.30086E-02  0.28518E-02
  0.19915E-03 -0.28441E-02  0.28534E-02
  0.10509E-02 -0.26159E-02  0.28532E-02
  0.18411E-02 -0.23428E-02  0.28595E-02
  0.24563E-02 -0.21233E-02  0.28649E-02
  0.26027E-02 -0.14745E-02  0.28603E-02
  0.37958E-02  0.97057E-03  0.28753E-02
  0.39097E-02  0.32333E-04  0.28692E-02
  0.34608E-02  0.18524E-02  0.28762E-02
  0.29246E-02  0.26280E-02  0.28765E-02
  0.22187E-02  0.32522E-02  0.28784E-02
  0.13833E-02  0.36897E-02  0.28856E-02
  0.46671E-03  0.39165E-02  0.28858E-02
 -0.47667E-03  0.39148E-02  0.28824E-02
 -0.13920E-02  0.36877E-02  0.28752E-02
 -0.22290E-02  0.32486E-02  0.28830E-02
 -0.29333E-02  0.26225E-02  0.28699E-02
 -0.34693E-02  0.18444E-02  0.28716E-02
 -0.38033E-02  0.96337E-03  0.28670E-02
 -0.39162E-02  0.27658E-04  0.28626E-02
 -0.38013E-02 -0.90784E-03  0.28572E-02
 -0.34661E-02 -0.17901E-02  0.28538E-02
 -0.29308E-02 -0.25663E-02  0.28466E-02
 -0.22246E-02 -0.31908E-02  0.28499E-02
 -0.13886E-02 -0.36293E-02  0.28520E-02
 -0.47243E-03 -0.38540E-02  0.28518E-02
  0.47106E-03 -0.38521E-02  0.28504E-02
  0.13860E-02 -0.36258E-02  0.28484E-02
  0.22208E-02 -0.31879E-02  0.28529E-02
  0.29269E-02 -0.25615E-02  0.28595E-02
  0.34624E-02 -0.17846E-02  0.28529E-02
  0.37968E-02 -0.90412E-03  0.28596E-02
  0.10299E-02  0.71229E-03  0.38436E-02
  0.17363E-02  0.12728E-02  0.38467E-02
  0.23097E-02  0.63110E-03  0.38463E-02
  0.16601E-02 -0.29384E-03  0.38377E-02
  0.30319E-02  0.18557E-03  0.38497E-02
  0.27823E-02 -0.63675E-03  0.38470E-02
  0.12779E-02  0.18722E-02  0.38533E-02
  0.64089E-03  0.15064E-02  0.38505E-02
  0.11714E-03  0.35212E-03  0.38375E-02
 -0.13708E-03  0.12320E-02  0.38392E-02
  0.93255E-03  0.23042E-02  0.38565E-02
  0.11191E-02  0.28453E-02  0.38610E-02
  0.17352E-02  0.24538E-02  0.38588E-02
  0.39914E-03  0.21960E-02  0.38532E-02
  0.39090E-03  0.29579E-02  0.38570E-02
 -0.77364E-03 -0.98008E-03  0.38318E-02
 -0.87174E-03  0.12290E-03  0.38369E-02
  0.44720E-03 -0.65946E-03  0.38351E-02
 -0.18386E-02 -0.68339E-03  0.38350E-02
 -0.18442E-02  0.11039E-03  0.38371E-02
 -0.27248E-02 -0.74916E-03  0.38410E-02
 -0.27994E-02  0.71590E-04  0.38423E-02
 -0.25410E-02 -0.14922E-02  0.38406E-02
 -0.19397E-02 -0.12947E-02  0.38343E-02
 -0.99414E-03  0.10439E-02  0.38448E-02
 -0.14470E-02 -0.17048E-02  0.38301E-02
 -0.31673E-03  0.20540E-02  0.38490E-02
 -0.11039E-02  0.18842E-02  0.38490E-02
 -0.18882E-02  0.17423E-02  0.38505E-02
 -0.18717E-02  0.93925E-03  0.38418E-02
 -0.16730E-03 -0.19521E-02  0.38307E-02
 -0.95548E-03 -0.23215E-02  0.38290E-02
  0.77047E-03 -0.16780E-02  0.38293E-02
  0.17162E-02 -0.14657E-02  0.38325E-02
  0.32063E-02  0.81132E-03  0.38517E-02
  0.27988E-02  0.12856E-02  0.38551E-02
  0.22983E-02  0.18955E-02  0.38561E-02
 -0.40949E-03  0.29069E-02  0.38603E-02
 -0.12150E-02  0.27361E-02  0.38558E-02
 -0.19495E-02  0.24838E-02  0.38555E-02
 -0.25075E-02  0.22590E-02  0.38552E-02
 -0.26395E-02  0.16740E-02  0.38532E-02
 -0.27632E-02  0.90489E-03  0.38427E-02
 -0.21164E-02 -0.21106E-02  0.38342E-02
 -0.16106E-02 -0.26657E-02  0.38332E-02
 -0.11976E-02 -0.31008E-02  0.38340E-02
 -0.59540E-03 -0.30094E-02  0.38295E-02
  0.19838E-03 -0.28457E-02  0.38313E-02
  0.10493E-02 -0.26176E-02  0.38314E-02
  0.18391E-02 -0.23449E-02  0.38375E-02
  0.24540E-02 -0.21266E-02  0.38426E-02
  0.26002E-02 -0.14784E-02  0.38388E-02
  0.37902E-02  0.96482E-03  0.38531E-02
  0.39054E-02  0.29906E-04  0.38466E-02
  0.34567E-02  0.18460E-02  0.38537E-02
  0.29214E-02  0.26223E-02  0.38534E-02
  0.22146E-02  0.32457E-02  0.38552E-02
  0.13799E-02  0.36828E-02  0.38618E-02
  0.46577E-03  0.39098E-02  0.38613E-02
 -0.48003E-03  0.39101E-02  0.38577E-02
 -0.13952E-02  0.36831E-02  0.38517E-02
 -0.22290E-02  0.32431E-02  0.38577E-02
 -0.29329E-02  0.26157E-02  0.38462E-02
 -0.34672E-02  0.18423E-02  0.38486E-02
 -0.37999E-02  0.96013E-03  0.38434E-02
 -0.39149E-02  0.24101E-04  0.38400E-02
 -0.37980E-02 -0.91211E-03  0.38338E-02
 -0.34631E-02 -0.17931E-02  0.38314E-02
 -0.29277E-02 -0.25671E-02  0.38260E-02
 -0.22215E-02 -0.31909E-02  0.38273E-02
 -0.13872E-02 -0.36277E-02  0.38291E-02
 -0.47189E-03 -0.38524E-02  0.38295E-02
  0.47004E-03 -0.38524E-02  0.38293E-02
  0.13835E-02 -0.36254E-02  0.38281E-02
  0.22170E-02 -0.31877E-02  0.38313E-02
  0.29225E-02 -0.25627E-02  0.38374E-02
  0.34577E-02 -0.17868E-02  0.38338E-02
  0.37923E-02 -0.90618E-03  0.38391E-02
  0.10268E-02  0.70595E-03  0.48225E-02
  0.17328E-02  0.12661E-02  0.48274E-02
  0.23058E-02  0.62562E-03  0.48263E-02
  0.16586E-02 -0.29777E-03  0.48184E-02
  0.30279E-02  0.18072E-03  0.48313E-02
  0.27800E-02 -0.64028E-03  0.48273E-02
  0.12754E-02  0.18648E-02  0.48346E-02
  0.63914E-03  0.15009E-02  0.48310E-02
  0.11369E-03  0.34795E-03  0.48195E-02
 -0.13816E-03  0.12262E-02  0.48225E-02
  0.93084E-03  0.22967E-02  0.48376E-02
  0.11166E-02  0.28357E-02  0.48427E-02
  0.17318E-02  0.24445E-02  0.48410E-02
  0.39888E-03  0.21887E-02  0.48320E-02
  0.38927E-03  0.29471E-02  0.48376E-02
 -0.77521E-03 -0.98421E-03  0.48133E-02
 -0.87245E-03  0.11877E-03  0.48190E-02
  0.44553E-03 -0.66177E-03  0.48153E-02
 -0.18382E-02 -0.68702E-03  0.48162E-02
 -0.18431E-02  0.10615E-03  0.48168E-02
 -0.27243E-02 -0.75320E-03  0.48201E-02
 -0.27983E-02  0.68773E-04  0.48218E-02
 -0.25407E-02 -0.14970E-02  0.48207E-02
 -0.19391E-02 -0.12989E-02  0.48150E-02
 -0.99355E-03  0.10383E-02  0.48270E-02
 -0.14472E-02 -0.17093E-02  0.48127E-02
 -0.31621E-03  0.20460E-02  0.48282E-02
 -0.11036E-02  0.18760E-02  0.48285E-02
 -0.18864E-02  0.17336E-02  0.48313E-02
 -0.18699E-02  0.93306E-03  0.48217E-02
 -0.16770E-03 -0.19573E-02  0.48114E-02
 -0.95607E-03 -0.23263E-02  0.48110E-02
  0.77006E-03 -0.16825E-02  0.48090E-02
  0.17144E-02 -0.14706E-02  0.48137E-02
  0.32010E-02  0.80497E-03  0.48331E-02
  0.27933E-02  0.12778E-02  0.48379E-02
  0.22934E-02  0.18857E-02  0.48385E-02
 -0.41038E-03  0.28956E-02  0.48399E-02
 -0.12169E-02  0.27252E-02  0.48345E-02
 -0.19494E-02  0.24730E-02  0.48350E-02
 -0.25042E-02  0.22477E-02  0.48360E-02
 -0.26364E-02  0.16648E-02  0.48356E-02
 -0.27618E-02  0.89990E-03  0.48249E-02
 -0.21156E-02 -0.21152E-02  0.48158E-02
 -0.16100E-02 -0.26697E-02  0.48156E-02
 -0.11967E-02 -0.31040E-02  0.48135E-02
 -0.59534E-03 -0.30130E-02  0.48094E-02
  0.19763E-03 -0.28516E-02  0.48107E-02
  0.10483E-02 -0.26246E-02  0.48105E-02
  0.18375E-02 -0.23509E-02  0.48183E-02
  0.24524E-02 -0.21318E-02  0.48223E-02
  0.25976E-02 -0.14822E-02  0.48184E-02
  0.37859E-02  0.95723E-03  0.48288E-02
  0.39038E-02  0.24307E-04  0.48222E-02
  0.34540E-02  0.18373E-02  0.48271E-02
  0.29180E-02  0.26122E-02  0.48282E-02
  0.22140E-02  0.32367E-02  0.48277E-02
  0.13768E-02  0.36752E-02  0.48349E-02
  0.46094E-03  0.38979E-02  0.48350E-02
 -0.48509E-03  0.39027E-02  0.48274E-02
 -0.14026E-02  0.36736E-02  0.48227E-02
 -0.22374E-02  0.32334E-02  0.48237E-02
 -0.29318E-02  0.26070E-02  0.48179E-02
 -0.34667E-02  0.18406E-02  0.48167E-02
 -0.38031E-02  0.96029E-03  0.48141E-02
 -0.39121E-02  0.23273E-04  0.48142E-02
 -0.37998E-02 -0.91564E-03  0.48062E-02
 -0.34656E-02 -0.17983E-02  0.48052E-02
 -0.29265E-02 -0.25739E-02  0.48024E-02
 -0.22218E-02 -0.31959E-02  0.48049E-02
 -0.13866E-02 -0.36314E-02  0.48094E-02
 -0.47320E-03 -0.38578E-02  0.48116E-02
  0.46920E-03 -0.38618E-02  0.48077E-02
  0.13857E-02 -0.36343E-02  0.48061E-02
  0.22195E-02 -0.31951E-02  0.48087E-02
  0.29226E-02 -0.25688E-02  0.48143E-02
  0.34572E-02 -0.17916E-02  0.48120E-02
  0.37930E-02 -0.91223E-03  0.48139E-02
  
CELLS       3486               17724
       1       0
       1       1
       1       2
       1       3
       1       4
       1       5
       1       6
       1       7
       1       8
       1       9
       1      10
       1      11
       1      12
       1      13
       1      14
       1      15
       1      16
       1      17
       1      18
       1      19
       1      20
       1      21
       1      22
       1      23
       1      24
       1      25
       1      26
       1      27
       1      28
       1      29
       1      30
       1      31
       1      32
       1      33
       1      34
       1      35
       1      36
       1      37
       1      38
       1      39
       1      40
       1      41
       1      42
       1      43
       1      44
       1      45
       1      46
       1      47
       1      48
       1      49
       1      50
       1      51
       1      52
       1      53
       1      54
       1      55
       1      56
       1      57
       1      58
       1      59
       1      60
       1      61
       1      62
       1      63
       1      64
       1      65
       1      66
       1      67
       1      68
       1      69
       1      70
       1      71
       1      72
       1      73
       1      74
       1      75
       1      76
       1      77
       1      78
       1      79
       1      80
       1      81
       1      82
       1      83
       1      84
       1      85
       1      86
       1      87
       1      88
       1      89
       1      90
       1      91
       1      92
       1      93
       1      94
       1      95
       1      96
       1      97
       1      98
       1      99
       1     100
       1     101
       1     102
       1     103
       1     104
       1     105
       1     106
       1     107
       1     108
       1     109
       1     110
       1     111
       1     112
       1     113
       1     114
       1     115
       1     116
       1     117
       1     118
       1     119
       1     120
       1     121
       1     122
       1     123
       1     124
       1     125
       1     126
       1     127
       1     128
       1     129
       1     130
       1     131
       1     132
       1     133
       1     134
       1     135
       1     136
       1     137
       1     138
       1     139
       1     140
       1     141
       1     142
       1     143
       1     144
       1     145
       1     146
       1     147
       1     148
       1     149
       1     150
       1     151
       1     152
       1     153
       1     154
       1     155
       1     156
       1     157
       1     158
       1     159
       1     160
       1     161
       1     162
       1     163
       1     164
       1     165
       1     166
       1     167
       1     168
       1     169
       1     170
       1     171
       1     172
       1     173
       1     174
       1     175
       1     176
       1     177
       1     178
       1     179
       1     180
       1     181
       1     182
       1     183
       1     184
       1     185
       1     186
       1     187
       1     188
       1     189
       1     190
       1     191
       1     192
       1     193
       1     194
       1     195
       1     196
       1     197
       1     198
       1     199
       1     200
       1     201
       1     202
       1     203
       1     204
       1     205
       1     206
       1     207
       1     208
       1     209
       1     210
       1     211
       1     212
       1     213
       1     214
       1     215
       1     216
       1     217
       1     218
       1     219
       1     220
       1     221
       1     222
       1     223
       1     224
       1     225
       1     226
       1     227
       1     228
       1     229
       1     230
       1     231
       1     232
       1     233
       1     234
       1     235
       1     236
       1     237
       1     238
       1     239
       1     240
       1     241
       1     242
       1     243
       1     244
       1     245
       1     246
       1     247
       1     248
       1     249
       1     250
       1     251
       1     252
       1     253
       1     254
       1     255
       1     256
       1     257
       1     258
       1     259
       1     260
       1     261
       1     262
       1     263
       1     264
       1     265
       1     266
       1     267
       1     268
       1     269
       1     270
       1     271
       1     272
       1     273
       1     274
       1     275
       1     276
       1     277
       1     278
       1     279
       1     280
       1     281
       1     282
       1     283
       1     284
       1     285
       1     286
       1     287
       1     288
       1     289
       1     290
       1     291
       1     292
       1     293
       1     294
       1     295
       1     296
       1     297
       1     298
       1     299
       1     300
       1     301
       1     302
       1     303
       1     304
       1     305
       1     306
       1     307
       1     308
       1     309
       1     310
       1     311
       1     312
       1     313
       1     314
       1     315
       1     316
       1     317
       1     318
       1     319
       1     320
       1     321
       1     322
       1     323
       1     324
       1     325
       1     326
       1     327
       1     328
       1     329
       1     330
       1     331
       1     332
       1     333
       1     334
       1     335
       1     336
       1     337
       1     338
       1     339
       1     340
       1     341
       1     342
       1     343
       1     344
       1     345
       1     346
       1     347
       1     348
       1     349
       1     350
       1     351
       1     352
       1     353
       1     354
       1     355
       1     356
       1     357
       1     358
       1     359
       1     360
       1     361
       1     362
       1     363
       1     364
       1     365
       1     366
       1     367
       1     368
       1     369
       1     370
       1     371
       1     372
       1     373
       1     374
       1     375
       1     376
       1     377
       1     378
       1     379
       1     380
       1     381
       1     382
       1     383
       1     384
       1     385
       1     386
       1     387
       1     388
       1     389
       1     390
       1     391
       1     392
       1     393
       1     394
       1     395
       1     396
       1     397
       1     398
       1     399
       1     400
       1     401
       1     402
       1     403
       1     404
       1     405
       1     406
       1     407
       1     408
       1     409
       1     410
       1     411
       1     412
       1     413
       1     414
       1     415
       1     416
       1     417
       1     418
       1     419
       1     420
       1     421
       1     422
       1     423
       1     424
       1     425
       1     426
       1     427
       1     428
       1     429
       1     430
       1     431
       1     432
       1     433
       1     434
       1     435
       1     436
       1     437
       1     438
       1     439
       1     440
       1     441
       1     442
       1     443
       1     444
       1     445
       1     446
       1     447
       1     448
       1     449
       1     450
       1     451
       1     452
       1     453
       1     454
       1     455
       1     456
       1     457
       1     458
       1     459
       1     460
       1     461
       1     462
       1     463
       1     464
       1     465
       1     466
       1     467
       1     468
       1     469
       1     470
       1     471
       1     472
       1     473
       1     474
       1     475
       1     476
       1     477
       1     478
       1     479
       1     480
       1     481
       1     482
       1     483
       1     484
       1     485
       1     486
       1     487
       1     488
       1     489
       1     490
       1     491
       1     492
       1     493
       1     494
       1     495
       1     496
       1     497
       1     498
       1     499
       1     500
       1     501
       1     502
       1     503
       1     504
       1     505
       1     506
       1     507
       1     508
       1     509
       1     510
       1     511
       1     512
       1     513
       1     514
       1     515
       1     516
       1     517
       1     518
       1     519
       1     520
       1     521
       1     522
       1     523
       1     524
       1     525
       1     526
       1     527
       1     528
       1     529
       1     530
       1     531
       1     532
       1     533
       1     534
       1     535
       1     536
       1     537
       1     538
       1     539
       1     540
       1     541
       1     542
       1     543
       1     544
       1     545
       1     546
       1     547
       1     548
       1     549
       1     550
       1     551
       1     552
       1     553
       1     554
       1     555
       1     556
       1     557
       1     558
       1     559
       1     560
       1     561
       1     562
       1     563
       1     564
       1     565
       1     566
       1     567
       1     568
       1     569
       1     570
       1     571
       1     572
       1     573
       1     574
       1     575
       1     576
       1     577
       1     578
       1     579
       1     580
       1     581
       1     582
       1     583
       1     584
       1     585
       1     586
       1     587
       1     588
       1     589
       1     590
       1     591
       1     592
       1     593
       1     594
       1     595
       1     596
       1     597
       1     598
       1     599
       1     600
       1     601
       1     602
       1     603
       1     604
       1     605
       1     606
       1     607
       1     608
       1     609
       1     610
       1     611
       1     612
       1     613
       1     614
       1     615
       1     616
       1     617
       1     618
       1     619
       1     620
       1     621
       1     622
       1     623
       1     624
       1     625
       1     626
       1     627
       1     628
       1     629
       1     630
       1     631
       1     632
       1     633
       1     634
       1     635
       1     636
       1     637
       1     638
       1     639
       1     640
       1     641
       1     642
       1     643
       1     644
       1     645
       1     646
       1     647
       1     648
       1     649
       1     650
       1     651
       1     652
       1     653
       1     654
       1     655
       1     656
       1     657
       1     658
       1     659
       1     660
       1     661
       1     662
       1     663
       1     664
       1     665
       1     666
       1     667
       1     668
       1     669
       1     670
       1     671
       1     672
       1     673
       1     674
       1     675
       1     676
       1     677
       1     678
       1     679
       1     680
       1     681
       1     682
       1     683
       1     684
       1     685
       1     686
       1     687
       1     688
       1     689
       1     690
       1     691
       1     692
       1     693
       1     694
       1     695
       1     696
       1     697
       1     698
       1     699
       1     700
       1     701
       1     702
       1     703
       1     704
       1     705
       1     706
       1     707
       1     708
       1     709
       1     710
       1     711
       1     712
       1     713
       1     714
       1     715
       1     716
       1     717
       1     718
       1     719
       1     720
       1     721
       1     722
       1     723
       1     724
       1     725
       1     726
       1     727
       1     728
       1     729
       1     730
       1     731
       1     732
       1     733
       1     734
       1     735
       1     736
       1     737
       1     738
       1     739
       1     740
       1     741
       1     742
       1     743
       1     744
       1     745
       1     746
       1     747
       1     748
       1     749
       1     750
       1     751
       1     752
       1     753
       1     754
       1     755
       1     756
       1     757
       1     758
       1     759
       1     760
       1     761
       1     762
       1     763
       1     764
       1     765
       1     766
       1     767
       1     768
       1     769
       1     770
       1     771
       1     772
       1     773
       1     774
       1     775
       1     776
       1     777
       1     778
       1     779
       1     780
       1     781
       1     782
       1     783
       1     784
       1     785
       1     786
       1     787
       1     788
       1     789
       1     790
       1     791
       1     792
       1     793
       1     794
       1     795
       1     796
       1     797
       1     798
       1     799
       1     800
       1     801
       1     802
       1     803
       1     804
       1     805
       1     806
       1     807
       1     808
       1     809
       1     810
       1     811
       1     812
       1     813
       1     814
       1     815
       1     816
       1     817
       1     818
       1     819
       1     820
       1     821
       1     822
       1     823
       1     824
       1     825
       1     826
       1     827
       1     828
       1     829
       1     830
       1     831
       1     832
       1     833
       1     834
       1     835
       1     836
       1     837
       1     838
       1     839
       1     840
       1     841
       1     842
       1     843
       1     844
       1     845
       1     846
       1     847
       1     848
       1     849
       1     850
       1     851
       1     852
       1     853
       1     854
       1     855
       1     856
       1     857
       1     858
       1     859
       1     860
       1     861
       1     862
       1     863
       1     864
       1     865
       1     866
       1     867
       1     868
       1     869
       1     870
       1     871
       1     872
       1     873
       1     874
       1     875
       1     876
       1     877
       1     878
       1     879
       1     880
       1     881
       1     882
       1     883
       1     884
       1     885
       1     886
       1     887
       1     888
       1     889
       1     890
       1     891
       1     892
       1     893
       1     894
       1     895
       1     896
       1     897
       1     898
       1     899
       1     900
       1     901
       1     902
       1     903
       1     904
       1     905
       1     906
       1     907
       1     908
       1     909
       1     910
       1     911
       1     912
       1     913
       1     914
       1     915
       1     916
       1     917
       1     918
       1     919
       1     920
       1     921
       1     922
       1     923
       1     924
       1     925
       1     926
       1     927
       1     928
       1     929
       1     930
       1     931
       1     932
       1     933
       1     934
       1     935
       1     936
       1     937
       1     938
       1     939
       1     940
       1     941
       1     942
       1     943
       1     944
       1     945
       1     946
       1     947
       1     948
       1     949
       1     950
       1     951
       1     952
       1     953
       1     954
       1     955
       1     956
       1     957
       1     958
       1     959
       1     960
       1     961
       1     962
       1     963
       1     964
       1     965
       1     966
       1     967
       1     968
       1     969
       1     970
       1     971
       1     972
       1     973
       1     974
       1     975
       1     976
       1     977
       1     978
       1     979
       1     980
       1     981
       1     982
       1     983
       1     984
       1     985
       1     986
       1     987
       1     988
       1     989
       1     990
       1     991
       1     992
       1     993
       1     994
       1     995
       1     996
       1     997
       1     998
       1     999
       1    1000
       1    1001
       1    1002
       1    1003
       1    1004
       1    1005
       1    1006
       1    1007
       1    1008
       1    1009
       1    1010
       1    1011
       1    1012
       1    1013
       1    1014
       1    1015
       1    1016
       1    1017
       1    1018
       1    1019
       1    1020
       1    1021
       1    1022
       1    1023
       1    1024
       1    1025
       1    1026
       1    1027
       1    1028
       1    1029
       1    1030
       1    1031
       1    1032
       1    1033
       1    1034
       1    1035
       1    1036
       1    1037
       1    1038
       1    1039
       1    1040
       1    1041
       1    1042
       1    1043
       1    1044
       1    1045
       1    1046
       1    1047
       1    1048
       1    1049
       1    1050
       1    1051
       1    1052
       1    1053
       1    1054
       1    1055
       1    1056
       1    1057
       1    1058
       1    1059
       1    1060
       1    1061
       1    1062
       1    1063
       1    1064
       1    1065
       1    1066
       1    1067
       1    1068
       1    1069
       1    1070
       1    1071
       1    1072
       1    1073
       1    1074
       1    1075
       1    1076
       1    1077
       1    1078
       1    1079
       1    1080
       1    1081
       1    1082
       1    1083
       1    1084
       1    1085
       1    1086
       1    1087
       1    1088
       1    1089
       1    1090
       1    1091
       1    1092
       1    1093
       1    1094
       1    1095
       1    1096
       1    1097
       1    1098
       1    1099
       1    1100
       1    1101
       1    1102
       1    1103
       1    1104
       1    1105
       1    1106
       1    1107
       1    1108
       1    1109
       1    1110
       1    1111
       1    1112
       1    1113
       1    1114
       1    1115
       1    1116
       1    1117
       1    1118
       1    1119
       1    1120
       1    1121
       1    1122
       1    1123
       1    1124
       1    1125
       1    1126
       1    1127
       1    1128
       1    1129
       1    1130
       1    1131
       1    1132
       1    1133
       1    1134
       1    1135
       1    1136
       1    1137
       1    1138
       1    1139
       1    1140
       1    1141
       1    1142
       1    1143
       1    1144
       1    1145
       1    1146
       1    1147
       1    1148
       1    1149
       1    1150
       1    1151
       1    1152
       1    1153
       1    1154
       1    1155
       1    1156
       1    1157
       1    1158
       1    1159
       1    1160
       1    1161
       1    1162
       1    1163
       1    1164
       1    1165
       1    1166
       1    1167
       1    1168
       1    1169
       1    1170
       1    1171
       1    1172
       1    1173
       1    1174
       1    1175
       1    1176
       1    1177
       1    1178
       1    1179
       1    1180
       1    1181
       1    1182
       1    1183
       1    1184
       1    1185
       1    1186
       1    1187
       1    1188
       1    1189
       1    1190
       1    1191
       1    1192
       1    1193
       1    1194
       1    1195
       1    1196
       1    1197
       1    1198
       1    1199
       1    1200
       1    1201
       1    1202
       1    1203
       1    1204
       1    1205
       1    1206
       1    1207
       1    1208
       1    1209
       1    1210
       1    1211
       1    1212
       1    1213
       1    1214
       1    1215
       1    1216
       1    1217
       1    1218
       1    1219
       1    1220
       1    1221
       1    1222
       1    1223
       1    1224
       1    1225
       1    1226
       1    1227
       1    1228
       1    1229
       1    1230
       1    1231
       1    1232
       1    1233
       1    1234
       1    1235
       1    1236
       1    1237
       1    1238
       1    1239
       1    1240
       1    1241
       1    1242
       1    1243
       1    1244
       1    1245
       1    1246
       1    1247
       1    1248
       1    1249
       1    1250
       1    1251
       1    1252
       1    1253
       1    1254
       1    1255
       1    1256
       1    1257
       1    1258
       1    1259
       1    1260
       1    1261
       1    1262
       1    1263
       1    1264
       1    1265
       1    1266
       1    1267
       1    1268
       1    1269
       1    1270
       1    1271
       1    1272
       1    1273
       1    1274
       1    1275
       1    1276
       1    1277
       1    1278
       1    1279
       1    1280
       1    1281
       1    1282
       1    1283
       1    1284
       1    1285
       1    1286
       1    1287
       1    1288
       1    1289
       1    1290
       1    1291
       1    1292
       1    1293
       1    1294
       1    1295
       1    1296
       1    1297
       1    1298
       1    1299
       1    1300
       1    1301
       1    1302
       1    1303
       1    1304
       1    1305
       1    1306
       1    1307
       1    1308
       1    1309
       1    1310
       1    1311
       1    1312
       1    1313
       1    1314
       1    1315
       1    1316
       1    1317
       1    1318
       1    1319
       1    1320
       1    1321
       1    1322
       1    1323
       1    1324
       1    1325
       1    1326
       1    1327
       1    1328
       1    1329
       1    1330
       1    1331
       1    1332
       1    1333
       1    1334
       1    1335
       1    1336
       1    1337
       1    1338
       1    1339
       1    1340
       1    1341
       1    1342
       1    1343
       1    1344
       1    1345
       1    1346
       1    1347
       1    1348
       1    1349
       1    1350
       1    1351
       1    1352
       1    1353
       1    1354
       1    1355
       1    1356
       1    1357
       1    1358
       1    1359
       1    1360
       1    1361
       1    1362
       1    1363
       1    1364
       1    1365
       1    1366
       1    1367
       1    1368
       1    1369
       1    1370
       1    1371
       1    1372
       1    1373
       1    1374
       1    1375
       1    1376
       1    1377
       1    1378
       1    1379
       1    1380
       1    1381
       1    1382
       1    1383
       1    1384
       1    1385
       1    1386
       1    1387
       1    1388
       1    1389
       1    1390
       1    1391
       1    1392
       1    1393
       1    1394
       1    1395
       1    1396
       1    1397
       1    1398
       1    1399
       1    1400
       1    1401
       1    1402
       1    1403
       1    1404
       1    1405
       1    1406
       1    1407
       1    1408
       1    1409
       1    1410
       1    1411
       1    1412
       1    1413
       1    1414
       1    1415
       1    1416
       1    1417
       1    1418
       1    1419
       1    1420
       1    1421
       1    1422
       1    1423
       1    1424
       1    1425
       1    1426
       1    1427
       1    1428
       1    1429
       1    1430
       1    1431
       1    1432
       1    1433
       1    1434
       1    1435
       1    1436
       1    1437
       1    1438
       1    1439
       1    1440
       1    1441
       1    1442
       1    1443
       1    1444
       1    1445
       1    1446
       1    1447
       1    1448
       1    1449
       1    1450
       1    1451
       1    1452
       1    1453
       1    1454
       1    1455
       1    1456
       1    1457
       1    1458
       1    1459
       1    1460
       1    1461
       1    1462
       1    1463
       1    1464
       1    1465
       1    1466
       1    1467
       1    1468
       1    1469
       1    1470
       1    1471
       1    1472
       1    1473
       1    1474
       1    1475
       1    1476
       1    1477
       1    1478
       1    1479
       1    1480
       1    1481
       1    1482
       1    1483
       1    1484
       1    1485
       1    1486
       1    1487
       1    1488
       1    1489
       1    1490
       1    1491
       1    1492
       1    1493
       1    1494
       1    1495
       1    1496
       1    1497
       1    1498
       1    1499
       1    1500
       1    1501
       1    1502
       1    1503
       1    1504
       1    1505
       1    1506
       1    1507
       1    1508
       1    1509
       1    1510
       1    1511
       1    1512
       1    1513
       1    1514
       1    1515
       1    1516
       1    1517
       1    1518
       1    1519
       1    1520
       1    1521
       1    1522
       1    1523
       1    1524
       1    1525
       1    1526
       1    1527
       1    1528
       1    1529
       1    1530
       1    1531
       1    1532
       1    1533
       1    1534
       1    1535
       1    1536
       1    1537
       1    1538
       1    1539
       1    1540
       1    1541
       1    1542
       1    1543
       1    1544
       1    1545
       1    1546
       1    1547
       1    1548
       1    1549
       1    1550
       1    1551
       1    1552
       1    1553
       1    1554
       1    1555
       1    1556
       1    1557
       1    1558
       1    1559
       1    1560
       1    1561
       1    1562
       1    1563
       1    1564
       1    1565
       1    1566
       1    1567
       1    1568
       1    1569
       1    1570
       1    1571
       1    1572
       1    1573
       1    1574
       1    1575
       1    1576
       1    1577
       1    1578
       1    1579
       1    1580
       1    1581
       1    1582
       1    1583
       1    1584
       1    1585
       1    1586
       1    1587
       1    1588
       1    1589
       1    1590
       1    1591
       1    1592
       1    1593
       1    1594
       1    1595
       1    1596
       1    1597
       1    1598
       1    1599
       1    1600
       1    1601
       1    1602
       1    1603
       1    1604
       1    1605
       1    1606
       1    1607
       1    1608
       1    1609
       1    1610
       1    1611
       1    1612
       1    1613
       1    1614
       1    1615
       1    1616
       1    1617
       1    1618
       1    1619
       1    1620
       1    1621
       1    1622
       1    1623
       1    1624
       1    1625
       1    1626
       1    1627
       1    1628
       1    1629
       1    1630
       1    1631
       1    1632
       1    1633
       1    1634
       1    1635
       1    1636
       1    1637
       1    1638
       1    1639
       1    1640
       1    1641
       1    1642
       1    1643
       1    1644
       1    1645
       1    1646
       1    1647
       1    1648
       1    1649
       1    1650
       1    1651
       1    1652
       1    1653
       1    1654
       1    1655
       1    1656
       1    1657
       1    1658
       1    1659
       1    1660
       1    1661
       1    1662
       1    1663
       1    1664
       1    1665
       1    1666
       1    1667
       1    1668
       1    1669
       1    1670
       1    1671
       1    1672
       1    1673
       1    1674
       1    1675
       1    1676
       1    1677
       1    1678
       1    1679
       1    1680
       1    1681
       1    1682
       1    1683
       1    1684
       1    1685
       1    1686
       1    1687
       1    1688
       1    1689
       1    1690
       1    1691
       1    1692
       1    1693
       1    1694
       1    1695
       1    1696
       1    1697
       1    1698
       1    1699
       1    1700
       1    1701
       1    1702
       1    1703
       1    1704
       1    1705
       1    1706
       1    1707
       1    1708
       1    1709
       1    1710
       1    1711
       1    1712
       1    1713
       1    1714
       1    1715
       1    1716
       1    1717
       1    1718
       1    1719
       1    1720
       1    1721
       1    1722
       1    1723
       1    1724
       1    1725
       1    1726
       1    1727
       1    1728
       1    1729
       1    1730
       1    1731
       1    1732
       1    1733
       1    1734
       1    1735
       1    1736
       1    1737
       1    1738
       1    1739
       1    1740
       1    1741
       1    1742
       1    1743
       1    1744
       1    1745
       1    1746
       1    1747
       1    1748
       1    1749
       1    1750
       1    1751
       1    1752
       1    1753
       1    1754
       1    1755
       1    1756
       1    1757
       1    1758
       1    1759
       1    1760
       1    1761
       1    1762
       1    1763
       1    1764
       1    1765
       1    1766
       1    1767
       1    1768
       1    1769
       1    1770
       1    1771
       1    1772
       1    1773
       1    1774
       1    1775
       1    1776
       1    1777
       1    1778
       1    1779
       1    1780
       1    1781
       1    1782
       1    1783
       1    1784
       1    1785
       1    1786
       1    1787
       1    1788
       1    1789
       1    1790
       1    1791
       1    1792
       1    1793
       1    1794
       1    1795
       1    1796
       1    1797
       1    1798
       1    1799
       1    1800
       1    1801
       1    1802
       1    1803
       1    1804
       1    1805
       1    1806
       1    1807
       1    1808
       1    1809
       1    1810
       1    1811
       1    1812
       1    1813
       1    1814
       1    1815
       1    1816
       1    1817
       1    1818
       1    1819
       1    1820
       1    1821
       1    1822
       1    1823
       1    1824
       1    1825
       1    1826
       1    1827
       1    1828
       1    1829
       1    1830
       1    1831
       1    1832
       1    1833
       1    1834
       1    1835
       1    1836
       1    1837
       1    1838
       1    1839
       1    1840
       1    1841
       1    1842
       1    1843
       1    1844
       1    1845
       1    1846
       1    1847
       1    1848
       1    1849
       1    1850
       1    1851
       1    1852
       1    1853
       1    1854
       1    1855
       1    1856
       1    1857
       1    1858
       1    1859
       1    1860
       1    1861
       1    1862
       1    1863
       1    1864
       1    1865
       1    1866
       1    1867
       1    1868
       1    1869
       1    1870
       1    1871
       1    1872
       1    1873
       1    1874
       1    1875
       1    1876
       1    1877
       1    1878
       1    1879
       1    1880
       1    1881
       1    1882
       1    1883
       1    1884
       1    1885
       1    1886
       1    1887
       1    1888
       1    1889
       1    1890
       1    1891
       1    1892
       1    1893
       1    1894
       1    1895
       1    1896
       1    1897
       1    1898
       1    1899
       1    1900
       1    1901
       1    1902
       1    1903
       1    1904
       1    1905
       1    1906
       1    1907
       1    1908
       1    1909
       1    1910
       1    1911
       1    1912
       1    1913
       1    1914
       1    1915
       1    1916
       1    1917
       1    1918
       1    1919
       1    1920
       1    1921
       1    1922
       1    1923
       1    1924
       1    1925
       1    1926
       1    1927
       1    1928
       1    1929
       1    1930
       1    1931
       1    1932
       1    1933
       1    1934
       1    1935
       1    1936
       1    1937
       1    1938
       1    1939
       1    1940
       1    1941
       1    1942
       1    1943
       1    1944
       1    1945
       1    1946
       1    1947
       1    1948
       1    1949
       8       0       1       2       3       4       5       6       7
       8       2       8       9       3       6      10      11       7
       8      12       1       0      13      14       5       4      15
       8       0      16      17      13       4      18      19      15
       8      20      21      22      12      23      24      25      14
       8      26      27      21      20      28      29      24      23
       8      13      26      20      12      15      28      23      14
       8      30      31      16      32      33      34      18      35
       8      36      37      31      30      38      39      34      33
       8      40      41      37      36      42      43      39      38
       8      44      40      36      45      46      42      38      47
       8      48      17      16      31      49      19      18      34
       8      30      50      45      36      33      51      47      38
       8       0       3      32      16       4       7      35      18
       8      52      26      13      17      53      28      15      19
       8      54      52      17      48      55      53      19      49
       8      56      54      48      57      58      55      49      59
       8      37      57      48      31      39      59      49      34
       8      60      61      50      30      62      63      51      33
       8      64      60      30      32      65      62      33      35
       8      66      64      32       3      67      65      35       7
       8      68       8       2      69      70      10       6      71
       8      72      69       2       1      73      71       6       5
       8      22      72       1      12      25      73       5      14
       8      74      27      26      52      75      29      28      53
       8      76      74      52      54      77      75      53      55
       8      78      76      54      56      79      77      55      58
       8      80      78      56      81      82      79      58      83
       8      84      81      56      57      85      83      58      59
       8      41      84      57      37      43      85      59      39
       8      86      44      45      50      87      46      47      51
       8      88      86      50      61      89      87      51      63
       8      90      88      61      91      92      89      63      93
       8      94      91      61      60      95      93      63      62
       8      96      94      60      64      97      95      62      65
       8      98      96      64      66      99      97      65      67
       8     100      98      66     101     102      99      67     103
       8       9     101      66       3      11     103      67       7
       8     104     105       8      68     106     107      10      70
       8     108     104      68      69     109     106      70      71
       8     110     108      69      72     111     109      71      73
       8     112     110      72      22     113     111      73      25
       8     114     112      22      21     115     113      25      24
       8     116     114      21      27     117     115      24      29
       8     118     116      27      74     119     117      29      75
       8     120     118      74      76     121     119      75      77
       8     122     120      76      78     123     121      77      79
       8     124     122      78      80     125     123      79      82
       8     126     124      80      81     127     125      82      83
       8     128     126      81      84     129     127      83      85
       8     130     128      84      41     131     129      85      43
       8     132     130      41      40     133     131      43      42
       8     134     132      40      44     135     133      42      46
       8     136     134      44      86     137     135      46      87
       8     138     136      86      88     139     137      87      89
       8     140     138      88      90     141     139      89      92
       8     142     140      90      91     143     141      92      93
       8     144     142      91      94     145     143      93      95
       8     146     144      94      96     147     145      95      97
       8     148     146      96      98     149     147      97      99
       8     150     148      98     100     151     149      99     102
       8     152     150     100     101     153     151     102     103
       8     154     152     101       9     155     153     103      11
       8     105     154       9       8     107     155      11      10
       8     156     157     158     159       0       1       2       3
       8     158     160     161     159       2       8       9       3
       8     162     157     156     163      12       1       0      13
       8     156     164     165     163       0      16      17      13
       8     166     167     168     162      20      21      22      12
       8     169     170     167     166      26      27      21      20
       8     163     169     166     162      13      26      20      12
       8     171     172     164     173      30      31      16      32
       8     174     175     172     171      36      37      31      30
       8     176     177     175     174      40      41      37      36
       8     178     176     174     179      44      40      36      45
       8     180     165     164     172      48      17      16      31
       8     171     181     179     174      30      50      45      36
       8     156     159     173     164       0       3      32      16
       8     182     169     163     165      52      26      13      17
       8     183     182     165     180      54      52      17      48
       8     184     183     180     185      56      54      48      57
       8     175     185     180     172      37      57      48      31
       8     186     187     181     171      60      61      50      30
       8     188     186     171     173      64      60      30      32
       8     189     188     173     159      66      64      32       3
       8     190     160     158     191      68       8       2      69
       8     192     191     158     157      72      69       2       1
       8     168     192     157     162      22      72       1      12
       8     193     170     169     182      74      27      26      52
       8     194     193     182     183      76      74      52      54
       8     195     194     183     184      78      76      54      56
       8     196     195     184     197      80      78      56      81
       8     198     197     184     185      84      81      56      57
       8     177     198     185     175      41      84      57      37
       8     199     178     179     181      86      44      45      50
       8     200     199     181     187      88      86      50      61
       8     201     200     187     202      90      88      61      91
       8     203     202     187     186      94      91      61      60
       8     204     203     186     188      96      94      60      64
       8     205     204     188     189      98      96      64      66
       8     206     205     189     207     100      98      66     101
       8     161     207     189     159       9     101      66       3
       8     208     209     160     190     104     105       8      68
       8     210     208     190     191     108     104      68      69
       8     211     210     191     192     110     108      69      72
       8     212     211     192     168     112     110      72      22
       8     213     212     168     167     114     112      22      21
       8     214     213     167     170     116     114      21      27
       8     215     214     170     193     118     116      27      74
       8     216     215     193     194     120     118      74      76
       8     217     216     194     195     122     120      76      78
       8     218     217     195     196     124     122      78      80
       8     219     218     196     197     126     124      80      81
       8     220     219     197     198     128     126      81      84
       8     221     220     198     177     130     128      84      41
       8     222     221     177     176     132     130      41      40
       8     223     222     176     178     134     132      40      44
       8     224     223     178     199     136     134      44      86
       8     225     224     199     200     138     136      86      88
       8     226     225     200     201     140     138      88      90
       8     227     226     201     202     142     140      90      91
       8     228     227     202     203     144     142      91      94
       8     229     228     203     204     146     144      94      96
       8     230     229     204     205     148     146      96      98
       8     231     230     205     206     150     148      98     100
       8     232     231     206     207     152     150     100     101
       8     233     232     207     161     154     152     101       9
       8     209     233     161     160     105     154       9       8
       8     234     235     236     237     156     157     158     159
       8     236     238     239     237     158     160     161     159
       8     240     235     234     241     162     157     156     163
       8     234     242     243     241     156     164     165     163
       8     244     245     246     240     166     167     168     162
       8     247     248     245     244     169     170     167     166
       8     241     247     244     240     163     169     166     162
       8     249     250     242     251     171     172     164     173
       8     252     253     250     249     174     175     172     171
       8     254     255     253     252     176     177     175     174
       8     256     254     252     257     178     176     174     179
       8     258     243     242     250     180     165     164     172
       8     249     259     257     252     171     181     179     174
       8     234     237     251     242     156     159     173     164
       8     260     247     241     243     182     169     163     165
       8     261     260     243     258     183     182     165     180
       8     262     261     258     263     184     183     180     185
       8     253     263     258     250     175     185     180     172
       8     264     265     259     249     186     187     181     171
       8     266     264     249     251     188     186     171     173
       8     267     266     251     237     189     188     173     159
       8     268     238     236     269     190     160     158     191
       8     270     269     236     235     192     191     158     157
       8     246     270     235     240     168     192     157     162
       8     271     248     247     260     193     170     169     182
       8     272     271     260     261     194     193     182     183
       8     273     272     261     262     195     194     183     184
       8     274     273     262     275     196     195     184     197
       8     276     275     262     263     198     197     184     185
       8     255     276     263     253     177     198     185     175
       8     277     256     257     259     199     178     179     181
       8     278     277     259     265     200     199     181     187
       8     279     278     265     280     201     200     187     202
       8     281     280     265     264     203     202     187     186
       8     282     281     264     266     204     203     186     188
       8     283     282     266     267     205     204     188     189
       8     284     283     267     285     206     205     189     207
       8     239     285     267     237     161     207     189     159
       8     286     287     238     268     208     209     160     190
       8     288     286     268     269     210     208     190     191
       8     289     288     269     270     211     210     191     192
       8     290     289     270     246     212     211     192     168
       8     291     290     246     245     213     212     168     167
       8     292     291     245     248     214     213     167     170
       8     293     292     248     271     215     214     170     193
       8     294     293     271     272     216     215     193     194
       8     295     294     272     273     217     216     194     195
       8     296     295     273     274     218     217     195     196
       8     297     296     274     275     219     218     196     197
       8     298     297     275     276     220     219     197     198
       8     299     298     276     255     221     220     198     177
       8     300     299     255     254     222     221     177     176
       8     301     300     254     256     223     222     176     178
       8     302     301     256     277     224     223     178     199
       8     303     302     277     278     225     224     199     200
       8     304     303     278     279     226     225     200     201
       8     305     304     279     280     227     226     201     202
       8     306     305     280     281     228     227     202     203
       8     307     306     281     282     229     228     203     204
       8     308     307     282     283     230     229     204     205
       8     309     308     283     284     231     230     205     206
       8     310     309     284     285     232     231     206     207
       8     311     310     285     239     233     232     207     161
       8     287     311     239     238     209     233     161     160
       8     312     313     314     315     234     235     236     237
       8     314     316     317     315     236     238     239     237
       8     318     313     312     319     240     235     234     241
       8     312     320     321     319     234     242     243     241
       8     322     323     324     318     244     245     246     240
       8     325     326     323     322     247     248     245     244
       8     319     325     322     318     241     247     244     240
       8     327     328     320     329     249     250     242     251
       8     330     331     328     327     252     253     250     249
       8     332     333     331     330     254     255     253     252
       8     334     332     330     335     256     254     252     257
       8     336     321     320     328     258     243     242     250
       8     327     337     335     330     249     259     257     252
       8     312     315     329     320     234     237     251     242
       8     338     325     319     321     260     247     241     243
       8     339     338     321     336     261     260     243     258
       8     340     339     336     341     262     261     258     263
       8     331     341     336     328     253     263     258     250
       8     342     343     337     327     264     265     259     249
       8     344     342     327     329     266     264     249     251
       8     345     344     329     315     267     266     251     237
       8     346     316     314     347     268     238     236     269
       8     348     347     314     313     270     269     236     235
       8     324     348     313     318     246     270     235     240
       8     349     326     325     338     271     248     247     260
       8     350     349     338     339     272     271     260     261
       8     351     350     339     340     273     272     261     262
       8     352     351     340     353     274     273     262     275
       8     354     353     340     341     276     275     262     263
       8     333     354     341     331     255     276     263     253
       8     355     334     335     337     277     256     257     259
       8     356     355     337     343     278     277     259     265
       8     357     356     343     358     279     278     265     280
       8     359     358     343     342     281     280     265     264
       8     360     359     342     344     282     281     264     266
       8     361     360     344     345     283     282     266     267
       8     362     361     345     363     284     283     267     285
       8     317     363     345     315     239     285     267     237
       8     364     365     316     346     286     287     238     268
       8     366     364     346     347     288     286     268     269
       8     367     366     347     348     289     288     269     270
       8     368     367     348     324     290     289     270     246
       8     369     368     324     323     291     290     246     245
       8     370     369     323     326     292     291     245     248
       8     371     370     326     349     293     292     248     271
       8     372     371     349     350     294     293     271     272
       8     373     372     350     351     295     294     272     273
       8     374     373     351     352     296     295     273     274
       8     375     374     352     353     297     296     274     275
       8     376     375     353     354     298     297     275     276
       8     377     376     354     333     299     298     276     255
       8     378     377     333     332     300     299     255     254
       8     379     378     332     334     301     300     254     256
       8     380     379     334     355     302     301     256     277
       8     381     380     355     356     303     302     277     278
       8     382     381     356     357     304     303     278     279
       8     383     382     357     358     305     304     279     280
       8     384     383     358     359     306     305     280     281
       8     385     384     359     360     307     306     281     282
       8     386     385     360     361     308     307     282     283
       8     387     386     361     362     309     308     283     284
       8     388     387     362     363     310     309     284     285
       8     389     388     363     317     311     310     285     239
       8     365     389     317     316     287     311     239     238
       8     390     391     392     393     312     313     314     315
       8     392     394     395     393     314     316     317     315
       8     396     391     390     397     318     313     312     319
       8     390     398     399     397     312     320     321     319
       8     400     401     402     396     322     323     324     318
       8     403     404     401     400     325     326     323     322
       8     397     403     400     396     319     325     322     318
       8     405     406     398     407     327     328     320     329
       8     408     409     406     405     330     331     328     327
       8     410     411     409     408     332     333     331     330
       8     412     410     408     413     334     332     330     335
       8     414     399     398     406     336     321     320     328
       8     405     415     413     408     327     337     335     330
       8     390     393     407     398     312     315     329     320
       8     416     403     397     399     338     325     319     321
       8     417     416     399     414     339     338     321     336
       8     418     417     414     419     340     339     336     341
       8     409     419     414     406     331     341     336     328
       8     420     421     415     405     342     343     337     327
       8     422     420     405     407     344     342     327     329
       8     423     422     407     393     345     344     329     315
       8     424     394     392     425     346     316     314     347
       8     426     425     392     391     348     347     314     313
       8     402     426     391     396     324     348     313     318
       8     427     404     403     416     349     326     325     338
       8     428     427     416     417     350     349     338     339
       8     429     428     417     418     351     350     339     340
       8     430     429     418     431     352     351     340     353
       8     432     431     418     419     354     353     340     341
       8     411     432     419     409     333     354     341     331
       8     433     412     413     415     355     334     335     337
       8     434     433     415     421     356     355     337     343
       8     435     434     421     436     357     356     343     358
       8     437     436     421     420     359     358     343     342
       8     438     437     420     422     360     359     342     344
       8     439     438     422     423     361     360     344     345
       8     440     439     423     441     362     361     345     363
       8     395     441     423     393     317     363     345     315
       8     442     443     394     424     364     365     316     346
       8     444     442     424     425     366     364     346     347
       8     445     444     425     426     367     366     347     348
       8     446     445     426     402     368     367     348     324
       8     447     446     402     401     369     368     324     323
       8     448     447     401     404     370     369     323     326
       8     449     448     404     427     371     370     326     349
       8     450     449     427     428     372     371     349     350
       8     451     450     428     429     373     372     350     351
       8     452     451     429     430     374     373     351     352
       8     453     452     430     431     375     374     352     353
       8     454     453     431     432     376     375     353     354
       8     455     454     432     411     377     376     354     333
       8     456     455     411     410     378     377     333     332
       8     457     456     410     412     379     378     332     334
       8     458     457     412     433     380     379     334     355
       8     459     458     433     434     381     380     355     356
       8     460     459     434     435     382     381     356     357
       8     461     460     435     436     383     382     357     358
       8     462     461     436     437     384     383     358     359
       8     463     462     437     438     385     384     359     360
       8     464     463     438     439     386     385     360     361
       8     465     464     439     440     387     386     361     362
       8     466     465     440     441     388     387     362     363
       8     467     466     441     395     389     388     363     317
       8     443     467     395     394     365     389     317     316
       8     468     469     470     471     390     391     392     393
       8     470     472     473     471     392     394     395     393
       8     474     469     468     475     396     391     390     397
       8     468     476     477     475     390     398     399     397
       8     478     479     480     474     400     401     402     396
       8     481     482     479     478     403     404     401     400
       8     475     481     478     474     397     403     400     396
       8     483     484     476     485     405     406     398     407
       8     486     487     484     483     408     409     406     405
       8     488     489     487     486     410     411     409     408
       8     490     488     486     491     412     410     408     413
       8     492     477     476     484     414     399     398     406
       8     483     493     491     486     405     415     413     408
       8     468     471     485     476     390     393     407     398
       8     494     481     475     477     416     403     397     399
       8     495     494     477     492     417     416     399     414
       8     496     495     492     497     418     417     414     419
       8     487     497     492     484     409     419     414     406
       8     498     499     493     483     420     421     415     405
       8     500     498     483     485     422     420     405     407
       8     501     500     485     471     423     422     407     393
       8     502     472     470     503     424     394     392     425
       8     504     503     470     469     426     425     392     391
       8     480     504     469     474     402     426     391     396
       8     505     482     481     494     427     404     403     416
       8     506     505     494     495     428     427     416     417
       8     507     506     495     496     429     428     417     418
       8     508     507     496     509     430     429     418     431
       8     510     509     496     497     432     431     418     419
       8     489     510     497     487     411     432     419     409
       8     511     490     491     493     433     412     413     415
       8     512     511     493     499     434     433     415     421
       8     513     512     499     514     435     434     421     436
       8     515     514     499     498     437     436     421     420
       8     516     515     498     500     438     437     420     422
       8     517     516     500     501     439     438     422     423
       8     518     517     501     519     440     439     423     441
       8     473     519     501     471     395     441     423     393
       8     520     521     472     502     442     443     394     424
       8     522     520     502     503     444     442     424     425
       8     523     522     503     504     445     444     425     426
       8     524     523     504     480     446     445     426     402
       8     525     524     480     479     447     446     402     401
       8     526     525     479     482     448     447     401     404
       8     527     526     482     505     449     448     404     427
       8     528     527     505     506     450     449     427     428
       8     529     528     506     507     451     450     428     429
       8     530     529     507     508     452     451     429     430
       8     531     530     508     509     453     452     430     431
       8     532     531     509     510     454     453     431     432
       8     533     532     510     489     455     454     432     411
       8     534     533     489     488     456     455     411     410
       8     535     534     488     490     457     456     410     412
       8     536     535     490     511     458     457     412     433
       8     537     536     511     512     459     458     433     434
       8     538     537     512     513     460     459     434     435
       8     539     538     513     514     461     460     435     436
       8     540     539     514     515     462     461     436     437
       8     541     540     515     516     463     462     437     438
       8     542     541     516     517     464     463     438     439
       8     543     542     517     518     465     464     439     440
       8     544     543     518     519     466     465     440     441
       8     545     544     519     473     467     466     441     395
       8     521     545     473     472     443     467     395     394
       8     546     547     548     549     468     469     470     471
       8     548     550     551     549     470     472     473     471
       8     552     547     546     553     474     469     468     475
       8     546     554     555     553     468     476     477     475
       8     556     557     558     552     478     479     480     474
       8     559     560     557     556     481     482     479     478
       8     553     559     556     552     475     481     478     474
       8     561     562     554     563     483     484     476     485
       8     564     565     562     561     486     487     484     483
       8     566     567     565     564     488     489     487     486
       8     568     566     564     569     490     488     486     491
       8     570     555     554     562     492     477     476     484
       8     561     571     569     564     483     493     491     486
       8     546     549     563     554     468     471     485     476
       8     572     559     553     555     494     481     475     477
       8     573     572     555     570     495     494     477     492
       8     574     573     570     575     496     495     492     497
       8     565     575     570     562     487     497     492     484
       8     576     577     571     561     498     499     493     483
       8     578     576     561     563     500     498     483     485
       8     579     578     563     549     501     500     485     471
       8     580     550     548     581     502     472     470     503
       8     582     581     548     547     504     503     470     469
       8     558     582     547     552     480     504     469     474
       8     583     560     559     572     505     482     481     494
       8     584     583     572     573     506     505     494     495
       8     585     584     573     574     507     506     495     496
       8     586     585     574     587     508     507     496     509
       8     588     587     574     575     510     509     496     497
       8     567     588     575     565     489     510     497     487
       8     589     568     569     571     511     490     491     493
       8     590     589     571     577     512     511     493     499
       8     591     590     577     592     513     512     499     514
       8     593     592     577     576     515     514     499     498
       8     594     593     576     578     516     515     498     500
       8     595     594     578     579     517     516     500     501
       8     596     595     579     597     518     517     501     519
       8     551     597     579     549     473     519     501     471
       8     598     599     550     580     520     521     472     502
       8     600     598     580     581     522     520     502     503
       8     601     600     581     582     523     522     503     504
       8     602     601     582     558     524     523     504     480
       8     603     602     558     557     525     524     480     479
       8     604     603     557     560     526     525     479     482
       8     605     604     560     583     527     526     482     505
       8     606     605     583     584     528     527     505     506
       8     607     606     584     585     529     528     506     507
       8     608     607     585     586     530     529     507     508
       8     609     608     586     587     531     530     508     509
       8     610     609     587     588     532     531     509     510
       8     611     610     588     567     533     532     510     489
       8     612     611     567     566     534     533     489     488
       8     613     612     566     568     535     534     488     490
       8     614     613     568     589     536     535     490     511
       8     615     614     589     590     537     536     511     512
       8     616     615     590     591     538     537     512     513
       8     617     616     591     592     539     538     513     514
       8     618     617     592     593     540     539     514     515
       8     619     618     593     594     541     540     515     516
       8     620     619     594     595     542     541     516     517
       8     621     620     595     596     543     542     517     518
       8     622     621     596     597     544     543     518     519
       8     623     622     597     551     545     544     519     473
       8     599     623     551     550     521     545     473     472
       8     624     625     626     627     546     547     548     549
       8     626     628     629     627     548     550     551     549
       8     630     625     624     631     552     547     546     553
       8     624     632     633     631     546     554     555     553
       8     634     635     636     630     556     557     558     552
       8     637     638     635     634     559     560     557     556
       8     631     637     634     630     553     559     556     552
       8     639     640     632     641     561     562     554     563
       8     642     643     640     639     564     565     562     561
       8     644     645     643     642     566     567     565     564
       8     646     644     642     647     568     566     564     569
       8     648     633     632     640     570     555     554     562
       8     639     649     647     642     561     571     569     564
       8     624     627     641     632     546     549     563     554
       8     650     637     631     633     572     559     553     555
       8     651     650     633     648     573     572     555     570
       8     652     651     648     653     574     573     570     575
       8     643     653     648     640     565     575     570     562
       8     654     655     649     639     576     577     571     561
       8     656     654     639     641     578     576     561     563
       8     657     656     641     627     579     578     563     549
       8     658     628     626     659     580     550     548     581
       8     660     659     626     625     582     581     548     547
       8     636     660     625     630     558     582     547     552
       8     661     638     637     650     583     560     559     572
       8     662     661     650     651     584     583     572     573
       8     663     662     651     652     585     584     573     574
       8     664     663     652     665     586     585     574     587
       8     666     665     652     653     588     587     574     575
       8     645     666     653     643     567     588     575     565
       8     667     646     647     649     589     568     569     571
       8     668     667     649     655     590     589     571     577
       8     669     668     655     670     591     590     577     592
       8     671     670     655     654     593     592     577     576
       8     672     671     654     656     594     593     576     578
       8     673     672     656     657     595     594     578     579
       8     674     673     657     675     596     595     579     597
       8     629     675     657     627     551     597     579     549
       8     676     677     628     658     598     599     550     580
       8     678     676     658     659     600     598     580     581
       8     679     678     659     660     601     600     581     582
       8     680     679     660     636     602     601     582     558
       8     681     680     636     635     603     602     558     557
       8     682     681     635     638     604     603     557     560
       8     683     682     638     661     605     604     560     583
       8     684     683     661     662     606     605     583     584
       8     685     684     662     663     607     606     584     585
       8     686     685     663     664     608     607     585     586
       8     687     686     664     665     609     608     586     587
       8     688     687     665     666     610     609     587     588
       8     689     688     666     645     611     610     588     567
       8     690     689     645     644     612     611     567     566
       8     691     690     644     646     613     612     566     568
       8     692     691     646     667     614     613     568     589
       8     693     692     667     668     615     614     589     590
       8     694     693     668     669     616     615     590     591
       8     695     694     669     670     617     616     591     592
       8     696     695     670     671     618     617     592     593
       8     697     696     671     672     619     618     593     594
       8     698     697     672     673     620     619     594     595
       8     699     698     673     674     621     620     595     596
       8     700     699     674     675     622     621     596     597
       8     701     700     675     629     623     622     597     551
       8     677     701     629     628     599     623     551     550
       8     702     703     704     705     624     625     626     627
       8     704     706     707     705     626     628     629     627
       8     708     703     702     709     630     625     624     631
       8     702     710     711     709     624     632     633     631
       8     712     713     714     708     634     635     636     630
       8     715     716     713     712     637     638     635     634
       8     709     715     712     708     631     637     634     630
       8     717     718     710     719     639     640     632     641
       8     720     721     718     717     642     643     640     639
       8     722     723     721     720     644     645     643     642
       8     724     722     720     725     646     644     642     647
       8     726     711     710     718     648     633     632     640
       8     717     727     725     720     639     649     647     642
       8     702     705     719     710     624     627     641     632
       8     728     715     709     711     650     637     631     633
       8     729     728     711     726     651     650     633     648
       8     730     729     726     731     652     651     648     653
       8     721     731     726     718     643     653     648     640
       8     732     733     727     717     654     655     649     639
       8     734     732     717     719     656     654     639     641
       8     735     734     719     705     657     656     641     627
       8     736     706     704     737     658     628     626     659
       8     738     737     704     703     660     659     626     625
       8     714     738     703     708     636     660     625     630
       8     739     716     715     728     661     638     637     650
       8     740     739     728     729     662     661     650     651
       8     741     740     729     730     663     662     651     652
       8     742     741     730     743     664     663     652     665
       8     744     743     730     731     666     665     652     653
       8     723     744     731     721     645     666     653     643
       8     745     724     725     727     667     646     647     649
       8     746     745     727     733     668     667     649     655
       8     747     746     733     748     669     668     655     670
       8     749     748     733     732     671     670     655     654
       8     750     749     732     734     672     671     654     656
       8     751     750     734     735     673     672     656     657
       8     752     751     735     753     674     673     657     675
       8     707     753     735     705     629     675     657     627
       8     754     755     706     736     676     677     628     658
       8     756     754     736     737     678     676     658     659
       8     757     756     737     738     679     678     659     660
       8     758     757     738     714     680     679     660     636
       8     759     758     714     713     681     680     636     635
       8     760     759     713     716     682     681     635     638
       8     761     760     716     739     683     682     638     661
       8     762     761     739     740     684     683     661     662
       8     763     762     740     741     685     684     662     663
       8     764     763     741     742     686     685     663     664
       8     765     764     742     743     687     686     664     665
       8     766     765     743     744     688     687     665     666
       8     767     766     744     723     689     688     666     645
       8     768     767     723     722     690     689     645     644
       8     769     768     722     724     691     690     644     646
       8     770     769     724     745     692     691     646     667
       8     771     770     745     746     693     692     667     668
       8     772     771     746     747     694     693     668     669
       8     773     772     747     748     695     694     669     670
       8     774     773     748     749     696     695     670     671
       8     775     774     749     750     697     696     671     672
       8     776     775     750     751     698     697     672     673
       8     777     776     751     752     699     698     673     674
       8     778     777     752     753     700     699     674     675
       8     779     778     753     707     701     700     675     629
       8     755     779     707     706     677     701     629     628
       8     780     781     782     783     702     703     704     705
       8     782     784     785     783     704     706     707     705
       8     786     781     780     787     708     703     702     709
       8     780     788     789     787     702     710     711     709
       8     790     791     792     786     712     713     714     708
       8     793     794     791     790     715     716     713     712
       8     787     793     790     786     709     715     712     708
       8     795     796     788     797     717     718     710     719
       8     798     799     796     795     720     721     718     717
       8     800     801     799     798     722     723     721     720
       8     802     800     798     803     724     722     720     725
       8     804     789     788     796     726     711     710     718
       8     795     805     803     798     717     727     725     720
       8     780     783     797     788     702     705     719     710
       8     806     793     787     789     728     715     709     711
       8     807     806     789     804     729     728     711     726
       8     808     807     804     809     730     729     726     731
       8     799     809     804     796     721     731     726     718
       8     810     811     805     795     732     733     727     717
       8     812     810     795     797     734     732     717     719
       8     813     812     797     783     735     734     719     705
       8     814     784     782     815     736     706     704     737
       8     816     815     782     781     738     737     704     703
       8     792     816     781     786     714     738     703     708
       8     817     794     793     806     739     716     715     728
       8     818     817     806     807     740     739     728     729
       8     819     818     807     808     741     740     729     730
       8     820     819     808     821     742     741     730     743
       8     822     821     808     809     744     743     730     731
       8     801     822     809     799     723     744     731     721
       8     823     802     803     805     745     724     725     727
       8     824     823     805     811     746     745     727     733
       8     825     824     811     826     747     746     733     748
       8     827     826     811     810     749     748     733     732
       8     828     827     810     812     750     749     732     734
       8     829     828     812     813     751     750     734     735
       8     830     829     813     831     752     751     735     753
       8     785     831     813     783     707     753     735     705
       8     832     833     784     814     754     755     706     736
       8     834     832     814     815     756     754     736     737
       8     835     834     815     816     757     756     737     738
       8     836     835     816     792     758     757     738     714
       8     837     836     792     791     759     758     714     713
       8     838     837     791     794     760     759     713     716
       8     839     838     794     817     761     760     716     739
       8     840     839     817     818     762     761     739     740
       8     841     840     818     819     763     762     740     741
       8     842     841     819     820     764     763     741     742
       8     843     842     820     821     765     764     742     743
       8     844     843     821     822     766     765     743     744
       8     845     844     822     801     767     766     744     723
       8     846     845     801     800     768     767     723     722
       8     847     846     800     802     769     768     722     724
       8     848     847     802     823     770     769     724     745
       8     849     848     823     824     771     770     745     746
       8     850     849     824     825     772     771     746     747
       8     851     850     825     826     773     772     747     748
       8     852     851     826     827     774     773     748     749
       8     853     852     827     828     775     774     749     750
       8     854     853     828     829     776     775     750     751
       8     855     854     829     830     777     776     751     752
       8     856     855     830     831     778     777     752     753
       8     857     856     831     785     779     778     753     707
       8     833     857     785     784     755     779     707     706
       8     858     859     860     861     780     781     782     783
       8     860     862     863     861     782     784     785     783
       8     864     859     858     865     786     781     780     787
       8     858     866     867     865     780     788     789     787
       8     868     869     870     864     790     791     792     786
       8     871     872     869     868     793     794     791     790
       8     865     871     868     864     787     793     790     786
       8     873     874     866     875     795     796     788     797
       8     876     877     874     873     798     799     796     795
       8     878     879     877     876     800     801     799     798
       8     880     878     876     881     802     800     798     803
       8     882     867     866     874     804     789     788     796
       8     873     883     881     876     795     805     803     798
       8     858     861     875     866     780     783     797     788
       8     884     871     865     867     806     793     787     789
       8     885     884     867     882     807     806     789     804
       8     886     885     882     887     808     807     804     809
       8     877     887     882     874     799     809     804     796
       8     888     889     883     873     810     811     805     795
       8     890     888     873     875     812     810     795     797
       8     891     890     875     861     813     812     797     783
       8     892     862     860     893     814     784     782     815
       8     894     893     860     859     816     815     782     781
       8     870     894     859     864     792     816     781     786
       8     895     872     871     884     817     794     793     806
       8     896     895     884     885     818     817     806     807
       8     897     896     885     886     819     818     807     808
       8     898     897     886     899     820     819     808     821
       8     900     899     886     887     822     821     808     809
       8     879     900     887     877     801     822     809     799
       8     901     880     881     883     823     802     803     805
       8     902     901     883     889     824     823     805     811
       8     903     902     889     904     825     824     811     826
       8     905     904     889     888     827     826     811     810
       8     906     905     888     890     828     827     810     812
       8     907     906     890     891     829     828     812     813
       8     908     907     891     909     830     829     813     831
       8     863     909     891     861     785     831     813     783
       8     910     911     862     892     832     833     784     814
       8     912     910     892     893     834     832     814     815
       8     913     912     893     894     835     834     815     816
       8     914     913     894     870     836     835     816     792
       8     915     914     870     869     837     836     792     791
       8     916     915     869     872     838     837     791     794
       8     917     916     872     895     839     838     794     817
       8     918     917     895     896     840     839     817     818
       8     919     918     896     897     841     840     818     819
       8     920     919     897     898     842     841     819     820
       8     921     920     898     899     843     842     820     821
       8     922     921     899     900     844     843     821     822
       8     923     922     900     879     845     844     822     801
       8     924     923     879     878     846     845     801     800
       8     925     924     878     880     847     846     800     802
       8     926     925     880     901     848     847     802     823
       8     927     926     901     902     849     848     823     824
       8     928     927     902     903     850     849     824     825
       8     929     928     903     904     851     850     825     826
       8     930     929     904     905     852     851     826     827
       8     931     930     905     906     853     852     827     828
       8     932     931     906     907     854     853     828     829
       8     933     932     907     908     855     854     829     830
       8     934     933     908     909     856     855     830     831
       8     935     934     909     863     857     856     831     785
       8     911     935     863     862     833     857     785     784
       8     936     937     938     939     858     859     860     861
       8     938     940     941     939     860     862     863     861
       8     942     937     936     943     864     859     858     865
       8     936     944     945     943     858     866     867     865
       8     946     947     948     942     868     869     870     864
       8     949     950     947     946     871     872     869     868
       8     943     949     946     942     865     871     868     864
       8     951     952     944     953     873     874     866     875
       8     954     955     952     951     876     877     874     873
       8     956     957     955     954     878     879     877     876
       8     958     956     954     959     880     878     876     881
       8     960     945     944     952     882     867     866     874
       8     951     961     959     954     873     883     881     876
       8     936     939     953     944     858     861     875     866
       8     962     949     943     945     884     871     865     867
       8     963     962     945     960     885     884     867     882
       8     964     963     960     965     886     885     882     887
       8     955     965     960     952     877     887     882     874
       8     966     967     961     951     888     889     883     873
       8     968     966     951     953     890     888     873     875
       8     969     968     953     939     891     890     875     861
       8     970     940     938     971     892     862     860     893
       8     972     971     938     937     894     893     860     859
       8     948     972     937     942     870     894     859     864
       8     973     950     949     962     895     872     871     884
       8     974     973     962     963     896     895     884     885
       8     975     974     963     964     897     896     885     886
       8     976     975     964     977     898     897     886     899
       8     978     977     964     965     900     899     886     887
       8     957     978     965     955     879     900     887     877
       8     979     958     959     961     901     880     881     883
       8     980     979     961     967     902     901     883     889
       8     981     980     967     982     903     902     889     904
       8     983     982     967     966     905     904     889     888
       8     984     983     966     968     906     905     888     890
       8     985     984     968     969     907     906     890     891
       8     986     985     969     987     908     907     891     909
       8     941     987     969     939     863     909     891     861
       8     988     989     940     970     910     911     862     892
       8     990     988     970     971     912     910     892     893
       8     991     990     971     972     913     912     893     894
       8     992     991     972     948     914     913     894     870
       8     993     992     948     947     915     914     870     869
       8     994     993     947     950     916     915     869     872
       8     995     994     950     973     917     916     872     895
       8     996     995     973     974     918     917     895     896
       8     997     996     974     975     919     918     896     897
       8     998     997     975     976     920     919     897     898
       8     999     998     976     977     921     920     898     899
       8    1000     999     977     978     922     921     899     900
       8    1001    1000     978     957     923     922     900     879
       8    1002    1001     957     956     924     923     879     878
       8    1003    1002     956     958     925     924     878     880
       8    1004    1003     958     979     926     925     880     901
       8    1005    1004     979     980     927     926     901     902
       8    1006    1005     980     981     928     927     902     903
       8    1007    1006     981     982     929     928     903     904
       8    1008    1007     982     983     930     929     904     905
       8    1009    1008     983     984     931     930     905     906
       8    1010    1009     984     985     932     931     906     907
       8    1011    1010     985     986     933     932     907     908
       8    1012    1011     986     987     934     933     908     909
       8    1013    1012     987     941     935     934     909     863
       8     989    1013     941     940     911     935     863     862
       8    1014    1015    1016    1017     936     937     938     939
       8    1016    1018    1019    1017     938     940     941     939
       8    1020    1015    1014    1021     942     937     936     943
       8    1014    1022    1023    1021     936     944     945     943
       8    1024    1025    1026    1020     946     947     948     942
       8    1027    1028    1025    1024     949     950     947     946
       8    1021    1027    1024    1020     943     949     946     942
       8    1029    1030    1022    1031     951     952     944     953
       8    1032    1033    1030    1029     954     955     952     951
       8    1034    1035    1033    1032     956     957     955     954
       8    1036    1034    1032    1037     958     956     954     959
       8    1038    1023    1022    1030     960     945     944     952
       8    1029    1039    1037    1032     951     961     959     954
       8    1014    1017    1031    1022     936     939     953     944
       8    1040    1027    1021    1023     962     949     943     945
       8    1041    1040    1023    1038     963     962     945     960
       8    1042    1041    1038    1043     964     963     960     965
       8    1033    1043    1038    1030     955     965     960     952
       8    1044    1045    1039    1029     966     967     961     951
       8    1046    1044    1029    1031     968     966     951     953
       8    1047    1046    1031    1017     969     968     953     939
       8    1048    1018    1016    1049     970     940     938     971
       8    1050    1049    1016    1015     972     971     938     937
       8    1026    1050    1015    1020     948     972     937     942
       8    1051    1028    1027    1040     973     950     949     962
       8    1052    1051    1040    1041     974     973     962     963
       8    1053    1052    1041    1042     975     974     963     964
       8    1054    1053    1042    1055     976     975     964     977
       8    1056    1055    1042    1043     978     977     964     965
       8    1035    1056    1043    1033     957     978     965     955
       8    1057    1036    1037    1039     979     958     959     961
       8    1058    1057    1039    1045     980     979     961     967
       8    1059    1058    1045    1060     981     980     967     982
       8    1061    1060    1045    1044     983     982     967     966
       8    1062    1061    1044    1046     984     983     966     968
       8    1063    1062    1046    1047     985     984     968     969
       8    1064    1063    1047    1065     986     985     969     987
       8    1019    1065    1047    1017     941     987     969     939
       8    1066    1067    1018    1048     988     989     940     970
       8    1068    1066    1048    1049     990     988     970     971
       8    1069    1068    1049    1050     991     990     971     972
       8    1070    1069    1050    1026     992     991     972     948
       8    1071    1070    1026    1025     993     992     948     947
       8    1072    1071    1025    1028     994     993     947     950
       8    1073    1072    1028    1051     995     994     950     973
       8    1074    1073    1051    1052     996     995     973     974
       8    1075    1074    1052    1053     997     996     974     975
       8    1076    1075    1053    1054     998     997     975     976
       8    1077    1076    1054    1055     999     998     976     977
       8    1078    1077    1055    1056    1000     999     977     978
       8    1079    1078    1056    1035    1001    1000     978     957
       8    1080    1079    1035    1034    1002    1001     957     956
       8    1081    1080    1034    1036    1003    1002     956     958
       8    1082    1081    1036    1057    1004    1003     958     979
       8    1083    1082    1057    1058    1005    1004     979     980
       8    1084    1083    1058    1059    1006    1005     980     981
       8    1085    1084    1059    1060    1007    1006     981     982
       8    1086    1085    1060    1061    1008    1007     982     983
       8    1087    1086    1061    1062    1009    1008     983     984
       8    1088    1087    1062    1063    1010    1009     984     985
       8    1089    1088    1063    1064    1011    1010     985     986
       8    1090    1089    1064    1065    1012    1011     986     987
       8    1091    1090    1065    1019    1013    1012     987     941
       8    1067    1091    1019    1018     989    1013     941     940
       8    1092    1093    1094    1095    1014    1015    1016    1017
       8    1094    1096    1097    1095    1016    1018    1019    1017
       8    1098    1093    1092    1099    1020    1015    1014    1021
       8    1092    1100    1101    1099    1014    1022    1023    1021
       8    1102    1103    1104    1098    1024    1025    1026    1020
       8    1105    1106    1103    1102    1027    1028    1025    1024
       8    1099    1105    1102    1098    1021    1027    1024    1020
       8    1107    1108    1100    1109    1029    1030    1022    1031
       8    1110    1111    1108    1107    1032    1033    1030    1029
       8    1112    1113    1111    1110    1034    1035    1033    1032
       8    1114    1112    1110    1115    1036    1034    1032    1037
       8    1116    1101    1100    1108    1038    1023    1022    1030
       8    1107    1117    1115    1110    1029    1039    1037    1032
       8    1092    1095    1109    1100    1014    1017    1031    1022
       8    1118    1105    1099    1101    1040    1027    1021    1023
       8    1119    1118    1101    1116    1041    1040    1023    1038
       8    1120    1119    1116    1121    1042    1041    1038    1043
       8    1111    1121    1116    1108    1033    1043    1038    1030
       8    1122    1123    1117    1107    1044    1045    1039    1029
       8    1124    1122    1107    1109    1046    1044    1029    1031
       8    1125    1124    1109    1095    1047    1046    1031    1017
       8    1126    1096    1094    1127    1048    1018    1016    1049
       8    1128    1127    1094    1093    1050    1049    1016    1015
       8    1104    1128    1093    1098    1026    1050    1015    1020
       8    1129    1106    1105    1118    1051    1028    1027    1040
       8    1130    1129    1118    1119    1052    1051    1040    1041
       8    1131    1130    1119    1120    1053    1052    1041    1042
       8    1132    1131    1120    1133    1054    1053    1042    1055
       8    1134    1133    1120    1121    1056    1055    1042    1043
       8    1113    1134    1121    1111    1035    1056    1043    1033
       8    1135    1114    1115    1117    1057    1036    1037    1039
       8    1136    1135    1117    1123    1058    1057    1039    1045
       8    1137    1136    1123    1138    1059    1058    1045    1060
       8    1139    1138    1123    1122    1061    1060    1045    1044
       8    1140    1139    1122    1124    1062    1061    1044    1046
       8    1141    1140    1124    1125    1063    1062    1046    1047
       8    1142    1141    1125    1143    1064    1063    1047    1065
       8    1097    1143    1125    1095    1019    1065    1047    1017
       8    1144    1145    1096    1126    1066    1067    1018    1048
       8    1146    1144    1126    1127    1068    1066    1048    1049
       8    1147    1146    1127    1128    1069    1068    1049    1050
       8    1148    1147    1128    1104    1070    1069    1050    1026
       8    1149    1148    1104    1103    1071    1070    1026    1025
       8    1150    1149    1103    1106    1072    1071    1025    1028
       8    1151    1150    1106    1129    1073    1072    1028    1051
       8    1152    1151    1129    1130    1074    1073    1051    1052
       8    1153    1152    1130    1131    1075    1074    1052    1053
       8    1154    1153    1131    1132    1076    1075    1053    1054
       8    1155    1154    1132    1133    1077    1076    1054    1055
       8    1156    1155    1133    1134    1078    1077    1055    1056
       8    1157    1156    1134    1113    1079    1078    1056    1035
       8    1158    1157    1113    1112    1080    1079    1035    1034
       8    1159    1158    1112    1114    1081    1080    1034    1036
       8    1160    1159    1114    1135    1082    1081    1036    1057
       8    1161    1160    1135    1136    1083    1082    1057    1058
       8    1162    1161    1136    1137    1084    1083    1058    1059
       8    1163    1162    1137    1138    1085    1084    1059    1060
       8    1164    1163    1138    1139    1086    1085    1060    1061
       8    1165    1164    1139    1140    1087    1086    1061    1062
       8    1166    1165    1140    1141    1088    1087    1062    1063
       8    1167    1166    1141    1142    1089    1088    1063    1064
       8    1168    1167    1142    1143    1090    1089    1064    1065
       8    1169    1168    1143    1097    1091    1090    1065    1019
       8    1145    1169    1097    1096    1067    1091    1019    1018
       8    1170    1171    1172    1173    1092    1093    1094    1095
       8    1172    1174    1175    1173    1094    1096    1097    1095
       8    1176    1171    1170    1177    1098    1093    1092    1099
       8    1170    1178    1179    1177    1092    1100    1101    1099
       8    1180    1181    1182    1176    1102    1103    1104    1098
       8    1183    1184    1181    1180    1105    1106    1103    1102
       8    1177    1183    1180    1176    1099    1105    1102    1098
       8    1185    1186    1178    1187    1107    1108    1100    1109
       8    1188    1189    1186    1185    1110    1111    1108    1107
       8    1190    1191    1189    1188    1112    1113    1111    1110
       8    1192    1190    1188    1193    1114    1112    1110    1115
       8    1194    1179    1178    1186    1116    1101    1100    1108
       8    1185    1195    1193    1188    1107    1117    1115    1110
       8    1170    1173    1187    1178    1092    1095    1109    1100
       8    1196    1183    1177    1179    1118    1105    1099    1101
       8    1197    1196    1179    1194    1119    1118    1101    1116
       8    1198    1197    1194    1199    1120    1119    1116    1121
       8    1189    1199    1194    1186    1111    1121    1116    1108
       8    1200    1201    1195    1185    1122    1123    1117    1107
       8    1202    1200    1185    1187    1124    1122    1107    1109
       8    1203    1202    1187    1173    1125    1124    1109    1095
       8    1204    1174    1172    1205    1126    1096    1094    1127
       8    1206    1205    1172    1171    1128    1127    1094    1093
       8    1182    1206    1171    1176    1104    1128    1093    1098
       8    1207    1184    1183    1196    1129    1106    1105    1118
       8    1208    1207    1196    1197    1130    1129    1118    1119
       8    1209    1208    1197    1198    1131    1130    1119    1120
       8    1210    1209    1198    1211    1132    1131    1120    1133
       8    1212    1211    1198    1199    1134    1133    1120    1121
       8    1191    1212    1199    1189    1113    1134    1121    1111
       8    1213    1192    1193    1195    1135    1114    1115    1117
       8    1214    1213    1195    1201    1136    1135    1117    1123
       8    1215    1214    1201    1216    1137    1136    1123    1138
       8    1217    1216    1201    1200    1139    1138    1123    1122
       8    1218    1217    1200    1202    1140    1139    1122    1124
       8    1219    1218    1202    1203    1141    1140    1124    1125
       8    1220    1219    1203    1221    1142    1141    1125    1143
       8    1175    1221    1203    1173    1097    1143    1125    1095
       8    1222    1223    1174    1204    1144    1145    1096    1126
       8    1224    1222    1204    1205    1146    1144    1126    1127
       8    1225    1224    1205    1206    1147    1146    1127    1128
       8    1226    1225    1206    1182    1148    1147    1128    1104
       8    1227    1226    1182    1181    1149    1148    1104    1103
       8    1228    1227    1181    1184    1150    1149    1103    1106
       8    1229    1228    1184    1207    1151    1150    1106    1129
       8    1230    1229    1207    1208    1152    1151    1129    1130
       8    1231    1230    1208    1209    1153    1152    1130    1131
       8    1232    1231    1209    1210    1154    1153    1131    1132
       8    1233    1232    1210    1211    1155    1154    1132    1133
       8    1234    1233    1211    1212    1156    1155    1133    1134
       8    1235    1234    1212    1191    1157    1156    1134    1113
       8    1236    1235    1191    1190    1158    1157    1113    1112
       8    1237    1236    1190    1192    1159    1158    1112    1114
       8    1238    1237    1192    1213    1160    1159    1114    1135
       8    1239    1238    1213    1214    1161    1160    1135    1136
       8    1240    1239    1214    1215    1162    1161    1136    1137
       8    1241    1240    1215    1216    1163    1162    1137    1138
       8    1242    1241    1216    1217    1164    1163    1138    1139
       8    1243    1242    1217    1218    1165    1164    1139    1140
       8    1244    1243    1218    1219    1166    1165    1140    1141
       8    1245    1244    1219    1220    1167    1166    1141    1142
       8    1246    1245    1220    1221    1168    1167    1142    1143
       8    1247    1246    1221    1175    1169    1168    1143    1097
       8    1223    1247    1175    1174    1145    1169    1097    1096
       8    1248    1249    1250    1251    1170    1171    1172    1173
       8    1250    1252    1253    1251    1172    1174    1175    1173
       8    1254    1249    1248    1255    1176    1171    1170    1177
       8    1248    1256    1257    1255    1170    1178    1179    1177
       8    1258    1259    1260    1254    1180    1181    1182    1176
       8    1261    1262    1259    1258    1183    1184    1181    1180
       8    1255    1261    1258    1254    1177    1183    1180    1176
       8    1263    1264    1256    1265    1185    1186    1178    1187
       8    1266    1267    1264    1263    1188    1189    1186    1185
       8    1268    1269    1267    1266    1190    1191    1189    1188
       8    1270    1268    1266    1271    1192    1190    1188    1193
       8    1272    1257    1256    1264    1194    1179    1178    1186
       8    1263    1273    1271    1266    1185    1195    1193    1188
       8    1248    1251    1265    1256    1170    1173    1187    1178
       8    1274    1261    1255    1257    1196    1183    1177    1179
       8    1275    1274    1257    1272    1197    1196    1179    1194
       8    1276    1275    1272    1277    1198    1197    1194    1199
       8    1267    1277    1272    1264    1189    1199    1194    1186
       8    1278    1279    1273    1263    1200    1201    1195    1185
       8    1280    1278    1263    1265    1202    1200    1185    1187
       8    1281    1280    1265    1251    1203    1202    1187    1173
       8    1282    1252    1250    1283    1204    1174    1172    1205
       8    1284    1283    1250    1249    1206    1205    1172    1171
       8    1260    1284    1249    1254    1182    1206    1171    1176
       8    1285    1262    1261    1274    1207    1184    1183    1196
       8    1286    1285    1274    1275    1208    1207    1196    1197
       8    1287    1286    1275    1276    1209    1208    1197    1198
       8    1288    1287    1276    1289    1210    1209    1198    1211
       8    1290    1289    1276    1277    1212    1211    1198    1199
       8    1269    1290    1277    1267    1191    1212    1199    1189
       8    1291    1270    1271    1273    1213    1192    1193    1195
       8    1292    1291    1273    1279    1214    1213    1195    1201
       8    1293    1292    1279    1294    1215    1214    1201    1216
       8    1295    1294    1279    1278    1217    1216    1201    1200
       8    1296    1295    1278    1280    1218    1217    1200    1202
       8    1297    1296    1280    1281    1219    1218    1202    1203
       8    1298    1297    1281    1299    1220    1219    1203    1221
       8    1253    1299    1281    1251    1175    1221    1203    1173
       8    1300    1301    1252    1282    1222    1223    1174    1204
       8    1302    1300    1282    1283    1224    1222    1204    1205
       8    1303    1302    1283    1284    1225    1224    1205    1206
       8    1304    1303    1284    1260    1226    1225    1206    1182
       8    1305    1304    1260    1259    1227    1226    1182    1181
       8    1306    1305    1259    1262    1228    1227    1181    1184
       8    1307    1306    1262    1285    1229    1228    1184    1207
       8    1308    1307    1285    1286    1230    1229    1207    1208
       8    1309    1308    1286    1287    1231    1230    1208    1209
       8    1310    1309    1287    1288    1232    1231    1209    1210
       8    1311    1310    1288    1289    1233    1232    1210    1211
       8    1312    1311    1289    1290    1234    1233    1211    1212
       8    1313    1312    1290    1269    1235    1234    1212    1191
       8    1314    1313    1269    1268    1236    1235    1191    1190
       8    1315    1314    1268    1270    1237    1236    1190    1192
       8    1316    1315    1270    1291    1238    1237    1192    1213
       8    1317    1316    1291    1292    1239    1238    1213    1214
       8    1318    1317    1292    1293    1240    1239    1214    1215
       8    1319    1318    1293    1294    1241    1240    1215    1216
       8    1320    1319    1294    1295    1242    1241    1216    1217
       8    1321    1320    1295    1296    1243    1242    1217    1218
       8    1322    1321    1296    1297    1244    1243    1218    1219
       8    1323    1322    1297    1298    1245    1244    1219    1220
       8    1324    1323    1298    1299    1246    1245    1220    1221
       8    1325    1324    1299    1253    1247    1246    1221    1175
       8    1301    1325    1253    1252    1223    1247    1175    1174
       8    1326    1327    1328    1329    1248    1249    1250    1251
       8    1328    1330    1331    1329    1250    1252    1253    1251
       8    1332    1327    1326    1333    1254    1249    1248    1255
       8    1326    1334    1335    1333    1248    1256    1257    1255
       8    1336    1337    1338    1332    1258    1259    1260    1254
       8    1339    1340    1337    1336    1261    1262    1259    1258
       8    1333    1339    1336    1332    1255    1261    1258    1254
       8    1341    1342    1334    1343    1263    1264    1256    1265
       8    1344    1345    1342    1341    1266    1267    1264    1263
       8    1346    1347    1345    1344    1268    1269    1267    1266
       8    1348    1346    1344    1349    1270    1268    1266    1271
       8    1350    1335    1334    1342    1272    1257    1256    1264
       8    1341    1351    1349    1344    1263    1273    1271    1266
       8    1326    1329    1343    1334    1248    1251    1265    1256
       8    1352    1339    1333    1335    1274    1261    1255    1257
       8    1353    1352    1335    1350    1275    1274    1257    1272
       8    1354    1353    1350    1355    1276    1275    1272    1277
       8    1345    1355    1350    1342    1267    1277    1272    1264
       8    1356    1357    1351    1341    1278    1279    1273    1263
       8    1358    1356    1341    1343    1280    1278    1263    1265
       8    1359    1358    1343    1329    1281    1280    1265    1251
       8    1360    1330    1328    1361    1282    1252    1250    1283
       8    1362    1361    1328    1327    1284    1283    1250    1249
       8    1338    1362    1327    1332    1260    1284    1249    1254
       8    1363    1340    1339    1352    1285    1262    1261    1274
       8    1364    1363    1352    1353    1286    1285    1274    1275
       8    1365    1364    1353    1354    1287    1286    1275    1276
       8    1366    1365    1354    1367    1288    1287    1276    1289
       8    1368    1367    1354    1355    1290    1289    1276    1277
       8    1347    1368    1355    1345    1269    1290    1277    1267
       8    1369    1348    1349    1351    1291    1270    1271    1273
       8    1370    1369    1351    1357    1292    1291    1273    1279
       8    1371    1370    1357    1372    1293    1292    1279    1294
       8    1373    1372    1357    1356    1295    1294    1279    1278
       8    1374    1373    1356    1358    1296    1295    1278    1280
       8    1375    1374    1358    1359    1297    1296    1280    1281
       8    1376    1375    1359    1377    1298    1297    1281    1299
       8    1331    1377    1359    1329    1253    1299    1281    1251
       8    1378    1379    1330    1360    1300    1301    1252    1282
       8    1380    1378    1360    1361    1302    1300    1282    1283
       8    1381    1380    1361    1362    1303    1302    1283    1284
       8    1382    1381    1362    1338    1304    1303    1284    1260
       8    1383    1382    1338    1337    1305    1304    1260    1259
       8    1384    1383    1337    1340    1306    1305    1259    1262
       8    1385    1384    1340    1363    1307    1306    1262    1285
       8    1386    1385    1363    1364    1308    1307    1285    1286
       8    1387    1386    1364    1365    1309    1308    1286    1287
       8    1388    1387    1365    1366    1310    1309    1287    1288
       8    1389    1388    1366    1367    1311    1310    1288    1289
       8    1390    1389    1367    1368    1312    1311    1289    1290
       8    1391    1390    1368    1347    1313    1312    1290    1269
       8    1392    1391    1347    1346    1314    1313    1269    1268
       8    1393    1392    1346    1348    1315    1314    1268    1270
       8    1394    1393    1348    1369    1316    1315    1270    1291
       8    1395    1394    1369    1370    1317    1316    1291    1292
       8    1396    1395    1370    1371    1318    1317    1292    1293
       8    1397    1396    1371    1372    1319    1318    1293    1294
       8    1398    1397    1372    1373    1320    1319    1294    1295
       8    1399    1398    1373    1374    1321    1320    1295    1296
       8    1400    1399    1374    1375    1322    1321    1296    1297
       8    1401    1400    1375    1376    1323    1322    1297    1298
       8    1402    1401    1376    1377    1324    1323    1298    1299
       8    1403    1402    1377    1331    1325    1324    1299    1253
       8    1379    1403    1331    1330    1301    1325    1253    1252
       8    1404    1405    1406    1407    1326    1327    1328    1329
       8    1406    1408    1409    1407    1328    1330    1331    1329
       8    1410    1405    1404    1411    1332    1327    1326    1333
       8    1404    1412    1413    1411    1326    1334    1335    1333
       8    1414    1415    1416    1410    1336    1337    1338    1332
       8    1417    1418    1415    1414    1339    1340    1337    1336
       8    1411    1417    1414    1410    1333    1339    1336    1332
       8    1419    1420    1412    1421    1341    1342    1334    1343
       8    1422    1423    1420    1419    1344    1345    1342    1341
       8    1424    1425    1423    1422    1346    1347    1345    1344
       8    1426    1424    1422    1427    1348    1346    1344    1349
       8    1428    1413    1412    1420    1350    1335    1334    1342
       8    1419    1429    1427    1422    1341    1351    1349    1344
       8    1404    1407    1421    1412    1326    1329    1343    1334
       8    1430    1417    1411    1413    1352    1339    1333    1335
       8    1431    1430    1413    1428    1353    1352    1335    1350
       8    1432    1431    1428    1433    1354    1353    1350    1355
       8    1423    1433    1428    1420    1345    1355    1350    1342
       8    1434    1435    1429    1419    1356    1357    1351    1341
       8    1436    1434    1419    1421    1358    1356    1341    1343
       8    1437    1436    1421    1407    1359    1358    1343    1329
       8    1438    1408    1406    1439    1360    1330    1328    1361
       8    1440    1439    1406    1405    1362    1361    1328    1327
       8    1416    1440    1405    1410    1338    1362    1327    1332
       8    1441    1418    1417    1430    1363    1340    1339    1352
       8    1442    1441    1430    1431    1364    1363    1352    1353
       8    1443    1442    1431    1432    1365    1364    1353    1354
       8    1444    1443    1432    1445    1366    1365    1354    1367
       8    1446    1445    1432    1433    1368    1367    1354    1355
       8    1425    1446    1433    1423    1347    1368    1355    1345
       8    1447    1426    1427    1429    1369    1348    1349    1351
       8    1448    1447    1429    1435    1370    1369    1351    1357
       8    1449    1448    1435    1450    1371    1370    1357    1372
       8    1451    1450    1435    1434    1373    1372    1357    1356
       8    1452    1451    1434    1436    1374    1373    1356    1358
       8    1453    1452    1436    1437    1375    1374    1358    1359
       8    1454    1453    1437    1455    1376    1375    1359    1377
       8    1409    1455    1437    1407    1331    1377    1359    1329
       8    1456    1457    1408    1438    1378    1379    1330    1360
       8    1458    1456    1438    1439    1380    1378    1360    1361
       8    1459    1458    1439    1440    1381    1380    1361    1362
       8    1460    1459    1440    1416    1382    1381    1362    1338
       8    1461    1460    1416    1415    1383    1382    1338    1337
       8    1462    1461    1415    1418    1384    1383    1337    1340
       8    1463    1462    1418    1441    1385    1384    1340    1363
       8    1464    1463    1441    1442    1386    1385    1363    1364
       8    1465    1464    1442    1443    1387    1386    1364    1365
       8    1466    1465    1443    1444    1388    1387    1365    1366
       8    1467    1466    1444    1445    1389    1388    1366    1367
       8    1468    1467    1445    1446    1390    1389    1367    1368
       8    1469    1468    1446    1425    1391    1390    1368    1347
       8    1470    1469    1425    1424    1392    1391    1347    1346
       8    1471    1470    1424    1426    1393    1392    1346    1348
       8    1472    1471    1426    1447    1394    1393    1348    1369
       8    1473    1472    1447    1448    1395    1394    1369    1370
       8    1474    1473    1448    1449    1396    1395    1370    1371
       8    1475    1474    1449    1450    1397    1396    1371    1372
       8    1476    1475    1450    1451    1398    1397    1372    1373
       8    1477    1476    1451    1452    1399    1398    1373    1374
       8    1478    1477    1452    1453    1400    1399    1374    1375
       8    1479    1478    1453    1454    1401    1400    1375    1376
       8    1480    1479    1454    1455    1402    1401    1376    1377
       8    1481    1480    1455    1409    1403    1402    1377    1331
       8    1457    1481    1409    1408    1379    1403    1331    1330
       8    1482    1483    1484    1485    1404    1405    1406    1407
       8    1484    1486    1487    1485    1406    1408    1409    1407
       8    1488    1483    1482    1489    1410    1405    1404    1411
       8    1482    1490    1491    1489    1404    1412    1413    1411
       8    1492    1493    1494    1488    1414    1415    1416    1410
       8    1495    1496    1493    1492    1417    1418    1415    1414
       8    1489    1495    1492    1488    1411    1417    1414    1410
       8    1497    1498    1490    1499    1419    1420    1412    1421
       8    1500    1501    1498    1497    1422    1423    1420    1419
       8    1502    1503    1501    1500    1424    1425    1423    1422
       8    1504    1502    1500    1505    1426    1424    1422    1427
       8    1506    1491    1490    1498    1428    1413    1412    1420
       8    1497    1507    1505    1500    1419    1429    1427    1422
       8    1482    1485    1499    1490    1404    1407    1421    1412
       8    1508    1495    1489    1491    1430    1417    1411    1413
       8    1509    1508    1491    1506    1431    1430    1413    1428
       8    1510    1509    1506    1511    1432    1431    1428    1433
       8    1501    1511    1506    1498    1423    1433    1428    1420
       8    1512    1513    1507    1497    1434    1435    1429    1419
       8    1514    1512    1497    1499    1436    1434    1419    1421
       8    1515    1514    1499    1485    1437    1436    1421    1407
       8    1516    1486    1484    1517    1438    1408    1406    1439
       8    1518    1517    1484    1483    1440    1439    1406    1405
       8    1494    1518    1483    1488    1416    1440    1405    1410
       8    1519    1496    1495    1508    1441    1418    1417    1430
       8    1520    1519    1508    1509    1442    1441    1430    1431
       8    1521    1520    1509    1510    1443    1442    1431    1432
       8    1522    1521    1510    1523    1444    1443    1432    1445
       8    1524    1523    1510    1511    1446    1445    1432    1433
       8    1503    1524    1511    1501    1425    1446    1433    1423
       8    1525    1504    1505    1507    1447    1426    1427    1429
       8    1526    1525    1507    1513    1448    1447    1429    1435
       8    1527    1526    1513    1528    1449    1448    1435    1450
       8    1529    1528    1513    1512    1451    1450    1435    1434
       8    1530    1529    1512    1514    1452    1451    1434    1436
       8    1531    1530    1514    1515    1453    1452    1436    1437
       8    1532    1531    1515    1533    1454    1453    1437    1455
       8    1487    1533    1515    1485    1409    1455    1437    1407
       8    1534    1535    1486    1516    1456    1457    1408    1438
       8    1536    1534    1516    1517    1458    1456    1438    1439
       8    1537    1536    1517    1518    1459    1458    1439    1440
       8    1538    1537    1518    1494    1460    1459    1440    1416
       8    1539    1538    1494    1493    1461    1460    1416    1415
       8    1540    1539    1493    1496    1462    1461    1415    1418
       8    1541    1540    1496    1519    1463    1462    1418    1441
       8    1542    1541    1519    1520    1464    1463    1441    1442
       8    1543    1542    1520    1521    1465    1464    1442    1443
       8    1544    1543    1521    1522    1466    1465    1443    1444
       8    1545    1544    1522    1523    1467    1466    1444    1445
       8    1546    1545    1523    1524    1468    1467    1445    1446
       8    1547    1546    1524    1503    1469    1468    1446    1425
       8    1548    1547    1503    1502    1470    1469    1425    1424
       8    1549    1548    1502    1504    1471    1470    1424    1426
       8    1550    1549    1504    1525    1472    1471    1426    1447
       8    1551    1550    1525    1526    1473    1472    1447    1448
       8    1552    1551    1526    1527    1474    1473    1448    1449
       8    1553    1552    1527    1528    1475    1474    1449    1450
       8    1554    1553    1528    1529    1476    1475    1450    1451
       8    1555    1554    1529    1530    1477    1476    1451    1452
       8    1556    1555    1530    1531    1478    1477    1452    1453
       8    1557    1556    1531    1532    1479    1478    1453    1454
       8    1558    1557    1532    1533    1480    1479    1454    1455
       8    1559    1558    1533    1487    1481    1480    1455    1409
       8    1535    1559    1487    1486    1457    1481    1409    1408
       8    1560    1561    1562    1563    1482    1483    1484    1485
       8    1562    1564    1565    1563    1484    1486    1487    1485
       8    1566    1561    1560    1567    1488    1483    1482    1489
       8    1560    1568    1569    1567    1482    1490    1491    1489
       8    1570    1571    1572    1566    1492    1493    1494    1488
       8    1573    1574    1571    1570    1495    1496    1493    1492
       8    1567    1573    1570    1566    1489    1495    1492    1488
       8    1575    1576    1568    1577    1497    1498    1490    1499
       8    1578    1579    1576    1575    1500    1501    1498    1497
       8    1580    1581    1579    1578    1502    1503    1501    1500
       8    1582    1580    1578    1583    1504    1502    1500    1505
       8    1584    1569    1568    1576    1506    1491    1490    1498
       8    1575    1585    1583    1578    1497    1507    1505    1500
       8    1560    1563    1577    1568    1482    1485    1499    1490
       8    1586    1573    1567    1569    1508    1495    1489    1491
       8    1587    1586    1569    1584    1509    1508    1491    1506
       8    1588    1587    1584    1589    1510    1509    1506    1511
       8    1579    1589    1584    1576    1501    1511    1506    1498
       8    1590    1591    1585    1575    1512    1513    1507    1497
       8    1592    1590    1575    1577    1514    1512    1497    1499
       8    1593    1592    1577    1563    1515    1514    1499    1485
       8    1594    1564    1562    1595    1516    1486    1484    1517
       8    1596    1595    1562    1561    1518    1517    1484    1483
       8    1572    1596    1561    1566    1494    1518    1483    1488
       8    1597    1574    1573    1586    1519    1496    1495    1508
       8    1598    1597    1586    1587    1520    1519    1508    1509
       8    1599    1598    1587    1588    1521    1520    1509    1510
       8    1600    1599    1588    1601    1522    1521    1510    1523
       8    1602    1601    1588    1589    1524    1523    1510    1511
       8    1581    1602    1589    1579    1503    1524    1511    1501
       8    1603    1582    1583    1585    1525    1504    1505    1507
       8    1604    1603    1585    1591    1526    1525    1507    1513
       8    1605    1604    1591    1606    1527    1526    1513    1528
       8    1607    1606    1591    1590    1529    1528    1513    1512
       8    1608    1607    1590    1592    1530    1529    1512    1514
       8    1609    1608    1592    1593    1531    1530    1514    1515
       8    1610    1609    1593    1611    1532    1531    1515    1533
       8    1565    1611    1593    1563    1487    1533    1515    1485
       8    1612    1613    1564    1594    1534    1535    1486    1516
       8    1614    1612    1594    1595    1536    1534    1516    1517
       8    1615    1614    1595    1596    1537    1536    1517    1518
       8    1616    1615    1596    1572    1538    1537    1518    1494
       8    1617    1616    1572    1571    1539    1538    1494    1493
       8    1618    1617    1571    1574    1540    1539    1493    1496
       8    1619    1618    1574    1597    1541    1540    1496    1519
       8    1620    1619    1597    1598    1542    1541    1519    1520
       8    1621    1620    1598    1599    1543    1542    1520    1521
       8    1622    1621    1599    1600    1544    1543    1521    1522
       8    1623    1622    1600    1601    1545    1544    1522    1523
       8    1624    1623    1601    1602    1546    1545    1523    1524
       8    1625    1624    1602    1581    1547    1546    1524    1503
       8    1626    1625    1581    1580    1548    1547    1503    1502
       8    1627    1626    1580    1582    1549    1548    1502    1504
       8    1628    1627    1582    1603    1550    1549    1504    1525
       8    1629    1628    1603    1604    1551    1550    1525    1526
       8    1630    1629    1604    1605    1552    1551    1526    1527
       8    1631    1630    1605    1606    1553    1552    1527    1528
       8    1632    1631    1606    1607    1554    1553    1528    1529
       8    1633    1632    1607    1608    1555    1554    1529    1530
       8    1634    1633    1608    1609    1556    1555    1530    1531
       8    1635    1634    1609    1610    1557    1556    1531    1532
       8    1636    1635    1610    1611    1558    1557    1532    1533
       8    1637    1636    1611    1565    1559    1558    1533    1487
       8    1613    1637    1565    1564    1535    1559    1487    1486
       8    1638    1639    1640    1641    1560    1561    1562    1563
       8    1640    1642    1643    1641    1562    1564    1565    1563
       8    1644    1639    1638    1645    1566    1561    1560    1567
       8    1638    1646    1647    1645    1560    1568    1569    1567
       8    1648    1649    1650    1644    1570    1571    1572    1566
       8    1651    1652    1649    1648    1573    1574    1571    1570
       8    1645    1651    1648    1644    1567    1573    1570    1566
       8    1653    1654    1646    1655    1575    1576    1568    1577
       8    1656    1657    1654    1653    1578    1579    1576    1575
       8    1658    1659    1657    1656    1580    1581    1579    1578
       8    1660    1658    1656    1661    1582    1580    1578    1583
       8    1662    1647    1646    1654    1584    1569    1568    1576
       8    1653    1663    1661    1656    1575    1585    1583    1578
       8    1638    1641    1655    1646    1560    1563    1577    1568
       8    1664    1651    1645    1647    1586    1573    1567    1569
       8    1665    1664    1647    1662    1587    1586    1569    1584
       8    1666    1665    1662    1667    1588    1587    1584    1589
       8    1657    1667    1662    1654    1579    1589    1584    1576
       8    1668    1669    1663    1653    1590    1591    1585    1575
       8    1670    1668    1653    1655    1592    1590    1575    1577
       8    1671    1670    1655    1641    1593    1592    1577    1563
       8    1672    1642    1640    1673    1594    1564    1562    1595
       8    1674    1673    1640    1639    1596    1595    1562    1561
       8    1650    1674    1639    1644    1572    1596    1561    1566
       8    1675    1652    1651    1664    1597    1574    1573    1586
       8    1676    1675    1664    1665    1598    1597    1586    1587
       8    1677    1676    1665    1666    1599    1598    1587    1588
       8    1678    1677    1666    1679    1600    1599    1588    1601
       8    1680    1679    1666    1667    1602    1601    1588    1589
       8    1659    1680    1667    1657    1581    1602    1589    1579
       8    1681    1660    1661    1663    1603    1582    1583    1585
       8    1682    1681    1663    1669    1604    1603    1585    1591
       8    1683    1682    1669    1684    1605    1604    1591    1606
       8    1685    1684    1669    1668    1607    1606    1591    1590
       8    1686    1685    1668    1670    1608    1607    1590    1592
       8    1687    1686    1670    1671    1609    1608    1592    1593
       8    1688    1687    1671    1689    1610    1609    1593    1611
       8    1643    1689    1671    1641    1565    1611    1593    1563
       8    1690    1691    1642    1672    1612    1613    1564    1594
       8    1692    1690    1672    1673    1614    1612    1594    1595
       8    1693    1692    1673    1674    1615    1614    1595    1596
       8    1694    1693    1674    1650    1616    1615    1596    1572
       8    1695    1694    1650    1649    1617    1616    1572    1571
       8    1696    1695    1649    1652    1618    1617    1571    1574
       8    1697    1696    1652    1675    1619    1618    1574    1597
       8    1698    1697    1675    1676    1620    1619    1597    1598
       8    1699    1698    1676    1677    1621    1620    1598    1599
       8    1700    1699    1677    1678    1622    1621    1599    1600
       8    1701    1700    1678    1679    1623    1622    1600    1601
       8    1702    1701    1679    1680    1624    1623    1601    1602
       8    1703    1702    1680    1659    1625    1624    1602    1581
       8    1704    1703    1659    1658    1626    1625    1581    1580
       8    1705    1704    1658    1660    1627    1626    1580    1582
       8    1706    1705    1660    1681    1628    1627    1582    1603
       8    1707    1706    1681    1682    1629    1628    1603    1604
       8    1708    1707    1682    1683    1630    1629    1604    1605
       8    1709    1708    1683    1684    1631    1630    1605    1606
       8    1710    1709    1684    1685    1632    1631    1606    1607
       8    1711    1710    1685    1686    1633    1632    1607    1608
       8    1712    1711    1686    1687    1634    1633    1608    1609
       8    1713    1712    1687    1688    1635    1634    1609    1610
       8    1714    1713    1688    1689    1636    1635    1610    1611
       8    1715    1714    1689    1643    1637    1636    1611    1565
       8    1691    1715    1643    1642    1613    1637    1565    1564
       8    1716    1717    1718    1719    1638    1639    1640    1641
       8    1718    1720    1721    1719    1640    1642    1643    1641
       8    1722    1717    1716    1723    1644    1639    1638    1645
       8    1716    1724    1725    1723    1638    1646    1647    1645
       8    1726    1727    1728    1722    1648    1649    1650    1644
       8    1729    1730    1727    1726    1651    1652    1649    1648
       8    1723    1729    1726    1722    1645    1651    1648    1644
       8    1731    1732    1724    1733    1653    1654    1646    1655
       8    1734    1735    1732    1731    1656    1657    1654    1653
       8    1736    1737    1735    1734    1658    1659    1657    1656
       8    1738    1736    1734    1739    1660    1658    1656    1661
       8    1740    1725    1724    1732    1662    1647    1646    1654
       8    1731    1741    1739    1734    1653    1663    1661    1656
       8    1716    1719    1733    1724    1638    1641    1655    1646
       8    1742    1729    1723    1725    1664    1651    1645    1647
       8    1743    1742    1725    1740    1665    1664    1647    1662
       8    1744    1743    1740    1745    1666    1665    1662    1667
       8    1735    1745    1740    1732    1657    1667    1662    1654
       8    1746    1747    1741    1731    1668    1669    1663    1653
       8    1748    1746    1731    1733    1670    1668    1653    1655
       8    1749    1748    1733    1719    1671    1670    1655    1641
       8    1750    1720    1718    1751    1672    1642    1640    1673
       8    1752    1751    1718    1717    1674    1673    1640    1639
       8    1728    1752    1717    1722    1650    1674    1639    1644
       8    1753    1730    1729    1742    1675    1652    1651    1664
       8    1754    1753    1742    1743    1676    1675    1664    1665
       8    1755    1754    1743    1744    1677    1676    1665    1666
       8    1756    1755    1744    1757    1678    1677    1666    1679
       8    1758    1757    1744    1745    1680    1679    1666    1667
       8    1737    1758    1745    1735    1659    1680    1667    1657
       8    1759    1738    1739    1741    1681    1660    1661    1663
       8    1760    1759    1741    1747    1682    1681    1663    1669
       8    1761    1760    1747    1762    1683    1682    1669    1684
       8    1763    1762    1747    1746    1685    1684    1669    1668
       8    1764    1763    1746    1748    1686    1685    1668    1670
       8    1765    1764    1748    1749    1687    1686    1670    1671
       8    1766    1765    1749    1767    1688    1687    1671    1689
       8    1721    1767    1749    1719    1643    1689    1671    1641
       8    1768    1769    1720    1750    1690    1691    1642    1672
       8    1770    1768    1750    1751    1692    1690    1672    1673
       8    1771    1770    1751    1752    1693    1692    1673    1674
       8    1772    1771    1752    1728    1694    1693    1674    1650
       8    1773    1772    1728    1727    1695    1694    1650    1649
       8    1774    1773    1727    1730    1696    1695    1649    1652
       8    1775    1774    1730    1753    1697    1696    1652    1675
       8    1776    1775    1753    1754    1698    1697    1675    1676
       8    1777    1776    1754    1755    1699    1698    1676    1677
       8    1778    1777    1755    1756    1700    1699    1677    1678
       8    1779    1778    1756    1757    1701    1700    1678    1679
       8    1780    1779    1757    1758    1702    1701    1679    1680
       8    1781    1780    1758    1737    1703    1702    1680    1659
       8    1782    1781    1737    1736    1704    1703    1659    1658
       8    1783    1782    1736    1738    1705    1704    1658    1660
       8    1784    1783    1738    1759    1706    1705    1660    1681
       8    1785    1784    1759    1760    1707    1706    1681    1682
       8    1786    1785    1760    1761    1708    1707    1682    1683
       8    1787    1786    1761    1762    1709    1708    1683    1684
       8    1788    1787    1762    1763    1710    1709    1684    1685
       8    1789    1788    1763    1764    1711    1710    1685    1686
       8    1790    1789    1764    1765    1712    1711    1686    1687
       8    1791    1790    1765    1766    1713    1712    1687    1688
       8    1792    1791    1766    1767    1714    1713    1688    1689
       8    1793    1792    1767    1721    1715    1714    1689    1643
       8    1769    1793    1721    1720    1691    1715    1643    1642
       8    1794    1795    1796    1797    1716    1717    1718    1719
       8    1796    1798    1799    1797    1718    1720    1721    1719
       8    1800    1795    1794    1801    1722    1717    1716    1723
       8    1794    1802    1803    1801    1716    1724    1725    1723
       8    1804    1805    1806    1800    1726    1727    1728    1722
       8    1807    1808    1805    1804    1729    1730    1727    1726
       8    1801    1807    1804    1800    1723    1729    1726    1722
       8    1809    1810    1802    1811    1731    1732    1724    1733
       8    1812    1813    1810    1809    1734    1735    1732    1731
       8    1814    1815    1813    1812    1736    1737    1735    1734
       8    1816    1814    1812    1817    1738    1736    1734    1739
       8    1818    1803    1802    1810    1740    1725    1724    1732
       8    1809    1819    1817    1812    1731    1741    1739    1734
       8    1794    1797    1811    1802    1716    1719    1733    1724
       8    1820    1807    1801    1803    1742    1729    1723    1725
       8    1821    1820    1803    1818    1743    1742    1725    1740
       8    1822    1821    1818    1823    1744    1743    1740    1745
       8    1813    1823    1818    1810    1735    1745    1740    1732
       8    1824    1825    1819    1809    1746    1747    1741    1731
       8    1826    1824    1809    1811    1748    1746    1731    1733
       8    1827    1826    1811    1797    1749    1748    1733    1719
       8    1828    1798    1796    1829    1750    1720    1718    1751
       8    1830    1829    1796    1795    1752    1751    1718    1717
       8    1806    1830    1795    1800    1728    1752    1717    1722
       8    1831    1808    1807    1820    1753    1730    1729    1742
       8    1832    1831    1820    1821    1754    1753    1742    1743
       8    1833    1832    1821    1822    1755    1754    1743    1744
       8    1834    1833    1822    1835    1756    1755    1744    1757
       8    1836    1835    1822    1823    1758    1757    1744    1745
       8    1815    1836    1823    1813    1737    1758    1745    1735
       8    1837    1816    1817    1819    1759    1738    1739    1741
       8    1838    1837    1819    1825    1760    1759    1741    1747
       8    1839    1838    1825    1840    1761    1760    1747    1762
       8    1841    1840    1825    1824    1763    1762    1747    1746
       8    1842    1841    1824    1826    1764    1763    1746    1748
       8    1843    1842    1826    1827    1765    1764    1748    1749
       8    1844    1843    1827    1845    1766    1765    1749    1767
       8    1799    1845    1827    1797    1721    1767    1749    1719
       8    1846    1847    1798    1828    1768    1769    1720    1750
       8    1848    1846    1828    1829    1770    1768    1750    1751
       8    1849    1848    1829    1830    1771    1770    1751    1752
       8    1850    1849    1830    1806    1772    1771    1752    1728
       8    1851    1850    1806    1805    1773    1772    1728    1727
       8    1852    1851    1805    1808    1774    1773    1727    1730
       8    1853    1852    1808    1831    1775    1774    1730    1753
       8    1854    1853    1831    1832    1776    1775    1753    1754
       8    1855    1854    1832    1833    1777    1776    1754    1755
       8    1856    1855    1833    1834    1778    1777    1755    1756
       8    1857    1856    1834    1835    1779    1778    1756    1757
       8    1858    1857    1835    1836    1780    1779    1757    1758
       8    1859    1858    1836    1815    1781    1780    1758    1737
       8    1860    1859    1815    1814    1782    1781    1737    1736
       8    1861    1860    1814    1816    1783    1782    1736    1738
       8    1862    1861    1816    1837    1784    1783    1738    1759
       8    1863    1862    1837    1838    1785    1784    1759    1760
       8    1864    1863    1838    1839    1786    1785    1760    1761
       8    1865    1864    1839    1840    1787    1786    1761    1762
       8    1866    1865    1840    1841    1788    1787    1762    1763
       8    1867    1866    1841    1842    1789    1788    1763    1764
       8    1868    1867    1842    1843    1790    1789    1764    1765
       8    1869    1868    1843    1844    1791    1790    1765    1766
       8    1870    1869    1844    1845    1792    1791    1766    1767
       8    1871    1870    1845    1799    1793    1792    1767    1721
       8    1847    1871    1799    1798    1769    1793    1721    1720
       8    1872    1873    1874    1875    1794    1795    1796    1797
       8    1874    1876    1877    1875    1796    1798    1799    1797
       8    1878    1873    1872    1879    1800    1795    1794    1801
       8    1872    1880    1881    1879    1794    1802    1803    1801
       8    1882    1883    1884    1878    1804    1805    1806    1800
       8    1885    1886    1883    1882    1807    1808    1805    1804
       8    1879    1885    1882    1878    1801    1807    1804    1800
       8    1887    1888    1880    1889    1809    1810    1802    1811
       8    1890    1891    1888    1887    1812    1813    1810    1809
       8    1892    1893    1891    1890    1814    1815    1813    1812
       8    1894    1892    1890    1895    1816    1814    1812    1817
       8    1896    1881    1880    1888    1818    1803    1802    1810
       8    1887    1897    1895    1890    1809    1819    1817    1812
       8    1872    1875    1889    1880    1794    1797    1811    1802
       8    1898    1885    1879    1881    1820    1807    1801    1803
       8    1899    1898    1881    1896    1821    1820    1803    1818
       8    1900    1899    1896    1901    1822    1821    1818    1823
       8    1891    1901    1896    1888    1813    1823    1818    1810
       8    1902    1903    1897    1887    1824    1825    1819    1809
       8    1904    1902    1887    1889    1826    1824    1809    1811
       8    1905    1904    1889    1875    1827    1826    1811    1797
       8    1906    1876    1874    1907    1828    1798    1796    1829
       8    1908    1907    1874    1873    1830    1829    1796    1795
       8    1884    1908    1873    1878    1806    1830    1795    1800
       8    1909    1886    1885    1898    1831    1808    1807    1820
       8    1910    1909    1898    1899    1832    1831    1820    1821
       8    1911    1910    1899    1900    1833    1832    1821    1822
       8    1912    1911    1900    1913    1834    1833    1822    1835
       8    1914    1913    1900    1901    1836    1835    1822    1823
       8    1893    1914    1901    1891    1815    1836    1823    1813
       8    1915    1894    1895    1897    1837    1816    1817    1819
       8    1916    1915    1897    1903    1838    1837    1819    1825
       8    1917    1916    1903    1918    1839    1838    1825    1840
       8    1919    1918    1903    1902    1841    1840    1825    1824
       8    1920    1919    1902    1904    1842    1841    1824    1826
       8    1921    1920    1904    1905    1843    1842    1826    1827
       8    1922    1921    1905    1923    1844    1843    1827    1845
       8    1877    1923    1905    1875    1799    1845    1827    1797
       8    1924    1925    1876    1906    1846    1847    1798    1828
       8    1926    1924    1906    1907    1848    1846    1828    1829
       8    1927    1926    1907    1908    1849    1848    1829    1830
       8    1928    1927    1908    1884    1850    1849    1830    1806
       8    1929    1928    1884    1883    1851    1850    1806    1805
       8    1930    1929    1883    1886    1852    1851    1805    1808
       8    1931    1930    1886    1909    1853    1852    1808    1831
       8    1932    1931    1909    1910    1854    1853    1831    1832
       8    1933    1932    1910    1911    1855    1854    1832    1833
       8    1934    1933    1911    1912    1856    1855    1833    1834
       8    1935    1934    1912    1913    1857    1856    1834    1835
       8    1936    1935    1913    1914    1858    1857    1835    1836
       8    1937    1936    1914    1893    1859    1858    1836    1815
       8    1938    1937    1893    1892    1860    1859    1815    1814
       8    1939    1938    1892    1894    1861    1860    1814    1816
       8    1940    1939    1894    1915    1862    1861    1816    1837
       8    1941    1940    1915    1916    1863    1862    1837    1838
       8    1942    1941    1916    1917    1864    1863    1838    1839
       8    1943    1942    1917    1918    1865    1864    1839    1840
       8    1944    1943    1918    1919    1866    1865    1840    1841
       8    1945    1944    1919    1920    1867    1866    1841    1842
       8    1946    1945    1920    1921    1868    1867    1842    1843
       8    1947    1946    1921    1922    1869    1868    1843    1844
       8    1948    1947    1922    1923    1870    1869    1844    1845
       8    1949    1948    1923    1877    1871    1870    1845    1799
       8    1925    1949    1877    1876    1847    1871    1799    1798
  
CELL_TYPES    3486
       1
       1
       1
       1
       1
       1
       1
       1
       1
       1
       1
       1
       1
       1
       1
       1
       1
       1
       1
       1
       1
       1
       1
       1
       1
       1
       1
       1
       1
       1
       1
       1
       1
       1
       1
       1
       1
       1
       1
       1
       1
       1
       1
       1
       1
       1
       1
       1
       1
       1
       1
       1
       1
       1
       1
       1
       1
       1
       1
       1
       1
       1
       1
       1
       1
       1
       1
       1
       1
       1
       1
       1
       1
       1
       1
       1
       1
       1
       1
       1
       1
       1
       1
       1
       1
       1
       1
       1
       1
       1
       1
       1
       1
       1
       1
       1
       1
       1
       1
       1
       1
       1
       1
       1
       1
       1
       1
       1
       1
       1
       1
       1
       1
       1
       1
       1
       1
       1
       1
       1
       1
       1
       1
       1
       1
       1
       1
       1
       1
       1
       1
       1
       1
       1
       1
       1
       1
       1
       1
       1
       1
       1
       1
       1
       1
       1
       1
       1
       1
       1
       1
       1
       1
       1
       1
       1
       1
       1
       1
       1
       1
       1
       1
       1
       1
       1
       1
       1
       1
       1
       1
       1
       1
       1
       1
       1
       1
       1
       1
       1
       1
       1
       1
       1
       1
       1
       1
       1
       1
       1
       1
       1
       1
       1
       1
       1
       1
       1
       1
       1
       1
       1
       1
       1
       1
       1
       1
       1
       1
       1
       1
       1
       1
       1
       1
       1
       1
       1
       1
       1
       1
       1
       1
       1
       1
       1
       1
       1
       1
       1
       1
       1
       1
       1
       1
       1
       1
       1
       1
       1
       1
       1
       1
       1
       1
       1
       1
       1
       1
       1
       1
       1
       1
       1
       1
       1
       1
       1
       1
       1
       1
       1
       1
       1
       1
       1
       1
       1
       1
       1
       1
       1
       1
       1
       1
       1
       1
       1
       1
       1
       1
       1
       1
       1
       1
       1
       1
       1
       1
       1
       1
       1
       1
       1
       1
       1
       1
       1
       1
       1
       1
       1
       1
       1
       1
       1
       1
       1
       1
       1
       1
       1
       1
       1
       1
       1
       1
       1
       1
       1
       1
       1
       1
       1
       1
       1
       1
       1
       1
       1
       1
       1
       1
       1
       1
       1
       1
       1
       1
       1
       1
       1
       1
       1
       1
       1
       1
       1
       1
       1
       1
       1
       1
       1
       1
       1
       1
       1
       1
       1
       1
       1
       1
       1
       1
       1
       1
       1
       1
       1
       1
       1
       1
       1
       1
       1
       1
       1
       1
       1
       1
       1
       1
       1
       1
       1
       1
       1
       1
       1
       1
       1
       1
       1
       1
       1
       1
       1
       1
       1
       1
       1
       1
       1
       1
       1
       1
       1
       1
       1
       1
       1
       1
       1
       1
       1
       1
       1
       1
       1
       1
       1
       1
       1
       1
       1
       1
       1
       1
       1
       1
       1
       1
       1
       1
       1
       1
       1
       1
       1
       1
       1
       1
       1
       1
       1
       1
       1
       1
       1
       1
       1
       1
       1
       1
       1
       1
       1
       1
       1
       1
       1
       1
       1
       1
       1
       1
       1
       1
       1
       1
       1
       1
       1
       1
       1
       1
       1
       1
       1
       1
       1
       1
       1
       1
       1
       1
       1
       1
       1
       1
       1
       1
       1
       1
       1
       1
       1
       1
       1
       1
       1
       1
       1
       1
       1
       1
       1
       1
       1
       1
       1
       1
       1
       1
       1
       1
       1
       1
       1
       1
       1
       1
       1
       1
       1
       1
       1
       1
       1
       1
       1
       1
       1
       1
       1
       1
       1
       1
       1
       1
       1
       1
       1
       1
       1
       1
       1
       1
       1
       1
       1
       1
       1
       1
       1
       1
       1
       1
       1
       1
       1
       1
       1
       1
       1
       1
       1
       1
       1
       1
       1
       1
       1
       1
       1
       1
       1
       1
       1
       1
       1
       1
       1
       1
       1
       1
       1
       1
       1
       1
       1
       1
       1
       1
       1
       1
       1
       1
       1
       1
       1
       1
       1
       1
       1
       1
       1
       1
       1
       1
       1
       1
       1
       1
       1
       1
       1
       1
       1
       1
       1
       1
       1
       1
       1
       1
       1
       1
       1
       1
       1
       1
       1
       1
       1
       1
       1
       1
       1
       1
       1
       1
       1
       1
       1
       1
       1
       1
       1
       1
       1
       1
       1
       1
       1
       1
       1
       1
       1
       1
       1
       1
       1
       1
       1
       1
       1
       1
       1
       1
       1
       1
       1
       1
       1
       1
       1
       1
       1
       1
       1
       1
       1
       1
       1
       1
       1
       1
       1
       1
       1
       1
       1
       1
       1
       1
       1
       1
       1
       1
       1
       1
       1
       1
       1
       1
       1
       1
       1
       1
       1
       1
       1
       1
       1
       1
       1
       1
       1
       1
       1
       1
       1
       1
       1
       1
       1
       1
       1
       1
       1
       1
       1
       1
       1
       1
       1
       1
       1
       1
       1
       1
       1
       1
       1
       1
       1
       1
       1
       1
       1
       1
       1
       1
       1
       1
       1
       1
       1
       1
       1
       1
       1
       1
       1
       1
       1
       1
       1
       1
       1
       1
       1
       1
       1
       1
       1
       1
       1
       1
       1
       1
       1
       1
       1
       1
       1
       1
       1
       1
       1
       1
       1
       1
       1
       1
       1
       1
       1
       1
       1
       1
       1
       1
       1
       1
       1
       1
       1
       1
       1
       1
       1
       1
       1
       1
       1
       1
       1
       1
       1
       1
       1
       1
       1
       1
       1
       1
       1
       1
       1
       1
       1
       1
       1
       1
       1
       1
       1
       1
       1
       1
       1
       1
       1
       1
       1
       1
       1
       1
       1
       1
       1
       1
       1
       1
       1
       1
       1
       1
       1
       1
       1
       1
       1
       1
       1
       1
       1
       1
       1
       1
       1
       1
       1
       1
       1
       1
       1
       1
       1
       1
       1
       1
       1
       1
       1
       1
       1
       1
       1
       1
       1
       1
       1
       1
       1
       1
       1
       1
       1
       1
       1
       1
       1
       1
       1
       1
       1
       1
       1
       1
       1
       1
       1
       1
       1
       1
       1
       1
       1
       1
       1
       1
       1
       1
       1
       1
       1
       1
       1
       1
       1
       1
       1
       1
       1
       1
       1
       1
       1
       1
       1
       1
       1
       1
       1
       1
       1
       1
       1
       1
       1
       1
       1
       1
       1
       1
       1
       1
       1
       1
       1
       1
       1
       1
       1
       1
       1
       1
       1
       1
       1
       1
       1
       1
       1
       1
       1
       1
       1
       1
       1
       1
       1
       1
       1
       1
       1
       1
       1
       1
       1
       1
       1
       1
       1
       1
       1
       1
       1
       1
       1
       1
       1
       1
       1
       1
       1
       1
       1
       1
       1
       1
       1
       1
       1
       1
       1
       1
       1
       1
       1
       1
       1
       1
       1
       1
       1
       1
       1
       1
       1
       1
       1
       1
       1
       1
       1
       1
       1
       1
       1
       1
       1
       1
       1
       1
       1
       1
       1
       1
       1
       1
       1
       1
       1
       1
       1
       1
       1
       1
       1
       1
       1
       1
       1
       1
       1
       1
       1
       1
       1
       1
       1
       1
       1
       1
       1
       1
       1
       1
       1
       1
       1
       1
       1
       1
       1
       1
       1
       1
       1
       1
       1
       1
       1
       1
       1
       1
       1
       1
       1
       1
       1
       1
       1
       1
       1
       1
       1
       1
       1
       1
       1
       1
       1
       1
       1
       1
       1
       1
       1
       1
       1
       1
       1
       1
       1
       1
       1
       1
       1
       1
       1
       1
       1
       1
       1
       1
       1
       1
       1
       1
       1
       1
       1
       1
       1
       1
       1
       1
       1
       1
       1
       1
       1
       1
       1
       1
       1
       1
       1
       1
       1
       1
       1
       1
       1
       1
       1
       1
       1
       1
       1
       1
       1
       1
       1
       1
       1
       1
       1
       1
       1
       1
       1
       1
       1
       1
       1
       1
       1
       1
       1
       1
       1
       1
       1
       1
       1
       1
       1
       1
       1
       1
       1
       1
       1
       1
       1
       1
       1
       1
       1
       1
       1
       1
       1
       1
       1
       1
       1
       1
       1
       1
       1
       1
       1
       1
       1
       1
       1
       1
       1
       1
       1
       1
       1
       1
       1
       1
       1
       1
       1
       1
       1
       1
       1
       1
       1
       1
       1
       1
       1
       1
       1
       1
       1
       1
       1
       1
       1
       1
       1
       1
       1
       1
       1
       1
       1
       1
       1
       1
       1
       1
       1
       1
       1
       1
       1
       1
       1
       1
       1
       1
       1
       1
       1
       1
       1
       1
       1
       1
       1
       1
       1
       1
       1
       1
       1
       1
       1
       1
       1
       1
       1
       1
       1
       1
       1
       1
       1
       1
       1
       1
       1
       1
       1
       1
       1
       1
       1
       1
       1
       1
       1
       1
       1
       1
       1
       1
       1
       1
       1
       1
       1
       1
       1
       1
       1
       1
       1
       1
       1
       1
       1
       1
       1
       1
       1
       1
       1
       1
       1
       1
       1
       1
       1
       1
       1
       1
       1
       1
       1
       1
       1
       1
       1
       1
       1
       1
       1
       1
       1
       1
       1
       1
       1
       1
       1
       1
       1
       1
       1
       1
       1
       1
       1
       1
       1
       1
       1
       1
       1
       1
       1
       1
       1
       1
       1
       1
       1
       1
       1
       1
       1
       1
       1
       1
       1
       1
       1
       1
       1
       1
       1
       1
       1
       1
       1
       1
       1
       1
       1
       1
       1
       1
       1
       1
       1
       1
       1
       1
       1
       1
       1
       1
       1
       1
       1
       1
       1
       1
       1
       1
       1
       1
       1
       1
       1
       1
       1
       1
       1
       1
       1
       1
       1
       1
       1
       1
       1
       1
       1
       1
       1
       1
       1
       1
       1
       1
       1
       1
       1
       1
       1
       1
       1
       1
       1
       1
       1
       1
       1
       1
       1
       1
       1
       1
       1
       1
       1
       1
       1
       1
       1
       1
       1
       1
       1
       1
       1
       1
       1
       1
       1
       1
       1
       1
       1
       1
       1
       1
       1
       1
       1
       1
       1
       1
       1
       1
       1
       1
       1
       1
       1
       1
       1
       1
       1
       1
       1
       1
       1
       1
       1
       1
       1
       1
       1
       1
       1
       1
       1
       1
       1
       1
       1
       1
       1
       1
       1
       1
       1
       1
       1
       1
       1
       1
       1
       1
       1
       1
       1
       1
       1
       1
       1
       1
       1
       1
       1
       1
       1
       1
       1
       1
       1
       1
       1
       1
       1
       1
       1
       1
       1
       1
       1
       1
       1
       1
       1
       1
       1
       1
       1
       1
       1
       1
       1
       1
       1
       1
       1
       1
       1
       1
       1
       1
       1
       1
       1
       1
       1
       1
       1
       1
       1
       1
       1
       1
       1
       1
       1
       1
       1
       1
       1
       1
       1
       1
       1
       1
       1
       1
       1
       1
       1
       1
       1
       1
       1
       1
       1
       1
       1
       1
       1
       1
       1
       1
       1
       1
       1
       1
       1
       1
       1
       1
       1
       1
       1
       1
       1
       1
       1
       1
       1
       1
       1
       1
       1
       1
       1
       1
       1
       1
       1
       1
       1
       1
       1
       1
       1
       1
       1
       1
       1
       1
       1
       1
       1
       1
       1
       1
       1
       1
       1
       1
       1
       1
       1
       1
       1
       1
       1
       1
       1
       1
       1
       1
       1
       1
       1
       1
       1
       1
       1
       1
       1
       1
       1
       1
       1
       1
       1
       1
       1
       1
       1
       1
       1
       1
       1
       1
       1
       1
       1
       1
       1
       1
       1
       1
       1
       1
       1
       1
       1
       1
       1
       1
       1
       1
       1
       1
       1
       1
       1
       1
       1
       1
       1
       1
       1
       1
       1
       1
       1
       1
       1
       1
       1
       1
       1
       1
       1
       1
       1
       1
       1
       1
       1
       1
       1
       1
       1
       1
       1
       1
       1
       1
       1
       1
       1
       1
       1
       1
       1
       1
       1
       1
       1
       1
       1
       1
       1
       1
       1
       1
       1
       1
       1
       1
       1
       1
       1
       1
       1
       1
       1
       1
       1
       1
       1
       1
       1
       1
       1
       1
       1
       1
       1
       1
       1
       1
       1
       1
       1
       1
       1
       1
       1
       1
       1
       1
       1
       1
       1
       1
       1
       1
       1
       1
       1
       1
       1
       1
       1
       1
       1
       1
       1
       1
       1
       1
       1
       1
       1
       1
       1
       1
       1
       1
       1
       1
       1
       1
       1
       1
       1
       1
       1
       1
       1
       1
       1
       1
       1
       1
       1
       1
       1
       1
       1
       1
       1
       1
       1
       1
       1
       1
       1
       1
       1
       1
       1
       1
       1
       1
       1
       1
       1
       1
       1
       1
       1
       1
       1
       1
       1
       1
       1
       1
       1
       1
       1
       1
       1
       1
       1
       1
       1
       1
       1
       1
       1
       1
       1
       1
       1
       1
       1
       1
       1
       1
       1
       1
       1
      12
      12
      12
      12
      12
      12
      12
      12
      12
      12
      12
      12
      12
      12
      12
      12
      12
      12
      12
      12
      12
      12
      12
      12
      12
      12
      12
      12
      12
      12
      12
      12
      12
      12
      12
      12
      12
      12
      12
      12
      12
      12
      12
      12
      12
      12
      12
      12
      12
      12
      12
      12
      12
      12
      12
      12
      12
      12
      12
      12
      12
      12
      12
      12
      12
      12
      12
      12
      12
      12
      12
      12
      12
      12
      12
      12
      12
      12
      12
      12
      12
      12
      12
      12
      12
      12
      12
      12
      12
      12
      12
      12
      12
      12
      12
      12
      12
      12
      12
      12
      12
      12
      12
      12
      12
      12
      12
      12
      12
      12
      12
      12
      12
      12
      12
      12
      12
      12
      12
      12
      12
      12
      12
      12
      12
      12
      12
      12
      12
      12
      12
      12
      12
      12
      12
      12
      12
      12
      12
      12
      12
      12
      12
      12
      12
      12
      12
      12
      12
      12
      12
      12
      12
      12
      12
      12
      12
      12
      12
      12
      12
      12
      12
      12
      12
      12
      12
      12
      12
      12
      12
      12
      12
      12
      12
      12
      12
      12
      12
      12
      12
      12
      12
      12
      12
      12
      12
      12
      12
      12
      12
      12
      12
      12
      12
      12
      12
      12
      12
      12
      12
      12
      12
      12
      12
      12
      12
      12
      12
      12
      12
      12
      12
      12
      12
      12
      12
      12
      12
      12
      12
      12
      12
      12
      12
      12
      12
      12
      12
      12
      12
      12
      12
      12
      12
      12
      12
      12
      12
      12
      12
      12
      12
      12
      12
      12
      12
      12
      12
      12
      12
      12
      12
      12
      12
      12
      12
      12
      12
      12
      12
      12
      12
      12
      12
      12
      12
      12
      12
      12
      12
      12
      12
      12
      12
      12
      12
      12
      12
      12
      12
      12
      12
      12
      12
      12
      12
      12
      12
      12
      12
      12
      12
      12
      12
      12
      12
      12
      12
      12
      12
      12
      12
      12
      12
      12
      12
      12
      12
      12
      12
      12
      12
      12
      12
      12
      12
      12
      12
      12
      12
      12
      12
      12
      12
      12
      12
      12
      12
      12
      12
      12
      12
      12
      12
      12
      12
      12
      12
      12
      12
      12
      12
      12
      12
      12
      12
      12
      12
      12
      12
      12
      12
      12
      12
      12
      12
      12
      12
      12
      12
      12
      12
      12
      12
      12
      12
      12
      12
      12
      12
      12
      12
      12
      12
      12
      12
      12
      12
      12
      12
      12
      12
      12
      12
      12
      12
      12
      12
      12
      12
      12
      12
      12
      12
      12
      12
      12
      12
      12
      12
      12
      12
      12
      12
      12
      12
      12
      12
      12
      12
      12
      12
      12
      12
      12
      12
      12
      12
      12
      12
      12
      12
      12
      12
      12
      12
      12
      12
      12
      12
      12
      12
      12
      12
      12
      12
      12
      12
      12
      12
      12
      12
      12
      12
      12
      12
      12
      12
      12
      12
      12
      12
      12
      12
      12
      12
      12
      12
      12
      12
      12
      12
      12
      12
      12
      12
      12
      12
      12
      12
      12
      12
      12
      12
      12
      12
      12
      12
      12
      12
      12
      12
      12
      12
      12
      12
      12
      12
      12
      12
      12
      12
      12
      12
      12
      12
      12
      12
      12
      12
      12
      12
      12
      12
      12
      12
      12
      12
      12
      12
      12
      12
      12
      12
      12
      12
      12
      12
      12
      12
      12
      12
      12
      12
      12
      12
      12
      12
      12
      12
      12
      12
      12
      12
      12
      12
      12
      12
      12
      12
      12
      12
      12
      12
      12
      12
      12
      12
      12
      12
      12
      12
      12
      12
      12
      12
      12
      12
      12
      12
      12
      12
      12
      12
      12
      12
      12
      12
      12
      12
      12
      12
      12
      12
      12
      12
      12
      12
      12
      12
      12
      12
      12
      12
      12
      12
      12
      12
      12
      12
      12
      12
      12
      12
      12
      12
      12
      12
      12
      12
      12
      12
      12
      12
      12
      12
      12
      12
      12
      12
      12
      12
      12
      12
      12
      12
      12
      12
      12
      12
      12
      12
      12
      12
      12
      12
      12
      12
      12
      12
      12
      12
      12
      12
      12
      12
      12
      12
      12
      12
      12
      12
      12
      12
      12
      12
      12
      12
      12
      12
      12
      12
      12
      12
      12
      12
      12
      12
      12
      12
      12
      12
      12
      12
      12
      12
      12
      12
      12
      12
      12
      12
      12
      12
      12
      12
      12
      12
      12
      12
      12
      12
      12
      12
      12
      12
      12
      12
      12
      12
      12
      12
      12
      12
      12
      12
      12
      12
      12
      12
      12
      12
      12
      12
      12
      12
      12
      12
      12
      12
      12
      12
      12
      12
      12
      12
      12
      12
      12
      12
      12
      12
      12
      12
      12
      12
      12
      12
      12
      12
      12
      12
      12
      12
      12
      12
      12
      12
      12
      12
      12
      12
      12
      12
      12
      12
      12
      12
      12
      12
      12
      12
      12
      12
      12
      12
      12
      12
      12
      12
      12
      12
      12
      12
      12
      12
      12
      12
      12
      12
      12
      12
      12
      12
      12
      12
      12
      12
      12
      12
      12
      12
      12
      12
      12
      12
      12
      12
      12
      12
      12
      12
      12
      12
      12
      12
      12
      12
      12
      12
      12
      12
      12
      12
      12
      12
      12
      12
      12
      12
      12
      12
      12
      12
      12
      12
      12
      12
      12
      12
      12
      12
      12
      12
      12
      12
      12
      12
      12
      12
      12
      12
      12
      12
      12
      12
      12
      12
      12
      12
      12
      12
      12
      12
      12
      12
      12
      12
      12
      12
      12
      12
      12
      12
      12
      12
      12
      12
      12
      12
      12
      12
      12
      12
      12
      12
      12
      12
      12
      12
      12
      12
      12
      12
      12
      12
      12
      12
      12
      12
      12
      12
      12
      12
      12
      12
      12
      12
      12
      12
      12
      12
      12
      12
      12
      12
      12
      12
      12
      12
      12
      12
      12
      12
      12
      12
      12
      12
      12
      12
      12
      12
      12
      12
      12
      12
      12
      12
      12
      12
      12
      12
      12
      12
      12
      12
      12
      12
      12
      12
      12
      12
      12
      12
      12
      12
      12
      12
      12
      12
      12
      12
      12
      12
      12
      12
      12
      12
      12
      12
      12
      12
      12
      12
      12
      12
      12
      12
      12
      12
      12
      12
      12
      12
      12
      12
      12
      12
      12
      12
      12
      12
      12
      12
      12
      12
      12
      12
      12
      12
      12
      12
      12
      12
      12
      12
      12
      12
      12
      12
      12
      12
      12
      12
      12
      12
      12
      12
      12
      12
      12
      12
      12
      12
      12
      12
      12
      12
      12
      12
      12
      12
      12
      12
      12
      12
      12
      12
      12
      12
      12
      12
      12
      12
      12
      12
      12
      12
      12
      12
      12
      12
      12
      12
      12
      12
      12
      12
      12
      12
      12
      12
      12
      12
      12
      12
      12
      12
      12
      12
      12
      12
      12
      12
      12
      12
      12
      12
      12
      12
      12
      12
      12
      12
      12
      12
      12
      12
      12
      12
      12
      12
      12
      12
      12
      12
      12
      12
      12
      12
      12
      12
      12
      12
      12
      12
      12
      12
      12
      12
      12
      12
      12
      12
      12
      12
      12
      12
      12
      12
      12
      12
      12
      12
      12
      12
      12
      12
      12
      12
      12
      12
      12
      12
      12
      12
      12
      12
      12
      12
      12
      12
      12
      12
      12
      12
      12
      12
      12
      12
      12
      12
      12
      12
      12
      12
      12
      12
      12
      12
      12
      12
      12
      12
      12
      12
      12
      12
      12
      12
      12
      12
      12
      12
      12
      12
      12
      12
      12
      12
      12
      12
      12
      12
      12
      12
      12
      12
      12
      12
      12
      12
      12
      12
      12
      12
      12
      12
      12
      12
      12
      12
      12
      12
      12
      12
      12
      12
      12
      12
      12
      12
      12
      12
      12
      12
      12
      12
      12
      12
      12
      12
      12
      12
      12
      12
      12
      12
      12
      12
      12
      12
      12
      12
      12
      12
      12
      12
      12
      12
      12
      12
      12
      12
      12
      12
      12
      12
      12
      12
      12
      12
      12
      12
      12
      12
      12
      12
      12
      12
      12
      12
      12
      12
      12
      12
      12
      12
      12
      12
      12
      12
      12
      12
      12
      12
      12
      12
      12
      12
      12
      12
      12
      12
      12
      12
      12
      12
      12
      12
      12
      12
      12
      12
      12
      12
      12
      12
      12
      12
      12
      12
      12
      12
      12
      12
      12
      12
      12
      12
      12
      12
      12
      12
      12
      12
      12
      12
      12
      12
      12
      12
      12
      12
      12
      12
      12
      12
      12
      12
      12
      12
      12
      12
      12
      12
      12
      12
      12
      12
      12
      12
      12
      12
      12
      12
      12
      12
      12
      12
      12
      12
      12
      12
      12
      12
      12
      12
      12
      12
      12
      12
      12
      12
      12
      12
      12
      12
      12
      12
      12
      12
      12
      12
      12
      12
      12
      12
      12
      12
      12
      12
      12
      12
      12
      12
      12
      12
      12
      12
      12
      12
      12
      12
      12
      12
      12
      12
      12
      12
      12
      12
      12
      12
      12
      12
      12
      12
      12
      12
      12
      12
      12
      12
      12
      12
      12
      12
      12
      12
      12
      12
      12
      12
      12
      12
      12
      12
      12
      12
      12
      12
      12
      12
      12
      12
      12
      12
      12
      12
      12
      12
      12
      12
      12
      12
      12
      12
      12
      12
      12
      12
      12
      12
      12
      12
      12
      12
      12
      12
      12
      12
      12
      12
      12
      12
      12
      12
      12
      12
      12
      12
      12
      12
      12
      12
      12
      12
      12
      12
      12
      12
      12
      12
      12
      12
      12
      12
      12
      12
      12
      12
      12
      12
      12
      12
      12
      12
      12
      12
      12
      12
      12
      12
      12
      12
      12
      12
      12
      12
      12
      12
      12
      12
      12
      12
      12
      12
      12
      12
      12
      12
      12
      12
      12
      12
      12
      12
      12
      12
      12
      12
      12
      12
      12
      12
      12
      12
      12
      12
      12
      12
      12
      12
      12
      12
      12
      12
      12
      12
      12
      12
      12
      12
      12
  
  
POINT_DATA       1950
  
SCALARS                  material_type  double 1
LOOKUP_TABLE default
                   2
                   2
                   2
                   2
                   2
                   2
                   2
                   2
                   2
                   2
                   2
                   2
                   2
                   2
                   2
                   2
                   2
                   2
                   2
                   2
                   2
                   2
                   2
                   2
                   2
                   2
                   2
                   2
                   2
                   2
                   2
                   2
                   2
                   2
                   2
                   2
                   2
                   2
                   2
                   2
                   2
                   2
                   2
                   2
                   2
                   2
                   2
                   2
                   2
                   2
                   2
                   2
                   2
                   2
                   2
                   2
                   2
                   2
                   2
                   2
                   2
                   2
                   2
                   2
                   2
                   2
                   2
                   2
                   2
                   2
                   2
                   2
                   2
                   2
                   2
                   2
                   2
                   2
                   2
                   2
                   2
                   2
                   2
                   2
                   2
                   2
                   2
                   2
                   2
                   2
                   2
                   2
                   2
                   2
                   2
                   2
                   2
                   2
                   2
                   2
                   2
                   2
                   2
                   2
                   2
                   2
                   2
                   2
                   2
                   2
                   2
                   2
                   2
                   2
                   2
                   2
                   2
                   2
                   2
                   2
                   2
                   2
                   2
                   2
                   2
                   2
                   2
                   2
                   2
                   2
                   2
                   2
                   2
                   2
                   2
                   2
                   2
                   2
                   2
                   2
                   2
                   2
                   2
                   2
                   2
                   2
                   2
                   2
                   2
                   2
                   2
                   2
                   2
                   2
                   2
                   2
                   2
                   2
                   2
                   2
                   2
                   2
                   2
                   2
                   2
                   2
                   2
                   2
                   2
                   2
                   2
                   2
                   2
                   2
                   2
                   2
                   2
                   2
                   2
                   2
                   2
                   2
                   2
                   2
                   2
                   2
                   2
                   2
                   2
                   2
                   2
                   2
                   2
                   2
                   2
                   2
                   2
                   2
                   2
                   2
                   2
                   2
                   2
                   2
                   2
                   2
                   2
                   2
                   2
                   2
                   2
                   2
                   2
                   2
                   2
                   2
                   2
                   2
                   2
                   2
                   2
                   2
                   2
                   2
                   2
                   2
                   2
                   2
                   2
                   2
                   2
                   2
                   2
                   2
                   2
                   2
                   2
                   2
                   2
                   2
                   2
                   2
                   2
                   2
                   2
                   2
                   2
                   2
                   2
                   2
                   2
                   2
                   2
                   2
                   2
                   2
                   2
                   2
                   2
                   2
                   2
                   2
                   2
                   2
                   2
                   2
                   2
                   2
                   2
                   2
                   2
                   2
                   2
                   2
                   2
                   2
                   2
                   2
                   2
                   2
                   2
                   2
                   2
                   2
                   2
                   2
                   2
                   2
                   2
                   2
                   2
                   2
                   2
                   2
                   2
                   2
                   2
                   2
                   2
                   2
                   2
                   2
                   2
                   2
                   2
                   2
                   2
                   2
                   2
                   2
                   2
                   2
                   2
                   2
                   2
                   2
                   2
                   2
                   2
                   2
                   2
                   2
                   2
                   2
                   2
                   2
                   2
                   2
                   2
                   2
                   2
                   2
                   2
                   2
                   2
                   2
                   2
                   2
                   2
                   2
                   2
                   2
                   2
                   2
                   2
                   2
                   2
                   2
                   2
                   2
                   2
                   2
                   2
                   2
                   2
                   2
                   2
                   2
                   2
                   2
                   2
                   2
                   2
                   2
                   2
                   2
                   2
                   2
                   2
                   2
                   2
                   2
                   2
                   2
                   2
                   2
                   2
                   2
                   2
                   2
                   2
                   2
                   2
                   2
                   2
                   2
                   2
                   2
                   2
                   2
                   2
                   2
                   2
                   2
                   2
                   2
                   2
                   2
                   2
                   2
                   2
                   2
                   2
                   2
                   2
                   2
                   2
                   2
                   2
                   2
                   2
                   2
                   2
                   2
                   2
                   2
                   2
                   2
                   2
                   2
                   2
                   2
                   2
                   2
                   2
                   2
                   2
                   2
                   2
                   2
                   2
                   2
                   2
                   2
                   2
                   2
                   2
                   2
                   2
                   2
                   2
                   2
                   2
                   2
                   2
                   2
                   2
                   2
                   2
                   2
                   2
                   2
                   2
                   2
                   2
                   2
                   2
                   2
                   2
                   2
                   2
                   2
                   2
                   2
                   2
                   2
                   2
                   2
                   2
                   2
                   2
                   2
                   2
                   2
                   2
                   2
                   2
                   2
                   2
                   2
                   2
                   2
                   2
                   2
                   2
                   2
                   2
                   2
                   2
                   2
                   2
                   2
                   2
                   2
                   2
                   2
                   2
                   2
                   2
                   2
                   2
                   2
                   2
                   2
                   2
                   2
                   2
                   2
                   2
                   2
                   2
                   2
                   2
                   2
                   2
                   2
                   2
                   2
                   2
                   2
                   2
                   2
                   2
                   2
                   2
                   2
                   2
                   2
                   2
                   2
                   2
                   2
                   2
                   2
                   2
                   2
                   2
                   2
                   2
                   2
                   2
                   2
                   2
                   2
                   2
                   2
                   2
                   2
                   2
                   2
                   2
                   2
                   2
                   2
                   2
                   2
                   2
                   2
                   2
                   2
                   2
                   2
                   2
                   2
                   2
                   2
                   2
                   2
                   2
                   2
                   2
                   2
                   2
                   2
                   2
                   2
                   2
                   2
                   2
                   2
                   2
                   2
                   2
                   2
                   2
                   2
                   2
                   2
                   2
                   2
                   2
                   2
                   2
                   2
                   2
                   2
                   2
                   2
                   2
                   2
                   2
                   2
                   2
                   2
                   2
                   2
                   2
                   2
                   2
                   2
                   2
                   2
                   2
                   2
                   2
                   2
                   2
                   2
                   2
                   2
                   2
                   2
                   2
                   2
                   2
                   2
                   2
                   2
                   2
                   2
                   2
                   2
                   2
                   2
                   2
                   2
                   2
                   2
                   2
                   2
                   2
                   2
                   2
                   2
                   2
                   2
                   2
                   2
                   2
                   2
                   2
                   2
                   2
                   2
                   2
                   2
                   2
                   2
                   2
                   2
                   2
                   2
                   2
                   2
                   2
                   2
                   2
                   2
                   2
                   2
                   2
                   2
                   2
                   2
                   2
                   2
                   2
                   2
                   2
                   2
                   2
                   2
                   2
                   2
                   2
                   2
                   2
                   2
                   2
                   2
                   2
                   2
                   2
                   2
                   2
                   2
                   2
                   2
                   2
                   2
                   2
                   2
                   2
                   2
                   2
                   2
                   2
                   2
                   2
                   2
                   2
                   2
                   2
                   2
                   2
                   2
                   2
                   2
                   2
                   2
                   2
                   2
                   2
                   2
                   2
                   2
                   2
                   2
                   2
                   2
                   2
                   2
                   2
                   2
                   2
                   2
                   2
                   2
                   2
                   2
                   2
                   2
                   2
                   2
                   2
                   2
                   2
                   2
                   2
                   2
                   2
                   2
                   2
                   2
                   2
                   2
                   2
                   2
                   2
                   2
                   2
                   2
                   2
                   2
                   2
                   2
                   2
                   2
                   2
                   2
                   2
                   2
                   2
                   2
                   2
                   2
                   2
                   2
                   2
                   2
                   2
                   2
                   2
                   2
                   2
                   2
                   2
                   2
                   2
                   2
                   2
                   2
                   2
                   2
                   2
                   2
                   2
                   2
                   2
                   2
                   2
                   2
                   2
                   2
                   2
                   2
                   2
                   2
                   2
                   2
                   2
                   2
                   2
                   2
                   2
                   2
                   2
                   2
                   2
                   2
                   2
                   2
                   2
                   2
                   2
                   2
                   2
                   2
                   2
                   2
                   2
                   2
                   2
                   2
                   2
                   2
                   2
                   2
                   2
                   2
                   2
                   2
                   2
                   2
                   2
                   2
                   2
                   2
                   2
                   2
                   2
                   2
                   2
                   2
                   2
                   2
                   2
                   2
                   2
                   2
                   2
                   2
                   2
                   2
                   2
                   2
                   2
                   2
                   2
                   2
                   2
                   2
                   2
                   2
                   2
                   2
                   2
                   2
                   2
                   2
                   2
                   2
                   2
                   2
                   2
                   2
                   2
                   2
                   2
                   2
                   2
                   2
                   2
                   2
                   2
                   2
                   2
                   2
                   2
                   2
                   2
                   2
                   2
                   2
                   2
                   2
                   2
                   2
                   2
                   2
                   2
                   2
                   2
                   2
                   2
                   2
                   2
                   2
                   2
                   2
                   2
                   2
                   2
                   2
                   2
                   2
                   2
                   2
                   2
                   2
                   2
                   2
                   2
                   2
                   2
                   2
                   2
                   2
                   2
                   2
                   2
                   2
                   2
                   2
                   2
                   2
                   2
                   2
                   2
                   2
                   2
                   2
                   2
                   2
                   2
                   2
                   2
                   2
                   2
                   2
                   2
                   2
                   2
                   2
                   2
                   2
                   2
                   2
                   2
                   2
                   2
                   2
                   2
                   2
                   2
                   2
                   2
                   2
                   2
                   2
                   2
                   2
                   2
                   2
                   2
                   2
                   2
                   2
                   2
                   2
                   2
                   2
                   2
                   2
                   2
                   2
                   2
                   2
                   2
                   2
                   2
                   2
                   2
                   2
                   2
                   2
                   2
                   2
                   2
                   2
                   2
                   2
                   2
                   2
                   2
                   2
                   2
                   2
                   2
                   2
                   2
                   2
                   2
                   2
                   2
                   2
                   2
                   2
                   2
                   2
                   2
                   2
                   2
                   2
                   2
                   2
                   2
                   2
                   2
                   2
                   2
                   2
                   2
                   2
                   2
                   2
                   2
                   2
                   2
                   2
                   2
                   2
                   2
                   2
                   2
                   2
                   2
                   2
                   2
                   2
                   2
                   2
                   2
                   2
                   2
                   2
                   2
                   2
                   2
                   2
                   2
                   2
                   2
                   2
                   2
                   2
                   2
                   2
                   2
                   2
                   2
                   2
                   2
                   2
                   2
                   2
                   2
                   2
                   2
                   2
                   2
                   2
                   2
                   2
                   2
                   2
                   2
                   2
                   2
                   2
                   2
                   2
                   2
                   2
                   2
                   2
                   2
                   2
                   2
                   2
                   2
                   2
                   2
                   2
                   2
                   2
                   2
                   2
                   2
                   2
                   2
                   2
                   2
                   2
                   2
                   2
                   2
                   2
                   2
                   2
                   2
                   2
                   2
                   2
                   2
                   2
                   2
                   2
                   2
                   2
                   2
                   2
                   2
                   2
                   2
                   2
                   2
                   2
                   2
                   2
                   2
                   2
                   2
                   2
                   2
                   2
                   2
                   2
                   2
                   2
                   2
                   2
                   2
                   2
                   2
                   2
                   2
                   2
                   2
                   2
                   2
                   2
                   2
                   2
                   2
                   2
                   2
                   2
                   2
                   2
                   2
                   2
                   2
                   2
                   2
                   2
                   2
                   2
                   2
                   2
                   2
                   2
                   2
                   2
                   2
                   2
                   2
                   2
                   2
                   2
                   2
                   2
                   2
                   2
                   2
                   2
                   2
                   2
                   2
                   2
                   2
                   2
                   2
                   2
                   2
                   2
                   2
                   2
                   2
                   2
                   2
                   2
                   2
                   2
                   2
                   2
                   2
                   2
                   2
                   2
                   2
                   2
                   2
                   2
                   2
                   2
                   2
                   2
                   2
                   2
                   2
                   2
                   2
                   2
                   2
                   2
                   2
                   2
                   2
                   2
                   2
                   2
                   2
                   2
                   2
                   2
                   2
                   2
                   2
                   2
                   2
                   2
                   2
                   2
                   2
                   2
                   2
                   2
                   2
                   2
                   2
                   2
                   2
                   2
                   2
                   2
                   2
                   2
                   2
                   2
                   2
                   2
                   2
                   2
                   2
                   2
                   2
                   2
                   2
                   2
                   2
                   2
                   2
                   2
                   2
                   2
                   2
                   2
                   2
                   2
                   2
                   2
                   2
                   2
                   2
                   2
                   2
                   2
                   2
                   2
                   2
                   2
                   2
                   2
                   2
                   2
                   2
                   2
                   2
                   2
                   2
                   2
                   2
                   2
                   2
                   2
                   2
                   2
                   2
                   2
                   2
                   2
                   2
                   2
                   2
                   2
                   2
                   2
                   2
                   2
                   2
                   2
                   2
                   2
                   2
                   2
                   2
                   2
                   2
                   2
                   2
                   2
                   2
                   2
                   2
                   2
                   2
                   2
                   2
                   2
                   2
                   2
                   2
                   2
                   2
                   2
                   2
                   2
                   2
                   2
                   2
                   2
                   2
                   2
                   2
                   2
                   2
                   2
                   2
                   2
                   2
                   2
                   2
                   2
                   2
                   2
                   2
                   2
                   2
                   2
                   2
                   2
                   2
                   2
                   2
                   2
                   2
                   2
                   2
                   2
                   2
                   2
                   2
                   2
                   2
                   2
                   2
                   2
                   2
                   2
                   2
                   2
                   2
                   2
                   2
                   2
                   2
                   2
                   2
                   2
                   2
                   2
                   2
                   2
                   2
                   2
                   2
                   2
                   2
                   2
                   2
                   2
                   2
                   2
                   2
                   2
                   2
                   2
                   2
                   2
                   2
                   2
                   2
                   2
                   2
                   2
                   2
                   2
                   2
                   2
                   2
                   2
                   2
                   2
                   2
                   2
                   2
                   2
                   2
                   2
                   2
                   2
                   2
                   2
                   2
                   2
                   2
                   2
                   2
                   2
                   2
                   2
                   2
                   2
                   2
                   2
                   2
                   2
                   2
                   2
                   2
                   2
                   2
                   2
                   2
                   2
                   2
                   2
                   2
                   2
                   2
                   2
                   2
                   2
                   2
                   2
                   2
                   2
                   2
                   2
                   2
                   2
                   2
                   2
                   2
                   2
                   2
                   2
                   2
                   2
                   2
                   2
                   2
                   2
                   2
                   2
                   2
                   2
                   2
                   2
                   2
                   2
                   2
                   2
                   2
                   2
                   2
                   2
                   2
                   2
                   2
                   2
                   2
                   2
                   2
                   2
                   2
                   2
                   2
                   2
                   2
                   2
                   2
                   2
                   2
                   2
                   2
                   2
                   2
                   2
                   2
                   2
                   2
                   2
                   2
                   2
                   2
                   2
                   2
                   2
                   2
                   2
                   2
                   2
                   2
                   2
                   2
                   2
                   2
                   2
                   2
                   2
                   2
                   2
                   2
                   2
                   2
                   2
                   2
                   2
                   2
                   2
                   2
                   2
                   2
                   2
                   2
                   2
                   2
                   2
                   2
                   2
                   2
                   2
                   2
                   2
                   2
                   2
                   2
                   2
                   2
                   2
                   2
                   2
                   2
                   2
                   2
                   2
                   2
                   2
                   2
                   2
                   2
                   2
                   2
                   2
                   2
                   2
                   2
                   2
                   2
                   2
                   2
                   2
                   2
                   2
                   2
                   2
                   2
                   2
                   2
                   2
                   2
                   2
                   2
                   2
                   2
                   2
                   2
                   2
                   2
                   2
                   2
                   2
                   2
                   2
                   2
                   2
                   2
                   2
                   2
                   2
                   2
                   2
                   2
                   2
                   2
                   2
                   2
                   2
                   2
                   2
                   2
                   2
                   2
                   2
                   2
                   2
                   2
                   2
                   2
                   2
                   2
                   2
                   2
                   2
                   2
                   2
                   2
                   2
                   2
                   2
                   2
                   2
                   2
                   2
                   2
                   2
                   2
                   2
                   2
                   2
                   2
                   2
                   2
                   2
                   2
                   2
                   2
                   2
                   2
                   2
                   2
                   2
                   2
                   2
                   2
                   2
                   2
                   2
                   2
                   2
                   2
                   2
                   2
                   2
                   2
                   2
                   2
                   2
                   2
                   2
                   2
                   2
                   2
                   2
                   2
                   2
                   2
                   2
                   2
                   2
                   2
                   2
                   2
                   2
                   2
                   2
                   2
                   2
                   2
                   2
                   2
                   2
                   2
                   2
                   2
                   2
                   2
                   2
                   2
                   2
                   2
                   2
                   2
                   2
                   2
                   2
                   2
                   2
                   2
                   2
                   2
                   2
                   2
                   2
                   2
                   2
                   2
                   2
                   2
                   2
                   2
                   2
                   2
                   2
                   2
                   2
                   2
                   2
                   2
                   2
                   2
                   2
                   2
                   2
                   2
                   2
                   2
                   2
                   2
                   2
                   2
                   2
                   2
                   2
                   2
                   2
                   2
                   2
                   2
                   2
                   2
                   2
                   2
                   2
                   2
                   2
                   2
                   2
                   2
                   2
                   2
                   2
                   2
                   2
                   2
                   2
                   2
                   2
                   2
                   2
                   2
                   2
                   2
                   2
                   2
                   2
                   2
                   2
                   2
                   2
                   2
                   2
                   2
                   2
                   2
                   2
                   2
                   2
                   2
                   2
                   2
                   2
                   2
                   2
                   2
                   2
                   2
                   2
                   2
                   2
                   2
                   2
                   2
                   2
                   2
                   2
                   2
                   2
                   2
                   2
                   2
                   2
                   2
                   2
                   2
                   2
                   2
                   2
                   2
                   2
                   2
                   2
                   2
                   2
                   2
                   2
                   2
                   2
                   2
                   2
                   2
                   2
                   2
                   2
                   2
                   2
                   2
                   2
                   2
                   2
                   2
                   2
                   2
                   2
                   2
                   2
                   2
                   2
                   2
                   2
                   2
                   2
                   2
                   2
                   2
                   2
                   2
                   2
                   2
                   2
                   2
                   2
                   2
                   2
                   2
                   2
                   2
                   2
                   2
                   2
                   2
                   2
                   2
                   2
                   2
                   2
                   2
                   2
                   2
                   2
                   2
                   2
                   2
                   2
                   2
                   2
                   2
                   2
                   2
                   2
                   2
                   2
                   2
                   2
                   2
                   2
                   2
                   2
  
SCALARS                        node_id  double 1
LOOKUP_TABLE default
                   1
                   2
                   3
                   4
                   5
                   6
                   7
                   8
                   9
                  10
                  11
                  12
                  13
                  14
                  15
                  16
                  17
                  18
                  19
                  20
                  21
                  22
                  23
                  24
                  25
                  26
                  27
                  28
                  29
                  30
                  31
                  32
                  33
                  34
                  35
                  36
                  37
                  38
                  39
                  40
                  41
                  42
                  43
                  44
                  45
                  46
                  47
                  48
                  49
                  50
                  51
                  52
                  53
                  54
                  55
                  56
                  57
                  58
                  59
                  60
                  61
                  62
                  63
                  64
                  65
                  66
                  67
                  68
                  69
                  70
                  71
                  72
                  73
                  74
                  75
                  76
                  77
                  78
                  79
                  80
                  81
                  82
                  83
                  84
                  85
                  86
                  87
                  88
                  89
                  90
                  91
                  92
                  93
                  94
                  95
                  96
                  97
                  98
                  99
                 100
                 101
                 102
                 103
                 104
                 105
                 106
                 107
                 108
                 109
                 110
                 111
                 112
                 113
                 114
                 115
                 116
                 117
                 118
                 119
                 120
                 121
                 122
                 123
                 124
                 125
                 126
                 127
                 128
                 129
                 130
                 131
                 132
                 133
                 134
                 135
                 136
                 137
                 138
                 139
                 140
                 141
                 142
                 143
                 144
                 145
                 146
                 147
                 148
                 149
                 150
                 151
                 152
                 153
                 154
                 155
                 156
                 157
                 158
                 159
                 160
                 161
                 162
                 163
                 164
                 165
                 166
                 167
                 168
                 169
                 170
                 171
                 172
                 173
                 174
                 175
                 176
                 177
                 178
                 179
                 180
                 181
                 182
                 183
                 184
                 185
                 186
                 187
                 188
                 189
                 190
                 191
                 192
                 193
                 194
                 195
                 196
                 197
                 198
                 199
                 200
                 201
                 202
                 203
                 204
                 205
                 206
                 207
                 208
                 209
                 210
                 211
                 212
                 213
                 214
                 215
                 216
                 217
                 218
                 219
                 220
                 221
                 222
                 223
                 224
                 225
                 226
                 227
                 228
                 229
                 230
                 231
                 232
                 233
                 234
                 235
                 236
                 237
                 238
                 239
                 240
                 241
                 242
                 243
                 244
                 245
                 246
                 247
                 248
                 249
                 250
                 251
                 252
                 253
                 254
                 255
                 256
                 257
                 258
                 259
                 260
                 261
                 262
                 263
                 264
                 265
                 266
                 267
                 268
                 269
                 270
                 271
                 272
                 273
                 274
                 275
                 276
                 277
                 278
                 279
                 280
                 281
                 282
                 283
                 284
                 285
                 286
                 287
                 288
                 289
                 290
                 291
                 292
                 293
                 294
                 295
                 296
                 297
                 298
                 299
                 300
                 301
                 302
                 303
                 304
                 305
                 306
                 307
                 308
                 309
                 310
                 311
                 312
                 313
                 314
                 315
                 316
                 317
                 318
                 319
                 320
                 321
                 322
                 323
                 324
                 325
                 326
                 327
                 328
                 329
                 330
                 331
                 332
                 333
                 334
                 335
                 336
                 337
                 338
                 339
                 340
                 341
                 342
                 343
                 344
                 345
                 346
                 347
                 348
                 349
                 350
                 351
                 352
                 353
                 354
                 355
                 356
                 357
                 358
                 359
                 360
                 361
                 362
                 363
                 364
                 365
                 366
                 367
                 368
                 369
                 370
                 371
                 372
                 373
                 374
                 375
                 376
                 377
                 378
                 379
                 380
                 381
                 382
                 383
                 384
                 385
                 386
                 387
                 388
                 389
                 390
                 391
                 392
                 393
                 394
                 395
                 396
                 397
                 398
                 399
                 400
                 401
                 402
                 403
                 404
                 405
                 406
                 407
                 408
                 409
                 410
                 411
                 412
                 413
                 414
                 415
                 416
                 417
                 418
                 419
                 420
                 421
                 422
                 423
                 424
                 425
                 426
                 427
                 428
                 429
                 430
                 431
                 432
                 433
                 434
                 435
                 436
                 437
                 438
                 439
                 440
                 441
                 442
                 443
                 444
                 445
                 446
                 447
                 448
                 449
                 450
                 451
                 452
                 453
                 454
                 455
                 456
                 457
                 458
                 459
                 460
                 461
                 462
                 463
                 464
                 465
                 466
                 467
                 468
                 469
                 470
                 471
                 472
                 473
                 474
                 475
                 476
                 477
                 478
                 479
                 480
                 481
                 482
                 483
                 484
                 485
                 486
                 487
                 488
                 489
                 490
                 491
                 492
                 493
                 494
                 495
                 496
                 497
                 498
                 499
                 500
                 501
                 502
                 503
                 504
                 505
                 506
                 507
                 508
                 509
                 510
                 511
                 512
                 513
                 514
                 515
                 516
                 517
                 518
                 519
                 520
                 521
                 522
                 523
                 524
                 525
                 526
                 527
                 528
                 529
                 530
                 531
                 532
                 533
                 534
                 535
                 536
                 537
                 538
                 539
                 540
                 541
                 542
                 543
                 544
                 545
                 546
                 547
                 548
                 549
                 550
                 551
                 552
                 553
                 554
                 555
                 556
                 557
                 558
                 559
                 560
                 561
                 562
                 563
                 564
                 565
                 566
                 567
                 568
                 569
                 570
                 571
                 572
                 573
                 574
                 575
                 576
                 577
                 578
                 579
                 580
                 581
                 582
                 583
                 584
                 585
                 586
                 587
                 588
                 589
                 590
                 591
                 592
                 593
                 594
                 595
                 596
                 597
                 598
                 599
                 600
                 601
                 602
                 603
                 604
                 605
                 606
                 607
                 608
                 609
                 610
                 611
                 612
                 613
                 614
                 615
                 616
                 617
                 618
                 619
                 620
                 621
                 622
                 623
                 624
                 625
                 626
                 627
                 628
                 629
                 630
                 631
                 632
                 633
                 634
                 635
                 636
                 637
                 638
                 639
                 640
                 641
                 642
                 643
                 644
                 645
                 646
                 647
                 648
                 649
                 650
                 651
                 652
                 653
                 654
                 655
                 656
                 657
                 658
                 659
                 660
                 661
                 662
                 663
                 664
                 665
                 666
                 667
                 668
                 669
                 670
                 671
                 672
                 673
                 674
                 675
                 676
                 677
                 678
                 679
                 680
                 681
                 682
                 683
                 684
                 685
                 686
                 687
                 688
                 689
                 690
                 691
                 692
                 693
                 694
                 695
                 696
                 697
                 698
                 699
                 700
                 701
                 702
                 703
                 704
                 705
                 706
                 707
                 708
                 709
                 710
                 711
                 712
                 713
                 714
                 715
                 716
                 717
                 718
                 719
                 720
                 721
                 722
                 723
                 724
                 725
                 726
                 727
                 728
                 729
                 730
                 731
                 732
                 733
                 734
                 735
                 736
                 737
                 738
                 739
                 740
                 741
                 742
                 743
                 744
                 745
                 746
                 747
                 748
                 749
                 750
                 751
                 752
                 753
                 754
                 755
                 756
                 757
                 758
                 759
                 760
                 761
                 762
                 763
                 764
                 765
                 766
                 767
                 768
                 769
                 770
                 771
                 772
                 773
                 774
                 775
                 776
                 777
                 778
                 779
                 780
                 781
                 782
                 783
                 784
                 785
                 786
                 787
                 788
                 789
                 790
                 791
                 792
                 793
                 794
                 795
                 796
                 797
                 798
                 799
                 800
                 801
                 802
                 803
                 804
                 805
                 806
                 807
                 808
                 809
                 810
                 811
                 812
                 813
                 814
                 815
                 816
                 817
                 818
                 819
                 820
                 821
                 822
                 823
                 824
                 825
                 826
                 827
                 828
                 829
                 830
                 831
                 832
                 833
                 834
                 835
                 836
                 837
                 838
                 839
                 840
                 841
                 842
                 843
                 844
                 845
                 846
                 847
                 848
                 849
                 850
                 851
                 852
                 853
                 854
                 855
                 856
                 857
                 858
                 859
                 860
                 861
                 862
                 863
                 864
                 865
                 866
                 867
                 868
                 869
                 870
                 871
                 872
                 873
                 874
                 875
                 876
                 877
                 878
                 879
                 880
                 881
                 882
                 883
                 884
                 885
                 886
                 887
                 888
                 889
                 890
                 891
                 892
                 893
                 894
                 895
                 896
                 897
                 898
                 899
                 900
                 901
                 902
                 903
                 904
                 905
                 906
                 907
                 908
                 909
                 910
                 911
                 912
                 913
                 914
                 915
                 916
                 917
                 918
                 919
                 920
                 921
                 922
                 923
                 924
                 925
                 926
                 927
                 928
                 929
                 930
                 931
                 932
                 933
                 934
                 935
                 936
                 937
                 938
                 939
                 940
                 941
                 942
                 943
                 944
                 945
                 946
                 947
                 948
                 949
                 950
                 951
                 952
                 953
                 954
                 955
                 956
                 957
                 958
                 959
                 960
                 961
                 962
                 963
                 964
                 965
                 966
                 967
                 968
                 969
                 970
                 971
                 972
                 973
                 974
                 975
                 976
                 977
                 978
                 979
                 980
                 981
                 982
                 983
                 984
                 985
                 986
                 987
                 988
                 989
                 990
                 991
                 992
                 993
                 994
                 995
                 996
                 997
                 998
                 999
                1000
                1001
                1002
                1003
                1004
                1005
                1006
                1007
                1008
                1009
                1010
                1011
                1012
                1013
                1014
                1015
                1016
                1017
                1018
                1019
                1020
                1021
                1022
                1023
                1024
                1025
                1026
                1027
                1028
                1029
                1030
                1031
                1032
                1033
                1034
                1035
                1036
                1037
                1038
                1039
                1040
                1041
                1042
                1043
                1044
                1045
                1046
                1047
                1048
                1049
                1050
                1051
                1052
                1053
                1054
                1055
                1056
                1057
                1058
                1059
                1060
                1061
                1062
                1063
                1064
                1065
                1066
                1067
                1068
                1069
                1070
                1071
                1072
                1073
                1074
                1075
                1076
                1077
                1078
                1079
                1080
                1081
                1082
                1083
                1084
                1085
                1086
                1087
                1088
                1089
                1090
                1091
                1092
                1093
                1094
                1095
                1096
                1097
                1098
                1099
                1100
                1101
                1102
                1103
                1104
                1105
                1106
                1107
                1108
                1109
                1110
                1111
                1112
                1113
                1114
                1115
                1116
                1117
                1118
                1119
                1120
                1121
                1122
                1123
                1124
                1125
                1126
                1127
                1128
                1129
                1130
                1131
                1132
                1133
                1134
                1135
                1136
                1137
                1138
                1139
                1140
                1141
                1142
                1143
                1144
                1145
                1146
                1147
                1148
                1149
                1150
                1151
                1152
                1153
                1154
                1155
                1156
                1157
                1158
                1159
                1160
                1161
                1162
                1163
                1164
                1165
                1166
                1167
                1168
                1169
                1170
                1171
                1172
                1173
                1174
                1175
                1176
                1177
                1178
                1179
                1180
                1181
                1182
                1183
                1184
                1185
                1186
                1187
                1188
                1189
                1190
                1191
                1192
                1193
                1194
                1195
                1196
                1197
                1198
                1199
                1200
                1201
                1202
                1203
                1204
                1205
                1206
                1207
                1208
                1209
                1210
                1211
                1212
                1213
                1214
                1215
                1216
                1217
                1218
                1219
                1220
                1221
                1222
                1223
                1224
                1225
                1226
                1227
                1228
                1229
                1230
                1231
                1232
                1233
                1234
                1235
                1236
                1237
                1238
                1239
                1240
                1241
                1242
                1243
                1244
                1245
                1246
                1247
                1248
                1249
                1250
                1251
                1252
                1253
                1254
                1255
                1256
                1257
                1258
                1259
                1260
                1261
                1262
                1263
                1264
                1265
                1266
                1267
                1268
                1269
                1270
                1271
                1272
                1273
                1274
                1275
                1276
                1277
                1278
                1279
                1280
                1281
                1282
                1283
                1284
                1285
                1286
                1287
                1288
                1289
                1290
                1291
                1292
                1293
                1294
                1295
                1296
                1297
                1298
                1299
                1300
                1301
                1302
                1303
                1304
                1305
                1306
                1307
                1308
                1309
                1310
                1311
                1312
                1313
                1314
                1315
                1316
                1317
                1318
                1319
                1320
                1321
                1322
                1323
                1324
                1325
                1326
                1327
                1328
                1329
                1330
                1331
                1332
                1333
                1334
                1335
                1336
                1337
                1338
                1339
                1340
                1341
                1342
                1343
                1344
                1345
                1346
                1347
                1348
                1349
                1350
                1351
                1352
                1353
                1354
                1355
                1356
                1357
                1358
                1359
                1360
                1361
                1362
                1363
                1364
                1365
                1366
                1367
                1368
                1369
                1370
                1371
                1372
                1373
                1374
                1375
                1376
                1377
                1378
                1379
                1380
                1381
                1382
                1383
                1384
                1385
                1386
                1387
                1388
                1389
                1390
                1391
                1392
                1393
                1394
                1395
                1396
                1397
                1398
                1399
                1400
                1401
                1402
                1403
                1404
                1405
                1406
                1407
                1408
                1409
                1410
                1411
                1412
                1413
                1414
                1415
                1416
                1417
                1418
                1419
                1420
                1421
                1422
                1423
                1424
                1425
                1426
                1427
                1428
                1429
                1430
                1431
                1432
                1433
                1434
                1435
                1436
                1437
                1438
                1439
                1440
                1441
                1442
                1443
                1444
                1445
                1446
                1447
                1448
                1449
                1450
                1451
                1452
                1453
                1454
                1455
                1456
                1457
                1458
                1459
                1460
                1461
                1462
                1463
                1464
                1465
                1466
                1467
                1468
                1469
                1470
                1471
                1472
                1473
                1474
                1475
                1476
                1477
                1478
                1479
                1480
                1481
                1482
                1483
                1484
                1485
                1486
                1487
                1488
                1489
                1490
                1491
                1492
                1493
                1494
                1495
                1496
                1497
                1498
                1499
                1500
                1501
                1502
                1503
                1504
                1505
                1506
                1507
                1508
                1509
                1510
                1511
                1512
                1513
                1514
                1515
                1516
                1517
                1518
                1519
                1520
                1521
                1522
                1523
                1524
                1525
                1526
                1527
                1528
                1529
                1530
                1531
                1532
                1533
                1534
                1535
                1536
                1537
                1538
                1539
                1540
                1541
                1542
                1543
                1544
                1545
                1546
                1547
                1548
                1549
                1550
                1551
                1552
                1553
                1554
                1555
                1556
                1557
                1558
                1559
                1560
                1561
                1562
                1563
                1564
                1565
                1566
                1567
                1568
                1569
                1570
                1571
                1572
                1573
                1574
                1575
                1576
                1577
                1578
                1579
                1580
                1581
                1582
                1583
                1584
                1585
                1586
                1587
                1588
                1589
                1590
                1591
                1592
                1593
                1594
                1595
                1596
                1597
                1598
                1599
                1600
                1601
                1602
                1603
                1604
                1605
                1606
                1607
                1608
                1609
                1610
                1611
                1612
                1613
                1614
                1615
                1616
                1617
                1618
                1619
                1620
                1621
                1622
                1623
                1624
                1625
                1626
                1627
                1628
                1629
                1630
                1631
                1632
                1633
                1634
                1635
                1636
                1637
                1638
                1639
                1640
                1641
                1642
                1643
                1644
                1645
                1646
                1647
                1648
                1649
                1650
                1651
                1652
                1653
                1654
                1655
                1656
                1657
                1658
                1659
                1660
                1661
                1662
                1663
                1664
                1665
                1666
                1667
                1668
                1669
                1670
                1671
                1672
                1673
                1674
                1675
                1676
                1677
                1678
                1679
                1680
                1681
                1682
                1683
                1684
                1685
                1686
                1687
                1688
                1689
                1690
                1691
                1692
                1693
                1694
                1695
                1696
                1697
                1698
                1699
                1700
                1701
                1702
                1703
                1704
                1705
                1706
                1707
                1708
                1709
                1710
                1711
                1712
                1713
                1714
                1715
                1716
                1717
                1718
                1719
                1720
                1721
                1722
                1723
                1724
                1725
                1726
                1727
                1728
                1729
                1730
                1731
                1732
                1733
                1734
                1735
                1736
                1737
                1738
                1739
                1740
                1741
                1742
                1743
                1744
                1745
                1746
                1747
                1748
                1749
                1750
                1751
                1752
                1753
                1754
                1755
                1756
                1757
                1758
                1759
                1760
                1761
                1762
                1763
                1764
                1765
                1766
                1767
                1768
                1769
                1770
                1771
                1772
                1773
                1774
                1775
                1776
                1777
                1778
                1779
                1780
                1781
                1782
                1783
                1784
                1785
                1786
                1787
                1788
                1789
                1790
                1791
                1792
                1793
                1794
                1795
                1796
                1797
                1798
                1799
                1800
                1801
                1802
                1803
                1804
                1805
                1806
                1807
                1808
                1809
                1810
                1811
                1812
                1813
                1814
                1815
                1816
                1817
                1818
                1819
                1820
                1821
                1822
                1823
                1824
                1825
                1826
                1827
                1828
                1829
                1830
                1831
                1832
                1833
                1834
                1835
                1836
                1837
                1838
                1839
                1840
                1841
                1842
                1843
                1844
                1845
                1846
                1847
                1848
                1849
                1850
                1851
                1852
                1853
                1854
                1855
                1856
                1857
                1858
                1859
                1860
                1861
                1862
                1863
                1864
                1865
                1866
                1867
                1868
                1869
                1870
                1871
                1872
                1873
                1874
                1875
                1876
                1877
                1878
                1879
                1880
                1881
                1882
                1883
                1884
                1885
                1886
                1887
                1888
                1889
                1890
                1891
                1892
                1893
                1894
                1895
                1896
                1897
                1898
                1899
                1900
                1901
                1902
                1903
                1904
                1905
                1906
                1907
                1908
                1909
                1910
                1911
                1912
                1913
                1914
                1915
                1916
                1917
                1918
                1919
                1920
                1921
                1922
                1923
                1924
                1925
                1926
                1927
                1928
                1929
                1930
                1931
                1932
                1933
                1934
                1935
                1936
                1937
                1938
                1939
                1940
                1941
                1942
                1943
                1944
                1945
                1946
                1947
                1948
                1949
                1950
  
SCALARS                         bodyid  double 1
LOOKUP_TABLE default
                   1
                   1
                   1
                   1
                   1
                   1
                   1
                   1
                   1
                   1
                   1
                   1
                   1
                   1
                   1
                   1
                   1
                   1
                   1
                   1
                   1
                   1
                   1
                   1
                   1
                   1
                   1
                   1
                   1
                   1
                   1
                   1
                   1
                   1
                   1
                   1
                   1
                   1
                   1
                   1
                   1
                   1
                   1
                   1
                   1
                   1
                   1
                   1
                   1
                   1
                   1
                   1
                   1
                   1
                   1
                   1
                   1
                   1
                   1
                   1
                   1
                   1
                   1
                   1
                   1
                   1
                   1
                   1
                   1
                   1
                   1
                   1
                   1
                   1
                   1
                   1
                   1
                   1
                   1
                   1
                   1
                   1
                   1
                   1
                   1
                   1
                   1
                   1
                   1
                   1
                   1
                   1
                   1
                   1
                   1
                   1
                   1
                   1
                   1
                   1
                   1
                   1
                   1
                   1
                   1
                   1
                   1
                   1
                   1
                   1
                   1
                   1
                   1
                   1
                   1
                   1
                   1
                   1
                   1
                   1
                   1
                   1
                   1
                   1
                   1
                   1
                   1
                   1
                   1
                   1
                   1
                   1
                   1
                   1
                   1
                   1
                   1
                   1
                   1
                   1
                   1
                   1
                   1
                   1
                   1
                   1
                   1
                   1
                   1
                   1
                   1
                   1
                   1
                   1
                   1
                   1
                   1
                   1
                   1
                   1
                   1
                   1
                   1
                   1
                   1
                   1
                   1
                   1
                   1
                   1
                   1
                   1
                   1
                   1
                   1
                   1
                   1
                   1
                   1
                   1
                   1
                   1
                   1
                   1
                   1
                   1
                   1
                   1
                   1
                   1
                   1
                   1
                   1
                   1
                   1
                   1
                   1
                   1
                   1
                   1
                   1
                   1
                   1
                   1
                   1
                   1
                   1
                   1
                   1
                   1
                   1
                   1
                   1
                   1
                   1
                   1
                   1
                   1
                   1
                   1
                   1
                   1
                   1
                   1
                   1
                   1
                   1
                   1
                   1
                   1
                   1
                   1
                   1
                   1
                   1
                   1
                   1
                   1
                   1
                   1
                   1
                   1
                   1
                   1
                   1
                   1
                   1
                   1
                   1
                   1
                   1
                   1
                   1
                   1
                   1
                   1
                   1
                   1
                   1
                   1
                   1
                   1
                   1
                   1
                   1
                   1
                   1
                   1
                   1
                   1
                   1
                   1
                   1
                   1
                   1
                   1
                   1
                   1
                   1
                   1
                   1
                   1
                   1
                   1
                   1
                   1
                   1
                   1
                   1
                   1
                   1
                   1
                   1
                   1
                   1
                   1
                   1
                   1
                   1
                   1
                   1
                   1
                   1
                   1
                   1
                   1
                   1
                   1
                   1
                   1
                   1
                   1
                   1
                   1
                   1
                   1
                   1
                   1
                   1
                   1
                   1
                   1
                   1
                   1
                   1
                   1
                   1
                   1
                   1
                   1
                   1
                   1
                   1
                   1
                   1
                   1
                   1
                   1
                   1
                   1
                   1
                   1
                   1
                   1
                   1
                   1
                   1
                   1
                   1
                   1
                   1
                   1
                   1
                   1
                   1
                   1
                   1
                   1
                   1
                   1
                   1
                   1
                   1
                   1
                   1
                   1
                   1
                   1
                   1
                   1
                   1
                   1
                   1
                   1
                   1
                   1
                   1
                   1
                   1
                   1
                   1
                   1
                   1
                   1
                   1
                   1
                   1
                   1
                   1
                   1
                   1
                   1
                   1
                   1
                   1
                   1
                   1
                   1
                   1
                   1
                   1
                   1
                   1
                   1
                   1
                   1
                   1
                   1
                   1
                   1
                   1
                   1
                   1
                   1
                   1
                   1
                   1
                   1
                   1
                   1
                   1
                   1
                   1
                   1
                   1
                   1
                   1
                   1
                   1
                   1
                   1
                   1
                   1
                   1
                   1
                   1
                   1
                   1
                   1
                   1
                   1
                   1
                   1
                   1
                   1
                   1
                   1
                   1
                   1
                   1
                   1
                   1
                   1
                   1
                   1
                   1
                   1
                   1
                   1
                   1
                   1
                   1
                   1
                   1
                   1
                   1
                   1
                   1
                   1
                   1
                   1
                   1
                   1
                   1
                   1
                   1
                   1
                   1
                   1
                   1
                   1
                   1
                   1
                   1
                   1
                   1
                   1
                   1
                   1
                   1
                   1
                   1
                   1
                   1
                   1
                   1
                   1
                   1
                   1
                   1
                   1
                   1
                   1
                   1
                   1
                   1
                   1
                   1
                   1
                   1
                   1
                   1
                   1
                   1
                   1
                   1
                   1
                   1
                   1
                   1
                   1
                   1
                   1
                   1
                   1
                   1
                   1
                   1
                   1
                   1
                   1
                   1
                   1
                   1
                   1
                   1
                   1
                   1
                   1
                   1
                   1
                   1
                   1
                   1
                   1
                   1
                   1
                   1
                   1
                   1
                   1
                   1
                   1
                   1
                   1
                   1
                   1
                   1
                   1
                   1
                   1
                   1
                   1
                   1
                   1
                   1
                   1
                   1
                   1
                   1
                   1
                   1
                   1
                   1
                   1
                   1
                   1
                   1
                   1
                   1
                   1
                   1
                   1
                   1
                   1
                   1
                   1
                   1
                   1
                   1
                   1
                   1
                   1
                   1
                   1
                   1
                   1
                   1
                   1
                   1
                   1
                   1
                   1
                   1
                   1
                   1
                   1
                   1
                   1
                   1
                   1
                   1
                   1
                   1
                   1
                   1
                   1
                   1
                   1
                   1
                   1
                   1
                   1
                   1
                   1
                   1
                   1
                   1
                   1
                   1
                   1
                   1
                   1
                   1
                   1
                   1
                   1
                   1
                   1
                   1
                   1
                   1
                   1
                   1
                   1
                   1
                   1
                   1
                   1
                   1
                   1
                   1
                   1
                   1
                   1
                   1
                   1
                   1
                   1
                   1
                   1
                   1
                   1
                   1
                   1
                   1
                   1
                   1
                   1
                   1
                   1
                   1
                   1
                   1
                   1
                   1
                   1
                   1
                   1
                   1
                   1
                   1
                   1
                   1
                   1
                   1
                   1
                   1
                   1
                   1
                   1
                   1
                   1
                   1
                   1
                   1
                   1
                   1
                   1
                   1
                   1
                   1
                   1
                   1
                   1
                   1
                   1
                   1
                   1
                   1
                   1
                   1
                   1
                   1
                   1
                   1
                   1
                   1
                   1
                   1
                   1
                   1
                   1
                   1
                   1
                   1
                   1
                   1
                   1
                   1
                   1
                   1
                   1
                   1
                   1
                   1
                   1
                   1
                   1
                   1
                   1
                   1
                   1
                   1
                   1
                   1
                   1
                   1
                   1
                   1
                   1
                   1
                   1
                   1
                   1
                   1
                   1
                   1
                   1
                   1
                   1
                   1
                   1
                   1
                   1
                   1
                   1
                   1
                   1
                   1
                   1
                   1
                   1
                   1
                   1
                   1
                   1
                   1
                   1
                   1
                   1
                   1
                   1
                   1
                   1
                   1
                   1
                   1
                   1
                   1
                   1
                   1
                   1
                   1
                   1
                   1
                   1
                   1
                   1
                   1
                   1
                   1
                   1
                   1
                   1
                   1
                   1
                   1
                   1
                   1
                   1
                   1
                   1
                   1
                   1
                   1
                   1
                   1
                   1
                   1
                   1
                   1
                   1
                   1
                   1
                   1
                   1
                   1
                   1
                   1
                   1
                   1
                   1
                   1
                   1
                   1
                   1
                   1
                   1
                   1
                   1
                   1
                   1
                   1
                   1
                   1
                   1
                   1
                   1
                   1
                   1
                   1
                   1
                   1
                   1
                   1
                   1
                   1
                   1
                   1
                   1
                   1
                   1
                   1
                   1
                   1
                   1
                   1
                   1
                   1
                   1
                   1
                   1
                   1
                   1
                   1
                   1
                   1
                   1
                   1
                   1
                   1
                   1
                   1
                   1
                   1
                   1
                   1
                   1
                   1
                   1
                   1
                   1
                   1
                   1
                   1
                   1
                   1
                   1
                   1
                   1
                   1
                   1
                   1
                   1
                   1
                   1
                   1
                   1
                   1
                   1
                   1
                   1
                   1
                   1
                   1
                   1
                   1
                   1
                   1
                   1
                   1
                   1
                   1
                   1
                   1
                   1
                   1
                   1
                   1
                   1
                   1
                   1
                   1
                   1
                   1
                   1
                   1
                   1
                   1
                   1
                   1
                   1
                   1
                   1
                   1
                   1
                   1
                   1
                   1
                   1
                   1
                   1
                   1
                   1
                   1
                   1
                   1
                   1
                   1
                   1
                   1
                   1
                   1
                   1
                   1
                   1
                   1
                   1
                   1
                   1
                   1
                   1
                   1
                   1
                   1
                   1
                   1
                   1
                   1
                   1
                   1
                   1
                   1
                   1
                   1
                   1
                   1
                   1
                   1
                   1
                   1
                   1
                   1
                   1
                   1
                   1
                   1
                   1
                   1
                   1
                   1
                   1
                   1
                   1
                   1
                   1
                   1
                   1
                   1
                   1
                   1
                   1
                   1
                   1
                   1
                   1
                   1
                   1
                   1
                   1
                   1
                   1
                   1
                   1
                   1
                   1
                   1
                   1
                   1
                   1
                   1
                   1
                   1
                   1
                   1
                   1
                   1
                   1
                   1
                   1
                   1
                   1
                   1
                   1
                   1
                   1
                   1
                   1
                   1
                   1
                   1
                   1
                   1
                   1
                   1
                   1
                   1
                   1
                   1
                   1
                   1
                   1
                   1
                   1
                   1
                   1
                   1
                   1
                   1
                   1
                   1
                   1
                   1
                   1
                   1
                   1
                   1
                   1
                   1
                   1
                   1
                   1
                   1
                   1
                   1
                   1
                   1
                   1
                   1
                   1
                   1
                   1
                   1
                   1
                   1
                   1
                   1
                   1
                   1
                   1
                   1
                   1
                   1
                   1
                   1
                   1
                   1
                   1
                   1
                   1
                   1
                   1
                   1
                   1
                   1
                   1
                   1
                   1
                   1
                   1
                   1
                   1
                   1
                   1
                   1
                   1
                   1
                   1
                   1
                   1
                   1
                   1
                   1
                   1
                   1
                   1
                   1
                   1
                   1
                   1
                   1
                   1
                   1
                   1
                   1
                   1
                   1
                   1
                   1
                   1
                   1
                   1
                   1
                   1
                   1
                   1
                   1
                   1
                   1
                   1
                   1
                   1
                   1
                   1
                   1
                   1
                   1
                   1
                   1
                   1
                   1
                   1
                   1
                   1
                   1
                   1
                   1
                   1
                   1
                   1
                   1
                   1
                   1
                   1
                   1
                   1
                   1
                   1
                   1
                   1
                   1
                   1
                   1
                   1
                   1
                   1
                   1
                   1
                   1
                   1
                   1
                   1
                   1
                   1
                   1
                   1
                   1
                   1
                   1
                   1
                   1
                   1
                   1
                   1
                   1
                   1
                   1
                   1
                   1
                   1
                   1
                   1
                   1
                   1
                   1
                   1
                   1
                   1
                   1
                   1
                   1
                   1
                   1
                   1
                   1
                   1
                   1
                   1
                   1
                   1
                   1
                   1
                   1
                   1
                   1
                   1
                   1
                   1
                   1
                   1
                   1
                   1
                   1
                   1
                   1
                   1
                   1
                   1
                   1
                   1
                   1
                   1
                   1
                   1
                   1
                   1
                   1
                   1
                   1
                   1
                   1
                   1
                   1
                   1
                   1
                   1
                   1
                   1
                   1
                   1
                   1
                   1
                   1
                   1
                   1
                   1
                   1
                   1
                   1
                   1
                   1
                   1
                   1
                   1
                   1
                   1
                   1
                   1
                   1
                   1
                   1
                   1
                   1
                   1
                   1
                   1
                   1
                   1
                   1
                   1
                   1
                   1
                   1
                   1
                   1
                   1
                   1
                   1
                   1
                   1
                   1
                   1
                   1
                   1
                   1
                   1
                   1
                   1
                   1
                   1
                   1
                   1
                   1
                   1
                   1
                   1
                   1
                   1
                   1
                   1
                   1
                   1
                   1
                   1
                   1
                   1
                   1
                   1
                   1
                   1
                   1
                   1
                   1
                   1
                   1
                   1
                   1
                   1
                   1
                   1
                   1
                   1
                   1
                   1
                   1
                   1
                   1
                   1
                   1
                   1
                   1
                   1
                   1
                   1
                   1
                   1
                   1
                   1
                   1
                   1
                   1
                   1
                   1
                   1
                   1
                   1
                   1
                   1
                   1
                   1
                   1
                   1
                   1
                   1
                   1
                   1
                   1
                   1
                   1
                   1
                   1
                   1
                   1
                   1
                   1
                   1
                   1
                   1
                   1
                   1
                   1
                   1
                   1
                   1
                   1
                   1
                   1
                   1
                   1
                   1
                   1
                   1
                   1
                   1
                   1
                   1
                   1
                   1
                   1
                   1
                   1
                   1
                   1
                   1
                   1
                   1
                   1
                   1
                   1
                   1
                   1
                   1
                   1
                   1
                   1
                   1
                   1
                   1
                   1
                   1
                   1
                   1
                   1
                   1
                   1
                   1
                   1
                   1
                   1
                   1
                   1
                   1
                   1
                   1
                   1
                   1
                   1
                   1
                   1
                   1
                   1
                   1
                   1
                   1
                   1
                   1
                   1
                   1
                   1
                   1
                   1
                   1
                   1
                   1
                   1
                   1
                   1
                   1
                   1
                   1
                   1
                   1
                   1
                   1
                   1
                   1
                   1
                   1
                   1
                   1
                   1
                   1
                   1
                   1
                   1
                   1
                   1
                   1
                   1
                   1
                   1
                   1
                   1
                   1
                   1
                   1
                   1
                   1
                   1
                   1
                   1
                   1
                   1
                   1
                   1
                   1
                   1
                   1
                   1
                   1
                   1
                   1
                   1
                   1
                   1
                   1
                   1
                   1
                   1
                   1
                   1
                   1
                   1
                   1
                   1
                   1
                   1
                   1
                   1
                   1
                   1
                   1
                   1
                   1
                   1
                   1
                   1
                   1
                   1
                   1
                   1
                   1
                   1
                   1
                   1
                   1
                   1
                   1
                   1
                   1
                   1
                   1
                   1
                   1
                   1
                   1
                   1
                   1
                   1
                   1
                   1
                   1
                   1
                   1
                   1
                   1
                   1
                   1
                   1
                   1
                   1
                   1
                   1
                   1
                   1
                   1
                   1
                   1
                   1
                   1
                   1
                   1
                   1
                   1
                   1
                   1
                   1
                   1
                   1
                   1
                   1
                   1
                   1
                   1
                   1
                   1
                   1
                   1
                   1
                   1
                   1
                   1
                   1
                   1
                   1
                   1
                   1
                   1
                   1
                   1
                   1
                   1
                   1
                   1
                   1
                   1
                   1
                   1
                   1
                   1
                   1
                   1
                   1
                   1
                   1
                   1
                   1
                   1
                   1
                   1
                   1
                   1
                   1
                   1
                   1
                   1
                   1
                   1
                   1
                   1
                   1
                   1
                   1
                   1
                   1
                   1
                   1
                   1
                   1
                   1
                   1
                   1
                   1
                   1
                   1
                   1
                   1
                   1
                   1
                   1
                   1
                   1
                   1
                   1
                   1
                   1
                   1
                   1
                   1
                   1
                   1
                   1
                   1
                   1
                   1
                   1
                   1
                   1
                   1
                   1
                   1
                   1
                   1
                   1
                   1
                   1
                   1
                   1
                   1
                   1
                   1
                   1
                   1
                   1
                   1
                   1
                   1
                   1
                   1
                   1
                   1
                   1
                   1
                   1
                   1
                   1
                   1
                   1
                   1
                   1
                   1
                   1
                   1
                   1
                   1
                   1
                   1
                   1
                   1
                   1
                   1
                   1
                   1
                   1
                   1
                   1
                   1
                   1
                   1
                   1
                   1
                   1
                   1
                   1
                   1
                   1
                   1
                   1
                   1
                   1
                   1
                   1
                   1
                   1
                   1
                   1
                   1
                   1
                   1
                   1
                   1
                   1
                   1
                   1
                   1
                   1
                   1
                   1
                   1
                   1
                   1
                   1
                   1
                   1
                   1
                   1
                   1
                   1
                   1
                   1
                   1
                   1
                   1
                   1
                   1
                   1
                   1
                   1
                   1
                   1
                   1
                   1
                   1
                   1
                   1
                   1
                   1
                   1
                   1
                   1
                   1
                   1
                   1
                   1
                   1
                   1
                   1
                   1
                   1
                   1
                   1
                   1
                   1
                   1
                   1
                   1
                   1
                   1
                   1
                   1
                   1
                   1
                   1
                   1
                   1
                   1
                   1
                   1
                   1
                   1
                   1
                   1
                   1
                   1
                   1
                   1
                   1
                   1
                   1
                   1
                   1
                   1
                   1
                   1
                   1
                   1
                   1
                   1
                   1
                   1
                   1
                   1
                   1
                   1
                   1
                   1
                   1
                   1
                   1
                   1
                   1
                   1
                   1
                   1
                   1
                   1
                   1
                   1
                   1
                   1
                   1
                   1
                   1
                   1
                   1
                   1
                   1
                   1
                   1
                   1
                   1
                   1
                   1
                   1
                   1
                   1
                   1
                   1
                   1
                   1
                   1
                   1
                   1
                   1
                   1
                   1
                   1
                   1
                   1
                   1
                   1
                   1
                   1
                   1
                   1
                   1
                   1
                   1
                   1
                   1
                   1
                   1
                   1
                   1
                   1
                   1
                   1
                   1
                   1
                   1
                   1
                   1
                   1
                   1
                   1
                   1
                   1
                   1
                   1
                   1
                   1
                   1
                   1
                   1
                   1
                   1
                   1
                   1
                   1
  
SCALARS                  material_type  double 1
LOOKUP_TABLE default
                   2
                   2
                   2
                   2
                   2
                   2
                   2
                   2
                   2
                   2
                   2
                   2
                   2
                   2
                   2
                   2
                   2
                   2
                   2
                   2
                   2
                   2
                   2
                   2
                   2
                   2
                   2
                   2
                   2
                   2
                   2
                   2
                   2
                   2
                   2
                   2
                   2
                   2
                   2
                   2
                   2
                   2
                   2
                   2
                   2
                   2
                   2
                   2
                   2
                   2
                   2
                   2
                   2
                   2
                   2
                   2
                   2
                   2
                   2
                   2
                   2
                   2
                   2
                   2
                   2
                   2
                   2
                   2
                   2
                   2
                   2
                   2
                   2
                   2
                   2
                   2
                   2
                   2
                   2
                   2
                   2
                   2
                   2
                   2
                   2
                   2
                   2
                   2
                   2
                   2
                   2
                   2
                   2
                   2
                   2
                   2
                   2
                   2
                   2
                   2
                   2
                   2
                   2
                   2
                   2
                   2
                   2
                   2
                   2
                   2
                   2
                   2
                   2
                   2
                   2
                   2
                   2
                   2
                   2
                   2
                   2
                   2
                   2
                   2
                   2
                   2
                   2
                   2
                   2
                   2
                   2
                   2
                   2
                   2
                   2
                   2
                   2
                   2
                   2
                   2
                   2
                   2
                   2
                   2
                   2
                   2
                   2
                   2
                   2
                   2
                   2
                   2
                   2
                   2
                   2
                   2
                   2
                   2
                   2
                   2
                   2
                   2
                   2
                   2
                   2
                   2
                   2
                   2
                   2
                   2
                   2
                   2
                   2
                   2
                   2
                   2
                   2
                   2
                   2
                   2
                   2
                   2
                   2
                   2
                   2
                   2
                   2
                   2
                   2
                   2
                   2
                   2
                   2
                   2
                   2
                   2
                   2
                   2
                   2
                   2
                   2
                   2
                   2
                   2
                   2
                   2
                   2
                   2
                   2
                   2
                   2
                   2
                   2
                   2
                   2
                   2
                   2
                   2
                   2
                   2
                   2
                   2
                   2
                   2
                   2
                   2
                   2
                   2
                   2
                   2
                   2
                   2
                   2
                   2
                   2
                   2
                   2
                   2
                   2
                   2
                   2
                   2
                   2
                   2
                   2
                   2
                   2
                   2
                   2
                   2
                   2
                   2
                   2
                   2
                   2
                   2
                   2
                   2
                   2
                   2
                   2
                   2
                   2
                   2
                   2
                   2
                   2
                   2
                   2
                   2
                   2
                   2
                   2
                   2
                   2
                   2
                   2
                   2
                   2
                   2
                   2
                   2
                   2
                   2
                   2
                   2
                   2
                   2
                   2
                   2
                   2
                   2
                   2
                   2
                   2
                   2
                   2
                   2
                   2
                   2
                   2
                   2
                   2
                   2
                   2
                   2
                   2
                   2
                   2
                   2
                   2
                   2
                   2
                   2
                   2
                   2
                   2
                   2
                   2
                   2
                   2
                   2
                   2
                   2
                   2
                   2
                   2
                   2
                   2
                   2
                   2
                   2
                   2
                   2
                   2
                   2
                   2
                   2
                   2
                   2
                   2
                   2
                   2
                   2
                   2
                   2
                   2
                   2
                   2
                   2
                   2
                   2
                   2
                   2
                   2
                   2
                   2
                   2
                   2
                   2
                   2
                   2
                   2
                   2
                   2
                   2
                   2
                   2
                   2
                   2
                   2
                   2
                   2
                   2
                   2
                   2
                   2
                   2
                   2
                   2
                   2
                   2
                   2
                   2
                   2
                   2
                   2
                   2
                   2
                   2
                   2
                   2
                   2
                   2
                   2
                   2
                   2
                   2
                   2
                   2
                   2
                   2
                   2
                   2
                   2
                   2
                   2
                   2
                   2
                   2
                   2
                   2
                   2
                   2
                   2
                   2
                   2
                   2
                   2
                   2
                   2
                   2
                   2
                   2
                   2
                   2
                   2
                   2
                   2
                   2
                   2
                   2
                   2
                   2
                   2
                   2
                   2
                   2
                   2
                   2
                   2
                   2
                   2
                   2
                   2
                   2
                   2
                   2
                   2
                   2
                   2
                   2
                   2
                   2
                   2
                   2
                   2
                   2
                   2
                   2
                   2
                   2
                   2
                   2
                   2
                   2
                   2
                   2
                   2
                   2
                   2
                   2
                   2
                   2
                   2
                   2
                   2
                   2
                   2
                   2
                   2
                   2
                   2
                   2
                   2
                   2
                   2
                   2
                   2
                   2
                   2
                   2
                   2
                   2
                   2
                   2
                   2
                   2
                   2
                   2
                   2
                   2
                   2
                   2
                   2
                   2
                   2
                   2
                   2
                   2
                   2
                   2
                   2
                   2
                   2
                   2
                   2
                   2
                   2
                   2
                   2
                   2
                   2
                   2
                   2
                   2
                   2
                   2
                   2
                   2
                   2
                   2
                   2
                   2
                   2
                   2
                   2
                   2
                   2
                   2
                   2
                   2
                   2
                   2
                   2
                   2
                   2
                   2
                   2
                   2
                   2
                   2
                   2
                   2
                   2
                   2
                   2
                   2
                   2
                   2
                   2
                   2
                   2
                   2
                   2
                   2
                   2
                   2
                   2
                   2
                   2
                   2
                   2
                   2
                   2
                   2
                   2
                   2
                   2
                   2
                   2
                   2
                   2
                   2
                   2
                   2
                   2
                   2
                   2
                   2
                   2
                   2
                   2
                   2
                   2
                   2
                   2
                   2
                   2
                   2
                   2
                   2
                   2
                   2
                   2
                   2
                   2
                   2
                   2
                   2
                   2
                   2
                   2
                   2
                   2
                   2
                   2
                   2
                   2
                   2
                   2
                   2
                   2
                   2
                   2
                   2
                   2
                   2
                   2
                   2
                   2
                   2
                   2
                   2
                   2
                   2
                   2
                   2
                   2
                   2
                   2
                   2
                   2
                   2
                   2
                   2
                   2
                   2
                   2
                   2
                   2
                   2
                   2
                   2
                   2
                   2
                   2
                   2
                   2
                   2
                   2
                   2
                   2
                   2
                   2
                   2
                   2
                   2
                   2
                   2
                   2
                   2
                   2
                   2
                   2
                   2
                   2
                   2
                   2
                   2
                   2
                   2
                   2
                   2
                   2
                   2
                   2
                   2
                   2
                   2
                   2
                   2
                   2
                   2
                   2
                   2
                   2
                   2
                   2
                   2
                   2
                   2
                   2
                   2
                   2
                   2
                   2
                   2
                   2
                   2
                   2
                   2
                   2
                   2
                   2
                   2
                   2
                   2
                   2
                   2
                   2
                   2
                   2
                   2
                   2
                   2
                   2
                   2
                   2
                   2
                   2
                   2
                   2
                   2
                   2
                   2
                   2
                   2
                   2
                   2
                   2
                   2
                   2
                   2
                   2
                   2
                   2
                   2
                   2
                   2
                   2
                   2
                   2
                   2
                   2
                   2
                   2
                   2
                   2
                   2
                   2
                   2
                   2
                   2
                   2
                   2
                   2
                   2
                   2
                   2
                   2
                   2
                   2
                   2
                   2
                   2
                   2
                   2
                   2
                   2
                   2
                   2
                   2
                   2
                   2
                   2
                   2
                   2
                   2
                   2
                   2
                   2
                   2
                   2
                   2
                   2
                   2
                   2
                   2
                   2
                   2
                   2
                   2
                   2
                   2
                   2
                   2
                   2
                   2
                   2
                   2
                   2
                   2
                   2
                   2
                   2
                   2
                   2
                   2
                   2
                   2
                   2
                   2
                   2
                   2
                   2
                   2
                   2
                   2
                   2
                   2
                   2
                   2
                   2
                   2
                   2
                   2
                   2
                   2
                   2
                   2
                   2
                   2
                   2
                   2
                   2
                   2
                   2
                   2
                   2
                   2
                   2
                   2
                   2
                   2
                   2
                   2
                   2
                   2
                   2
                   2
                   2
                   2
                   2
                   2
                   2
                   2
                   2
                   2
                   2
                   2
                   2
                   2
                   2
                   2
                   2
                   2
                   2
                   2
                   2
                   2
                   2
                   2
                   2
                   2
                   2
                   2
                   2
                   2
                   2
                   2
                   2
                   2
                   2
                   2
                   2
                   2
                   2
                   2
                   2
                   2
                   2
                   2
                   2
                   2
                   2
                   2
                   2
                   2
                   2
                   2
                   2
                   2
                   2
                   2
                   2
                   2
                   2
                   2
                   2
                   2
                   2
                   2
                   2
                   2
                   2
                   2
                   2
                   2
                   2
                   2
                   2
                   2
                   2
                   2
                   2
                   2
                   2
                   2
                   2
                   2
                   2
                   2
                   2
                   2
                   2
                   2
                   2
                   2
                   2
                   2
                   2
                   2
                   2
                   2
                   2
                   2
                   2
                   2
                   2
                   2
                   2
                   2
                   2
                   2
                   2
                   2
                   2
                   2
                   2
                   2
                   2
                   2
                   2
                   2
                   2
                   2
                   2
                   2
                   2
                   2
                   2
                   2
                   2
                   2
                   2
                   2
                   2
                   2
                   2
                   2
                   2
                   2
                   2
                   2
                   2
                   2
                   2
                   2
                   2
                   2
                   2
                   2
                   2
                   2
                   2
                   2
                   2
                   2
                   2
                   2
                   2
                   2
                   2
                   2
                   2
                   2
                   2
                   2
                   2
                   2
                   2
                   2
                   2
                   2
                   2
                   2
                   2
                   2
                   2
                   2
                   2
                   2
                   2
                   2
                   2
                   2
                   2
                   2
                   2
                   2
                   2
                   2
                   2
                   2
                   2
                   2
                   2
                   2
                   2
                   2
                   2
                   2
                   2
                   2
                   2
                   2
                   2
                   2
                   2
                   2
                   2
                   2
                   2
                   2
                   2
                   2
                   2
                   2
                   2
                   2
                   2
                   2
                   2
                   2
                   2
                   2
                   2
                   2
                   2
                   2
                   2
                   2
                   2
                   2
                   2
                   2
                   2
                   2
                   2
                   2
                   2
                   2
                   2
                   2
                   2
                   2
                   2
                   2
                   2
                   2
                   2
                   2
                   2
                   2
                   2
                   2
                   2
                   2
                   2
                   2
                   2
                   2
                   2
                   2
                   2
                   2
                   2
                   2
                   2
                   2
                   2
                   2
                   2
                   2
                   2
                   2
                   2
                   2
                   2
                   2
                   2
                   2
                   2
                   2
                   2
                   2
                   2
                   2
                   2
                   2
                   2
                   2
                   2
                   2
                   2
                   2
                   2
                   2
                   2
                   2
                   2
                   2
                   2
                   2
                   2
                   2
                   2
                   2
                   2
                   2
                   2
                   2
                   2
                   2
                   2
                   2
                   2
                   2
                   2
                   2
                   2
                   2
                   2
                   2
                   2
                   2
                   2
                   2
                   2
                   2
                   2
                   2
                   2
                   2
                   2
                   2
                   2
                   2
                   2
                   2
                   2
                   2
                   2
                   2
                   2
                   2
                   2
                   2
                   2
                   2
                   2
                   2
                   2
                   2
                   2
                   2
                   2
                   2
                   2
                   2
                   2
                   2
                   2
                   2
                   2
                   2
                   2
                   2
                   2
                   2
                   2
                   2
                   2
                   2
                   2
                   2
                   2
                   2
                   2
                   2
                   2
                   2
                   2
                   2
                   2
                   2
                   2
                   2
                   2
                   2
                   2
                   2
                   2
                   2
                   2
                   2
                   2
                   2
                   2
                   2
                   2
                   2
                   2
                   2
                   2
                   2
                   2
                   2
                   2
                   2
                   2
                   2
                   2
                   2
                   2
                   2
                   2
                   2
                   2
                   2
                   2
                   2
                   2
                   2
                   2
                   2
                   2
                   2
                   2
                   2
                   2
                   2
                   2
                   2
                   2
                   2
                   2
                   2
                   2
                   2
                   2
                   2
                   2
                   2
                   2
                   2
                   2
                   2
                   2
                   2
                   2
                   2
                   2
                   2
                   2
                   2
                   2
                   2
                   2
                   2
                   2
                   2
                   2
                   2
                   2
                   2
                   2
                   2
                   2
                   2
                   2
                   2
                   2
                   2
                   2
                   2
                   2
                   2
                   2
                   2
                   2
                   2
                   2
                   2
                   2
                   2
                   2
                   2
                   2
                   2
                   2
                   2
                   2
                   2
                   2
                   2
                   2
                   2
                   2
                   2
                   2
                   2
                   2
                   2
                   2
                   2
                   2
                   2
                   2
                   2
                   2
                   2
                   2
                   2
                   2
                   2
                   2
                   2
                   2
                   2
                   2
                   2
                   2
                   2
                   2
                   2
                   2
                   2
                   2
                   2
                   2
                   2
                   2
                   2
                   2
                   2
                   2
                   2
                   2
                   2
                   2
                   2
                   2
                   2
                   2
                   2
                   2
                   2
                   2
                   2
                   2
                   2
                   2
                   2
                   2
                   2
                   2
                   2
                   2
                   2
                   2
                   2
                   2
                   2
                   2
                   2
                   2
                   2
                   2
                   2
                   2
                   2
                   2
                   2
                   2
                   2
                   2
                   2
                   2
                   2
                   2
                   2
                   2
                   2
                   2
                   2
                   2
                   2
                   2
                   2
                   2
                   2
                   2
                   2
                   2
                   2
                   2
                   2
                   2
                   2
                   2
                   2
                   2
                   2
                   2
                   2
                   2
                   2
                   2
                   2
                   2
                   2
                   2
                   2
                   2
                   2
                   2
                   2
                   2
                   2
                   2
                   2
                   2
                   2
                   2
                   2
                   2
                   2
                   2
                   2
                   2
                   2
                   2
                   2
                   2
                   2
                   2
                   2
                   2
                   2
                   2
                   2
                   2
                   2
                   2
                   2
                   2
                   2
                   2
                   2
                   2
                   2
                   2
                   2
                   2
                   2
                   2
                   2
                   2
                   2
                   2
                   2
                   2
                   2
                   2
                   2
                   2
                   2
                   2
                   2
                   2
                   2
                   2
                   2
                   2
                   2
                   2
                   2
                   2
                   2
                   2
                   2
                   2
                   2
                   2
                   2
                   2
                   2
                   2
                   2
                   2
                   2
                   2
                   2
                   2
                   2
                   2
                   2
                   2
                   2
                   2
                   2
                   2
                   2
                   2
                   2
                   2
                   2
                   2
                   2
                   2
                   2
                   2
                   2
                   2
                   2
                   2
                   2
                   2
                   2
                   2
                   2
                   2
                   2
                   2
                   2
                   2
                   2
                   2
                   2
                   2
                   2
                   2
                   2
                   2
                   2
                   2
                   2
                   2
                   2
                   2
                   2
                   2
                   2
                   2
                   2
                   2
                   2
                   2
                   2
                   2
                   2
                   2
                   2
                   2
                   2
                   2
                   2
                   2
                   2
                   2
                   2
                   2
                   2
                   2
                   2
                   2
                   2
                   2
                   2
                   2
                   2
                   2
                   2
                   2
                   2
                   2
                   2
                   2
                   2
                   2
                   2
                   2
                   2
                   2
                   2
                   2
                   2
                   2
                   2
                   2
                   2
                   2
                   2
                   2
                   2
                   2
                   2
                   2
                   2
                   2
                   2
                   2
                   2
                   2
                   2
                   2
                   2
                   2
                   2
                   2
                   2
                   2
                   2
                   2
                   2
                   2
                   2
                   2
                   2
                   2
                   2
                   2
                   2
                   2
                   2
                   2
                   2
                   2
                   2
                   2
                   2
                   2
                   2
                   2
                   2
                   2
                   2
                   2
                   2
                   2
                   2
                   2
                   2
                   2
                   2
                   2
                   2
                   2
                   2
                   2
                   2
                   2
                   2
                   2
                   2
                   2
                   2
                   2
                   2
                   2
                   2
                   2
                   2
                   2
                   2
                   2
                   2
                   2
                   2
                   2
                   2
                   2
                   2
                   2
                   2
                   2
                   2
                   2
                   2
                   2
                   2
                   2
                   2
                   2
                   2
                   2
                   2
                   2
                   2
                   2
                   2
                   2
                   2
                   2
                   2
                   2
                   2
                   2
                   2
                   2
                   2
                   2
                   2
                   2
                   2
                   2
                   2
                   2
                   2
                   2
                   2
                   2
                   2
                   2
                   2
                   2
                   2
                   2
                   2
                   2
                   2
                   2
                   2
                   2
                   2
                   2
                   2
                   2
                   2
                   2
                   2
                   2
                   2
                   2
                   2
                   2
                   2
                   2
                   2
                   2
                   2
                   2
                   2
                   2
                   2
                   2
                   2
                   2
                   2
                   2
                   2
                   2
                   2
                   2
                   2
                   2
                   2
                   2
                   2
                   2
                   2
                   2
                   2
                   2
                   2
                   2
                   2
                   2
                   2
                   2
                   2
                   2
                   2
                   2
                   2
                   2
                   2
                   2
                   2
                   2
                   2
                   2
                   2
                   2
                   2
                   2
                   2
                   2
                   2
                   2
                   2
                   2
                   2
                   2
                   2
                   2
                   2
                   2
                   2
                   2
                   2
                   2
                   2
                   2
                   2
                   2
                   2
                   2
                   2
                   2
                   2
                   2
                   2
                   2
                   2
                   2
                   2
                   2
                   2
                   2
                   2
                   2
                   2
                   2
                   2
                   2
                   2
                   2
                   2
                   2
                   2
                   2
                   2
                   2
                   2
                   2
                   2
                   2
                   2
                   2
                   2
                   2
                   2
                   2
                   2
                   2
                   2
                   2
                   2
                   2
                   2
                   2
                   2
                   2
                   2
                   2
                   2
                   2
                   2
                   2
                   2
                   2
                   2
                   2
                   2
                   2
                   2
                   2
                   2
                   2
                   2
                   2
                   2
                   2
                   2
                   2
                   2
                   2
                   2
                   2
                   2
                   2
                   2
                   2
                   2
                   2
                   2
                   2
                   2
                   2
                   2
                   2
                   2
                   2
                   2
                   2
                   2
                   2
  
SCALARS                       fixity_x  double 1
LOOKUP_TABLE default
                   0
                   0
                   0
                   0
                   0
                   0
                   0
                   0
                   0
                   0
                   0
                   0
                   0
                   0
                   0
                   0
                   0
                   0
                   0
                   0
                   0
                   0
                   0
                   0
                   0
                   0
                   0
                   0
                   0
                   0
                   0
                   0
                   0
                   0
                   0
                   0
                   0
                   0
                   0
                   0
                   0
                   0
                   0
                   0
                   0
                   0
                   0
                   0
                   0
                   0
                   0
                   0
                   0
                   0
                   0
                   0
                   0
                   0
                   0
                   0
                   0
                   0
                   0
                   0
                   0
                   0
                   0
                   0
                   0
                   0
                   0
                   0
                   0
                   0
                   0
                   0
                   0
                   0
                   0
                   0
                   0
                   0
                   0
                   0
                   0
                   0
                   0
                   0
                   0
                   0
                   0
                   0
                   0
                   0
                   0
                   0
                   0
                   0
                   0
                   0
                   0
                   0
                   0
                   0
                   0
                   0
                   0
                   0
                   0
                   0
                   0
                   0
                   0
                   0
                   0
                   0
                   0
                   0
                   0
                   0
                   0
                   0
                   0
                   0
                   0
                   0
                   0
                   0
                   0
                   0
                   0
                   0
                   0
                   0
                   0
                   0
                   0
                   0
                   0
                   0
                   0
                   0
                   0
                   0
                   0
                   0
                   0
                   0
                   0
                   0
                   0
                   0
                   0
                   0
                   0
                   0
                   0
                   0
                   0
                   0
                   0
                   0
                   0
                   0
                   0
                   0
                   0
                   0
                   0
                   0
                   0
                   0
                   0
                   0
                   0
                   0
                   0
                   0
                   0
                   0
                   0
                   0
                   0
                   0
                   0
                   0
                   0
                   0
                   0
                   0
                   0
                   0
                   0
                   0
                   0
                   0
                   0
                   0
                   0
                   0
                   0
                   0
                   0
                   0
                   0
                   0
                   0
                   0
                   0
                   0
                   0
                   0
                   0
                   0
                   0
                   0
                   0
                   0
                   0
                   0
                   0
                   0
                   0
                   0
                   0
                   0
                   0
                   0
                   0
                   0
                   0
                   0
                   0
                   0
                   0
                   0
                   0
                   0
                   0
                   0
                   0
                   0
                   0
                   0
                   0
                   0
                   0
                   0
                   0
                   0
                   0
                   0
                   0
                   0
                   0
                   0
                   0
                   0
                   0
                   0
                   0
                   0
                   0
                   0
                   0
                   0
                   0
                   0
                   0
                   0
                   0
                   0
                   0
                   0
                   0
                   0
                   0
                   0
                   0
                   0
                   0
                   0
                   0
                   0
                   0
                   0
                   0
                   0
                   0
                   0
                   0
                   0
                   0
                   0
                   0
                   0
                   0
                   0
                   0
                   0
                   0
                   0
                   0
                   0
                   0
                   0
                   0
                   0
                   0
                   0
                   0
                   0
                   0
                   0
                   0
                   0
                   0
                   0
                   0
                   0
                   0
                   0
                   0
                   0
                   0
                   0
                   0
                   0
                   0
                   0
                   0
                   0
                   0
                   0
                   0
                   0
                   0
                   0
                   0
                   0
                   0
                   0
                   0
                   0
                   0
                   0
                   0
                   0
                   0
                   0
                   0
                   0
                   0
                   0
                   0
                   0
                   0
                   0
                   0
                   0
                   0
                   0
                   0
                   0
                   0
                   0
                   0
                   0
                   0
                   0
                   0
                   0
                   0
                   0
                   0
                   0
                   0
                   0
                   0
                   0
                   0
                   0
                   0
                   0
                   0
                   0
                   0
                   0
                   0
                   0
                   0
                   0
                   0
                   0
                   0
                   0
                   0
                   0
                   0
                   0
                   0
                   0
                   0
                   0
                   0
                   0
                   0
                   0
                   0
                   0
                   0
                   0
                   0
                   0
                   0
                   0
                   0
                   0
                   0
                   0
                   0
                   0
                   0
                   0
                   0
                   0
                   0
                   0
                   0
                   0
                   0
                   0
                   0
                   0
                   0
                   0
                   0
                   0
                   0
                   0
                   0
                   0
                   0
                   0
                   0
                   0
                   0
                   0
                   0
                   0
                   0
                   0
                   0
                   0
                   0
                   0
                   0
                   0
                   0
                   0
                   0
                   0
                   0
                   0
                   0
                   0
                   0
                   0
                   0
                   0
                   0
                   0
                   0
                   0
                   0
                   0
                   0
                   0
                   0
                   0
                   0
                   0
                   0
                   0
                   0
                   0
                   0
                   0
                   0
                   0
                   0
                   0
                   0
                   0
                   0
                   0
                   0
                   0
                   0
                   0
                   0
                   0
                   0
                   0
                   0
                   0
                   0
                   0
                   0
                   0
                   0
                   0
                   0
                   0
                   0
                   0
                   0
                   0
                   0
                   0
                   0
                   0
                   0
                   0
                   0
                   0
                   0
                   0
                   0
                   0
                   0
                   0
                   0
                   0
                   0
                   0
                   0
                   0
                   0
                   0
                   0
                   0
                   0
                   0
                   0
                   0
                   0
                   0
                   0
                   0
                   0
                   0
                   0
                   0
                   0
                   0
                   0
                   0
                   0
                   0
                   0
                   0
                   0
                   0
                   0
                   0
                   0
                   0
                   0
                   0
                   0
                   0
                   0
                   0
                   0
                   0
                   0
                   0
                   0
                   0
                   0
                   0
                   0
                   0
                   0
                   0
                   0
                   0
                   0
                   0
                   0
                   0
                   0
                   0
                   0
                   0
                   0
                   0
                   0
                   0
                   0
                   0
                   0
                   0
                   0
                   0
                   0
                   0
                   0
                   0
                   0
                   0
                   0
                   0
                   0
                   0
                   0
                   0
                   0
                   0
                   0
                   0
                   0
                   0
                   0
                   0
                   0
                   0
                   0
                   0
                   0
                   0
                   0
                   0
                   0
                   0
                   0
                   0
                   0
                   0
                   0
                   0
                   0
                   0
                   0
                   0
                   0
                   0
                   0
                   0
                   0
                   0
                   0
                   0
                   0
                   0
                   0
                   0
                   0
                   0
                   0
                   0
                   0
                   0
                   0
                   0
                   0
                   0
                   0
                   0
                   0
                   0
                   0
                   0
                   0
                   0
                   0
                   0
                   0
                   0
                   0
                   0
                   0
                   0
                   0
                   0
                   0
                   0
                   0
                   0
                   0
                   0
                   0
                   0
                   0
                   0
                   0
                   0
                   0
                   0
                   0
                   0
                   0
                   0
                   0
                   0
                   0
                   0
                   0
                   0
                   0
                   0
                   0
                   0
                   0
                   0
                   0
                   0
                   0
                   0
                   0
                   0
                   0
                   0
                   0
                   0
                   0
                   0
                   0
                   0
                   0
                   0
                   0
                   0
                   0
                   0
                   0
                   0
                   0
                   0
                   0
                   0
                   0
                   0
                   0
                   0
                   0
                   0
                   0
                   0
                   0
                   0
                   0
                   0
                   0
                   0
                   0
                   0
                   0
                   0
                   0
                   0
                   0
                   0
                   0
                   0
                   0
                   0
                   0
                   0
                   0
                   0
                   0
                   0
                   0
                   0
                   0
                   0
                   0
                   0
                   0
                   0
                   0
                   0
                   0
                   0
                   0
                   0
                   0
                   0
                   0
                   0
                   0
                   0
                   0
                   0
                   0
                   0
                   0
                   0
                   0
                   0
                   0
                   0
                   0
                   0
                   0
                   0
                   0
                   0
                   0
                   0
                   0
                   0
                   0
                   0
                   0
                   0
                   0
                   0
                   0
                   0
                   0
                   0
                   0
                   0
                   0
                   0
                   0
                   0
                   0
                   0
                   0
                   0
                   0
                   0
                   0
                   0
                   0
                   0
                   0
                   0
                   0
                   0
                   0
                   0
                   0
                   0
                   0
                   0
                   0
                   0
                   0
                   0
                   0
                   0
                   0
                   0
                   0
                   0
                   0
                   0
                   0
                   0
                   0
                   0
                   0
                   0
                   0
                   0
                   0
                   0
                   0
                   0
                   0
                   0
                   0
                   0
                   0
                   0
                   0
                   0
                   0
                   0
                   0
                   0
                   0
                   0
                   0
                   0
                   0
                   0
                   0
                   0
                   0
                   0
                   0
                   0
                   0
                   0
                   0
                   0
                   0
                   0
                   0
                   0
                   0
                   0
                   0
                   0
                   0
                   0
                   0
                   0
                   0
                   0
                   0
                   0
                   0
                   0
                   0
                   0
                   0
                   0
                   0
                   0
                   0
                   0
                   0
                   0
                   0
                   0
                   0
                   0
                   0
                   0
                   0
                   0
                   0
                   0
                   0
                   0
                   0
                   0
                   0
                   0
                   0
                   0
                   0
                   0
                   0
                   0
                   0
                   0
                   0
                   0
                   0
                   0
                   0
                   0
                   0
                   0
                   0
                   0
                   0
                   0
                   0
                   0
                   0
                   0
                   0
                   0
                   0
                   0
                   0
                   0
                   0
                   0
                   0
                   0
                   0
                   0
                   0
                   0
                   0
                   0
                   0
                   0
                   0
                   0
                   0
                   0
                   0
                   0
                   0
                   0
                   0
                   0
                   0
                   0
                   0
                   0
                   0
                   0
                   0
                   0
                   0
                   0
                   0
                   0
                   0
                   0
                   0
                   0
                   0
                   0
                   0
                   0
                   0
                   0
                   0
                   0
                   0
                   0
                   0
                   0
                   0
                   0
                   0
                   0
                   0
                   0
                   0
                   0
                   0
                   0
                   0
                   0
                   0
                   0
                   0
                   0
                   0
                   0
                   0
                   0
                   0
                   0
                   0
                   0
                   0
                   0
                   0
                   0
                   0
                   0
                   0
                   0
                   0
                   0
                   0
                   0
                   0
                   0
                   0
                   0
                   0
                   0
                   0
                   0
                   0
                   0
                   0
                   0
                   0
                   0
                   0
                   0
                   0
                   0
                   0
                   0
                   0
                   0
                   0
                   0
                   0
                   0
                   0
                   0
                   0
                   0
                   0
                   0
                   0
                   0
                   0
                   0
                   0
                   0
                   0
                   0
                   0
                   0
                   0
                   0
                   0
                   0
                   0
                   0
                   0
                   0
                   0
                   0
                   0
                   0
                   0
                   0
                   0
                   0
                   0
                   0
                   0
                   0
                   0
                   0
                   0
                   0
                   0
                   0
                   0
                   0
                   0
                   0
                   0
                   0
                   0
                   0
                   0
                   0
                   0
                   0
                   0
                   0
                   0
                   0
                   0
                   0
                   0
                   0
                   0
                   0
                   0
                   0
                   0
                   0
                   0
                   0
                   0
                   0
                   0
                   0
                   0
                   0
                   0
                   0
                   0
                   0
                   0
                   0
                   0
                   0
                   0
                   0
                   0
                   0
                   0
                   0
                   0
                   0
                   0
                   0
                   0
                   0
                   0
                   0
                   0
                   0
                   0
                   0
                   0
                   0
                   0
                   0
                   0
                   0
                   0
                   0
                   0
                   0
                   0
                   0
                   0
                   0
                   0
                   0
                   0
                   0
                   0
                   0
                   0
                   0
                   0
                   0
                   0
                   0
                   0
                   0
                   0
                   0
                   0
                   0
                   0
                   0
                   0
                   0
                   0
                   0
                   0
                   0
                   0
                   0
                   0
                   0
                   0
                   0
                   0
                   0
                   0
                   0
                   0
                   0
                   0
                   0
                   0
                   0
                   0
                   0
                   0
                   0
                   0
                   0
                   0
                   0
                   0
                   0
                   0
                   0
                   0
                   0
                   0
                   0
                   0
                   0
                   0
                   0
                   0
                   0
                   0
                   0
                   0
                   0
                   0
                   0
                   0
                   0
                   0
                   0
                   0
                   0
                   0
                   0
                   0
                   0
                   0
                   0
                   0
                   0
                   0
                   0
                   0
                   0
                   0
                   0
                   0
                   0
                   0
                   0
                   0
                   0
                   0
                   0
                   0
                   0
                   0
                   0
                   0
                   0
                   0
                   0
                   0
                   0
                   0
                   0
                   0
                   0
                   0
                   0
                   0
                   0
                   0
                   0
                   0
                   0
                   0
                   0
                   0
                   0
                   0
                   0
                   0
                   0
                   0
                   0
                   0
                   0
                   0
                   0
                   0
                   0
                   0
                   0
                   0
                   0
                   0
                   0
                   0
                   0
                   0
                   0
                   0
                   0
                   0
                   0
                   0
                   0
                   0
                   0
                   0
                   0
                   0
                   0
                   0
                   0
                   0
                   0
                   0
                   0
                   0
                   0
                   0
                   0
                   0
                   0
                   0
                   0
                   0
                   0
                   0
                   0
                   0
                   0
                   0
                   0
                   0
                   0
                   0
                   0
                   0
                   0
                   0
                   0
                   0
                   0
                   0
                   0
                   0
                   0
                   0
                   0
                   0
                   0
                   0
                   0
                   0
                   0
                   0
                   0
                   0
                   0
                   0
                   0
                   0
                   0
                   0
                   0
                   0
                   0
                   0
                   0
                   0
                   0
                   0
                   0
                   0
                   0
                   0
                   0
                   0
                   0
                   0
                   0
                   0
                   0
                   0
                   0
                   0
                   0
                   0
                   0
                   0
                   0
                   0
                   0
                   0
                   0
                   0
                   0
                   0
                   0
                   0
                   0
                   0
                   0
                   0
                   0
                   0
                   0
                   0
                   0
                   0
                   0
                   0
                   0
                   0
                   0
                   0
                   0
                   0
                   0
                   0
                   0
                   0
                   0
                   0
                   0
                   0
                   0
                   0
                   0
                   0
                   0
                   0
                   0
                   0
                   0
                   0
                   0
                   0
                   0
                   0
                   0
                   0
                   0
                   0
                   0
                   0
                   0
                   0
                   0
                   0
                   0
                   0
                   0
                   0
                   0
                   0
                   0
                   0
                   0
                   0
                   0
                   0
                   0
                   0
                   0
                   0
                   0
                   0
                   0
                   0
                   0
                   0
                   0
                   0
                   0
                   0
                   0
                   0
                   0
                   0
                   0
                   0
                   0
                   0
                   0
                   0
                   0
                   0
                   0
                   0
                   0
                   0
                   0
                   0
                   0
                   0
                   0
                   0
                   0
                   0
                   0
                   0
                   0
                   0
                   0
                   0
                   0
                   0
                   0
                   0
                   0
                   0
                   0
                   0
                   0
                   0
                   0
                   0
                   0
                   0
                   0
                   0
                   0
                   0
                   0
                   0
                   0
                   0
                   0
                   0
                   0
                   0
                   0
                   0
                   0
                   0
                   0
                   0
                   0
                   0
                   0
                   0
                   0
                   0
                   0
                   0
                   0
                   0
                   0
                   0
                   0
                   0
                   0
                   0
                   0
                   0
                   0
                   0
                   0
                   0
                   0
                   0
                   0
                   0
                   0
                   0
                   0
                   0
                   0
                   0
                   0
                   0
                   0
                   0
                   0
                   0
                   0
                   0
                   0
                   0
                   0
                   0
                   0
                   0
                   0
                   0
                   0
                   0
                   0
                   0
                   0
                   0
                   0
                   0
                   0
                   0
                   0
                   0
                   0
                   0
                   0
                   0
                   0
                   0
                   0
                   0
                   0
                   0
                   0
                   0
                   0
                   0
                   0
                   0
                   0
                   0
                   0
                   0
                   0
                   0
                   0
                   0
                   0
                   0
                   0
                   0
                   0
                   0
                   0
                   0
                   0
                   0
                   0
                   0
                   0
                   0
                   0
                   0
                   0
                   0
                   0
                   0
                   0
                   0
                   0
                   0
                   0
                   0
                   0
                   0
                   0
                   0
                   0
                   0
                   0
                   0
                   0
                   0
                   0
                   0
                   0
                   0
                   0
                   0
                   0
                   0
                   0
                   0
                   0
                   0
                   0
                   0
                   0
                   0
                   0
                   0
                   0
                   0
                   0
                   0
                   0
                   0
                   0
                   0
                   0
                   0
                   0
                   0
                   0
                   0
                   0
                   0
                   0
                   0
                   0
                   0
                   0
                   0
                   0
                   0
                   0
                   0
                   0
                   0
                   0
                   0
                   0
                   0
                   0
                   0
                   0
                   0
                   0
                   0
                   0
                   0
                   0
                   0
                   0
                   0
                   0
                   0
                   0
                   0
                   0
                   0
                   0
                   0
                   0
                   0
                   0
                   0
                   0
                   0
                   0
                   0
                   0
                   0
                   0
                   0
                   0
                   0
                   0
                   0
                   0
                   0
                   0
                   0
                   0
                   0
                   0
                   0
                   0
                   0
                   0
                   0
                   0
                   0
                   0
                   0
                   0
                   0
                   0
                   0
                   0
                   0
                   0
                   0
                   0
                   0
                   0
                   0
                   0
                   0
                   0
                   0
                   0
                   0
                   0
                   0
                   0
                   0
                   0
                   0
                   0
                   0
                   0
                   0
                   0
                   0
                   0
                   0
                   0
                   0
                   0
                   0
                   0
                   0
                   0
                   0
                   0
                   0
                   0
                   0
                   0
                   0
                   0
                   0
                   0
                   0
                   0
                   0
                   0
                   0
                   0
                   0
                   0
                   0
                   0
                   0
                   0
                   0
                   0
                   0
                   0
                   0
                   0
                   0
                   0
                   0
                   0
                   0
                   0
                   0
                   0
                   0
                   0
                   0
                   0
                   0
                   0
                   0
                   0
                   0
                   0
                   0
                   0
                   0
                   0
                   0
                   0
                   0
                   0
                   0
                   0
                   0
                   0
                   0
                   0
                   0
                   0
                   0
                   0
                   0
                   0
                   0
                   0
                   0
                   0
                   0
                   0
                   0
                   0
                   0
                   0
                   0
                   0
                   0
                   0
                   0
                   0
                   0
                   0
                   0
                   0
                   0
                   0
                   0
                   0
                   0
                   0
                   0
                   0
                   0
                   0
                   0
                   0
                   0
                   0
  
SCALARS                       fixity_y  double 1
LOOKUP_TABLE default
                   0
                   0
                   0
                   0
                   0
                   0
                   0
                   0
                   0
                   0
                   0
                   0
                   0
                   0
                   0
                   0
                   0
                   0
                   0
                   0
                   0
                   0
                   0
                   0
                   0
                   0
                   0
                   0
                   0
                   0
                   0
                   0
                   0
                   0
                   0
                   0
                   0
                   0
                   0
                   0
                   0
                   0
                   0
                   0
                   0
                   0
                   0
                   0
                   0
                   0
                   0
                   0
                   0
                   0
                   0
                   0
                   0
                   0
                   0
                   0
                   0
                   0
                   0
                   0
                   0
                   0
                   0
                   0
                   0
                   0
                   0
                   0
                   0
                   0
                   0
                   0
                   0
                   0
                   0
                   0
                   0
                   0
                   0
                   0
                   0
                   0
                   0
                   0
                   0
                   0
                   0
                   0
                   0
                   0
                   0
                   0
                   0
                   0
                   0
                   0
                   0
                   0
                   0
                   0
                   0
                   0
                   0
                   0
                   0
                   0
                   0
                   0
                   0
                   0
                   0
                   0
                   0
                   0
                   0
                   0
                   0
                   0
                   0
                   0
                   0
                   0
                   0
                   0
                   0
                   0
                   0
                   0
                   0
                   0
                   0
                   0
                   0
                   0
                   0
                   0
                   0
                   0
                   0
                   0
                   0
                   0
                   0
                   0
                   0
                   0
                   0
                   0
                   0
                   0
                   0
                   0
                   0
                   0
                   0
                   0
                   0
                   0
                   0
                   0
                   0
                   0
                   0
                   0
                   0
                   0
                   0
                   0
                   0
                   0
                   0
                   0
                   0
                   0
                   0
                   0
                   0
                   0
                   0
                   0
                   0
                   0
                   0
                   0
                   0
                   0
                   0
                   0
                   0
                   0
                   0
                   0
                   0
                   0
                   0
                   0
                   0
                   0
                   0
                   0
                   0
                   0
                   0
                   0
                   0
                   0
                   0
                   0
                   0
                   0
                   0
                   0
                   0
                   0
                   0
                   0
                   0
                   0
                   0
                   0
                   0
                   0
                   0
                   0
                   0
                   0
                   0
                   0
                   0
                   0
                   0
                   0
                   0
                   0
                   0
                   0
                   0
                   0
                   0
                   0
                   0
                   0
                   0
                   0
                   0
                   0
                   0
                   0
                   0
                   0
                   0
                   0
                   0
                   0
                   0
                   0
                   0
                   0
                   0
                   0
                   0
                   0
                   0
                   0
                   0
                   0
                   0
                   0
                   0
                   0
                   0
                   0
                   0
                   0
                   0
                   0
                   0
                   0
                   0
                   0
                   0
                   0
                   0
                   0
                   0
                   0
                   0
                   0
                   0
                   0
                   0
                   0
                   0
                   0
                   0
                   0
                   0
                   0
                   0
                   0
                   0
                   0
                   0
                   0
                   0
                   0
                   0
                   0
                   0
                   0
                   0
                   0
                   0
                   0
                   0
                   0
                   0
                   0
                   0
                   0
                   0
                   0
                   0
                   0
                   0
                   0
                   0
                   0
                   0
                   0
                   0
                   0
                   0
                   0
                   0
                   0
                   0
                   0
                   0
                   0
                   0
                   0
                   0
                   0
                   0
                   0
                   0
                   0
                   0
                   0
                   0
                   0
                   0
                   0
                   0
                   0
                   0
                   0
                   0
                   0
                   0
                   0
                   0
                   0
                   0
                   0
                   0
                   0
                   0
                   0
                   0
                   0
                   0
                   0
                   0
                   0
                   0
                   0
                   0
                   0
                   0
                   0
                   0
                   0
                   0
                   0
                   0
                   0
                   0
                   0
                   0
                   0
                   0
                   0
                   0
                   0
                   0
                   0
                   0
                   0
                   0
                   0
                   0
                   0
                   0
                   0
                   0
                   0
                   0
                   0
                   0
                   0
                   0
                   0
                   0
                   0
                   0
                   0
                   0
                   0
                   0
                   0
                   0
                   0
                   0
                   0
                   0
                   0
                   0
                   0
                   0
                   0
                   0
                   0
                   0
                   0
                   0
                   0
                   0
                   0
                   0
                   0
                   0
                   0
                   0
                   0
                   0
                   0
                   0
                   0
                   0
                   0
                   0
                   0
                   0
                   0
                   0
                   0
                   0
                   0
                   0
                   0
                   0
                   0
                   0
                   0
                   0
                   0
                   0
                   0
                   0
                   0
                   0
                   0
                   0
                   0
                   0
                   0
                   0
                   0
                   0
                   0
                   0
                   0
                   0
                   0
                   0
                   0
                   0
                   0
                   0
                   0
                   0
                   0
                   0
                   0
                   0
                   0
                   0
                   0
                   0
                   0
                   0
                   0
                   0
                   0
                   0
                   0
                   0
                   0
                   0
                   0
                   0
                   0
                   0
                   0
                   0
                   0
                   0
                   0
                   0
                   0
                   0
                   0
                   0
                   0
                   0
                   0
                   0
                   0
                   0
                   0
                   0
                   0
                   0
                   0
                   0
                   0
                   0
                   0
                   0
                   0
                   0
                   0
                   0
                   0
                   0
                   0
                   0
                   0
                   0
                   0
                   0
                   0
                   0
                   0
                   0
                   0
                   0
                   0
                   0
                   0
                   0
                   0
                   0
                   0
                   0
                   0
                   0
                   0
                   0
                   0
                   0
                   0
                   0
                   0
                   0
                   0
                   0
                   0
                   0
                   0
                   0
                   0
                   0
                   0
                   0
                   0
                   0
                   0
                   0
                   0
                   0
                   0
                   0
                   0
                   0
                   0
                   0
                   0
                   0
                   0
                   0
                   0
                   0
                   0
                   0
                   0
                   0
                   0
                   0
                   0
                   0
                   0
                   0
                   0
                   0
                   0
                   0
                   0
                   0
                   0
                   0
                   0
                   0
                   0
                   0
                   0
                   0
                   0
                   0
                   0
                   0
                   0
                   0
                   0
                   0
                   0
                   0
                   0
                   0
                   0
                   0
                   0
                   0
                   0
                   0
                   0
                   0
                   0
                   0
                   0
                   0
                   0
                   0
                   0
                   0
                   0
                   0
                   0
                   0
                   0
                   0
                   0
                   0
                   0
                   0
                   0
                   0
                   0
                   0
                   0
                   0
                   0
                   0
                   0
                   0
                   0
                   0
                   0
                   0
                   0
                   0
                   0
                   0
                   0
                   0
                   0
                   0
                   0
                   0
                   0
                   0
                   0
                   0
                   0
                   0
                   0
                   0
                   0
                   0
                   0
                   0
                   0
                   0
                   0
                   0
                   0
                   0
                   0
                   0
                   0
                   0
                   0
                   0
                   0
                   0
                   0
                   0
                   0
                   0
                   0
                   0
                   0
                   0
                   0
                   0
                   0
                   0
                   0
                   0
                   0
                   0
                   0
                   0
                   0
                   0
                   0
                   0
                   0
                   0
                   0
                   0
                   0
                   0
                   0
                   0
                   0
                   0
                   0
                   0
                   0
                   0
                   0
                   0
                   0
                   0
                   0
                   0
                   0
                   0
                   0
                   0
                   0
                   0
                   0
                   0
                   0
                   0
                   0
                   0
                   0
                   0
                   0
                   0
                   0
                   0
                   0
                   0
                   0
                   0
                   0
                   0
                   0
                   0
                   0
                   0
                   0
                   0
                   0
                   0
                   0
                   0
                   0
                   0
                   0
                   0
                   0
                   0
                   0
                   0
                   0
                   0
                   0
                   0
                   0
                   0
                   0
                   0
                   0
                   0
                   0
                   0
                   0
                   0
                   0
                   0
                   0
                   0
                   0
                   0
                   0
                   0
                   0
                   0
                   0
                   0
                   0
                   0
                   0
                   0
                   0
                   0
                   0
                   0
                   0
                   0
                   0
                   0
                   0
                   0
                   0
                   0
                   0
                   0
                   0
                   0
                   0
                   0
                   0
                   0
                   0
                   0
                   0
                   0
                   0
                   0
                   0
                   0
                   0
                   0
                   0
                   0
                   0
                   0
                   0
                   0
                   0
                   0
                   0
                   0
                   0
                   0
                   0
                   0
                   0
                   0
                   0
                   0
                   0
                   0
                   0
                   0
                   0
                   0
                   0
                   0
                   0
                   0
                   0
                   0
                   0
                   0
                   0
                   0
                   0
                   0
                   0
                   0
                   0
                   0
                   0
                   0
                   0
                   0
                   0
                   0
                   0
                   0
                   0
                   0
                   0
                   0
                   0
                   0
                   0
                   0
                   0
                   0
                   0
                   0
                   0
                   0
                   0
                   0
                   0
                   0
                   0
                   0
                   0
                   0
                   0
                   0
                   0
                   0
                   0
                   0
                   0
                   0
                   0
                   0
                   0
                   0
                   0
                   0
                   0
                   0
                   0
                   0
                   0
                   0
                   0
                   0
                   0
                   0
                   0
                   0
                   0
                   0
                   0
                   0
                   0
                   0
                   0
                   0
                   0
                   0
                   0
                   0
                   0
                   0
                   0
                   0
                   0
                   0
                   0
                   0
                   0
                   0
                   0
                   0
                   0
                   0
                   0
                   0
                   0
                   0
                   0
                   0
                   0
                   0
                   0
                   0
                   0
                   0
                   0
                   0
                   0
                   0
                   0
                   0
                   0
                   0
                   0
                   0
                   0
                   0
                   0
                   0
                   0
                   0
                   0
                   0
                   0
                   0
                   0
                   0
                   0
                   0
                   0
                   0
                   0
                   0
                   0
                   0
                   0
                   0
                   0
                   0
                   0
                   0
                   0
                   0
                   0
                   0
                   0
                   0
                   0
                   0
                   0
                   0
                   0
                   0
                   0
                   0
                   0
                   0
                   0
                   0
                   0
                   0
                   0
                   0
                   0
                   0
                   0
                   0
                   0
                   0
                   0
                   0
                   0
                   0
                   0
                   0
                   0
                   0
                   0
                   0
                   0
                   0
                   0
                   0
                   0
                   0
                   0
                   0
                   0
                   0
                   0
                   0
                   0
                   0
                   0
                   0
                   0
                   0
                   0
                   0
                   0
                   0
                   0
                   0
                   0
                   0
                   0
                   0
                   0
                   0
                   0
                   0
                   0
                   0
                   0
                   0
                   0
                   0
                   0
                   0
                   0
                   0
                   0
                   0
                   0
                   0
                   0
                   0
                   0
                   0
                   0
                   0
                   0
                   0
                   0
                   0
                   0
                   0
                   0
                   0
                   0
                   0
                   0
                   0
                   0
                   0
                   0
                   0
                   0
                   0
                   0
                   0
                   0
                   0
                   0
                   0
                   0
                   0
                   0
                   0
                   0
                   0
                   0
                   0
                   0
                   0
                   0
                   0
                   0
                   0
                   0
                   0
                   0
                   0
                   0
                   0
                   0
                   0
                   0
                   0
                   0
                   0
                   0
                   0
                   0
                   0
                   0
                   0
                   0
                   0
                   0
                   0
                   0
                   0
                   0
                   0
                   0
                   0
                   0
                   0
                   0
                   0
                   0
                   0
                   0
                   0
                   0
                   0
                   0
                   0
                   0
                   0
                   0
                   0
                   0
                   0
                   0
                   0
                   0
                   0
                   0
                   0
                   0
                   0
                   0
                   0
                   0
                   0
                   0
                   0
                   0
                   0
                   0
                   0
                   0
                   0
                   0
                   0
                   0
                   0
                   0
                   0
                   0
                   0
                   0
                   0
                   0
                   0
                   0
                   0
                   0
                   0
                   0
                   0
                   0
                   0
                   0
                   0
                   0
                   0
                   0
                   0
                   0
                   0
                   0
                   0
                   0
                   0
                   0
                   0
                   0
                   0
                   0
                   0
                   0
                   0
                   0
                   0
                   0
                   0
                   0
                   0
                   0
                   0
                   0
                   0
                   0
                   0
                   0
                   0
                   0
                   0
                   0
                   0
                   0
                   0
                   0
                   0
                   0
                   0
                   0
                   0
                   0
                   0
                   0
                   0
                   0
                   0
                   0
                   0
                   0
                   0
                   0
                   0
                   0
                   0
                   0
                   0
                   0
                   0
                   0
                   0
                   0
                   0
                   0
                   0
                   0
                   0
                   0
                   0
                   0
                   0
                   0
                   0
                   0
                   0
                   0
                   0
                   0
                   0
                   0
                   0
                   0
                   0
                   0
                   0
                   0
                   0
                   0
                   0
                   0
                   0
                   0
                   0
                   0
                   0
                   0
                   0
                   0
                   0
                   0
                   0
                   0
                   0
                   0
                   0
                   0
                   0
                   0
                   0
                   0
                   0
                   0
                   0
                   0
                   0
                   0
                   0
                   0
                   0
                   0
                   0
                   0
                   0
                   0
                   0
                   0
                   0
                   0
                   0
                   0
                   0
                   0
                   0
                   0
                   0
                   0
                   0
                   0
                   0
                   0
                   0
                   0
                   0
                   0
                   0
                   0
                   0
                   0
                   0
                   0
                   0
                   0
                   0
                   0
                   0
                   0
                   0
                   0
                   0
                   0
                   0
                   0
                   0
                   0
                   0
                   0
                   0
                   0
                   0
                   0
                   0
                   0
                   0
                   0
                   0
                   0
                   0
                   0
                   0
                   0
                   0
                   0
                   0
                   0
                   0
                   0
                   0
                   0
                   0
                   0
                   0
                   0
                   0
                   0
                   0
                   0
                   0
                   0
                   0
                   0
                   0
                   0
                   0
                   0
                   0
                   0
                   0
                   0
                   0
                   0
                   0
                   0
                   0
                   0
                   0
                   0
                   0
                   0
                   0
                   0
                   0
                   0
                   0
                   0
                   0
                   0
                   0
                   0
                   0
                   0
                   0
                   0
                   0
                   0
                   0
                   0
                   0
                   0
                   0
                   0
                   0
                   0
                   0
                   0
                   0
                   0
                   0
                   0
                   0
                   0
                   0
                   0
                   0
                   0
                   0
                   0
                   0
                   0
                   0
                   0
                   0
                   0
                   0
                   0
                   0
                   0
                   0
                   0
                   0
                   0
                   0
                   0
                   0
                   0
                   0
                   0
                   0
                   0
                   0
                   0
                   0
                   0
                   0
                   0
                   0
                   0
                   0
                   0
                   0
                   0
                   0
                   0
                   0
                   0
                   0
                   0
                   0
                   0
                   0
                   0
                   0
                   0
                   0
                   0
                   0
                   0
                   0
                   0
                   0
                   0
                   0
                   0
                   0
                   0
                   0
                   0
                   0
                   0
                   0
                   0
                   0
                   0
                   0
                   0
                   0
                   0
                   0
                   0
                   0
                   0
                   0
                   0
                   0
                   0
                   0
                   0
                   0
                   0
                   0
                   0
                   0
                   0
                   0
                   0
                   0
                   0
                   0
                   0
                   0
                   0
                   0
                   0
                   0
                   0
                   0
                   0
                   0
                   0
                   0
                   0
                   0
                   0
                   0
                   0
                   0
                   0
                   0
                   0
                   0
                   0
                   0
                   0
                   0
                   0
                   0
                   0
                   0
                   0
                   0
                   0
                   0
                   0
                   0
                   0
                   0
                   0
                   0
                   0
                   0
                   0
                   0
                   0
                   0
                   0
                   0
                   0
                   0
                   0
                   0
                   0
                   0
                   0
                   0
                   0
                   0
                   0
                   0
                   0
                   0
                   0
                   0
                   0
                   0
                   0
                   0
                   0
                   0
                   0
                   0
                   0
                   0
                   0
                   0
                   0
                   0
                   0
                   0
                   0
                   0
                   0
                   0
                   0
                   0
                   0
                   0
                   0
                   0
                   0
                   0
                   0
                   0
                   0
                   0
                   0
                   0
                   0
                   0
                   0
                   0
                   0
                   0
                   0
                   0
                   0
                   0
                   0
                   0
                   0
                   0
                   0
                   0
                   0
                   0
                   0
                   0
                   0
                   0
                   0
                   0
                   0
                   0
                   0
                   0
                   0
                   0
                   0
                   0
                   0
                   0
                   0
                   0
                   0
                   0
                   0
                   0
                   0
                   0
                   0
                   0
                   0
                   0
                   0
                   0
                   0
                   0
                   0
                   0
                   0
                   0
                   0
                   0
                   0
                   0
                   0
                   0
                   0
                   0
                   0
                   0
                   0
                   0
                   0
                   0
                   0
                   0
                   0
                   0
                   0
                   0
                   0
                   0
                   0
                   0
                   0
                   0
                   0
                   0
                   0
                   0
                   0
                   0
                   0
                   0
                   0
                   0
                   0
                   0
                   0
                   0
                   0
                   0
                   0
                   0
                   0
                   0
                   0
                   0
                   0
                   0
                   0
                   0
                   0
                   0
                   0
                   0
                   0
                   0
                   0
                   0
                   0
                   0
                   0
                   0
                   0
                   0
                   0
                   0
                   0
                   0
                   0
                   0
                   0
                   0
                   0
                   0
                   0
                   0
                   0
                   0
                   0
                   0
                   0
                   0
                   0
                   0
                   0
                   0
                   0
                   0
                   0
                   0
                   0
                   0
                   0
                   0
                   0
                   0
                   0
                   0
                   0
                   0
                   0
                   0
                   0
                   0
                   0
                   0
                   0
                   0
                   0
                   0
                   0
                   0
                   0
                   0
                   0
                   0
                   0
                   0
                   0
                   0
                   0
                   0
                   0
                   0
                   0
                   0
                   0
                   0
                   0
                   0
                   0
                   0
                   0
                   0
                   0
                   0
                   0
                   0
                   0
                   0
                   0
                   0
                   0
                   0
                   0
                   0
                   0
                   0
                   0
                   0
                   0
                   0
                   0
                   0
                   0
                   0
                   0
                   0
                   0
                   0
                   0
                   0
                   0
                   0
                   0
                   0
                   0
                   0
                   0
                   0
                   0
                   0
                   0
                   0
                   0
                   0
                   0
                   0
                   0
                   0
                   0
                   0
                   0
                   0
                   0
                   0
                   0
                   0
                   0
                   0
                   0
                   0
                   0
                   0
                   0
  
SCALARS                       fixity_z  double 1
LOOKUP_TABLE default
                   0
                   0
                   0
                   0
                   1
                   1
                   1
                   1
                   0
                   0
                   1
                   1
                   0
                   0
                   1
                   1
                   0
                   0
                   1
                   1
                   0
                   0
                   0
                   1
                   1
                   1
                   0
                   0
                   1
                   1
                   0
                   0
                   0
                   1
                   1
                   1
                   0
                   0
                   1
                   1
                   0
                   0
                   1
                   1
                   0
                   0
                   1
                   1
                   0
                   1
                   0
                   1
                   0
                   1
                   0
                   1
                   0
                   0
                   1
                   1
                   0
                   0
                   1
                   1
                   0
                   1
                   0
                   1
                   0
                   0
                   1
                   1
                   0
                   1
                   0
                   1
                   0
                   1
                   0
                   1
                   0
                   0
                   1
                   1
                   0
                   1
                   0
                   1
                   0
                   1
                   0
                   0
                   1
                   1
                   0
                   1
                   0
                   1
                   0
                   1
                   0
                   0
                   1
                   1
                   0
                   0
                   1
                   1
                   0
                   1
                   0
                   1
                   0
                   1
                   0
                   1
                   0
                   1
                   0
                   1
                   0
                   1
                   0
                   1
                   0
                   1
                   0
                   1
                   0
                   1
                   0
                   1
                   0
                   1
                   0
                   1
                   0
                   1
                   0
                   1
                   0
                   1
                   0
                   1
                   0
                   1
                   0
                   1
                   0
                   1
                   0
                   1
                   0
                   1
                   0
                   1
                   0
                   0
                   0
                   0
                   0
                   0
                   0
                   0
                   0
                   0
                   0
                   0
                   0
                   0
                   0
                   0
                   0
                   0
                   0
                   0
                   0
                   0
                   0
                   0
                   0
                   0
                   0
                   0
                   0
                   0
                   0
                   0
                   0
                   0
                   0
                   0
                   0
                   0
                   0
                   0
                   0
                   0
                   0
                   0
                   0
                   0
                   0
                   0
                   0
                   0
                   0
                   0
                   0
                   0
                   0
                   0
                   0
                   0
                   0
                   0
                   0
                   0
                   0
                   0
                   0
                   0
                   0
                   0
                   0
                   0
                   0
                   0
                   0
                   0
                   0
                   0
                   0
                   0
                   0
                   0
                   0
                   0
                   0
                   0
                   0
                   0
                   0
                   0
                   0
                   0
                   0
                   0
                   0
                   0
                   0
                   0
                   0
                   0
                   0
                   0
                   0
                   0
                   0
                   0
                   0
                   0
                   0
                   0
                   0
                   0
                   0
                   0
                   0
                   0
                   0
                   0
                   0
                   0
                   0
                   0
                   0
                   0
                   0
                   0
                   0
                   0
                   0
                   0
                   0
                   0
                   0
                   0
                   0
                   0
                   0
                   0
                   0
                   0
                   0
                   0
                   0
                   0
                   0
                   0
                   0
                   0
                   0
                   0
                   0
                   0
                   0
                   0
                   0
                   0
                   0
                   0
                   0
                   0
                   0
                   0
                   0
                   0
                   0
                   0
                   0
                   0
                   0
                   0
                   0
                   0
                   0
                   0
                   0
                   0
                   0
                   0
                   0
                   0
                   0
                   0
                   0
                   0
                   0
                   0
                   0
                   0
                   0
                   0
                   0
                   0
                   0
                   0
                   0
                   0
                   0
                   0
                   0
                   0
                   0
                   0
                   0
                   0
                   0
                   0
                   0
                   0
                   0
                   0
                   0
                   0
                   0
                   0
                   0
                   0
                   0
                   0
                   0
                   0
                   0
                   0
                   0
                   0
                   0
                   0
                   0
                   0
                   0
                   0
                   0
                   0
                   0
                   0
                   0
                   0
                   0
                   0
                   0
                   0
                   0
                   0
                   0
                   0
                   0
                   0
                   0
                   0
                   0
                   0
                   0
                   0
                   0
                   0
                   0
                   0
                   0
                   0
                   0
                   0
                   0
                   0
                   0
                   0
                   0
                   0
                   0
                   0
                   0
                   0
                   0
                   0
                   0
                   0
                   0
                   0
                   0
                   0
                   0
                   0
                   0
                   0
                   0
                   0
                   0
                   0
                   0
                   0
                   0
                   0
                   0
                   0
                   0
                   0
                   0
                   0
                   0
                   0
                   0
                   0
                   0
                   0
                   0
                   0
                   0
                   0
                   0
                   0
                   0
                   0
                   0
                   0
                   0
                   0
                   0
                   0
                   0
                   0
                   0
                   0
                   0
                   0
                   0
                   0
                   0
                   0
                   0
                   0
                   0
                   0
                   0
                   0
                   0
                   0
                   0
                   0
                   0
                   0
                   0
                   0
                   0
                   0
                   0
                   0
                   0
                   0
                   0
                   0
                   0
                   0
                   0
                   0
                   0
                   0
                   0
                   0
                   0
                   0
                   0
                   0
                   0
                   0
                   0
                   0
                   0
                   0
                   0
                   0
                   0
                   0
                   0
                   0
                   0
                   0
                   0
                   0
                   0
                   0
                   0
                   0
                   0
                   0
                   0
                   0
                   0
                   0
                   0
                   0
                   0
                   0
                   0
                   0
                   0
                   0
                   0
                   0
                   0
                   0
                   0
                   0
                   0
                   0
                   0
                   0
                   0
                   0
                   0
                   0
                   0
                   0
                   0
                   0
                   0
                   0
                   0
                   0
                   0
                   0
                   0
                   0
                   0
                   0
                   0
                   0
                   0
                   0
                   0
                   0
                   0
                   0
                   0
                   0
                   0
                   0
                   0
                   0
                   0
                   0
                   0
                   0
                   0
                   0
                   0
                   0
                   0
                   0
                   0
                   0
                   0
                   0
                   0
                   0
                   0
                   0
                   0
                   0
                   0
                   0
                   0
                   0
                   0
                   0
                   0
                   0
                   0
                   0
                   0
                   0
                   0
                   0
                   0
                   0
                   0
                   0
                   0
                   0
                   0
                   0
                   0
                   0
                   0
                   0
                   0
                   0
                   0
                   0
                   0
                   0
                   0
                   0
                   0
                   0
                   0
                   0
                   0
                   0
                   0
                   0
                   0
                   0
                   0
                   0
                   0
                   0
                   0
                   0
                   0
                   0
                   0
                   0
                   0
                   0
                   0
                   0
                   0
                   0
                   0
                   0
                   0
                   0
                   0
                   0
                   0
                   0
                   0
                   0
                   0
                   0
                   0
                   0
                   0
                   0
                   0
                   0
                   0
                   0
                   0
                   0
                   0
                   0
                   0
                   0
                   0
                   0
                   0
                   0
                   0
                   0
                   0
                   0
                   0
                   0
                   0
                   0
                   0
                   0
                   0
                   0
                   0
                   0
                   0
                   0
                   0
                   0
                   0
                   0
                   0
                   0
                   0
                   0
                   0
                   0
                   0
                   0
                   0
                   0
                   0
                   0
                   0
                   0
                   0
                   0
                   0
                   0
                   0
                   0
                   0
                   0
                   0
                   0
                   0
                   0
                   0
                   0
                   0
                   0
                   0
                   0
                   0
                   0
                   0
                   0
                   0
                   0
                   0
                   0
                   0
                   0
                   0
                   0
                   0
                   0
                   0
                   0
                   0
                   0
                   0
                   0
                   0
                   0
                   0
                   0
                   0
                   0
                   0
                   0
                   0
                   0
                   0
                   0
                   0
                   0
                   0
                   0
                   0
                   0
                   0
                   0
                   0
                   0
                   0
                   0
                   0
                   0
                   0
                   0
                   0
                   0
                   0
                   0
                   0
                   0
                   0
                   0
                   0
                   0
                   0
                   0
                   0
                   0
                   0
                   0
                   0
                   0
                   0
                   0
                   0
                   0
                   0
                   0
                   0
                   0
                   0
                   0
                   0
                   0
                   0
                   0
                   0
                   0
                   0
                   0
                   0
                   0
                   0
                   0
                   0
                   0
                   0
                   0
                   0
                   0
                   0
                   0
                   0
                   0
                   0
                   0
                   0
                   0
                   0
                   0
                   0
                   0
                   0
                   0
                   0
                   0
                   0
                   0
                   0
                   0
                   0
                   0
                   0
                   0
                   0
                   0
                   0
                   0
                   0
                   0
                   0
                   0
                   0
                   0
                   0
                   0
                   0
                   0
                   0
                   0
                   0
                   0
                   0
                   0
                   0
                   0
                   0
                   0
                   0
                   0
                   0
                   0
                   0
                   0
                   0
                   0
                   0
                   0
                   0
                   0
                   0
                   0
                   0
                   0
                   0
                   0
                   0
                   0
                   0
                   0
                   0
                   0
                   0
                   0
                   0
                   0
                   0
                   0
                   0
                   0
                   0
                   0
                   0
                   0
                   0
                   0
                   0
                   0
                   0
                   0
                   0
                   0
                   0
                   0
                   0
                   0
                   0
                   0
                   0
                   0
                   0
                   0
                   0
                   0
                   0
                   0
                   0
                   0
                   0
                   0
                   0
                   0
                   0
                   0
                   0
                   0
                   0
                   0
                   0
                   0
                   0
                   0
                   0
                   0
                   0
                   0
                   0
                   0
                   0
                   0
                   0
                   0
                   0
                   0
                   0
                   0
                   0
                   0
                   0
                   0
                   0
                   0
                   0
                   0
                   0
                   0
                   0
                   0
                   0
                   0
                   0
                   0
                   0
                   0
                   0
                   0
                   0
                   0
                   0
                   0
                   0
                   0
                   0
                   0
                   0
                   0
                   0
                   0
                   0
                   0
                   0
                   0
                   0
                   0
                   0
                   0
                   0
                   0
                   0
                   0
                   0
                   0
                   0
                   0
                   0
                   0
                   0
                   0
                   0
                   0
                   0
                   0
                   0
                   0
                   0
                   0
                   0
                   0
                   0
                   0
                   0
                   0
                   0
                   0
                   0
                   0
                   0
                   0
                   0
                   0
                   0
                   0
                   0
                   0
                   0
                   0
                   0
                   0
                   0
                   0
                   0
                   0
                   0
                   0
                   0
                   0
                   0
                   0
                   0
                   0
                   0
                   0
                   0
                   0
                   0
                   0
                   0
                   0
                   0
                   0
                   0
                   0
                   0
                   0
                   0
                   0
                   0
                   0
                   0
                   0
                   0
                   0
                   0
                   0
                   0
                   0
                   0
                   0
                   0
                   0
                   0
                   0
                   0
                   0
                   0
                   0
                   0
                   0
                   0
                   0
                   0
                   0
                   0
                   0
                   0
                   0
                   0
                   0
                   0
                   0
                   0
                   0
                   0
                   0
                   0
                   0
                   0
                   0
                   0
                   0
                   0
                   0
                   0
                   0
                   0
                   0
                   0
                   0
                   0
                   0
                   0
                   0
                   0
                   0
                   0
                   0
                   0
                   0
                   0
                   0
                   0
                   0
                   0
                   0
                   0
                   0
                   0
                   0
                   0
                   0
                   0
                   0
                   0
                   0
                   0
                   0
                   0
                   0
                   0
                   0
                   0
                   0
                   0
                   0
                   0
                   0
                   0
                   0
                   0
                   0
                   0
                   0
                   0
                   0
                   0
                   0
                   0
                   0
                   0
                   0
                   0
                   0
                   0
                   0
                   0
                   0
                   0
                   0
                   0
                   0
                   0
                   0
                   0
                   0
                   0
                   0
                   0
                   0
                   0
                   0
                   0
                   0
                   0
                   0
                   0
                   0
                   0
                   0
                   0
                   0
                   0
                   0
                   0
                   0
                   0
                   0
                   0
                   0
                   0
                   0
                   0
                   0
                   0
                   0
                   0
                   0
                   0
                   0
                   0
                   0
                   0
                   0
                   0
                   0
                   0
                   0
                   0
                   0
                   0
                   0
                   0
                   0
                   0
                   0
                   0
                   0
                   0
                   0
                   0
                   0
                   0
                   0
                   0
                   0
                   0
                   0
                   0
                   0
                   0
                   0
                   0
                   0
                   0
                   0
                   0
                   0
                   0
                   0
                   0
                   0
                   0
                   0
                   0
                   0
                   0
                   0
                   0
                   0
                   0
                   0
                   0
                   0
                   0
                   0
                   0
                   0
                   0
                   0
                   0
                   0
                   0
                   0
                   0
                   0
                   0
                   0
                   0
                   0
                   0
                   0
                   0
                   0
                   0
                   0
                   0
                   0
                   0
                   0
                   0
                   0
                   0
                   0
                   0
                   0
                   0
                   0
                   0
                   0
                   0
                   0
                   0
                   0
                   0
                   0
                   0
                   0
                   0
                   0
                   0
                   0
                   0
                   0
                   0
                   0
                   0
                   0
                   0
                   0
                   0
                   0
                   0
                   0
                   0
                   0
                   0
                   0
                   0
                   0
                   0
                   0
                   0
                   0
                   0
                   0
                   0
                   0
                   0
                   0
                   0
                   0
                   0
                   0
                   0
                   0
                   0
                   0
                   0
                   0
                   0
                   0
                   0
                   0
                   0
                   0
                   0
                   0
                   0
                   0
                   0
                   0
                   0
                   0
                   0
                   0
                   0
                   0
                   0
                   0
                   0
                   0
                   0
                   0
                   0
                   0
                   0
                   0
                   0
                   0
                   0
                   0
                   0
                   0
                   0
                   0
                   0
                   0
                   0
                   0
                   0
                   0
                   0
                   0
                   0
                   0
                   0
                   0
                   0
                   0
                   0
                   0
                   0
                   0
                   0
                   0
                   0
                   0
                   0
                   0
                   0
                   0
                   0
                   0
                   0
                   0
                   0
                   0
                   0
                   0
                   0
                   0
                   0
                   0
                   0
                   0
                   0
                   0
                   0
                   0
                   0
                   0
                   0
                   0
                   0
                   0
                   0
                   0
                   0
                   0
                   0
                   0
                   0
                   0
                   0
                   0
                   0
                   0
                   0
                   0
                   0
                   0
                   0
                   0
                   0
                   0
                   0
                   0
                   0
                   0
                   0
                   0
                   0
                   0
                   0
                   0
                   0
                   0
                   0
                   0
                   0
                   0
                   0
                   0
                   0
                   0
                   0
                   0
                   0
                   0
                   0
                   0
                   0
                   0
                   0
                   0
                   0
                   0
                   0
                   0
                   0
                   0
                   0
                   0
                   0
                   0
                   0
                   0
                   0
                   0
                   0
                   0
                   0
                   0
                   0
                   0
                   0
                   0
                   0
                   0
                   0
                   0
                   0
                   0
                   0
                   0
                   0
                   0
                   0
                   0
                   0
                   0
                   0
                   0
                   0
                   0
                   0
                   0
                   0
                   0
                   0
                   0
                   0
                   0
                   0
                   0
                   0
                   0
                   0
                   0
                   0
                   0
                   0
                   0
                   0
                   0
                   0
                   0
                   0
                   0
                   0
                   0
                   0
                   0
                   0
                   0
                   0
                   0
                   0
                   0
                   0
                   0
                   0
                   0
                   0
                   0
                   0
                   0
                   0
                   0
                   0
                   0
                   0
                   0
                   0
                   0
                   0
                   0
                   0
                   0
                   0
                   0
                   0
                   0
                   0
                   0
                   0
                   0
                   0
                   0
                   0
                   0
                   0
                   0
                   0
                   0
                   0
                   0
                   0
                   0
                   0
                   0
                   0
                   0
                   0
                   0
                   0
                   0
                   0
                   0
                   0
                   0
                   0
                   0
                   0
                   0
                   0
                   0
                   0
                   0
                   0
                   0
                   0
                   0
                   0
                   0
                   0
                   0
                   0
                   0
                   0
                   0
                   0
                   0
                   0
                   0
                   0
                   0
                   0
                   0
                   0
                   0
                   0
                   0
                   0
                   0
                   0
                   0
                   0
                   0
                   0
                   0
                   0
                   0
                   0
                   0
                   0
                   0
                   0
                   0
                   0
                   0
                   0
                   0
                   0
                   0
                   0
                   0
                   0
                   0
                   0
                   0
                   0
                   0
                   0
                   0
                   0
                   0
                   0
                   0
                   0
                   0
                   0
                   0
                   0
                   0
                   0
                   0
                   0
                   0
                   0
                   0
                   0
                   0
                   0
                   0
                   0
                   0
                   0
                   0
                   0
                   0
                   0
                   0
                   0
                   0
                   0
                   0
                   0
                   0
                   0
                   0
                   0
                   0
                   0
                   0
                   0
                   0
                   0
                   0
                   0
                   0
                   0
                   0
                   0
                   0
                   0
                   0
                   0
                   0
                   0
                   0
                   0
                   0
                   0
                   0
                   0
                   0
                   0
                   0
                   0
                   0
                   0
                   0
                   0
                   0
                   0
                   0
                   0
                   0
                   0
                   0
                   0
                   0
                   0
                   0
                   0
                   0
                   0
                   0
                   0
                   0
                   0
                   0
                   0
                   0
                   0
                   0
                   0
                   0
                   0
                   0
                   0
                   0
                   0
                   0
                   0
                   0
                   0
                   0
                   0
                   0
                   0
                   0
                   0
                   0
                   0
                   0
                   0
                   0
                   0
                   0
                   0
                   0
                   0
                   0
                   0
                   0
                   0
                   0
                   0
                   0
                   0
                   0
                   0
                   0
                   0
                   0
                   0
                   0
                   0
                   0
                   0
                   0
                   0
                   0
                   0
                   0
                   0
                   0
                   0
                   0
                   0
                   0
                   0
                   0
                   0
                   0
                   0
                   0
                   0
                   0
                   0
                   0
                   0
                   0
                   0
                   0
                   0
                   0
                   0
                   0
                   0
                   0
                   0
                   0
                   0
                   0
                   0
                   0
                   0
                   0
                   0
                   0
                   0
                   0
                   0
                   0
                   0
                   0
                   0
                   0
                   0
                   0
                   0
                   0
                   0
                   0
                   0
                   0
                   0
                   0
                   0
                   0
                   0
                   0
                   0
                   0
                   0
                   0
                   0
                   0
                   0
                   0
                   0
                   0
                   0
                   0
                   0
                   0
                   0
                   0
                   0
                   0
                   0
                   0
                   0
                   0
                   0
                   0
                   0
                   0
                   0
                   0
                   0
                   0
                   0
                   0
                   0
                   0
                   0
                   0
                   0
                   0
                   0
                   0
  
SCALARS                         Ispace  double 1
LOOKUP_TABLE default
                  12
                  12
                  12
                  12
                  12
                  12
                  12
                  12
                  12
                  12
                  12
                  12
                  12
                  11
                  12
                  11
                  11
                  11
                  11
                  11
                  11
                  12
                  12
                  11
                  12
                  12
                  11
                  11
                  11
                  11
                  11
                  11
                  11
                  11
                  11
                  11
                  11
                  11
                  11
                  11
                  11
                  11
                  11
                  11
                  11
                  11
                  11
                  11
                  11
                  11
                  11
                  11
                  11
                  11
                  11
                  11
                  11
                  11
                  11
                  11
                  11
                  11
                  11
                  11
                  11
                  11
                  12
                  12
                  12
                  12
                  12
                  12
                  12
                  12
                  11
                  11
                  11
                  11
                  11
                  11
                  11
                  11
                  11
                  11
                  11
                  11
                  11
                  11
                  11
                  11
                  11
                  11
                  11
                  11
                  11
                  11
                  12
                  12
                  12
                  12
                  12
                  12
                  12
                  12
                  12
                  12
                  12
                  12
                  12
                  12
                  12
                  12
                  12
                  12
                  12
                  12
                  11
                  11
                  11
                  11
                  11
                  11
                  11
                  11
                  11
                  11
                  11
                  11
                  11
                  11
                  11
                  11
                  11
                  11
                  11
                  11
                  11
                  11
                  11
                  11
                  11
                  11
                  11
                  11
                  11
                  11
                  12
                  12
                  12
                  12
                  12
                  12
                  12
                  12
                  12
                  12
                  12
                  12
                  12
                  12
                  12
                  12
                  12
                  11
                  11
                  11
                  11
                  12
                  12
                  11
                  11
                  11
                  11
                  11
                  11
                  11
                  11
                  11
                  11
                  11
                  11
                  11
                  11
                  11
                  11
                  11
                  11
                  11
                  11
                  12
                  12
                  12
                  12
                  11
                  11
                  11
                  11
                  11
                  11
                  11
                  11
                  11
                  11
                  11
                  12
                  12
                  12
                  12
                  12
                  12
                  12
                  12
                  12
                  12
                  11
                  11
                  11
                  11
                  11
                  11
                  11
                  11
                  11
                  11
                  11
                  11
                  11
                  11
                  11
                  12
                  12
                  12
                  12
                  12
                  12
                  12
                  12
                  12
                  12
                  12
                  12
                  11
                  11
                  11
                  11
                  12
                  12
                  11
                  11
                  11
                  11
                  11
                  11
                  11
                  11
                  11
                  11
                  11
                  11
                  11
                  11
                  11
                  11
                  11
                  11
                  11
                  11
                  12
                  12
                  12
                  12
                  11
                  11
                  11
                  11
                  11
                  11
                  11
                  11
                  11
                  11
                  11
                  12
                  12
                  12
                  12
                  12
                  12
                  12
                  12
                  12
                  12
                  11
                  11
                  11
                  11
                  11
                  11
                  11
                  11
                  11
                  11
                  11
                  11
                  11
                  11
                  11
                  12
                  12
                  12
                  12
                  12
                  12
                  12
                  12
                  12
                  12
                  12
                  12
                  11
                  11
                  11
                  11
                  12
                  12
                  11
                  11
                  11
                  11
                  11
                  11
                  11
                  11
                  11
                  11
                  11
                  11
                  11
                  11
                  11
                  11
                  11
                  11
                  11
                  11
                  12
                  12
                  12
                  12
                  11
                  11
                  11
                  11
                  11
                  11
                  11
                  11
                  11
                  11
                  11
                  12
                  12
                  12
                  12
                  12
                  12
                  12
                  12
                  12
                  12
                  11
                  11
                  11
                  11
                  11
                  11
                  11
                  11
                  11
                  11
                  11
                  11
                  11
                  11
                  11
                  12
                  12
                  12
                  12
                  12
                  12
                  12
                  12
                  12
                  12
                  12
                  12
                  11
                  11
                  11
                  11
                  12
                  12
                  11
                  11
                  11
                  11
                  11
                  11
                  11
                  11
                  11
                  11
                  11
                  11
                  11
                  11
                  11
                  11
                  11
                  11
                  11
                  11
                  12
                  12
                  12
                  12
                  11
                  11
                  11
                  11
                  11
                  11
                  11
                  11
                  11
                  11
                  11
                  12
                  12
                  12
                  12
                  12
                  12
                  12
                  12
                  12
                  12
                  11
                  11
                  11
                  11
                  11
                  11
                  11
                  11
                  11
                  11
                  11
                  11
                  11
                  11
                  11
                  12
                  12
                  12
                  12
                  12
                  12
                  12
                  12
                  12
                  12
                  12
                  12
                  11
                  11
                  11
                  11
                  12
                  12
                  11
                  11
                  11
                  11
                  11
                  11
                  11
                  11
                  11
                  11
                  11
                  11
                  11
                  11
                  11
                  11
                  11
                  11
                  11
                  11
                  12
                  12
                  12
                  12
                  11
                  11
                  11
                  11
                  11
                  11
                  11
                  11
                  11
                  11
                  11
                  12
                  12
                  12
                  12
                  12
                  12
                  12
                  12
                  12
                  12
                  11
                  11
                  11
                  11
                  11
                  11
                  11
                  11
                  11
                  11
                  11
                  11
                  11
                  11
                  11
                  12
                  12
                  12
                  12
                  12
                  12
                  12
                  12
                  12
                  12
                  12
                  12
                  11
                  11
                  11
                  11
                  12
                  12
                  11
                  11
                  11
                  11
                  11
                  11
                  11
                  11
                  11
                  11
                  11
                  11
                  11
                  11
                  11
                  11
                  11
                  11
                  11
                  11
                  12
                  12
                  12
                  12
                  11
                  11
                  11
                  11
                  11
                  11
                  11
                  11
                  11
                  11
                  11
                  12
                  12
                  12
                  12
                  12
                  12
                  12
                  12
                  12
                  12
                  11
                  11
                  11
                  11
                  11
                  11
                  11
                  11
                  11
                  11
                  11
                  11
                  11
                  11
                  11
                  12
                  12
                  12
                  12
                  12
                  12
                  12
                  12
                  12
                  12
                  12
                  12
                  11
                  11
                  11
                  11
                  12
                  12
                  11
                  11
                  11
                  11
                  11
                  11
                  11
                  11
                  11
                  11
                  11
                  11
                  11
                  11
                  11
                  11
                  11
                  11
                  11
                  11
                  12
                  12
                  12
                  12
                  11
                  11
                  11
                  11
                  11
                  11
                  11
                  11
                  11
                  11
                  11
                  12
                  12
                  12
                  12
                  12
                  12
                  12
                  12
                  12
                  12
                  11
                  11
                  11
                  11
                  11
                  11
                  11
                  11
                  11
                  11
                  11
                  11
                  11
                  11
                  11
                  12
                  12
                  12
                  12
                  12
                  12
                  12
                  12
                  12
                  12
                  12
                  12
                  11
                  11
                  11
                  11
                  12
                  12
                  11
                  11
                  11
                  11
                  11
                  11
                  11
                  11
                  11
                  11
                  11
                  11
                  11
                  11
                  11
                  11
                  11
                  11
                  11
                  11
                  12
                  12
                  12
                  12
                  11
                  11
                  11
                  11
                  11
                  11
                  11
                  11
                  11
                  11
                  11
                  12
                  12
                  12
                  12
                  12
                  12
                  12
                  12
                  12
                  12
                  11
                  11
                  11
                  11
                  11
                  11
                  11
                  11
                  11
                  11
                  11
                  11
                  11
                  11
                  11
                  12
                  12
                  12
                  12
                  12
                  12
                  12
                  12
                  12
                  12
                  12
                  12
                  11
                  11
                  11
                  11
                  12
                  12
                  11
                  11
                  11
                  11
                  11
                  11
                  11
                  11
                  11
                  11
                  11
                  11
                  11
                  11
                  11
                  11
                  11
                  11
                  11
                  11
                  12
                  12
                  12
                  12
                  11
                  11
                  11
                  11
                  11
                  11
                  11
                  11
                  11
                  11
                  11
                  12
                  12
                  12
                  12
                  12
                  12
                  12
                  12
                  12
                  12
                  11
                  11
                  11
                  11
                  11
                  11
                  11
                  11
                  11
                  11
                  11
                  11
                  11
                  11
                  11
                  12
                  12
                  12
                  12
                  12
                  12
                  12
                  12
                  12
                  12
                  12
                  12
                  11
                  11
                  11
                  11
                  12
                  12
                  11
                  11
                  11
                  11
                  11
                  11
                  11
                  11
                  11
                  11
                  11
                  11
                  11
                  11
                  11
                  11
                  11
                  11
                  11
                  11
                  12
                  12
                  12
                  12
                  11
                  11
                  11
                  11
                  11
                  11
                  11
                  11
                  11
                  11
                  11
                  12
                  12
                  12
                  12
                  12
                  12
                  12
                  12
                  12
                  12
                  11
                  11
                  11
                  11
                  11
                  11
                  11
                  11
                  11
                  11
                  11
                  11
                  11
                  11
                  11
                  12
                  12
                  12
                  12
                  12
                  12
                  12
                  12
                  12
                  12
                  12
                  12
                  11
                  11
                  11
                  11
                  12
                  12
                  11
                  11
                  11
                  11
                  11
                  11
                  11
                  11
                  11
                  11
                  11
                  11
                  11
                  11
                  11
                  11
                  11
                  11
                  11
                  11
                  12
                  12
                  12
                  12
                  11
                  11
                  11
                  11
                  11
                  11
                  11
                  11
                  11
                  11
                  11
                  12
                  12
                  12
                  12
                  12
                  12
                  12
                  12
                  12
                  12
                  11
                  11
                  11
                  11
                  11
                  11
                  11
                  11
                  11
                  11
                  11
                  11
                  11
                  11
                  11
                  12
                  12
                  12
                  12
                  12
                  12
                  12
                  12
                  12
                  12
                  12
                  12
                  11
                  11
                  11
                  11
                  12
                  12
                  11
                  11
                  11
                  11
                  11
                  11
                  11
                  11
                  11
                  11
                  11
                  11
                  11
                  11
                  11
                  11
                  11
                  11
                  11
                  11
                  12
                  12
                  12
                  12
                  11
                  11
                  11
                  11
                  11
                  11
                  11
                  11
                  11
                  11
                  11
                  12
                  12
                  12
                  12
                  12
                  12
                  12
                  12
                  12
                  12
                  11
                  11
                  11
                  11
                  11
                  11
                  11
                  11
                  11
                  11
                  11
                  11
                  11
                  11
                  11
                  12
                  12
                  12
                  12
                  12
                  12
                  12
                  12
                  12
                  12
                  12
                  12
                  11
                  11
                  11
                  11
                  12
                  12
                  11
                  11
                  11
                  11
                  11
                  11
                  11
                  11
                  11
                  11
                  11
                  11
                  11
                  11
                  11
                  11
                  11
                  11
                  11
                  11
                  12
                  12
                  12
                  12
                  11
                  11
                  11
                  11
                  11
                  11
                  11
                  11
                  11
                  11
                  11
                  12
                  12
                  12
                  12
                  12
                  12
                  12
                  12
                  12
                  12
                  11
                  11
                  11
                  11
                  11
                  11
                  11
                  11
                  11
                  11
                  11
                  11
                  11
                  11
                  11
                  12
                  12
                  12
                  12
                  12
                  12
                  12
                  12
                  12
                  12
                  12
                  12
                  11
                  11
                  11
                  11
                  12
                  12
                  11
                  11
                  11
                  11
                  11
                  11
                  11
                  11
                  11
                  11
                  11
                  11
                  11
                  11
                  11
                  11
                  11
                  11
                  11
                  11
                  12
                  12
                  12
                  12
                  11
                  11
                  11
                  11
                  11
                  11
                  11
                  11
                  11
                  11
                  11
                  12
                  12
                  12
                  12
                  12
                  12
                  12
                  12
                  12
                  12
                  11
                  11
                  11
                  11
                  11
                  11
                  11
                  11
                  11
                  11
                  11
                  11
                  11
                  11
                  11
                  12
                  12
                  12
                  12
                  12
                  12
                  12
                  12
                  12
                  12
                  12
                  12
                  11
                  11
                  11
                  11
                  12
                  12
                  11
                  11
                  11
                  11
                  11
                  11
                  11
                  11
                  11
                  11
                  11
                  11
                  11
                  11
                  11
                  11
                  11
                  11
                  11
                  11
                  12
                  12
                  12
                  12
                  11
                  11
                  11
                  11
                  11
                  11
                  11
                  11
                  11
                  11
                  11
                  12
                  12
                  12
                  12
                  12
                  12
                  12
                  12
                  12
                  12
                  11
                  11
                  11
                  11
                  11
                  11
                  11
                  11
                  11
                  11
                  11
                  11
                  11
                  11
                  11
                  12
                  12
                  12
                  12
                  12
                  12
                  12
                  12
                  12
                  12
                  12
                  12
                  11
                  11
                  11
                  11
                  12
                  12
                  11
                  11
                  11
                  11
                  11
                  11
                  11
                  11
                  11
                  11
                  11
                  11
                  11
                  11
                  11
                  11
                  11
                  11
                  11
                  11
                  12
                  12
                  12
                  12
                  11
                  11
                  11
                  11
                  11
                  11
                  11
                  11
                  11
                  11
                  11
                  12
                  12
                  12
                  12
                  12
                  12
                  12
                  12
                  12
                  12
                  11
                  11
                  11
                  11
                  11
                  11
                  11
                  11
                  11
                  11
                  11
                  11
                  11
                  11
                  11
                  12
                  12
                  12
                  12
                  12
                  12
                  12
                  12
                  12
                  12
                  12
                  12
                  11
                  11
                  11
                  11
                  12
                  12
                  11
                  11
                  11
                  11
                  11
                  11
                  11
                  11
                  11
                  11
                  11
                  11
                  11
                  11
                  11
                  11
                  11
                  11
                  11
                  11
                  12
                  12
                  12
                  12
                  11
                  11
                  11
                  11
                  11
                  11
                  11
                  11
                  11
                  11
                  11
                  12
                  12
                  12
                  12
                  12
                  12
                  12
                  12
                  12
                  12
                  11
                  11
                  11
                  11
                  11
                  11
                  11
                  11
                  11
                  11
                  11
                  11
                  11
                  11
                  11
                  12
                  12
                  12
                  12
                  12
                  12
                  12
                  12
                  12
                  12
                  12
                  12
                  11
                  11
                  11
                  11
                  12
                  12
                  11
                  11
                  11
                  11
                  11
                  11
                  11
                  11
                  11
                  11
                  11
                  11
                  11
                  11
                  11
                  11
                  11
                  11
                  11
                  11
                  12
                  12
                  12
                  12
                  11
                  11
                  11
                  11
                  11
                  11
                  11
                  11
                  11
                  11
                  11
                  12
                  12
                  12
                  12
                  12
                  12
                  12
                  12
                  12
                  12
                  11
                  11
                  11
                  11
                  11
                  11
                  11
                  11
                  11
                  11
                  11
                  11
                  11
                  11
                  11
                  12
                  12
                  12
                  12
                  12
                  12
                  12
                  12
                  12
                  12
                  12
                  12
                  11
                  11
                  11
                  11
                  12
                  12
                  11
                  11
                  11
                  11
                  11
                  11
                  11
                  11
                  11
                  11
                  11
                  11
                  11
                  11
                  11
                  11
                  11
                  11
                  11
                  11
                  12
                  12
                  12
                  12
                  11
                  11
                  11
                  11
                  11
                  11
                  11
                  11
                  11
                  11
                  11
                  12
                  12
                  12
                  12
                  12
                  12
                  12
                  12
                  12
                  12
                  11
                  11
                  11
                  11
                  11
                  11
                  11
                  11
                  11
                  11
                  11
                  11
                  11
                  11
                  11
                  12
                  12
                  12
                  12
                  12
                  12
                  12
                  12
                  12
                  12
                  12
                  12
                  11
                  11
                  11
                  11
                  12
                  12
                  11
                  11
                  11
                  11
                  11
                  11
                  11
                  11
                  11
                  11
                  11
                  11
                  11
                  11
                  11
                  11
                  11
                  11
                  11
                  11
                  12
                  12
                  12
                  12
                  11
                  11
                  11
                  11
                  11
                  11
                  11
                  11
                  11
                  11
                  11
                  12
                  12
                  12
                  12
                  12
                  12
                  12
                  12
                  12
                  12
                  11
                  11
                  11
                  11
                  11
                  11
                  11
                  11
                  11
                  11
                  11
                  11
                  11
                  11
                  11
                  12
                  12
                  12
                  12
                  12
                  12
                  12
                  12
                  12
                  12
                  12
                  12
                  11
                  11
                  11
                  11
                  12
                  12
                  11
                  11
                  11
                  11
                  11
                  11
                  11
                  11
                  11
                  11
                  11
                  11
                  11
                  11
                  11
                  11
                  11
                  11
                  11
                  11
                  12
                  12
                  12
                  12
                  11
                  11
                  11
                  11
                  11
                  11
                  11
                  11
                  11
                  11
                  11
                  12
                  12
                  12
                  12
                  12
                  12
                  12
                  12
                  12
                  12
                  11
                  11
                  11
                  11
                  11
                  11
                  11
                  11
                  11
                  11
                  11
                  11
                  11
                  11
                  11
                  12
                  12
                  12
                  12
                  12
                  12
                  12
                  12
                  12
                  12
                  12
                  12
                  11
                  11
                  11
                  11
                  12
                  12
                  11
                  11
                  11
                  11
                  11
                  11
                  11
                  11
                  11
                  11
                  11
                  11
                  11
                  11
                  11
                  11
                  11
                  11
                  11
                  11
                  12
                  12
                  12
                  12
                  11
                  11
                  11
                  11
                  11
                  11
                  11
                  11
                  11
                  11
                  11
                  12
                  12
                  12
                  12
                  12
                  12
                  12
                  12
                  12
                  12
                  11
                  11
                  11
                  11
                  11
                  11
                  11
                  11
                  11
                  11
                  11
                  11
                  11
                  11
                  11
                  12
                  12
                  12
                  12
                  12
                  12
                  12
                  12
                  12
                  12
                  12
                  12
                  11
                  11
                  11
                  11
                  12
                  12
                  11
                  11
                  11
                  11
                  11
                  11
                  11
                  11
                  11
                  11
                  11
                  11
                  11
                  11
                  11
                  11
                  11
                  11
                  11
                  11
                  12
                  12
                  12
                  12
                  11
                  11
                  11
                  11
                  11
                  11
                  11
                  11
                  11
                  11
                  11
                  12
                  12
                  12
                  12
                  12
                  12
                  12
                  12
                  12
                  12
                  11
                  11
                  11
                  11
                  11
                  11
                  11
                  11
                  11
                  11
                  11
                  11
                  11
                  11
                  11
                  12
                  12
                  12
                  12
                  12
  
SCALARS                         Jspace  double 1
LOOKUP_TABLE default
                  11
                  12
                  11
                  11
                  11
                  12
                  11
                  11
                  11
                  11
                  11
                  11
                  12
                  12
                  12
                  12
                  11
                  12
                  11
                  12
                  12
                  12
                  12
                  12
                  12
                  12
                  12
                  12
                  12
                  12
                  11
                  11
                  11
                  11
                  11
                  11
                  11
                  11
                  11
                  11
                  11
                  11
                  11
                  11
                  11
                  11
                  11
                  11
                  11
                  11
                  11
                  11
                  12
                  12
                  12
                  12
                  12
                  11
                  12
                  11
                  11
                  11
                  11
                  11
                  11
                  11
                  11
                  11
                  11
                  12
                  11
                  12
                  12
                  12
                  12
                  12
                  12
                  12
                  12
                  12
                  12
                  12
                  12
                  12
                  11
                  11
                  11
                  11
                  11
                  11
                  11
                  11
                  11
                  11
                  11
                  11
                  11
                  11
                  11
                  11
                  11
                  11
                  11
                  11
                  11
                  11
                  11
                  11
                  12
                  12
                  12
                  12
                  12
                  12
                  12
                  12
                  12
                  12
                  12
                  12
                  12
                  12
                  12
                  12
                  12
                  12
                  12
                  12
                  11
                  11
                  11
                  11
                  11
                  11
                  11
                  11
                  11
                  11
                  11
                  11
                  11
                  11
                  11
                  11
                  11
                  11
                  11
                  11
                  11
                  11
                  11
                  11
                  11
                  11
                  11
                  11
                  11
                  12
                  11
                  11
                  11
                  11
                  12
                  12
                  11
                  12
                  12
                  12
                  12
                  12
                  12
                  11
                  11
                  11
                  11
                  11
                  11
                  11
                  11
                  11
                  11
                  11
                  12
                  12
                  12
                  11
                  11
                  11
                  11
                  11
                  11
                  12
                  12
                  12
                  12
                  12
                  12
                  12
                  11
                  11
                  11
                  11
                  11
                  11
                  11
                  11
                  11
                  11
                  11
                  11
                  12
                  12
                  12
                  12
                  12
                  12
                  12
                  12
                  12
                  12
                  11
                  11
                  11
                  11
                  11
                  11
                  11
                  11
                  11
                  11
                  11
                  11
                  11
                  11
                  11
                  12
                  11
                  11
                  11
                  11
                  12
                  12
                  11
                  12
                  12
                  12
                  12
                  12
                  12
                  11
                  11
                  11
                  11
                  11
                  11
                  11
                  11
                  11
                  11
                  11
                  12
                  12
                  12
                  11
                  11
                  11
                  11
                  11
                  11
                  12
                  12
                  12
                  12
                  12
                  12
                  12
                  11
                  11
                  11
                  11
                  11
                  11
                  11
                  11
                  11
                  11
                  11
                  11
                  12
                  12
                  12
                  12
                  12
                  12
                  12
                  12
                  12
                  12
                  11
                  11
                  11
                  11
                  11
                  11
                  11
                  11
                  11
                  11
                  11
                  11
                  11
                  11
                  11
                  12
                  11
                  11
                  11
                  11
                  12
                  12
                  11
                  12
                  12
                  12
                  12
                  12
                  12
                  11
                  11
                  11
                  11
                  11
                  11
                  11
                  11
                  11
                  11
                  11
                  12
                  12
                  12
                  11
                  11
                  11
                  11
                  11
                  11
                  12
                  12
                  12
                  12
                  12
                  12
                  12
                  11
                  11
                  11
                  11
                  11
                  11
                  11
                  11
                  11
                  11
                  11
                  11
                  12
                  12
                  12
                  12
                  12
                  12
                  12
                  12
                  12
                  12
                  11
                  11
                  11
                  11
                  11
                  11
                  11
                  11
                  11
                  11
                  11
                  11
                  11
                  11
                  11
                  12
                  11
                  11
                  11
                  11
                  12
                  12
                  11
                  12
                  12
                  12
                  12
                  12
                  12
                  11
                  11
                  11
                  11
                  11
                  11
                  11
                  11
                  11
                  11
                  11
                  12
                  12
                  12
                  11
                  11
                  11
                  11
                  11
                  11
                  12
                  12
                  12
                  12
                  12
                  12
                  12
                  11
                  11
                  11
                  11
                  11
                  11
                  11
                  11
                  11
                  11
                  11
                  11
                  12
                  12
                  12
                  12
                  12
                  12
                  12
                  12
                  12
                  12
                  11
                  11
                  11
                  11
                  11
                  11
                  11
                  11
                  11
                  11
                  11
                  11
                  11
                  11
                  11
                  12
                  11
                  11
                  11
                  11
                  12
                  12
                  11
                  12
                  12
                  12
                  12
                  12
                  12
                  11
                  11
                  11
                  11
                  11
                  11
                  11
                  11
                  11
                  11
                  11
                  12
                  12
                  12
                  11
                  11
                  11
                  11
                  11
                  11
                  12
                  12
                  12
                  12
                  12
                  12
                  12
                  11
                  11
                  11
                  11
                  11
                  11
                  11
                  11
                  11
                  11
                  11
                  11
                  12
                  12
                  12
                  12
                  12
                  12
                  12
                  12
                  12
                  12
                  11
                  11
                  11
                  11
                  11
                  11
                  11
                  11
                  11
                  11
                  11
                  11
                  11
                  11
                  11
                  12
                  11
                  11
                  11
                  11
                  12
                  12
                  11
                  12
                  12
                  12
                  12
                  12
                  12
                  11
                  11
                  11
                  11
                  11
                  11
                  11
                  11
                  11
                  11
                  11
                  12
                  12
                  12
                  11
                  11
                  11
                  11
                  11
                  11
                  12
                  12
                  12
                  12
                  12
                  12
                  12
                  11
                  11
                  11
                  11
                  11
                  11
                  11
                  11
                  11
                  11
                  11
                  11
                  12
                  12
                  12
                  12
                  12
                  12
                  12
                  12
                  12
                  12
                  11
                  11
                  11
                  11
                  11
                  11
                  11
                  11
                  11
                  11
                  11
                  11
                  11
                  11
                  11
                  12
                  11
                  11
                  11
                  11
                  12
                  12
                  11
                  12
                  12
                  12
                  12
                  12
                  12
                  11
                  11
                  11
                  11
                  11
                  11
                  11
                  11
                  11
                  11
                  11
                  12
                  12
                  12
                  11
                  11
                  11
                  11
                  11
                  11
                  12
                  12
                  12
                  12
                  12
                  12
                  12
                  11
                  11
                  11
                  11
                  11
                  11
                  11
                  11
                  11
                  11
                  11
                  11
                  12
                  12
                  12
                  12
                  12
                  12
                  12
                  12
                  12
                  12
                  11
                  11
                  11
                  11
                  11
                  11
                  11
                  11
                  11
                  11
                  11
                  11
                  11
                  11
                  11
                  12
                  11
                  11
                  11
                  11
                  12
                  12
                  11
                  12
                  12
                  12
                  12
                  12
                  12
                  11
                  11
                  11
                  11
                  11
                  11
                  11
                  11
                  11
                  11
                  11
                  12
                  12
                  12
                  11
                  11
                  11
                  11
                  11
                  11
                  12
                  12
                  12
                  12
                  12
                  12
                  12
                  11
                  11
                  11
                  11
                  11
                  11
                  11
                  11
                  11
                  11
                  11
                  11
                  12
                  12
                  12
                  12
                  12
                  12
                  12
                  12
                  12
                  12
                  11
                  11
                  11
                  11
                  11
                  11
                  11
                  11
                  11
                  11
                  11
                  11
                  11
                  11
                  11
                  12
                  11
                  11
                  11
                  11
                  12
                  12
                  11
                  12
                  12
                  12
                  12
                  12
                  12
                  11
                  11
                  11
                  11
                  11
                  11
                  11
                  11
                  11
                  11
                  11
                  12
                  12
                  12
                  11
                  11
                  11
                  11
                  11
                  11
                  12
                  12
                  12
                  12
                  12
                  12
                  12
                  11
                  11
                  11
                  11
                  11
                  11
                  11
                  11
                  11
                  11
                  11
                  11
                  12
                  12
                  12
                  12
                  12
                  12
                  12
                  12
                  12
                  12
                  11
                  11
                  11
                  11
                  11
                  11
                  11
                  11
                  11
                  11
                  11
                  11
                  11
                  11
                  11
                  12
                  11
                  11
                  11
                  11
                  12
                  12
                  11
                  12
                  12
                  12
                  12
                  12
                  12
                  11
                  11
                  11
                  11
                  11
                  11
                  11
                  11
                  11
                  11
                  11
                  12
                  12
                  12
                  11
                  11
                  11
                  11
                  11
                  11
                  12
                  12
                  12
                  12
                  12
                  12
                  12
                  11
                  11
                  11
                  11
                  11
                  11
                  11
                  11
                  11
                  11
                  11
                  11
                  12
                  12
                  12
                  12
                  12
                  12
                  12
                  12
                  12
                  12
                  11
                  11
                  11
                  11
                  11
                  11
                  11
                  11
                  11
                  11
                  11
                  11
                  11
                  11
                  11
                  12
                  11
                  11
                  11
                  11
                  12
                  12
                  11
                  12
                  12
                  12
                  12
                  12
                  12
                  11
                  11
                  11
                  11
                  11
                  11
                  11
                  11
                  11
                  11
                  11
                  12
                  12
                  12
                  11
                  11
                  11
                  11
                  11
                  11
                  12
                  12
                  12
                  12
                  12
                  12
                  12
                  11
                  11
                  11
                  11
                  11
                  11
                  11
                  11
                  11
                  11
                  11
                  11
                  12
                  12
                  12
                  12
                  12
                  12
                  12
                  12
                  12
                  12
                  11
                  11
                  11
                  11
                  11
                  11
                  11
                  11
                  11
                  11
                  11
                  11
                  11
                  11
                  11
                  12
                  11
                  11
                  11
                  11
                  12
                  12
                  11
                  12
                  12
                  12
                  12
                  12
                  12
                  11
                  11
                  11
                  11
                  11
                  11
                  11
                  11
                  11
                  11
                  11
                  12
                  12
                  12
                  11
                  11
                  11
                  11
                  11
                  11
                  12
                  12
                  12
                  12
                  12
                  12
                  12
                  11
                  11
                  11
                  11
                  11
                  11
                  11
                  11
                  11
                  11
                  11
                  11
                  12
                  12
                  12
                  12
                  12
                  12
                  12
                  12
                  12
                  12
                  11
                  11
                  11
                  11
                  11
                  11
                  11
                  11
                  11
                  11
                  11
                  11
                  11
                  11
                  11
                  12
                  11
                  11
                  11
                  11
                  12
                  12
                  11
                  12
                  12
                  12
                  12
                  12
                  12
                  11
                  11
                  11
                  11
                  11
                  11
                  11
                  11
                  11
                  11
                  11
                  12
                  12
                  12
                  11
                  11
                  11
                  11
                  11
                  11
                  12
                  12
                  12
                  12
                  12
                  12
                  12
                  11
                  11
                  11
                  11
                  11
                  11
                  11
                  11
                  11
                  11
                  11
                  11
                  12
                  12
                  12
                  12
                  12
                  12
                  12
                  12
                  12
                  12
                  11
                  11
                  11
                  11
                  11
                  11
                  11
                  11
                  11
                  11
                  11
                  11
                  11
                  11
                  11
                  12
                  11
                  11
                  11
                  11
                  12
                  12
                  11
                  12
                  12
                  12
                  12
                  12
                  12
                  11
                  11
                  11
                  11
                  11
                  11
                  11
                  11
                  11
                  11
                  11
                  12
                  12
                  12
                  11
                  11
                  11
                  11
                  11
                  11
                  12
                  12
                  12
                  12
                  12
                  12
                  12
                  11
                  11
                  11
                  11
                  11
                  11
                  11
                  11
                  11
                  11
                  11
                  11
                  12
                  12
                  12
                  12
                  12
                  12
                  12
                  12
                  12
                  12
                  11
                  11
                  11
                  11
                  11
                  11
                  11
                  11
                  11
                  11
                  11
                  11
                  11
                  11
                  11
                  12
                  11
                  11
                  11
                  11
                  12
                  12
                  11
                  12
                  12
                  12
                  12
                  12
                  12
                  11
                  11
                  11
                  11
                  11
                  11
                  11
                  11
                  11
                  11
                  11
                  12
                  12
                  12
                  11
                  11
                  11
                  11
                  11
                  11
                  12
                  12
                  12
                  12
                  12
                  12
                  12
                  11
                  11
                  11
                  11
                  11
                  11
                  11
                  11
                  11
                  11
                  11
                  11
                  12
                  12
                  12
                  12
                  12
                  12
                  12
                  12
                  12
                  12
                  11
                  11
                  11
                  11
                  11
                  11
                  11
                  11
                  11
                  11
                  11
                  11
                  11
                  11
                  11
                  12
                  11
                  11
                  11
                  11
                  12
                  12
                  11
                  12
                  12
                  12
                  12
                  12
                  12
                  11
                  11
                  11
                  11
                  11
                  11
                  11
                  11
                  11
                  11
                  11
                  12
                  12
                  12
                  11
                  11
                  11
                  11
                  11
                  11
                  12
                  12
                  12
                  12
                  12
                  12
                  12
                  11
                  11
                  11
                  11
                  11
                  11
                  11
                  11
                  11
                  11
                  11
                  11
                  12
                  12
                  12
                  12
                  12
                  12
                  12
                  12
                  12
                  12
                  11
                  11
                  11
                  11
                  11
                  11
                  11
                  11
                  11
                  11
                  11
                  11
                  11
                  11
                  11
                  12
                  11
                  11
                  11
                  11
                  12
                  12
                  11
                  12
                  12
                  12
                  12
                  12
                  12
                  11
                  11
                  11
                  11
                  11
                  11
                  11
                  11
                  11
                  11
                  11
                  12
                  12
                  12
                  11
                  11
                  11
                  11
                  11
                  11
                  12
                  12
                  12
                  12
                  12
                  12
                  12
                  11
                  11
                  11
                  11
                  11
                  11
                  11
                  11
                  11
                  11
                  11
                  11
                  12
                  12
                  12
                  12
                  12
                  12
                  12
                  12
                  12
                  12
                  11
                  11
                  11
                  11
                  11
                  11
                  11
                  11
                  11
                  11
                  11
                  11
                  11
                  11
                  11
                  12
                  11
                  11
                  11
                  11
                  12
                  12
                  11
                  12
                  12
                  12
                  12
                  12
                  12
                  11
                  11
                  11
                  11
                  11
                  11
                  11
                  11
                  11
                  11
                  11
                  12
                  12
                  12
                  11
                  11
                  11
                  11
                  11
                  11
                  12
                  12
                  12
                  12
                  12
                  12
                  12
                  11
                  11
                  11
                  11
                  11
                  11
                  11
                  11
                  11
                  11
                  11
                  11
                  12
                  12
                  12
                  12
                  12
                  12
                  12
                  12
                  12
                  12
                  11
                  11
                  11
                  11
                  11
                  11
                  11
                  11
                  11
                  11
                  11
                  11
                  11
                  11
                  11
                  12
                  11
                  11
                  11
                  11
                  12
                  12
                  11
                  12
                  12
                  12
                  12
                  12
                  12
                  11
                  11
                  11
                  11
                  11
                  11
                  11
                  11
                  11
                  11
                  11
                  12
                  12
                  12
                  11
                  11
                  11
                  11
                  11
                  11
                  12
                  12
                  12
                  12
                  12
                  12
                  12
                  11
                  11
                  11
                  11
                  11
                  11
                  11
                  11
                  11
                  11
                  11
                  11
                  12
                  12
                  12
                  12
                  12
                  12
                  12
                  12
                  12
                  12
                  11
                  11
                  11
                  11
                  11
                  11
                  11
                  11
                  11
                  11
                  11
                  11
                  11
                  11
                  11
                  12
                  11
                  11
                  11
                  11
                  12
                  12
                  11
                  12
                  12
                  12
                  12
                  12
                  12
                  11
                  11
                  11
                  11
                  11
                  11
                  11
                  11
                  11
                  11
                  11
                  12
                  12
                  12
                  11
                  11
                  11
                  11
                  11
                  11
                  12
                  12
                  12
                  12
                  12
                  12
                  12
                  11
                  11
                  11
                  11
                  11
                  11
                  11
                  11
                  11
                  11
                  11
                  11
                  12
                  12
                  12
                  12
                  12
                  12
                  12
                  12
                  12
                  12
                  11
                  11
                  11
                  11
                  11
                  11
                  11
                  11
                  11
                  11
                  11
                  11
                  11
                  11
                  11
                  12
                  11
                  11
                  11
                  11
                  12
                  12
                  11
                  12
                  12
                  12
                  12
                  12
                  12
                  11
                  11
                  11
                  11
                  11
                  11
                  11
                  11
                  11
                  11
                  11
                  12
                  12
                  12
                  11
                  11
                  11
                  11
                  11
                  11
                  12
                  12
                  12
                  12
                  12
                  12
                  12
                  11
                  11
                  11
                  11
                  11
                  11
                  11
                  11
                  11
                  11
                  11
                  11
                  12
                  12
                  12
                  12
                  12
                  12
                  12
                  12
                  12
                  12
                  11
                  11
                  11
                  11
                  11
                  11
                  11
                  11
                  11
                  11
                  11
                  11
                  11
                  11
                  11
                  12
                  11
                  11
                  11
                  11
                  12
                  12
                  11
                  12
                  12
                  12
                  12
                  12
                  12
                  11
                  11
                  11
                  11
                  11
                  11
                  11
                  11
                  11
                  11
                  11
                  12
                  12
                  12
                  11
                  11
                  11
                  11
                  11
                  11
                  12
                  12
                  12
                  12
                  12
                  12
                  12
                  11
                  11
                  11
                  11
                  11
                  11
                  11
                  11
                  11
                  11
                  11
                  11
                  12
                  12
                  12
                  12
                  12
                  12
                  12
                  12
                  12
                  12
                  11
                  11
                  11
                  11
                  11
                  11
                  11
                  11
                  11
                  11
                  11
                  11
                  11
                  11
                  11
                  12
                  11
                  11
                  11
                  11
                  12
                  12
                  11
                  12
                  12
                  12
                  12
                  12
                  12
                  11
                  11
                  11
                  11
                  11
                  11
                  11
                  11
                  11
                  11
                  11
                  12
                  12
                  12
                  11
                  11
                  11
                  11
                  11
                  11
                  12
                  12
                  12
                  12
                  12
                  12
                  12
                  11
                  11
                  11
                  11
                  11
                  11
                  11
                  11
                  11
                  11
                  11
                  11
                  12
                  12
                  12
                  12
                  12
                  12
                  12
                  12
                  12
                  12
                  11
                  11
                  11
                  11
                  11
                  11
                  11
                  11
                  11
                  11
                  11
                  11
                  11
                  11
  
SCALARS                         Kspace  double 1
LOOKUP_TABLE default
                  11
                  11
                  11
                  11
                  11
                  11
                  11
                  11
                  11
                  11
                  11
                  11
                  11
                  11
                  11
                  11
                  11
                  11
                  11
                  11
                  11
                  11
                  11
                  11
                  11
                  11
                  11
                  11
                  11
                  11
                  11
                  11
                  11
                  11
                  11
                  11
                  11
                  11
                  11
                  11
                  11
                  11
                  11
                  11
                  11
                  11
                  11
                  11
                  11
                  11
                  11
                  11
                  11
                  11
                  11
                  11
                  11
                  11
                  11
                  11
                  11
                  11
                  11
                  11
                  11
                  11
                  11
                  11
                  11
                  11
                  11
                  11
                  11
                  11
                  11
                  11
                  11
                  11
                  11
                  11
                  11
                  11
                  11
                  11
                  11
                  11
                  11
                  11
                  11
                  11
                  11
                  11
                  11
                  11
                  11
                  11
                  11
                  11
                  11
                  11
                  11
                  11
                  11
                  11
                  11
                  11
                  11
                  11
                  11
                  11
                  11
                  11
                  11
                  11
                  11
                  11
                  11
                  11
                  11
                  11
                  11
                  11
                  11
                  11
                  11
                  11
                  11
                  11
                  11
                  11
                  11
                  11
                  11
                  11
                  11
                  11
                  11
                  11
                  11
                  11
                  11
                  11
                  11
                  11
                  11
                  11
                  11
                  11
                  11
                  11
                  11
                  11
                  11
                  11
                  11
                  11
                  11
                  11
                  11
                  11
                  11
                  11
                  11
                  11
                  11
                  11
                  11
                  11
                  11
                  11
                  11
                  11
                  11
                  11
                  11
                  11
                  11
                  11
                  11
                  11
                  11
                  11
                  11
                  11
                  11
                  11
                  11
                  11
                  11
                  11
                  11
                  11
                  11
                  11
                  11
                  11
                  11
                  11
                  11
                  11
                  11
                  11
                  11
                  11
                  11
                  11
                  11
                  11
                  11
                  11
                  11
                  11
                  11
                  11
                  11
                  11
                  11
                  11
                  11
                  11
                  11
                  11
                  11
                  11
                  11
                  11
                  11
                  11
                  11
                  11
                  11
                  11
                  11
                  11
                  11
                  11
                  11
                  11
                  11
                  11
                  11
                  11
                  11
                  11
                  11
                  11
                  11
                  11
                  11
                  11
                  11
                  11
                  11
                  11
                  11
                  11
                  11
                  11
                  11
                  11
                  11
                  11
                  11
                  11
                  11
                  11
                  11
                  11
                  11
                  11
                  11
                  11
                  11
                  11
                  11
                  11
                  11
                  11
                  11
                  11
                  11
                  11
                  11
                  11
                  11
                  11
                  11
                  11
                  11
                  11
                  11
                  11
                  11
                  11
                  11
                  11
                  11
                  11
                  11
                  11
                  11
                  11
                  11
                  11
                  11
                  11
                  11
                  11
                  11
                  11
                  11
                  11
                  12
                  12
                  12
                  12
                  12
                  12
                  12
                  12
                  12
                  12
                  12
                  12
                  12
                  12
                  12
                  12
                  12
                  12
                  12
                  12
                  12
                  12
                  12
                  12
                  12
                  12
                  12
                  12
                  12
                  12
                  12
                  12
                  12
                  12
                  12
                  12
                  12
                  12
                  12
                  12
                  12
                  12
                  12
                  12
                  12
                  12
                  12
                  12
                  12
                  12
                  12
                  12
                  12
                  12
                  12
                  12
                  12
                  12
                  12
                  12
                  12
                  12
                  12
                  12
                  12
                  12
                  12
                  12
                  12
                  12
                  12
                  12
                  12
                  12
                  12
                  12
                  12
                  12
                  12
                  12
                  12
                  12
                  12
                  12
                  12
                  12
                  12
                  12
                  12
                  12
                  12
                  12
                  12
                  12
                  12
                  12
                  12
                  12
                  12
                  12
                  12
                  12
                  12
                  12
                  12
                  12
                  12
                  12
                  12
                  12
                  12
                  12
                  12
                  12
                  12
                  12
                  12
                  12
                  12
                  12
                  12
                  12
                  12
                  12
                  12
                  12
                  12
                  12
                  12
                  12
                  12
                  12
                  12
                  12
                  12
                  12
                  12
                  12
                  12
                  12
                  12
                  12
                  12
                  12
                  12
                  12
                  12
                  12
                  12
                  12
                  12
                  12
                  12
                  12
                  12
                  12
                  12
                  12
                  12
                  12
                  12
                  12
                  12
                  12
                  12
                  12
                  12
                  12
                  12
                  12
                  12
                  12
                  12
                  12
                  12
                  12
                  12
                  12
                  12
                  12
                  12
                  12
                  12
                  12
                  12
                  12
                  12
                  12
                  12
                  12
                  12
                  12
                  12
                  12
                  12
                  12
                  12
                  12
                  12
                  12
                  12
                  12
                  12
                  12
                  12
                  12
                  12
                  12
                  12
                  12
                  12
                  12
                  12
                  12
                  12
                  12
                  12
                  12
                  12
                  12
                  12
                  12
                  12
                  12
                  12
                  12
                  12
                  12
                  12
                  12
                  12
                  12
                  12
                  12
                  13
                  13
                  13
                  13
                  13
                  13
                  13
                  13
                  13
                  13
                  13
                  13
                  13
                  13
                  13
                  13
                  13
                  13
                  13
                  13
                  13
                  13
                  13
                  13
                  13
                  13
                  13
                  13
                  13
                  13
                  13
                  13
                  13
                  13
                  13
                  13
                  13
                  13
                  13
                  13
                  13
                  13
                  13
                  13
                  13
                  13
                  13
                  13
                  13
                  13
                  13
                  13
                  13
                  13
                  13
                  13
                  13
                  13
                  13
                  13
                  13
                  13
                  13
                  13
                  13
                  13
                  13
                  13
                  13
                  13
                  13
                  13
                  13
                  13
                  13
                  13
                  13
                  13
                  13
                  13
                  13
                  13
                  13
                  13
                  13
                  13
                  13
                  13
                  13
                  13
                  13
                  13
                  13
                  13
                  13
                  13
                  13
                  13
                  13
                  13
                  13
                  13
                  13
                  13
                  13
                  13
                  13
                  13
                  13
                  13
                  13
                  13
                  13
                  13
                  13
                  13
                  13
                  13
                  13
                  13
                  13
                  13
                  13
                  13
                  13
                  13
                  13
                  13
                  13
                  13
                  13
                  13
                  13
                  13
                  13
                  13
                  13
                  13
                  13
                  13
                  13
                  13
                  13
                  13
                  13
                  13
                  13
                  13
                  13
                  13
                  13
                  13
                  13
                  13
                  13
                  13
                  13
                  13
                  13
                  13
                  13
                  13
                  13
                  13
                  13
                  13
                  13
                  13
                  13
                  13
                  13
                  13
                  13
                  13
                  13
                  13
                  13
                  13
                  13
                  13
                  13
                  13
                  13
                  13
                  13
                  13
                  13
                  13
                  13
                  13
                  13
                  13
                  13
                  13
                  13
                  13
                  13
                  13
                  13
                  13
                  13
                  13
                  13
                  13
                  13
                  13
                  13
                  13
                  13
                  13
                  13
                  13
                  13
                  13
                  13
                  13
                  13
                  13
                  13
                  13
                  13
                  13
                  13
                  13
                  13
                  13
                  13
                  13
                  13
                  13
                  13
                  13
                  13
                  13
                  14
                  14
                  14
                  14
                  14
                  14
                  14
                  14
                  14
                  14
                  14
                  14
                  14
                  14
                  14
                  14
                  14
                  14
                  14
                  14
                  14
                  14
                  14
                  14
                  14
                  14
                  14
                  14
                  14
                  14
                  14
                  14
                  14
                  14
                  14
                  14
                  14
                  14
                  14
                  14
                  14
                  14
                  14
                  14
                  14
                  14
                  14
                  14
                  14
                  14
                  14
                  14
                  14
                  14
                  14
                  14
                  14
                  14
                  14
                  14
                  14
                  14
                  14
                  14
                  14
                  14
                  14
                  14
                  14
                  14
                  14
                  14
                  14
                  14
                  14
                  14
                  14
                  14
                  14
                  14
                  14
                  14
                  14
                  14
                  14
                  14
                  14
                  14
                  14
                  14
                  14
                  14
                  14
                  14
                  14
                  14
                  14
                  14
                  14
                  14
                  14
                  14
                  14
                  14
                  14
                  14
                  14
                  14
                  14
                  14
                  14
                  14
                  14
                  14
                  14
                  14
                  14
                  14
                  14
                  14
                  14
                  14
                  14
                  14
                  14
                  14
                  14
                  14
                  14
                  14
                  14
                  14
                  14
                  14
                  14
                  14
                  14
                  14
                  14
                  14
                  14
                  14
                  14
                  14
                  14
                  14
                  14
                  14
                  14
                  14
                  14
                  14
                  14
                  14
                  14
                  14
                  14
                  14
                  14
                  14
                  14
                  14
                  14
                  14
                  14
                  14
                  14
                  14
                  14
                  14
                  14
                  14
                  14
                  14
                  14
                  14
                  14
                  14
                  14
                  14
                  14
                  14
                  14
                  14
                  14
                  14
                  14
                  14
                  14
                  14
                  14
                  14
                  14
                  14
                  14
                  14
                  14
                  14
                  14
                  14
                  14
                  14
                  14
                  14
                  14
                  14
                  14
                  14
                  14
                  14
                  14
                  14
                  14
                  14
                  14
                  14
                  14
                  14
                  14
                  14
                  14
                  14
                  14
                  14
                  14
                  14
                  14
                  14
                  14
                  14
                  14
                  14
                  14
                  14
                  15
                  15
                  15
                  15
                  15
                  15
                  15
                  15
                  15
                  15
                  15
                  15
                  15
                  15
                  15
                  15
                  15
                  15
                  15
                  15
                  15
                  15
                  15
                  15
                  15
                  15
                  15
                  15
                  15
                  15
                  15
                  15
                  15
                  15
                  15
                  15
                  15
                  15
                  15
                  15
                  15
                  15
                  15
                  15
                  15
                  15
                  15
                  15
                  15
                  15
                  15
                  15
                  15
                  15
                  15
                  15
                  15
                  15
                  15
                  15
                  15
                  15
                  15
                  15
                  15
                  15
                  15
                  15
                  15
                  15
                  15
                  15
                  15
                  15
                  15
                  15
                  15
                  15
                  15
                  15
                  15
                  15
                  15
                  15
                  15
                  15
                  15
                  15
                  15
                  15
                  15
                  15
                  15
                  15
                  15
                  15
                  15
                  15
                  15
                  15
                  15
                  15
                  15
                  15
                  15
                  15
                  15
                  15
                  15
                  15
                  15
                  15
                  15
                  15
                  15
                  15
                  15
                  15
                  15
                  15
                  15
                  15
                  15
                  15
                  15
                  15
                  15
                  15
                  15
                  15
                  15
                  15
                  15
                  15
                  15
                  15
                  15
                  15
                  15
                  15
                  15
                  15
                  15
                  15
                  15
                  15
                  15
                  15
                  15
                  15
                  15
                  15
                  15
                  15
                  15
                  15
                  15
                  15
                  15
                  15
                  15
                  15
                  15
                  15
                  15
                  15
                  15
                  15
                  15
                  15
                  15
                  15
                  15
                  15
                  15
                  15
                  15
                  15
                  15
                  15
                  15
                  15
                  15
                  15
                  15
                  15
                  15
                  15
                  15
                  15
                  15
                  15
                  15
                  15
                  15
                  15
                  15
                  15
                  15
                  15
                  15
                  15
                  15
                  15
                  15
                  15
                  15
                  15
                  15
                  15
                  15
                  15
                  15
                  15
                  15
                  15
                  15
                  15
                  15
                  15
                  15
                  15
                  15
                  15
                  15
                  15
                  15
                  15
                  15
                  15
                  15
                  15
                  15
                  15
                  15
                  15
                  15
                  15
                  15
                  15
                  15
                  15
                  15
                  15
                  15
                  15
                  15
                  15
                  15
                  15
                  15
                  15
                  15
                  15
                  15
                  15
                  15
                  15
                  15
                  15
                  15
                  15
                  15
                  15
                  15
                  15
                  15
                  15
                  15
                  15
                  15
                  15
                  15
                  15
                  15
                  15
                  15
                  15
                  15
                  15
                  15
                  15
                  15
                  15
                  15
                  15
                  15
                  15
                  15
                  15
                  15
                  15
                  15
                  15
                  15
                  15
                  15
                  15
                  15
                  15
                  15
                  15
                  15
                  15
                  15
                  15
                  15
                  15
                  15
                  15
                  15
                  15
                  16
                  16
                  16
                  16
                  16
                  16
                  16
                  16
                  16
                  16
                  16
                  16
                  16
                  16
                  16
                  16
                  16
                  16
                  16
                  16
                  16
                  16
                  16
                  16
                  16
                  16
                  16
                  16
                  16
                  16
                  16
                  16
                  16
                  16
                  16
                  16
                  16
                  16
                  16
                  16
                  16
                  16
                  16
                  16
                  16
                  16
                  16
                  16
                  16
                  16
                  16
                  16
                  16
                  16
                  16
                  16
                  16
                  16
                  16
                  16
                  16
                  16
                  16
                  16
                  16
                  16
                  16
                  16
                  16
                  16
                  16
                  16
                  16
                  16
                  16
                  16
                  16
                  16
                  16
                  16
                  16
                  16
                  16
                  16
                  16
                  16
                  16
                  16
                  16
                  16
                  16
                  16
                  16
                  16
                  16
                  16
                  16
                  16
                  16
                  16
                  16
                  16
                  16
                  16
                  16
                  16
                  16
                  16
                  16
                  16
                  16
                  16
                  16
                  16
                  16
                  16
                  16
                  16
                  16
                  16
                  16
                  16
                  16
                  16
                  16
                  16
                  16
                  16
                  16
                  16
                  16
                  16
                  16
                  16
                  16
                  16
                  16
                  16
                  16
                  16
                  16
                  16
                  16
                  16
                  16
                  16
                  16
                  16
                  16
                  16
                  16
                  16
                  16
                  16
                  16
                  16
                  16
                  16
                  16
                  16
                  16
                  16
                  16
                  16
                  16
                  16
                  16
                  16
                  16
                  16
                  16
                  16
                  16
                  16
                  16
                  16
                  16
                  16
                  16
                  16
                  16
                  16
                  16
                  16
                  16
                  16
                  16
                  16
                  16
                  16
                  16
                  16
                  16
                  16
                  16
                  16
                  16
                  16
                  16
                  16
                  16
                  16
                  16
                  16
                  16
                  16
                  16
                  16
                  16
                  16
                  16
                  16
                  16
                  16
                  16
                  16
                  16
                  16
                  16
                  16
                  16
                  16
                  16
                  16
                  16
                  16
                  16
                  16
                  16
                  16
                  16
                  16
                  16
                  16
                  17
                  17
                  17
                  17
                  17
                  17
                  17
                  17
                  17
                  17
                  17
                  17
                  17
                  17
                  17
                  17
                  17
                  17
                  17
                  17
                  17
                  17
                  17
                  17
                  17
                  17
                  17
                  17
                  17
                  17
                  17
                  17
                  17
                  17
                  17
                  17
                  17
                  17
                  17
                  17
                  17
                  17
                  17
                  17
                  17
                  17
                  17
                  17
                  17
                  17
                  17
                  17
                  17
                  17
                  17
                  17
                  17
                  17
                  17
                  17
                  17
                  17
                  17
                  17
                  17
                  17
                  17
                  17
                  17
                  17
                  17
                  17
                  17
                  17
                  17
                  17
                  17
                  17
                  17
                  17
                  17
                  17
                  17
                  17
                  17
                  17
                  17
                  17
                  17
                  17
                  17
                  17
                  17
                  17
                  17
                  17
                  17
                  17
                  17
                  17
                  17
                  17
                  17
                  17
                  17
                  17
                  17
                  17
                  17
                  17
                  17
                  17
                  17
                  17
                  17
                  17
                  17
                  17
                  17
                  17
                  17
                  17
                  17
                  17
                  17
                  17
                  17
                  17
                  17
                  17
                  17
                  17
                  17
                  17
                  17
                  17
                  17
                  17
                  17
                  17
                  17
                  17
                  17
                  17
                  17
                  17
                  17
                  17
                  17
                  17
                  17
                  17
                  17
                  17
                  17
                  17
                  17
                  17
                  17
                  17
                  17
                  17
                  17
                  17
                  17
                  17
                  17
                  17
                  17
                  17
                  17
                  17
                  17
                  17
                  17
                  17
                  17
                  17
                  17
                  17
                  17
                  17
                  17
                  17
                  17
                  17
                  17
                  17
                  17
                  17
                  17
                  17
                  17
                  17
                  17
                  17
                  17
                  17
                  17
                  17
                  17
                  17
                  17
                  17
                  17
                  17
                  17
                  17
                  17
                  17
                  17
                  17
                  17
                  17
                  17
                  17
                  17
                  17
                  17
                  17
                  17
                  17
                  17
                  17
                  17
                  17
                  17
                  17
                  17
                  17
                  17
                  17
                  17
                  17
                  18
                  18
                  18
                  18
                  18
                  18
                  18
                  18
                  18
                  18
                  18
                  18
                  18
                  18
                  18
                  18
                  18
                  18
                  18
                  18
                  18
                  18
                  18
                  18
                  18
                  18
                  18
                  18
                  18
                  18
                  18
                  18
                  18
                  18
                  18
                  18
                  18
                  18
                  18
                  18
                  18
                  18
                  18
                  18
                  18
                  18
                  18
                  18
                  18
                  18
                  18
                  18
                  18
                  18
                  18
                  18
                  18
                  18
                  18
                  18
                  18
                  18
                  18
                  18
                  18
                  18
                  18
                  18
                  18
                  18
                  18
                  18
                  18
                  18
                  18
                  18
                  18
                  18
                  18
                  18
                  18
                  18
                  18
                  18
                  18
                  18
                  18
                  18
                  18
                  18
                  18
                  18
                  18
                  18
                  18
                  18
                  18
                  18
                  18
                  18
                  18
                  18
                  18
                  18
                  18
                  18
                  18
                  18
                  18
                  18
                  18
                  18
                  18
                  18
                  18
                  18
                  18
                  18
                  18
                  18
                  18
                  18
                  18
                  18
                  18
                  18
                  18
                  18
                  18
                  18
                  18
                  18
                  18
                  18
                  18
                  18
                  18
                  18
                  18
                  18
                  18
                  18
                  18
                  18
                  18
                  18
                  18
                  18
                  18
                  18
                  18
                  18
                  18
                  18
                  18
                  18
  
SCALARS                 displacement_x  double 1
LOOKUP_TABLE default
         0.78521E-03
         0.13248E-02
         0.17492E-02
         0.12760E-02
         0.92181E-03
         0.15639E-02
         0.21194E-02
         0.14821E-02
         0.23032E-02
         0.21367E-02
         0.27855E-02
         0.25913E-02
         0.97900E-03
         0.49988E-03
         0.11324E-02
         0.59474E-03
         0.78596E-04
        -0.97985E-04
         0.70115E-04
        -0.11969E-03
         0.71908E-03
         0.86692E-03
         0.13373E-02
         0.83062E-03
         0.10066E-02
         0.15742E-02
         0.31235E-03
         0.30219E-03
         0.39511E-03
         0.32530E-03
        -0.64075E-03
        -0.70063E-03
         0.33781E-03
        -0.77742E-03
        -0.85809E-03
         0.37087E-03
        -0.14593E-02
        -0.14334E-02
        -0.17956E-02
        -0.17106E-02
        -0.21142E-02
        -0.21324E-02
        -0.26099E-02
        -0.25329E-02
        -0.19952E-02
        -0.15410E-02
        -0.25354E-02
        -0.19600E-02
        -0.76274E-03
        -0.91232E-03
        -0.11503E-02
        -0.13966E-02
        -0.22988E-03
        -0.23886E-03
        -0.81657E-03
        -0.93095E-03
        -0.13804E-02
        -0.14091E-02
        -0.15967E-02
        -0.16548E-02
        -0.12382E-03
        -0.73855E-03
        -0.10631E-03
        -0.89679E-03
         0.63379E-03
         0.81113E-03
         0.13639E-02
         0.17201E-02
         0.24304E-02
         0.21265E-02
         0.29730E-02
         0.25271E-02
         0.17586E-02
         0.20694E-02
        -0.29424E-03
        -0.34735E-03
        -0.86988E-03
        -0.10303E-02
        -0.13986E-02
        -0.16490E-02
        -0.18003E-02
        -0.19068E-02
        -0.21797E-02
        -0.21722E-02
        -0.20473E-02
        -0.23913E-02
        -0.16659E-02
        -0.20743E-02
        -0.12695E-02
        -0.16042E-02
        -0.96124E-03
        -0.46113E-03
        -0.13642E-02
        -0.68467E-03
         0.19162E-03
         0.22430E-03
         0.87990E-03
         0.11450E-02
         0.14977E-02
         0.20017E-02
         0.19707E-02
         0.20477E-02
         0.25968E-02
         0.25589E-02
         0.29068E-02
         0.30362E-02
         0.34562E-02
         0.35430E-02
         0.26466E-02
         0.30879E-02
         0.22351E-02
         0.25976E-02
         0.17011E-02
         0.19826E-02
         0.10824E-02
         0.12536E-02
         0.38567E-03
         0.45542E-03
        -0.32505E-03
        -0.34883E-03
        -0.99025E-03
        -0.11399E-02
        -0.15988E-02
        -0.18548E-02
        -0.21178E-02
        -0.24963E-02
        -0.24957E-02
        -0.28745E-02
        -0.28104E-02
        -0.32275E-02
        -0.29836E-02
        -0.34782E-02
        -0.29573E-02
        -0.35549E-02
        -0.27497E-02
        -0.33950E-02
        -0.23618E-02
        -0.29674E-02
        -0.18272E-02
        -0.23465E-02
        -0.11683E-02
        -0.15253E-02
        -0.38671E-03
        -0.53894E-03
         0.41233E-03
         0.48654E-03
         0.11789E-02
         0.14639E-02
         0.18567E-02
         0.23108E-02
         0.23913E-02
         0.29690E-02
         0.27750E-02
         0.33614E-02
         0.29891E-02
         0.35241E-02
         0.70512E-03
         0.11713E-02
         0.15217E-02
         0.11136E-02
         0.19328E-02
         0.17844E-02
         0.86247E-03
         0.44922E-03
         0.84412E-04
        -0.78064E-04
         0.62891E-03
         0.74029E-03
         0.11463E-02
         0.27897E-03
         0.26172E-03
        -0.54938E-03
        -0.60380E-03
         0.30199E-03
        -0.12475E-02
        -0.12410E-02
        -0.17622E-02
        -0.18108E-02
        -0.16399E-02
        -0.12987E-02
        -0.66808E-03
        -0.96836E-03
        -0.19858E-03
        -0.71955E-03
        -0.12094E-02
        -0.12315E-02
        -0.10740E-03
        -0.60583E-03
         0.53238E-03
         0.11453E-02
         0.20385E-02
         0.18163E-02
         0.15154E-02
        -0.24909E-03
        -0.74846E-03
        -0.12061E-02
        -0.15401E-02
        -0.16406E-02
        -0.17595E-02
        -0.13547E-02
        -0.10055E-02
        -0.73569E-03
        -0.35546E-03
         0.15148E-03
         0.70439E-03
         0.12043E-02
         0.15788E-02
         0.16782E-02
         0.23709E-02
         0.24530E-02
         0.21761E-02
         0.18402E-02
         0.13946E-02
         0.88627E-03
         0.30852E-03
        -0.28030E-03
        -0.83098E-03
        -0.13371E-02
        -0.17658E-02
        -0.20934E-02
        -0.23406E-02
        -0.24269E-02
        -0.23517E-02
        -0.21603E-02
        -0.18255E-02
        -0.13808E-02
        -0.86193E-03
        -0.26874E-03
         0.32460E-03
         0.90034E-03
         0.14276E-02
         0.18588E-02
         0.21816E-02
         0.23787E-02
         0.63185E-03
         0.10459E-02
         0.13415E-02
         0.96726E-03
         0.16888E-02
         0.15388E-02
         0.77970E-03
         0.40996E-03
         0.87487E-04
        -0.62286E-04
         0.57443E-03
         0.67465E-03
         0.10304E-02
         0.25893E-03
         0.24307E-03
        -0.45593E-03
        -0.51301E-03
         0.26925E-03
        -0.10650E-02
        -0.10771E-02
        -0.15101E-02
        -0.15843E-02
        -0.13857E-02
        -0.10965E-02
        -0.58527E-03
        -0.80980E-03
        -0.17656E-03
        -0.64819E-03
        -0.10915E-02
        -0.10890E-02
        -0.87171E-04
        -0.50368E-03
         0.44707E-03
         0.96589E-03
         0.17955E-02
         0.16074E-02
         0.13501E-02
        -0.22965E-03
        -0.69143E-03
        -0.11110E-02
        -0.14202E-02
        -0.14909E-02
        -0.15707E-02
        -0.11350E-02
        -0.83675E-03
        -0.60877E-03
        -0.29773E-03
         0.11893E-03
         0.58039E-03
         0.10015E-02
         0.13210E-02
         0.14227E-02
         0.20981E-02
         0.21447E-02
         0.19374E-02
         0.16507E-02
         0.12638E-02
         0.81991E-03
         0.29256E-03
        -0.27348E-03
        -0.80355E-03
        -0.12691E-02
        -0.16605E-02
        -0.19264E-02
        -0.21127E-02
        -0.21470E-02
        -0.20343E-02
        -0.18419E-02
        -0.15341E-02
        -0.11418E-02
        -0.70253E-03
        -0.21438E-03
         0.27229E-03
         0.74814E-03
         0.11858E-02
         0.15528E-02
         0.18555E-02
         0.20525E-02
         0.55482E-03
         0.91841E-03
         0.11798E-02
         0.84720E-03
         0.14825E-02
         0.13446E-02
         0.68369E-03
         0.35941E-03
         0.81652E-04
        -0.52569E-04
         0.50398E-03
         0.58894E-03
         0.90000E-03
         0.22738E-03
         0.21230E-03
        -0.38830E-03
        -0.43717E-03
         0.23932E-03
        -0.91943E-03
        -0.93271E-03
        -0.13107E-02
        -0.13785E-02
        -0.12014E-02
        -0.94780E-03
        -0.50773E-03
        -0.70024E-03
        -0.15745E-03
        -0.57407E-03
        -0.96380E-03
        -0.95151E-03
        -0.76702E-04
        -0.44140E-03
         0.38849E-03
         0.84091E-03
         0.15799E-02
         0.14148E-02
         0.11840E-02
        -0.20536E-03
        -0.61524E-03
        -0.98243E-03
        -0.12457E-02
        -0.13059E-02
        -0.13701E-02
        -0.98786E-03
        -0.73557E-03
        -0.53913E-03
        -0.26655E-03
         0.96898E-04
         0.50110E-03
         0.87052E-03
         0.11483E-02
         0.12381E-02
         0.18446E-02
         0.18770E-02
         0.17062E-02
         0.14494E-02
         0.11065E-02
         0.71781E-03
         0.25215E-03
        -0.23799E-03
        -0.69165E-03
        -0.10915E-02
        -0.14274E-02
        -0.16538E-02
        -0.18247E-02
        -0.18607E-02
        -0.17589E-02
        -0.15927E-02
        -0.13347E-02
        -0.10021E-02
        -0.61913E-03
        -0.18553E-03
         0.23646E-03
         0.64511E-03
         0.10260E-02
         0.13480E-02
         0.16158E-02
         0.17934E-02
         0.49856E-03
         0.82242E-03
         0.10619E-02
         0.76709E-03
         0.13310E-02
         0.12078E-02
         0.60943E-03
         0.32187E-03
         0.73013E-04
        -0.46792E-04
         0.44936E-03
         0.52408E-03
         0.79967E-03
         0.20475E-03
         0.19180E-03
        -0.34817E-03
        -0.38987E-03
         0.21650E-03
        -0.81954E-03
        -0.83052E-03
        -0.11728E-02
        -0.12298E-02
        -0.10790E-02
        -0.84876E-03
        -0.45226E-03
        -0.63235E-03
        -0.13904E-03
        -0.51155E-03
        -0.85875E-03
        -0.84651E-03
        -0.74004E-04
        -0.40879E-03
         0.35369E-03
         0.76641E-03
         0.14168E-02
         0.12665E-02
         0.10542E-02
        -0.18023E-03
        -0.55129E-03
        -0.88332E-03
        -0.11201E-02
        -0.11675E-02
        -0.12223E-02
        -0.89348E-03
        -0.67631E-03
        -0.50202E-03
        -0.25308E-03
         0.81582E-04
         0.45517E-03
         0.79589E-03
         0.10446E-02
         0.11178E-02
         0.16458E-02
         0.16696E-02
         0.15125E-02
         0.12797E-02
         0.98255E-03
         0.64128E-03
         0.22523E-03
        -0.20985E-03
        -0.61522E-03
        -0.98213E-03
        -0.12905E-02
        -0.14873E-02
        -0.16347E-02
        -0.16599E-02
        -0.15743E-02
        -0.14258E-02
        -0.12004E-02
        -0.91217E-03
        -0.57034E-03
        -0.17270E-03
         0.20895E-03
         0.57624E-03
         0.92700E-03
         0.12221E-02
         0.14472E-02
         0.15947E-02
         0.45591E-03
         0.75102E-03
         0.97517E-03
         0.70767E-03
         0.12250E-02
         0.11139E-02
         0.55723E-03
         0.29638E-03
         0.58905E-04
        -0.49252E-04
         0.41451E-03
         0.48098E-03
         0.72593E-03
         0.19258E-03
         0.18223E-03
        -0.32676E-03
        -0.37289E-03
         0.19562E-03
        -0.76299E-03
        -0.77687E-03
        -0.10848E-02
        -0.11352E-02
        -0.99777E-03
        -0.78571E-03
        -0.42730E-03
        -0.58684E-03
        -0.12696E-03
        -0.47123E-03
        -0.78700E-03
        -0.78629E-03
        -0.71202E-04
        -0.38437E-03
         0.32860E-03
         0.71269E-03
         0.13010E-02
         0.11579E-02
         0.95716E-03
        -0.15924E-03
        -0.50099E-03
        -0.80326E-03
        -0.10191E-02
        -0.10667E-02
        -0.11232E-02
        -0.82861E-03
        -0.63258E-03
        -0.47412E-03
        -0.24317E-03
         0.71719E-04
         0.42383E-03
         0.74272E-03
         0.97176E-03
         0.10354E-02
         0.15095E-02
         0.15345E-02
         0.13802E-02
         0.11644E-02
         0.89692E-03
         0.58801E-03
         0.20831E-03
        -0.19242E-03
        -0.56704E-03
        -0.90124E-03
        -0.11792E-02
        -0.13613E-02
        -0.14963E-02
        -0.15286E-02
        -0.14574E-02
        -0.13211E-02
        -0.11143E-02
        -0.84862E-03
        -0.53577E-03
        -0.16919E-03
         0.18705E-03
         0.53221E-03
         0.86099E-03
         0.11332E-02
         0.13392E-02
         0.14705E-02
         0.41885E-03
         0.69217E-03
         0.90823E-03
         0.65907E-03
         0.11423E-02
         0.10405E-02
         0.50902E-03
         0.27157E-03
         0.51060E-04
        -0.46733E-04
         0.37696E-03
         0.43300E-03
         0.65829E-03
         0.17654E-03
         0.16268E-03
        -0.30345E-03
        -0.34699E-03
         0.18063E-03
        -0.71686E-03
        -0.72526E-03
        -0.10225E-02
        -0.10619E-02
        -0.93961E-03
        -0.73983E-03
        -0.39556E-03
        -0.55186E-03
        -0.11612E-03
        -0.43503E-03
        -0.72749E-03
        -0.72930E-03
        -0.68634E-04
        -0.36574E-03
         0.30717E-03
         0.66863E-03
         0.12084E-02
         0.10720E-02
         0.87709E-03
        -0.14901E-03
        -0.46261E-03
        -0.73805E-03
        -0.93237E-03
        -0.98179E-03
        -0.10412E-02
        -0.77898E-03
        -0.59702E-03
        -0.44810E-03
        -0.23386E-03
         0.62653E-04
         0.39501E-03
         0.69555E-03
         0.90953E-03
         0.96927E-03
         0.13861E-02
         0.14101E-02
         0.12611E-02
         0.10559E-02
         0.81039E-03
         0.52634E-03
         0.17875E-03
        -0.18444E-03
        -0.52209E-03
        -0.81604E-03
        -0.10636E-02
        -0.12346E-02
        -0.13672E-02
        -0.14062E-02
        -0.13484E-02
        -0.12220E-02
        -0.10281E-02
        -0.78589E-03
        -0.49456E-03
        -0.15136E-03
         0.17206E-03
         0.48400E-03
         0.78884E-03
         0.10472E-02
         0.12346E-02
         0.13513E-02
         0.36917E-03
         0.61785E-03
         0.82158E-03
         0.58593E-03
         0.10498E-02
         0.95199E-03
         0.45194E-03
         0.24076E-03
         0.44731E-04
        -0.39614E-04
         0.33414E-03
         0.38520E-03
         0.59079E-03
         0.15714E-03
         0.14266E-03
        -0.26516E-03
        -0.30211E-03
         0.15734E-03
        -0.63690E-03
        -0.64151E-03
        -0.93848E-03
        -0.96813E-03
        -0.86592E-03
        -0.66663E-03
        -0.34805E-03
        -0.49642E-03
        -0.10128E-03
        -0.38735E-03
        -0.65529E-03
        -0.64962E-03
        -0.62499E-04
        -0.33432E-03
         0.27265E-03
         0.60257E-03
         0.11140E-02
         0.97993E-03
         0.79310E-03
        -0.13438E-03
        -0.41710E-03
        -0.67049E-03
        -0.85346E-03
        -0.89771E-03
        -0.94880E-03
        -0.71780E-03
        -0.55489E-03
        -0.42057E-03
        -0.21795E-03
         0.57006E-04
         0.36019E-03
         0.63799E-03
         0.84150E-03
         0.89108E-03
         0.12821E-02
         0.13065E-02
         0.11575E-02
         0.96612E-03
         0.74088E-03
         0.47563E-03
         0.15617E-03
        -0.16817E-03
        -0.47299E-03
        -0.74503E-03
        -0.97863E-03
        -0.11471E-02
        -0.12762E-02
        -0.13208E-02
        -0.12723E-02
        -0.11472E-02
        -0.96177E-03
        -0.74064E-03
        -0.47094E-03
        -0.14463E-03
         0.15832E-03
         0.44667E-03
         0.73016E-03
         0.97714E-03
         0.11510E-02
         0.12541E-02
         0.33024E-03
         0.55350E-03
         0.74150E-03
         0.52818E-03
         0.95226E-03
         0.86144E-03
         0.40107E-03
         0.21161E-03
         0.33028E-04
        -0.42832E-04
         0.29484E-03
         0.34302E-03
         0.52725E-03
         0.13688E-03
         0.12657E-03
        -0.24507E-03
        -0.28348E-03
         0.13632E-03
        -0.57425E-03
        -0.58447E-03
        -0.84142E-03
        -0.87162E-03
        -0.77744E-03
        -0.59860E-03
        -0.32534E-03
        -0.44742E-03
        -0.94144E-04
        -0.35487E-03
        -0.60104E-03
        -0.59693E-03
        -0.59470E-04
        -0.30059E-03
         0.24169E-03
         0.54218E-03
         0.10132E-02
         0.88718E-03
         0.71247E-03
        -0.12176E-03
        -0.37792E-03
        -0.60994E-03
        -0.77785E-03
        -0.81984E-03
        -0.86191E-03
        -0.64564E-03
        -0.49896E-03
        -0.37577E-03
        -0.19122E-03
         0.54265E-04
         0.32359E-03
         0.57371E-03
         0.76004E-03
         0.80570E-03
         0.11726E-02
         0.11906E-02
         0.10543E-02
         0.87530E-03
         0.66984E-03
         0.43132E-03
         0.14063E-03
        -0.15860E-03
        -0.43725E-03
        -0.67859E-03
        -0.89144E-03
        -0.10458E-02
        -0.11621E-02
        -0.11936E-02
        -0.11479E-02
        -0.10365E-02
        -0.87201E-03
        -0.67541E-03
        -0.42548E-03
        -0.12637E-03
         0.14604E-03
         0.40433E-03
         0.65839E-03
         0.88592E-03
         0.10471E-02
         0.11409E-02
         0.29662E-03
         0.49640E-03
         0.66738E-03
         0.47919E-03
         0.85643E-03
         0.77660E-03
         0.35724E-03
         0.18593E-03
         0.30004E-04
        -0.41496E-04
         0.26020E-03
         0.30428E-03
         0.47125E-03
         0.11786E-03
         0.10907E-03
        -0.22068E-03
        -0.25693E-03
         0.12660E-03
        -0.52149E-03
        -0.53161E-03
        -0.76068E-03
        -0.78929E-03
        -0.69958E-03
        -0.54115E-03
        -0.29471E-03
        -0.40343E-03
        -0.86931E-04
        -0.31998E-03
        -0.54386E-03
        -0.54137E-03
        -0.53032E-04
        -0.26934E-03
         0.22001E-03
         0.49199E-03
         0.90972E-03
         0.79710E-03
         0.63906E-03
        -0.11090E-03
        -0.33949E-03
        -0.55143E-03
        -0.70602E-03
        -0.74373E-03
        -0.78081E-03
        -0.57924E-03
        -0.44572E-03
        -0.33349E-03
        -0.16857E-03
         0.49776E-04
         0.29081E-03
         0.51594E-03
         0.68270E-03
         0.72599E-03
         0.10472E-02
         0.10648E-02
         0.94372E-03
         0.78423E-03
         0.59913E-03
         0.38474E-03
         0.12097E-03
        -0.14772E-03
        -0.39604E-03
        -0.61710E-03
        -0.81103E-03
        -0.94848E-03
        -0.10420E-02
        -0.10661E-02
        -0.10258E-02
        -0.92335E-03
        -0.77825E-03
        -0.60542E-03
        -0.37815E-03
        -0.10788E-03
         0.13426E-03
         0.36271E-03
         0.58735E-03
         0.79055E-03
         0.93548E-03
         0.10211E-02
         0.24640E-03
         0.41972E-03
         0.57312E-03
         0.40981E-03
         0.74495E-03
         0.67743E-03
         0.29842E-03
         0.15140E-03
         0.24578E-04
        -0.36040E-04
         0.21480E-03
         0.25340E-03
         0.40048E-03
         0.94455E-04
         0.86255E-04
        -0.18659E-03
        -0.21404E-03
         0.10890E-03
        -0.44992E-03
        -0.45192E-03
        -0.66665E-03
        -0.68362E-03
        -0.61627E-03
        -0.47163E-03
        -0.24457E-03
        -0.34998E-03
        -0.75161E-04
        -0.26921E-03
        -0.45884E-03
        -0.45554E-03
        -0.45058E-04
        -0.23419E-03
         0.19125E-03
         0.42891E-03
         0.79132E-03
         0.68906E-03
         0.54784E-03
        -0.96746E-04
        -0.28852E-03
        -0.46834E-03
        -0.60104E-03
        -0.63419E-03
        -0.66914E-03
        -0.50898E-03
        -0.39045E-03
        -0.29227E-03
        -0.14733E-03
         0.43719E-04
         0.25485E-03
         0.45363E-03
         0.60221E-03
         0.63799E-03
         0.91097E-03
         0.92921E-03
         0.81608E-03
         0.67530E-03
         0.51366E-03
         0.32146E-03
         0.95509E-04
        -0.12421E-03
        -0.32907E-03
        -0.51853E-03
        -0.68671E-03
        -0.80857E-03
        -0.89502E-03
        -0.92646E-03
        -0.89835E-03
        -0.81393E-03
        -0.68818E-03
        -0.53379E-03
        -0.33309E-03
        -0.92048E-04
         0.12226E-03
         0.32092E-03
         0.51759E-03
         0.69830E-03
         0.82653E-03
         0.89551E-03
         0.19785E-03
         0.34338E-03
         0.46849E-03
         0.33119E-03
         0.61670E-03
         0.56011E-03
         0.24535E-03
         0.11999E-03
         0.18712E-04
        -0.33907E-04
         0.17628E-03
         0.21212E-03
         0.33543E-03
         0.73276E-04
         0.69395E-04
        -0.14750E-03
        -0.17243E-03
         0.87944E-04
        -0.36253E-03
        -0.36759E-03
        -0.54826E-03
        -0.56440E-03
        -0.50738E-03
        -0.38163E-03
        -0.20328E-03
        -0.28223E-03
        -0.68585E-04
        -0.22831E-03
        -0.38418E-03
        -0.37643E-03
        -0.34924E-04
        -0.19057E-03
         0.15570E-03
         0.35027E-03
         0.65869E-03
         0.57125E-03
         0.45561E-03
        -0.85950E-04
        -0.24668E-03
        -0.39583E-03
        -0.50786E-03
        -0.53263E-03
        -0.55708E-03
        -0.41926E-03
        -0.32409E-03
        -0.24515E-03
        -0.12203E-03
         0.37860E-04
         0.21201E-03
         0.37636E-03
         0.50193E-03
         0.52934E-03
         0.77112E-03
         0.78862E-03
         0.69098E-03
         0.57205E-03
         0.43656E-03
         0.27201E-03
         0.82512E-04
        -0.10461E-03
        -0.28206E-03
        -0.44660E-03
        -0.59365E-03
        -0.70272E-03
        -0.77644E-03
        -0.79842E-03
        -0.77140E-03
        -0.69510E-03
        -0.58383E-03
        -0.45474E-03
        -0.28449E-03
        -0.79793E-04
         0.10407E-03
         0.27352E-03
         0.44010E-03
         0.59028E-03
         0.70151E-03
         0.76223E-03
         0.15661E-03
         0.27045E-03
         0.36738E-03
         0.26341E-03
         0.48360E-03
         0.44249E-03
         0.19138E-03
         0.90476E-04
         0.14551E-04
        -0.31129E-04
         0.13408E-03
         0.16243E-03
         0.26266E-03
         0.51232E-04
         0.49372E-04
        -0.11780E-03
        -0.13934E-03
         0.72883E-04
        -0.29178E-03
        -0.29493E-03
        -0.43483E-03
        -0.44464E-03
        -0.40593E-03
        -0.30716E-03
        -0.16420E-03
        -0.22615E-03
        -0.59043E-04
        -0.18218E-03
        -0.30460E-03
        -0.30103E-03
        -0.25157E-04
        -0.15010E-03
         0.12618E-03
         0.27863E-03
         0.51612E-03
         0.44772E-03
         0.35847E-03
        -0.70708E-04
        -0.19430E-03
        -0.31026E-03
        -0.39808E-03
        -0.41954E-03
        -0.43865E-03
        -0.33588E-03
        -0.25866E-03
        -0.19457E-03
        -0.94132E-04
         0.33113E-04
         0.16977E-03
         0.29885E-03
         0.39861E-03
         0.41987E-03
         0.60915E-03
         0.62414E-03
         0.54845E-03
         0.45293E-03
         0.34025E-03
         0.20573E-03
         0.59867E-04
        -0.82613E-04
        -0.21764E-03
        -0.34419E-03
        -0.46003E-03
        -0.54396E-03
        -0.60473E-03
        -0.62620E-03
        -0.60844E-03
        -0.55631E-03
        -0.47351E-03
        -0.37057E-03
        -0.22810E-03
        -0.59398E-04
         0.87581E-04
         0.22085E-03
         0.35464E-03
         0.47447E-03
         0.56379E-03
         0.60851E-03
         0.10821E-03
         0.19298E-03
         0.26433E-03
         0.18766E-03
         0.35745E-03
         0.32573E-03
         0.13759E-03
         0.62013E-04
         0.83727E-05
        -0.24053E-04
         0.97170E-04
         0.12006E-03
         0.19415E-03
         0.35980E-04
         0.35679E-04
        -0.85437E-04
        -0.98371E-04
         0.51717E-04
        -0.21132E-03
        -0.21044E-03
        -0.32226E-03
        -0.32570E-03
        -0.30499E-03
        -0.22675E-03
        -0.11601E-03
        -0.16740E-03
        -0.43302E-04
        -0.13070E-03
        -0.22004E-03
        -0.21464E-03
        -0.17796E-04
        -0.11080E-03
         0.92260E-04
         0.20258E-03
         0.38443E-03
         0.32936E-03
         0.26321E-03
        -0.52666E-04
        -0.14427E-03
        -0.23109E-03
        -0.29943E-03
        -0.31110E-03
        -0.32162E-03
        -0.25334E-03
        -0.19570E-03
        -0.14899E-03
        -0.70595E-04
         0.25800E-04
         0.12722E-03
         0.22272E-03
         0.29832E-03
         0.31056E-03
         0.46772E-03
         0.48339E-03
         0.41780E-03
         0.34503E-03
         0.26063E-03
         0.15680E-03
         0.45157E-04
        -0.62469E-04
        -0.16960E-03
        -0.27079E-03
        -0.35965E-03
        -0.42412E-03
        -0.46620E-03
        -0.48404E-03
        -0.47675E-03
        -0.43733E-03
        -0.37091E-03
        -0.29099E-03
        -0.18312E-03
        -0.52711E-04
         0.66218E-04
         0.17415E-03
         0.27852E-03
         0.36761E-03
         0.43485E-03
         0.47054E-03
         0.71303E-04
         0.12781E-03
         0.17522E-03
         0.12396E-03
         0.24335E-03
         0.22247E-03
         0.92294E-04
         0.40903E-04
         0.46899E-05
        -0.17590E-04
         0.64938E-04
         0.80077E-04
         0.13175E-03
         0.22561E-04
         0.20751E-04
        -0.58002E-04
        -0.66978E-04
         0.33624E-04
        -0.14248E-03
        -0.14295E-03
        -0.22147E-03
        -0.22474E-03
        -0.21216E-03
        -0.15478E-03
        -0.79659E-04
        -0.11531E-03
        -0.31388E-04
        -0.89402E-04
        -0.14949E-03
        -0.14638E-03
        -0.11775E-04
        -0.76371E-04
         0.62266E-04
         0.13687E-03
         0.26334E-03
         0.22253E-03
         0.17758E-03
        -0.39392E-04
        -0.10003E-03
        -0.15769E-03
        -0.20557E-03
        -0.21424E-03
        -0.22206E-03
        -0.17940E-03
        -0.13940E-03
        -0.10579E-03
        -0.48086E-04
         0.20002E-04
         0.89695E-04
         0.15547E-03
         0.20983E-03
         0.21512E-03
         0.33135E-03
         0.34396E-03
         0.29604E-03
         0.24327E-03
         0.18007E-03
         0.10192E-03
         0.23475E-04
        -0.46606E-04
        -0.11738E-03
        -0.18679E-03
        -0.25022E-03
        -0.30104E-03
        -0.33441E-03
        -0.34829E-03
        -0.34210E-03
        -0.31780E-03
        -0.27536E-03
        -0.21719E-03
        -0.13473E-03
        -0.39513E-04
         0.48242E-04
         0.12922E-03
         0.20469E-03
         0.26778E-03
         0.31527E-03
         0.33772E-03
         0.41401E-04
         0.72627E-04
         0.10097E-03
         0.69569E-04
         0.14826E-03
         0.13425E-03
         0.51709E-04
         0.23068E-04
         0.49949E-05
        -0.89835E-05
         0.35458E-04
         0.47351E-04
         0.79057E-04
         0.11004E-04
         0.11126E-04
        -0.32627E-04
        -0.37989E-04
         0.20315E-04
        -0.84206E-04
        -0.83761E-04
        -0.13923E-03
        -0.13826E-03
        -0.13647E-03
        -0.94283E-04
        -0.45693E-04
        -0.69544E-04
        -0.18614E-04
        -0.51623E-04
        -0.88022E-04
        -0.85671E-04
        -0.67280E-05
        -0.46567E-04
         0.36087E-04
         0.79915E-04
         0.16364E-03
         0.13490E-03
         0.10664E-03
        -0.24757E-04
        -0.61175E-04
        -0.96558E-04
        -0.12860E-03
        -0.13241E-03
        -0.13610E-03
        -0.11491E-03
        -0.88884E-04
        -0.68053E-04
        -0.30629E-04
         0.11932E-04
         0.55125E-04
         0.97521E-04
         0.13503E-03
         0.13332E-03
         0.21725E-03
         0.22711E-03
         0.19328E-03
         0.15847E-03
         0.11789E-03
         0.68003E-04
         0.16942E-04
        -0.30628E-04
        -0.78262E-04
        -0.12486E-03
        -0.16639E-03
        -0.20315E-03
        -0.22417E-03
        -0.23537E-03
        -0.23586E-03
        -0.22037E-03
        -0.18772E-03
        -0.14538E-03
        -0.89473E-04
        -0.26978E-04
         0.30863E-04
         0.87678E-04
         0.14216E-03
         0.18522E-03
         0.21405E-03
         0.22536E-03
         0.17423E-04
         0.35491E-04
         0.50925E-04
         0.32102E-04
         0.80402E-04
         0.71623E-04
         0.25171E-04
         0.87907E-05
         0.19999E-06
        -0.63975E-05
         0.16768E-04
         0.24122E-04
         0.42003E-04
         0.31153E-05
         0.36136E-05
        -0.14939E-04
        -0.19370E-04
         0.85578E-05
        -0.43044E-04
        -0.42745E-04
        -0.77840E-04
        -0.75887E-04
        -0.77466E-04
        -0.48949E-04
        -0.23413E-04
        -0.34311E-04
        -0.11509E-04
        -0.27459E-04
        -0.46791E-04
        -0.43913E-04
        -0.17065E-05
        -0.22953E-04
         0.18220E-04
         0.40187E-04
         0.90061E-04
         0.72134E-04
         0.56465E-04
        -0.15758E-04
        -0.34899E-04
        -0.54237E-04
        -0.72922E-04
        -0.73429E-04
        -0.74374E-04
        -0.64790E-04
        -0.50423E-04
        -0.39010E-04
        -0.15726E-04
         0.82711E-05
         0.31213E-04
         0.54750E-04
         0.77360E-04
         0.73024E-04
         0.12504E-03
         0.13409E-03
         0.10882E-03
         0.88721E-04
         0.65523E-04
         0.36210E-04
         0.75734E-05
        -0.20395E-04
        -0.47320E-04
        -0.72621E-04
        -0.96721E-04
        -0.11704E-03
        -0.13193E-03
        -0.14156E-03
        -0.14477E-03
        -0.13844E-03
        -0.11934E-03
        -0.92373E-04
        -0.54689E-04
        -0.13779E-04
         0.20718E-04
         0.53775E-04
         0.87272E-04
         0.11344E-03
         0.12974E-03
         0.13523E-03
         0.72568E-05
         0.15787E-04
         0.23225E-04
         0.13913E-04
         0.39717E-04
         0.34658E-04
         0.11458E-04
         0.36486E-05
        -0.13419E-05
        -0.41854E-05
         0.76869E-05
         0.11695E-04
         0.20981E-04
         0.98051E-06
         0.71448E-06
        -0.63547E-05
        -0.98360E-05
         0.31466E-05
        -0.18579E-04
        -0.19731E-04
        -0.39021E-04
        -0.38724E-04
        -0.38469E-04
        -0.21715E-04
        -0.12615E-04
        -0.15506E-04
        -0.67876E-05
        -0.15534E-04
        -0.25293E-04
        -0.21743E-04
        -0.23606E-06
        -0.11008E-04
         0.82544E-05
         0.17922E-04
         0.45657E-04
         0.35351E-04
         0.27670E-04
        -0.10023E-04
        -0.21202E-04
        -0.32155E-04
        -0.41707E-04
        -0.39201E-04
        -0.38292E-04
        -0.32769E-04
        -0.26720E-04
        -0.20897E-04
        -0.71312E-05
         0.58270E-05
         0.16016E-04
         0.26813E-04
         0.39524E-04
         0.36061E-04
         0.68594E-04
         0.73095E-04
         0.60197E-04
         0.50950E-04
         0.39006E-04
         0.21106E-04
         0.29797E-05
        -0.14419E-04
        -0.31018E-04
        -0.47066E-04
        -0.58822E-04
        -0.66598E-04
        -0.75292E-04
        -0.82418E-04
        -0.84599E-04
        -0.77972E-04
        -0.64701E-04
        -0.51289E-04
        -0.31463E-04
        -0.75816E-05
         0.13651E-04
         0.31292E-04
         0.48126E-04
         0.63270E-04
         0.71992E-04
         0.73447E-04
         0.27780E-05
         0.61434E-05
         0.96959E-05
         0.59075E-05
         0.17716E-04
         0.15895E-04
         0.31457E-05
         0.43023E-08
        -0.89812E-06
        -0.26873E-05
         0.69350E-06
         0.24890E-05
         0.76653E-05
        -0.18693E-05
        -0.17789E-05
        -0.35143E-05
        -0.47184E-05
         0.12933E-05
        -0.90327E-05
        -0.94497E-05
        -0.19572E-04
        -0.19624E-04
        -0.20087E-04
        -0.11152E-04
        -0.58910E-05
        -0.86841E-05
        -0.41064E-05
        -0.72872E-05
        -0.12629E-04
        -0.10592E-04
        -0.77403E-06
        -0.63937E-05
         0.35995E-05
         0.85858E-05
         0.21118E-04
         0.15907E-04
         0.11818E-04
        -0.49539E-05
        -0.92322E-05
        -0.15787E-04
        -0.23091E-04
        -0.21682E-04
        -0.20255E-04
        -0.17868E-04
        -0.14323E-04
        -0.98686E-05
        -0.29536E-05
         0.29110E-05
         0.74356E-05
         0.13217E-04
         0.20210E-04
         0.18006E-04
         0.33844E-04
         0.34369E-04
         0.28750E-04
         0.21999E-04
         0.15381E-04
         0.66873E-05
        -0.88844E-06
        -0.68545E-05
        -0.13041E-04
        -0.23166E-04
        -0.34981E-04
        -0.38979E-04
        -0.39416E-04
        -0.41449E-04
        -0.42593E-04
        -0.40816E-04
        -0.34584E-04
        -0.25744E-04
        -0.13308E-04
        -0.12225E-05
         0.68179E-05
         0.14719E-04
         0.23550E-04
         0.31776E-04
         0.35760E-04
         0.35233E-04
        -0.20463E-06
         0.40579E-06
         0.22803E-05
         0.74136E-06
         0.59752E-05
         0.45420E-05
        -0.94476E-06
        -0.19013E-05
        -0.13242E-05
        -0.28152E-05
        -0.18694E-05
        -0.10097E-05
         0.73946E-06
        -0.31562E-05
        -0.30041E-05
        -0.26942E-05
        -0.33694E-05
        -0.51803E-06
        -0.45601E-05
        -0.51738E-05
        -0.71657E-05
        -0.81975E-05
        -0.76715E-05
        -0.47184E-05
        -0.43771E-05
        -0.37503E-05
        -0.46686E-05
        -0.60141E-05
        -0.77165E-05
        -0.64894E-05
        -0.12040E-05
        -0.28936E-05
         0.65907E-07
         0.16113E-05
         0.76038E-05
         0.46984E-05
         0.23014E-05
        -0.54946E-05
        -0.75468E-05
        -0.89264E-05
        -0.11085E-04
        -0.10962E-04
        -0.10110E-04
        -0.69361E-05
        -0.58015E-05
        -0.40115E-05
        -0.13081E-05
         0.69809E-06
         0.23537E-05
         0.45919E-05
         0.72247E-05
         0.54415E-05
         0.13682E-04
         0.14137E-04
         0.11207E-04
         0.77535E-05
         0.46630E-05
         0.10426E-05
        -0.18611E-05
        -0.51053E-05
        -0.10049E-04
        -0.12770E-04
        -0.16498E-04
        -0.19006E-04
        -0.20439E-04
        -0.19414E-04
        -0.17605E-04
        -0.18046E-04
        -0.15910E-04
        -0.11577E-04
        -0.50668E-05
         0.12043E-05
         0.44113E-05
         0.77327E-05
         0.11372E-04
         0.13102E-04
         0.13602E-04
         0.14161E-04
        -0.21991E-05
        -0.27765E-05
        -0.12154E-05
        -0.11449E-05
         0.61205E-06
         0.58102E-06
        -0.32825E-05
        -0.31673E-05
        -0.24002E-05
        -0.37252E-05
        -0.34034E-05
        -0.34341E-05
        -0.31667E-05
        -0.37688E-05
        -0.40008E-05
        -0.13561E-05
        -0.31012E-05
        -0.94384E-06
        -0.31419E-05
        -0.35947E-05
        -0.47167E-05
        -0.49487E-05
        -0.39563E-05
        -0.25842E-05
        -0.40568E-05
        -0.14478E-05
        -0.44899E-05
        -0.48211E-05
        -0.54213E-05
        -0.43152E-05
        -0.62704E-06
        -0.97340E-06
        -0.64864E-06
        -0.29826E-06
         0.72538E-06
        -0.10855E-05
        -0.28389E-05
        -0.49344E-05
        -0.55224E-05
        -0.61589E-05
        -0.74605E-05
        -0.71171E-05
        -0.60196E-05
        -0.27220E-05
        -0.20243E-05
        -0.13539E-05
        -0.91510E-06
        -0.94696E-06
        -0.40067E-06
         0.10227E-05
         0.28120E-05
         0.16946E-05
         0.23563E-05
         0.31424E-05
         0.11450E-05
        -0.49512E-07
        -0.64282E-06
        -0.27672E-05
        -0.43236E-05
        -0.57245E-05
        -0.68950E-05
        -0.74210E-05
        -0.93968E-05
        -0.10832E-04
        -0.10054E-04
        -0.79888E-05
        -0.77674E-05
        -0.72188E-05
        -0.51606E-05
        -0.36532E-05
        -0.16086E-05
        -0.62953E-06
         0.29992E-06
         0.14018E-05
         0.40188E-05
         0.65269E-05
         0.63822E-05
         0.45862E-05
        -0.31765E-05
        -0.32446E-05
        -0.25326E-05
        -0.23917E-05
        -0.19973E-05
        -0.15575E-05
        -0.40492E-05
        -0.39609E-05
        -0.34379E-05
        -0.37044E-05
        -0.44653E-05
        -0.48047E-05
        -0.42374E-05
        -0.44130E-05
        -0.48654E-05
        -0.20961E-05
        -0.33671E-05
        -0.24952E-05
        -0.28060E-05
        -0.31140E-05
        -0.34581E-05
        -0.36258E-05
        -0.24539E-05
        -0.19505E-05
        -0.32892E-05
        -0.14260E-05
        -0.38712E-05
        -0.37358E-05
        -0.45992E-05
        -0.33017E-05
        -0.15972E-05
        -0.15924E-05
        -0.19107E-05
        -0.19593E-05
        -0.20447E-05
        -0.27349E-05
        -0.36619E-05
        -0.43635E-05
        -0.45082E-05
        -0.58902E-05
        -0.62142E-05
        -0.46207E-05
        -0.34530E-05
        -0.22588E-05
        -0.23583E-05
        -0.20641E-05
        -0.16370E-05
        -0.14324E-05
        -0.12031E-05
        -0.11309E-05
        -0.68212E-06
        -0.10084E-05
        -0.57857E-06
        -0.33690E-06
        -0.13477E-05
        -0.20967E-05
        -0.24554E-05
        -0.32236E-05
        -0.45905E-05
        -0.53723E-05
        -0.55097E-05
        -0.78827E-05
        -0.66042E-05
        -0.71839E-05
        -0.68795E-05
        -0.61603E-05
        -0.49567E-05
        -0.39262E-05
        -0.41315E-05
        -0.34709E-05
        -0.20850E-05
        -0.11282E-05
        -0.23392E-06
        -0.46304E-06
        -0.37966E-06
         0.21970E-06
         0.25453E-06
         0.39697E-06
        -0.53319E-05
        -0.49451E-05
        -0.53382E-05
        -0.49840E-05
        -0.52374E-05
        -0.43717E-05
        -0.48254E-05
        -0.51034E-05
        -0.46555E-05
        -0.47830E-05
        -0.51579E-05
        -0.60788E-05
        -0.52340E-05
        -0.55498E-05
        -0.65221E-05
        -0.28263E-05
        -0.33084E-05
        -0.41381E-05
        -0.21135E-05
        -0.23130E-05
        -0.16481E-05
        -0.26688E-05
        -0.11146E-05
        -0.15078E-05
        -0.36748E-05
        -0.12739E-05
        -0.53981E-05
        -0.47388E-05
        -0.48173E-05
        -0.32289E-05
        -0.25407E-05
        -0.14294E-05
        -0.35558E-05
        -0.39904E-05
        -0.58776E-05
        -0.53019E-05
        -0.51443E-05
        -0.63870E-05
        -0.56696E-05
        -0.55312E-05
        -0.53397E-05
        -0.43617E-05
        -0.29912E-05
        -0.97705E-06
        -0.94022E-06
        -0.11571E-05
        -0.13107E-05
        -0.17989E-05
        -0.25068E-05
        -0.31502E-05
        -0.31424E-05
        -0.35504E-05
        -0.62248E-05
        -0.46257E-05
        -0.54302E-05
        -0.53117E-05
        -0.65470E-05
        -0.66117E-05
        -0.55301E-05
        -0.87317E-05
        -0.86769E-05
        -0.79086E-05
        -0.62136E-05
        -0.51159E-05
        -0.35504E-05
        -0.49084E-05
        -0.16208E-05
        -0.10065E-05
        -0.10087E-05
        -0.36886E-06
        -0.67541E-06
        -0.59256E-06
        -0.12592E-05
        -0.30582E-05
        -0.41538E-05
        -0.42045E-05
        -0.44393E-05
        -0.40792E-05
        -0.83073E-05
        -0.83230E-05
        -0.91141E-05
        -0.62575E-05
        -0.92235E-05
        -0.70071E-05
        -0.72109E-05
        -0.66140E-05
        -0.78471E-05
        -0.56779E-05
        -0.65383E-05
        -0.82423E-05
        -0.82425E-05
        -0.57559E-05
        -0.81279E-05
        -0.40381E-05
        -0.39114E-05
        -0.53614E-05
        -0.14167E-05
        -0.13062E-05
        -0.11313E-05
        -0.17765E-05
        -0.63651E-06
        -0.52023E-06
        -0.32344E-05
        -0.12011E-05
        -0.50718E-05
        -0.47602E-05
        -0.30443E-05
        -0.15505E-05
        -0.26669E-05
        -0.14176E-05
        -0.33080E-05
        -0.57350E-05
        -0.11557E-04
        -0.10731E-04
        -0.99707E-05
        -0.74155E-05
        -0.75742E-05
        -0.55150E-05
        -0.20759E-05
        -0.14062E-05
        -0.18810E-05
        -0.62224E-07
        -0.25595E-06
        -0.16343E-06
        -0.89464E-06
        -0.21426E-05
        -0.32191E-05
        -0.47639E-05
        -0.49078E-05
        -0.62849E-05
        -0.10507E-04
        -0.62417E-05
        -0.81433E-05
        -0.86648E-05
        -0.70986E-05
        -0.97066E-05
        -0.10357E-04
        -0.13791E-04
        -0.16134E-04
        -0.16315E-04
        -0.50978E-05
        -0.45297E-05
        -0.66809E-05
        -0.21140E-05
        -0.33763E-05
        -0.34901E-05
         0.14008E-06
        -0.64870E-06
        -0.10521E-06
        -0.19032E-05
        -0.20952E-05
        -0.77746E-06
        -0.16344E-05
        -0.40714E-05
        -0.49165E-05
        -0.33789E-05
  
SCALARS                 displacement_y  double 1
LOOKUP_TABLE default
         0.54994E-03
         0.94982E-03
         0.46222E-03
        -0.25784E-03
         0.73088E-03
         0.11830E-02
         0.60174E-03
        -0.27902E-03
         0.14283E-03
        -0.49900E-03
         0.28542E-03
        -0.51911E-03
         0.14120E-02
         0.11545E-02
         0.17201E-02
         0.14311E-02
         0.25687E-03
         0.93276E-03
         0.48360E-03
         0.12195E-02
         0.17300E-02
         0.20897E-02
         0.17918E-02
         0.21078E-02
         0.24869E-02
         0.21060E-02
         0.16703E-02
         0.21803E-02
         0.19633E-02
         0.25683E-02
        -0.82612E-03
         0.63794E-04
        -0.56552E-03
        -0.89305E-03
         0.21481E-03
        -0.57508E-03
        -0.59061E-03
         0.60755E-04
        -0.69364E-03
         0.11174E-03
        -0.61455E-03
         0.47990E-04
        -0.69184E-03
         0.12627E-03
        -0.12277E-02
        -0.10918E-02
        -0.15023E-02
        -0.12865E-02
         0.78693E-03
         0.10298E-02
        -0.14242E-02
        -0.16570E-02
         0.15591E-02
         0.18702E-02
         0.14333E-02
         0.17258E-02
         0.13188E-02
         0.71385E-03
         0.15716E-02
         0.89218E-03
        -0.16121E-02
        -0.19103E-02
        -0.19345E-02
        -0.23477E-02
        -0.13828E-02
        -0.16481E-02
        -0.11841E-02
        -0.14617E-02
         0.59590E-03
         0.94669E-03
         0.82505E-03
         0.11466E-02
         0.13941E-02
         0.16660E-02
         0.21513E-02
         0.24957E-02
         0.20176E-02
         0.23446E-02
         0.18371E-02
         0.21133E-02
         0.16808E-02
         0.12589E-02
         0.21040E-02
         0.15917E-02
         0.68413E-03
         0.90375E-03
        -0.17369E-02
        -0.21255E-02
        -0.21802E-02
        -0.26689E-02
        -0.25307E-02
        -0.24576E-02
        -0.32117E-02
        -0.30723E-02
        -0.23100E-02
        -0.28912E-02
        -0.21031E-02
        -0.26123E-02
        -0.18701E-02
        -0.23244E-02
        -0.16705E-02
        -0.11646E-02
        -0.20223E-02
        -0.13428E-02
         0.75205E-03
         0.73420E-04
         0.94494E-03
         0.13579E-03
         0.14110E-02
         0.16479E-02
         0.19584E-02
         0.22692E-02
         0.23671E-02
         0.27481E-02
         0.26419E-02
         0.30826E-02
         0.28006E-02
         0.32382E-02
         0.28071E-02
         0.32051E-02
         0.26581E-02
         0.30460E-02
         0.23545E-02
         0.27150E-02
         0.19483E-02
         0.23337E-02
         0.14181E-02
         0.16718E-02
         0.78575E-03
         0.91221E-03
         0.54150E-04
         0.87073E-04
        -0.68631E-03
        -0.78774E-03
        -0.13950E-02
        -0.16718E-02
        -0.20568E-02
        -0.24889E-02
        -0.25952E-02
        -0.31739E-02
        -0.29590E-02
        -0.36907E-02
        -0.31402E-02
        -0.38551E-02
        -0.31350E-02
        -0.38857E-02
        -0.29216E-02
        -0.36475E-02
        -0.25467E-02
        -0.31583E-02
        -0.20040E-02
        -0.24723E-02
        -0.13478E-02
        -0.16204E-02
        -0.62860E-03
        -0.73258E-03
         0.44541E-03
         0.80098E-03
         0.37149E-03
        -0.25150E-03
         0.89719E-04
        -0.44837E-03
         0.12018E-02
         0.97373E-03
         0.16855E-03
         0.76975E-03
         0.14784E-02
         0.17766E-02
         0.15100E-02
         0.14327E-02
         0.18742E-02
        -0.76638E-03
         0.24519E-05
        -0.54526E-03
        -0.54514E-03
         0.16840E-04
        -0.54088E-03
         0.16108E-04
        -0.10559E-02
        -0.96467E-03
         0.64390E-03
        -0.12468E-02
         0.13327E-02
         0.12192E-02
         0.11133E-02
         0.58342E-03
        -0.14103E-02
        -0.16298E-02
        -0.12202E-02
        -0.10315E-02
         0.46107E-03
         0.76911E-03
         0.11646E-02
         0.18509E-02
         0.17299E-02
         0.15632E-02
         0.14111E-02
         0.10434E-02
         0.55062E-03
        -0.14760E-02
        -0.18123E-02
        -0.20560E-02
        -0.20196E-02
        -0.19118E-02
        -0.17469E-02
        -0.15545E-02
        -0.13845E-02
        -0.99361E-03
         0.57137E-03
         0.23156E-04
         0.11215E-02
         0.15897E-02
         0.19543E-02
         0.22131E-02
         0.23671E-02
         0.23782E-02
         0.22491E-02
         0.19765E-02
         0.16120E-02
         0.11523E-02
         0.61419E-03
         0.19494E-05
        -0.59498E-03
        -0.11522E-02
        -0.16714E-02
        -0.20770E-02
        -0.23263E-02
        -0.24532E-02
        -0.24400E-02
        -0.22768E-02
        -0.20123E-02
        -0.16083E-02
        -0.11073E-02
        -0.53818E-03
         0.33908E-03
         0.66509E-03
         0.29170E-03
        -0.25722E-03
         0.54221E-04
        -0.41442E-03
         0.10331E-02
         0.81890E-03
         0.93433E-04
         0.63223E-03
         0.12995E-02
         0.15984E-02
         0.13352E-02
         0.12542E-02
         0.16974E-02
        -0.70207E-03
        -0.48869E-04
        -0.51674E-03
        -0.51432E-03
        -0.32135E-04
        -0.49828E-03
        -0.14360E-04
        -0.92730E-03
        -0.85926E-03
         0.51824E-03
        -0.10876E-02
         0.11561E-02
         0.10509E-02
         0.96007E-03
         0.46957E-03
        -0.12218E-02
        -0.13907E-02
        -0.10673E-02
        -0.90711E-03
         0.38391E-03
         0.65386E-03
         0.10099E-02
         0.16739E-02
         0.15585E-02
         0.14054E-02
         0.12697E-02
         0.91462E-03
         0.46331E-03
        -0.12674E-02
        -0.15332E-02
        -0.17277E-02
        -0.17046E-02
        -0.16252E-02
        -0.14912E-02
        -0.13317E-02
        -0.11939E-02
        -0.87386E-03
         0.48886E-03
        -0.21675E-05
         0.98458E-03
         0.14224E-02
         0.17803E-02
         0.20508E-02
         0.22257E-02
         0.22414E-02
         0.21102E-02
         0.18510E-02
         0.15011E-02
         0.10552E-02
         0.55650E-03
        -0.24806E-05
        -0.53472E-03
        -0.10057E-02
        -0.14336E-02
        -0.17636E-02
        -0.19583E-02
        -0.20756E-02
        -0.20719E-02
        -0.19343E-02
        -0.17151E-02
        -0.13879E-02
        -0.97768E-03
        -0.49302E-03
         0.28233E-03
         0.56578E-03
         0.24039E-03
        -0.23532E-03
         0.32495E-04
        -0.37785E-03
         0.89265E-03
         0.70511E-03
         0.72843E-04
         0.53996E-03
         0.11299E-02
         0.13932E-02
         0.11607E-02
         0.10882E-02
         0.14772E-02
        -0.61127E-03
        -0.52327E-04
        -0.45123E-03
        -0.45679E-03
        -0.43005E-04
        -0.45363E-03
        -0.35258E-04
        -0.81738E-03
        -0.75370E-03
         0.43587E-03
        -0.94950E-03
         0.99808E-03
         0.90326E-03
         0.82302E-03
         0.39341E-03
        -0.10615E-02
        -0.12160E-02
        -0.92621E-03
        -0.79727E-03
         0.32207E-03
         0.55831E-03
         0.87079E-03
         0.14512E-02
         0.13453E-02
         0.12073E-02
         0.10852E-02
         0.78001E-03
         0.38562E-03
        -0.11104E-02
        -0.13467E-02
        -0.15202E-02
        -0.14958E-02
        -0.14239E-02
        -0.13066E-02
        -0.11720E-02
        -0.10590E-02
        -0.77956E-03
         0.41028E-03
        -0.24740E-04
         0.85177E-03
         0.12357E-02
         0.15468E-02
         0.17757E-02
         0.19175E-02
         0.19247E-02
         0.18041E-02
         0.15711E-02
         0.12711E-02
         0.88771E-03
         0.44743E-03
        -0.36133E-04
        -0.49173E-03
        -0.89240E-03
        -0.12648E-02
        -0.15587E-02
        -0.17282E-02
        -0.18290E-02
        -0.18297E-02
        -0.17121E-02
        -0.15201E-02
        -0.12361E-02
        -0.87904E-03
        -0.45635E-03
         0.25964E-03
         0.50672E-03
         0.22088E-03
        -0.20202E-03
         0.32408E-04
        -0.33761E-03
         0.79414E-03
         0.63129E-03
         0.76504E-04
         0.48744E-03
         0.10048E-02
         0.12406E-02
         0.10318E-02
         0.96736E-03
         0.13126E-02
        -0.53894E-03
        -0.41641E-04
        -0.39036E-03
        -0.40391E-03
        -0.39464E-04
        -0.40313E-03
        -0.35925E-04
        -0.72664E-03
        -0.66891E-03
         0.38867E-03
        -0.84818E-03
         0.88687E-03
         0.80028E-03
         0.72912E-03
         0.34697E-03
        -0.94913E-03
        -0.10961E-02
        -0.82414E-03
        -0.71339E-03
         0.29105E-03
         0.49968E-03
         0.77341E-03
         0.12840E-02
         0.11898E-02
         0.10709E-02
         0.96468E-03
         0.69243E-03
         0.33893E-03
        -0.99406E-03
        -0.12167E-02
        -0.13795E-02
        -0.13544E-02
        -0.12846E-02
        -0.11779E-02
        -0.10596E-02
        -0.96068E-03
        -0.70390E-03
         0.36221E-03
        -0.29312E-04
         0.75033E-03
         0.10855E-02
         0.13665E-02
         0.15760E-02
         0.17003E-02
         0.17042E-02
         0.15967E-02
         0.13941E-02
         0.11246E-02
         0.77110E-03
         0.37938E-03
        -0.44690E-04
        -0.44431E-03
        -0.80278E-03
        -0.11317E-02
        -0.14038E-02
        -0.15674E-02
        -0.16541E-02
        -0.16530E-02
        -0.15500E-02
        -0.13798E-02
        -0.11244E-02
        -0.79701E-03
        -0.41532E-03
         0.25056E-03
         0.46758E-03
         0.20800E-03
        -0.17687E-03
         0.35870E-04
        -0.30456E-03
         0.73119E-03
         0.59465E-03
         0.92195E-04
         0.47478E-03
         0.92368E-03
         0.11341E-02
         0.94273E-03
         0.89513E-03
         0.11988E-02
        -0.49020E-03
        -0.22568E-04
        -0.34687E-03
        -0.36722E-03
        -0.30301E-04
        -0.36590E-03
        -0.30463E-04
        -0.66317E-03
        -0.61134E-03
         0.37772E-03
        -0.77988E-03
         0.82733E-03
         0.74426E-03
         0.67019E-03
         0.32510E-03
        -0.87334E-03
        -0.10144E-02
        -0.75386E-03
        -0.65274E-03
         0.27163E-03
         0.46000E-03
         0.70623E-03
         0.11718E-02
         0.10835E-02
         0.97175E-03
         0.87455E-03
         0.63078E-03
         0.31058E-03
        -0.91301E-03
        -0.11270E-02
        -0.12822E-02
        -0.12568E-02
        -0.11873E-02
        -0.10864E-02
        -0.97806E-03
        -0.88781E-03
        -0.64643E-03
         0.33176E-03
        -0.25167E-04
         0.68426E-03
         0.98762E-03
         0.12431E-02
         0.14394E-02
         0.15543E-02
         0.15546E-02
         0.14487E-02
         0.12638E-02
         0.10210E-02
         0.70604E-03
         0.34862E-03
        -0.40886E-04
        -0.41047E-03
        -0.74156E-03
        -0.10441E-02
        -0.13026E-02
        -0.14571E-02
        -0.15341E-02
        -0.15276E-02
        -0.14309E-02
        -0.12745E-02
        -0.10410E-02
        -0.73806E-03
        -0.38168E-03
         0.24884E-03
         0.44307E-03
         0.20248E-03
        -0.15225E-03
         0.41040E-04
        -0.27542E-03
         0.68501E-03
         0.56490E-03
         0.11259E-03
         0.46221E-03
         0.85838E-03
         0.10463E-02
         0.87559E-03
         0.83290E-03
         0.10997E-02
        -0.43458E-03
         0.41716E-05
        -0.29897E-03
        -0.32710E-03
        -0.12230E-04
        -0.33346E-03
        -0.19021E-04
        -0.61161E-03
        -0.55997E-03
         0.37094E-03
        -0.71992E-03
         0.77538E-03
         0.69921E-03
         0.62699E-03
         0.31547E-03
        -0.80588E-03
        -0.94699E-03
        -0.69169E-03
        -0.60335E-03
         0.25878E-03
         0.43276E-03
         0.65825E-03
         0.10750E-02
         0.99523E-03
         0.89152E-03
         0.80041E-03
         0.58490E-03
         0.29642E-03
        -0.84682E-03
        -0.10513E-02
        -0.11959E-02
        -0.11755E-02
        -0.11090E-02
        -0.10130E-02
        -0.91278E-03
        -0.82611E-03
        -0.59762E-03
         0.30755E-03
        -0.22530E-04
         0.63118E-03
         0.90408E-03
         0.11336E-02
         0.13102E-02
         0.14055E-02
         0.13989E-02
         0.13009E-02
         0.11342E-02
         0.91931E-03
         0.64180E-03
         0.32334E-03
        -0.30804E-04
        -0.37296E-03
        -0.68042E-03
        -0.95490E-03
        -0.11918E-02
        -0.13373E-02
        -0.14094E-02
        -0.14034E-02
        -0.13166E-02
        -0.11748E-02
        -0.95580E-03
        -0.67226E-03
        -0.34892E-03
         0.23727E-03
         0.41607E-03
         0.19852E-03
        -0.12065E-03
         0.47750E-04
        -0.24248E-03
         0.63128E-03
         0.51584E-03
         0.11392E-03
         0.42273E-03
         0.78518E-03
         0.96188E-03
         0.81197E-03
         0.75570E-03
         0.10035E-02
        -0.37002E-03
         0.15152E-04
        -0.24682E-03
        -0.28025E-03
         0.34910E-06
        -0.29446E-03
        -0.61210E-05
        -0.54997E-03
        -0.49104E-03
         0.34298E-03
        -0.63513E-03
         0.70412E-03
         0.63969E-03
         0.58037E-03
         0.29730E-03
        -0.70776E-03
        -0.84989E-03
        -0.60368E-03
        -0.53517E-03
         0.24991E-03
         0.40979E-03
         0.61513E-03
         0.97937E-03
         0.90950E-03
         0.82004E-03
         0.74204E-03
         0.54746E-03
         0.28403E-03
        -0.76726E-03
        -0.96132E-03
        -0.11013E-02
        -0.10751E-02
        -0.10059E-02
        -0.91714E-03
        -0.83253E-03
        -0.75899E-03
        -0.54222E-03
         0.29568E-03
        -0.18462E-04
         0.59019E-03
         0.83519E-03
         0.10436E-02
         0.12037E-02
         0.12858E-02
         0.12783E-02
         0.11914E-02
         0.10401E-02
         0.84952E-03
         0.59454E-03
         0.29923E-03
        -0.27603E-04
        -0.34937E-03
        -0.63748E-03
        -0.88779E-03
        -0.11019E-02
        -0.12405E-02
        -0.13106E-02
        -0.13035E-02
        -0.12234E-02
        -0.10923E-02
        -0.88597E-03
        -0.62259E-03
        -0.32599E-03
         0.22166E-03
         0.38629E-03
         0.18750E-03
        -0.10316E-03
         0.46277E-04
        -0.21409E-03
         0.57680E-03
         0.46948E-03
         0.10770E-03
         0.38920E-03
         0.71360E-03
         0.88098E-03
         0.74761E-03
         0.68425E-03
         0.91821E-03
        -0.33541E-03
         0.16220E-04
        -0.22379E-03
        -0.24765E-03
         0.35743E-05
        -0.25463E-03
         0.47103E-06
        -0.47969E-03
        -0.43127E-03
         0.31829E-03
        -0.56068E-03
         0.64280E-03
         0.58898E-03
         0.53495E-03
         0.27419E-03
        -0.63047E-03
        -0.74968E-03
        -0.53947E-03
        -0.47603E-03
         0.23193E-03
         0.38125E-03
         0.56993E-03
         0.90035E-03
         0.83851E-03
         0.75597E-03
         0.68455E-03
         0.50447E-03
         0.26213E-03
        -0.67217E-03
        -0.84555E-03
        -0.97321E-03
        -0.94953E-03
        -0.89092E-03
        -0.81574E-03
        -0.74256E-03
        -0.67801E-03
        -0.48218E-03
         0.27214E-03
        -0.16161E-04
         0.54479E-03
         0.77198E-03
         0.96366E-03
         0.11125E-02
         0.11888E-02
         0.11843E-02
         0.11006E-02
         0.95868E-03
         0.78500E-03
         0.54975E-03
         0.27845E-03
        -0.18462E-04
        -0.30422E-03
        -0.56192E-03
        -0.78740E-03
        -0.98003E-03
        -0.11089E-02
        -0.11723E-02
        -0.11685E-02
        -0.11001E-02
        -0.98321E-03
        -0.79582E-03
        -0.55865E-03
        -0.29285E-03
         0.20148E-03
         0.34881E-03
         0.17113E-03
        -0.89689E-04
         0.43111E-04
        -0.18893E-03
         0.52116E-03
         0.42383E-03
         0.10234E-03
         0.35196E-03
         0.64595E-03
         0.79641E-03
         0.67414E-03
         0.61820E-03
         0.83096E-03
        -0.29224E-03
         0.22724E-04
        -0.19488E-03
        -0.21380E-03
         0.77270E-05
        -0.22313E-03
         0.33502E-06
        -0.42056E-03
        -0.37759E-03
         0.28812E-03
        -0.49420E-03
         0.57941E-03
         0.52870E-03
         0.47820E-03
         0.24577E-03
        -0.56025E-03
        -0.66399E-03
        -0.48102E-03
        -0.42425E-03
         0.21152E-03
         0.34604E-03
         0.51324E-03
         0.81499E-03
         0.75880E-03
         0.68172E-03
         0.61583E-03
         0.45051E-03
         0.23192E-03
        -0.59124E-03
        -0.74529E-03
        -0.85873E-03
        -0.84049E-03
        -0.79066E-03
        -0.72625E-03
        -0.66075E-03
        -0.59977E-03
        -0.42594E-03
         0.24578E-03
        -0.17228E-04
         0.49654E-03
         0.69844E-03
         0.86712E-03
         0.10006E-02
         0.10768E-02
         0.10764E-02
         0.10015E-02
         0.87136E-03
         0.70897E-03
         0.49263E-03
         0.25024E-03
        -0.86478E-05
        -0.26292E-03
        -0.49168E-03
        -0.69087E-03
        -0.85891E-03
        -0.97626E-03
        -0.10367E-02
        -0.10336E-02
        -0.97406E-03
        -0.86940E-03
        -0.69895E-03
        -0.48971E-03
        -0.25872E-03
         0.18235E-03
         0.30870E-03
         0.15633E-03
        -0.67828E-04
         0.43738E-04
        -0.15833E-03
         0.45650E-03
         0.37159E-03
         0.99900E-04
         0.30909E-03
         0.56287E-03
         0.69161E-03
         0.58981E-03
         0.53697E-03
         0.71568E-03
        -0.23401E-03
         0.34129E-04
        -0.15223E-03
        -0.16815E-03
         0.21243E-04
        -0.18103E-03
         0.12379E-04
        -0.35416E-03
        -0.31223E-03
         0.25535E-03
        -0.41554E-03
         0.50169E-03
         0.45650E-03
         0.41498E-03
         0.22207E-03
        -0.47432E-03
        -0.56990E-03
        -0.40603E-03
        -0.36151E-03
         0.19078E-03
         0.30756E-03
         0.45078E-03
         0.70080E-03
         0.65256E-03
         0.58468E-03
         0.52773E-03
         0.39204E-03
         0.20968E-03
        -0.50594E-03
        -0.64491E-03
        -0.74792E-03
        -0.73051E-03
        -0.68442E-03
        -0.62930E-03
        -0.57411E-03
        -0.52012E-03
        -0.36578E-03
         0.21761E-03
        -0.15550E-04
         0.43949E-03
         0.61171E-03
         0.75619E-03
         0.86466E-03
         0.91540E-03
         0.91262E-03
         0.85314E-03
         0.73871E-03
         0.59705E-03
         0.41448E-03
         0.21672E-03
         0.28819E-05
        -0.21761E-03
        -0.42021E-03
        -0.59645E-03
        -0.74469E-03
        -0.85346E-03
        -0.90571E-03
        -0.90128E-03
        -0.85337E-03
        -0.76265E-03
        -0.60801E-03
        -0.42454E-03
        -0.22541E-03
         0.15352E-03
         0.26242E-03
         0.13788E-03
        -0.47671E-04
         0.45577E-04
        -0.12238E-03
         0.38391E-03
         0.30961E-03
         0.85219E-04
         0.25963E-03
         0.47407E-03
         0.58975E-03
         0.50370E-03
         0.45189E-03
         0.61088E-03
        -0.18023E-03
         0.35943E-04
        -0.11658E-03
        -0.12494E-03
         0.30070E-04
        -0.13835E-03
         0.21975E-04
        -0.28150E-03
        -0.24294E-03
         0.21925E-03
        -0.32662E-03
         0.42566E-03
         0.39009E-03
         0.35752E-03
         0.19594E-03
        -0.37472E-03
        -0.45392E-03
        -0.32078E-03
        -0.28772E-03
         0.17133E-03
         0.26841E-03
         0.38763E-03
         0.60028E-03
         0.56069E-03
         0.50410E-03
         0.45796E-03
         0.34106E-03
         0.18676E-03
        -0.40499E-03
        -0.51982E-03
        -0.60880E-03
        -0.59253E-03
        -0.55316E-03
        -0.50887E-03
        -0.46709E-03
        -0.42468E-03
        -0.29424E-03
         0.20093E-03
        -0.16115E-05
         0.39047E-03
         0.53333E-03
         0.65606E-03
         0.75632E-03
         0.80473E-03
         0.80335E-03
         0.75098E-03
         0.65293E-03
         0.52895E-03
         0.36941E-03
         0.19394E-03
         0.81304E-05
        -0.17731E-03
        -0.34958E-03
        -0.49544E-03
        -0.61674E-03
        -0.70823E-03
        -0.75719E-03
        -0.75645E-03
        -0.71319E-03
        -0.63806E-03
        -0.50528E-03
        -0.35054E-03
        -0.18375E-03
         0.13002E-03
         0.21699E-03
         0.11712E-03
        -0.29616E-04
         0.44289E-04
        -0.86936E-04
         0.31354E-03
         0.25302E-03
         0.77244E-04
         0.21419E-03
         0.38392E-03
         0.47622E-03
         0.40993E-03
         0.36435E-03
         0.48949E-03
        -0.12917E-03
         0.41490E-04
        -0.82757E-04
        -0.82497E-04
         0.37542E-04
        -0.93452E-04
         0.29058E-04
        -0.20703E-03
        -0.17688E-03
         0.18341E-03
        -0.24452E-03
         0.34391E-03
         0.31717E-03
         0.29169E-03
         0.16462E-03
        -0.28422E-03
        -0.34701E-03
        -0.24256E-03
        -0.21680E-03
         0.14438E-03
         0.22133E-03
         0.31700E-03
         0.47884E-03
         0.44937E-03
         0.40728E-03
         0.37031E-03
         0.27673E-03
         0.15490E-03
        -0.30674E-03
        -0.40067E-03
        -0.47443E-03
        -0.45965E-03
        -0.42645E-03
        -0.39071E-03
        -0.35835E-03
        -0.32547E-03
        -0.22138E-03
         0.17023E-03
         0.83693E-05
         0.32388E-03
         0.43917E-03
         0.53509E-03
         0.60783E-03
         0.64070E-03
         0.63518E-03
         0.59335E-03
         0.52047E-03
         0.42145E-03
         0.29291E-03
         0.15774E-03
         0.17176E-04
        -0.12224E-03
        -0.25767E-03
        -0.38008E-03
        -0.48490E-03
        -0.56036E-03
        -0.59727E-03
        -0.59706E-03
        -0.56269E-03
        -0.50273E-03
        -0.39472E-03
        -0.27074E-03
        -0.13707E-03
         0.10717E-03
         0.17293E-03
         0.10118E-03
        -0.65861E-05
         0.48805E-04
        -0.49220E-04
         0.24200E-03
         0.19438E-03
         0.67489E-04
         0.16393E-03
         0.29220E-03
         0.36351E-03
         0.31644E-03
         0.27533E-03
         0.37037E-03
        -0.74824E-04
         0.43818E-04
        -0.42940E-04
        -0.42956E-04
         0.42678E-04
        -0.53302E-04
         0.37988E-04
        -0.14138E-03
        -0.11375E-03
         0.14322E-03
        -0.16286E-03
         0.25958E-03
         0.24126E-03
         0.22593E-03
         0.13318E-03
        -0.18953E-03
        -0.24114E-03
        -0.15930E-03
        -0.14310E-03
         0.12492E-03
         0.17996E-03
         0.24896E-03
         0.36260E-03
         0.34371E-03
         0.31529E-03
         0.29151E-03
         0.22089E-03
         0.13043E-03
        -0.21798E-03
        -0.29046E-03
        -0.35069E-03
        -0.33461E-03
        -0.30460E-03
        -0.27564E-03
        -0.25208E-03
        -0.22923E-03
        -0.14953E-03
         0.14957E-03
         0.24589E-04
         0.26445E-03
         0.35040E-03
         0.42366E-03
         0.47780E-03
         0.50078E-03
         0.49830E-03
         0.47154E-03
         0.41552E-03
         0.34000E-03
         0.24431E-03
         0.13999E-03
         0.33688E-04
        -0.78069E-04
        -0.19027E-03
        -0.28980E-03
        -0.37085E-03
        -0.42994E-03
        -0.46168E-03
        -0.45889E-03
        -0.42753E-03
        -0.37671E-03
        -0.29000E-03
        -0.19608E-03
        -0.91523E-04
         0.91009E-04
         0.13648E-03
         0.87802E-04
         0.15597E-04
         0.52366E-04
        -0.14833E-04
         0.18308E-03
         0.14970E-03
         0.63625E-04
         0.12913E-03
         0.21735E-03
         0.26892E-03
         0.23757E-03
         0.20546E-03
         0.27263E-03
        -0.31051E-04
         0.47543E-04
        -0.83394E-05
        -0.11167E-04
         0.47053E-04
        -0.19222E-04
         0.43957E-04
        -0.79541E-04
        -0.58946E-04
         0.11514E-03
        -0.91407E-04
         0.19487E-03
         0.18155E-03
         0.17105E-03
         0.10890E-03
        -0.10722E-03
        -0.14505E-03
        -0.85793E-04
        -0.75660E-04
         0.10637E-03
         0.14397E-03
         0.19162E-03
         0.26627E-03
         0.25204E-03
         0.23256E-03
         0.21755E-03
         0.16956E-03
         0.10837E-03
        -0.13302E-03
        -0.18471E-03
        -0.23012E-03
        -0.21524E-03
        -0.19227E-03
        -0.17118E-03
        -0.15445E-03
        -0.14004E-03
        -0.83385E-04
         0.12756E-03
         0.38828E-04
         0.20900E-03
         0.27040E-03
         0.32134E-03
         0.35752E-03
         0.37044E-03
         0.36526E-03
         0.34453E-03
         0.31009E-03
         0.25650E-03
         0.18745E-03
         0.11409E-03
         0.39977E-04
        -0.37545E-04
        -0.11750E-03
        -0.19158E-03
        -0.25446E-03
        -0.29908E-03
        -0.32253E-03
        -0.32017E-03
        -0.29561E-03
        -0.25554E-03
        -0.19017E-03
        -0.12238E-03
        -0.45774E-04
         0.75940E-04
         0.10284E-03
         0.74775E-04
         0.33523E-04
         0.53874E-04
         0.14367E-04
         0.12957E-03
         0.10916E-03
         0.59728E-04
         0.97634E-04
         0.14937E-03
         0.18425E-03
         0.16587E-03
         0.14061E-03
         0.18428E-03
         0.32809E-05
         0.50341E-04
         0.18602E-04
         0.14747E-04
         0.50194E-04
         0.76755E-05
         0.47387E-04
        -0.32016E-04
        -0.15396E-04
         0.89885E-04
        -0.34966E-04
         0.13404E-03
         0.12682E-03
         0.12237E-03
         0.86539E-04
        -0.41151E-04
        -0.68995E-04
        -0.25617E-04
        -0.19523E-04
         0.87724E-04
         0.11033E-03
         0.13848E-03
         0.17988E-03
         0.17191E-03
         0.16180E-03
         0.15649E-03
         0.12563E-03
         0.87334E-04
        -0.67183E-04
        -0.10131E-03
        -0.13270E-03
        -0.11831E-03
        -0.10017E-03
        -0.85153E-04
        -0.74146E-04
        -0.66325E-04
        -0.27551E-04
         0.10331E-03
         0.46737E-04
         0.15609E-03
         0.19511E-03
         0.22824E-03
         0.25161E-03
         0.25833E-03
         0.25676E-03
         0.24628E-03
         0.22356E-03
         0.19212E-03
         0.14652E-03
         0.93942E-04
         0.44299E-04
        -0.88787E-05
        -0.66395E-04
        -0.11857E-03
        -0.15959E-03
        -0.18808E-03
        -0.20202E-03
        -0.20160E-03
        -0.18560E-03
        -0.15619E-03
        -0.10824E-03
        -0.58284E-04
        -0.62102E-05
         0.64971E-04
         0.78441E-04
         0.65478E-04
         0.45284E-04
         0.55075E-04
         0.33495E-04
         0.91669E-04
         0.80294E-04
         0.58974E-04
         0.75510E-04
         0.10243E-03
         0.12426E-03
         0.11417E-03
         0.96623E-04
         0.12303E-03
         0.31937E-04
         0.55633E-04
         0.40291E-04
         0.35158E-04
         0.54647E-04
         0.27698E-04
         0.51876E-04
         0.24093E-05
         0.16167E-04
         0.72675E-04
         0.65920E-05
         0.92585E-04
         0.89153E-04
         0.88825E-04
         0.71825E-04
         0.71746E-05
        -0.13104E-04
         0.15997E-04
         0.16723E-04
         0.74235E-04
         0.85349E-04
         0.99427E-04
         0.11941E-03
         0.11529E-03
         0.11174E-03
         0.11124E-03
         0.93728E-04
         0.73582E-04
        -0.18455E-04
        -0.38745E-04
        -0.58883E-04
        -0.46116E-04
        -0.32238E-04
        -0.23241E-04
        -0.18533E-04
        -0.15450E-04
         0.92346E-05
         0.84792E-04
         0.52127E-04
         0.11305E-03
         0.13578E-03
         0.15579E-03
         0.16779E-03
         0.17096E-03
         0.16920E-03
         0.16235E-03
         0.14952E-03
         0.13335E-03
         0.10799E-03
         0.80901E-04
         0.50985E-04
         0.15528E-04
        -0.23083E-04
        -0.57997E-04
        -0.83119E-04
        -0.99846E-04
        -0.10639E-03
        -0.10416E-03
        -0.93220E-04
        -0.75264E-04
        -0.44931E-04
        -0.13032E-04
         0.19283E-04
         0.54462E-04
         0.61057E-04
         0.55372E-04
         0.45451E-04
         0.50566E-04
         0.40182E-04
         0.67094E-04
         0.62042E-04
         0.51835E-04
         0.59970E-04
         0.72732E-04
         0.85205E-04
         0.79411E-04
         0.70217E-04
         0.85289E-04
         0.39334E-04
         0.49575E-04
         0.43329E-04
         0.39997E-04
         0.48455E-04
         0.35762E-04
         0.47857E-04
         0.22434E-04
         0.31199E-04
         0.58015E-04
         0.26379E-04
         0.68220E-04
         0.66600E-04
         0.66798E-04
         0.57114E-04
         0.27149E-04
         0.14679E-04
         0.32939E-04
         0.33403E-04
         0.61654E-04
         0.67051E-04
         0.73029E-04
         0.83011E-04
         0.81089E-04
         0.80156E-04
         0.80226E-04
         0.69960E-04
         0.58839E-04
         0.11185E-04
        -0.11443E-05
        -0.13438E-04
        -0.48474E-05
         0.54977E-05
         0.12480E-04
         0.14974E-04
         0.15517E-04
         0.28813E-04
         0.68954E-04
         0.49677E-04
         0.84920E-04
         0.96283E-04
         0.10643E-03
         0.11472E-03
         0.11898E-03
         0.11668E-03
         0.11169E-03
         0.10423E-03
         0.93070E-04
         0.79721E-04
         0.65007E-04
         0.47945E-04
         0.25597E-04
         0.22909E-05
        -0.15441E-04
        -0.28129E-04
        -0.37943E-04
        -0.41371E-04
        -0.39359E-04
        -0.31461E-04
        -0.20876E-04
        -0.36371E-05
         0.15152E-04
         0.32100E-04
         0.48683E-04
         0.51997E-04
         0.49907E-04
         0.44879E-04
         0.47699E-04
         0.42825E-04
         0.54087E-04
         0.51474E-04
         0.47133E-04
         0.50121E-04
         0.56198E-04
         0.61348E-04
         0.59452E-04
         0.54867E-04
         0.61063E-04
         0.40376E-04
         0.45650E-04
         0.43314E-04
         0.40032E-04
         0.44070E-04
         0.37205E-04
         0.42644E-04
         0.30284E-04
         0.35243E-04
         0.49286E-04
         0.33114E-04
         0.53598E-04
         0.53182E-04
         0.53115E-04
         0.47963E-04
         0.34309E-04
         0.27831E-04
         0.37813E-04
         0.38939E-04
         0.53267E-04
         0.55751E-04
         0.57674E-04
         0.59995E-04
         0.59906E-04
         0.60518E-04
         0.60214E-04
         0.53663E-04
         0.47480E-04
         0.24500E-04
         0.18576E-04
         0.12597E-04
         0.18324E-04
         0.24036E-04
         0.27532E-04
         0.28958E-04
         0.29236E-04
         0.36913E-04
         0.56317E-04
         0.47153E-04
         0.63851E-04
         0.68371E-04
         0.72309E-04
         0.74397E-04
         0.74024E-04
         0.73240E-04
         0.73313E-04
         0.74216E-04
         0.67942E-04
         0.58943E-04
         0.49163E-04
         0.41592E-04
         0.31451E-04
         0.20117E-04
         0.90206E-05
         0.12891E-05
        -0.25929E-05
        -0.12482E-05
         0.18528E-05
         0.53964E-05
         0.98012E-05
         0.17655E-04
         0.29746E-04
         0.39567E-04
         0.43123E-04
         0.44752E-04
         0.43783E-04
         0.41960E-04
         0.42386E-04
         0.40801E-04
         0.45012E-04
         0.43562E-04
         0.41148E-04
         0.42042E-04
         0.44881E-04
         0.46464E-04
         0.46747E-04
         0.44146E-04
         0.46284E-04
         0.38411E-04
         0.40068E-04
         0.40446E-04
         0.37701E-04
         0.39155E-04
         0.36072E-04
         0.37626E-04
         0.33779E-04
         0.36151E-04
         0.41715E-04
         0.36144E-04
         0.43622E-04
         0.43494E-04
         0.42594E-04
         0.40599E-04
         0.37292E-04
         0.35158E-04
         0.38932E-04
         0.40265E-04
         0.44848E-04
         0.46155E-04
         0.46865E-04
         0.46829E-04
         0.46578E-04
         0.45467E-04
         0.44485E-04
         0.41755E-04
         0.39177E-04
         0.32566E-04
         0.31060E-04
         0.28533E-04
         0.31432E-04
         0.33609E-04
         0.34680E-04
         0.35986E-04
         0.36723E-04
         0.39406E-04
         0.45726E-04
         0.40979E-04
         0.50120E-04
         0.52404E-04
         0.53494E-04
         0.53848E-04
         0.53935E-04
         0.56083E-04
         0.54756E-04
         0.52321E-04
         0.48588E-04
         0.44469E-04
         0.38801E-04
         0.36345E-04
         0.32345E-04
         0.27893E-04
         0.24122E-04
         0.21496E-04
         0.19676E-04
         0.21127E-04
         0.23086E-04
         0.23883E-04
         0.26852E-04
         0.31803E-04
         0.34709E-04
         0.37116E-04
         0.36903E-04
         0.37541E-04
         0.37474E-04
         0.36651E-04
         0.38265E-04
         0.38052E-04
         0.37930E-04
         0.37308E-04
         0.36487E-04
         0.37011E-04
         0.38152E-04
         0.39652E-04
         0.39443E-04
         0.37530E-04
         0.38757E-04
         0.35125E-04
         0.35541E-04
         0.35976E-04
         0.34254E-04
         0.34958E-04
         0.33559E-04
         0.34777E-04
         0.32127E-04
         0.33638E-04
         0.36049E-04
         0.34019E-04
         0.36939E-04
         0.36190E-04
         0.35594E-04
         0.35084E-04
         0.35157E-04
         0.33636E-04
         0.35757E-04
         0.36323E-04
         0.38862E-04
         0.38602E-04
         0.38956E-04
         0.37931E-04
         0.37264E-04
         0.37114E-04
         0.37569E-04
         0.36092E-04
         0.35230E-04
         0.31854E-04
         0.31457E-04
         0.30796E-04
         0.32362E-04
         0.33912E-04
         0.34302E-04
         0.34539E-04
         0.35528E-04
         0.37333E-04
         0.40721E-04
         0.40021E-04
         0.40929E-04
         0.41299E-04
         0.42012E-04
         0.42611E-04
         0.41668E-04
         0.41290E-04
         0.40313E-04
         0.39072E-04
         0.39155E-04
         0.36251E-04
         0.34215E-04
         0.32348E-04
         0.31493E-04
         0.29702E-04
         0.28034E-04
         0.28480E-04
         0.28147E-04
         0.29307E-04
         0.30240E-04
         0.30875E-04
         0.31143E-04
         0.33614E-04
         0.36702E-04
         0.38386E-04
         0.31718E-04
         0.32313E-04
         0.33276E-04
         0.32416E-04
         0.33408E-04
         0.33561E-04
         0.32176E-04
         0.31754E-04
         0.31930E-04
         0.31953E-04
         0.32409E-04
         0.32782E-04
         0.32787E-04
         0.32202E-04
         0.32477E-04
         0.31055E-04
         0.30524E-04
         0.31965E-04
         0.29339E-04
         0.28872E-04
         0.28963E-04
         0.28760E-04
         0.29404E-04
         0.30068E-04
         0.30735E-04
         0.30529E-04
         0.31575E-04
         0.30823E-04
         0.29888E-04
         0.29135E-04
         0.31315E-04
         0.30231E-04
         0.32061E-04
         0.32716E-04
         0.34092E-04
         0.34042E-04
         0.33516E-04
         0.30996E-04
         0.30243E-04
         0.30309E-04
         0.29949E-04
         0.28904E-04
         0.28598E-04
         0.29409E-04
         0.29075E-04
         0.28575E-04
         0.29531E-04
         0.30997E-04
         0.31963E-04
         0.32170E-04
         0.32714E-04
         0.33698E-04
         0.34842E-04
         0.32333E-04
         0.35367E-04
         0.35231E-04
         0.34371E-04
         0.33799E-04
         0.34961E-04
         0.33294E-04
         0.31795E-04
         0.30718E-04
         0.29667E-04
         0.27288E-04
         0.27649E-04
         0.27658E-04
         0.27884E-04
         0.26958E-04
         0.26525E-04
         0.27077E-04
         0.26600E-04
         0.27469E-04
         0.29397E-04
         0.30106E-04
         0.29978E-04
         0.31285E-04
         0.32486E-04
         0.31607E-04
         0.27170E-04
         0.27422E-04
         0.28077E-04
         0.27310E-04
         0.28753E-04
         0.28828E-04
         0.26901E-04
         0.26707E-04
         0.27528E-04
         0.26227E-04
         0.26592E-04
         0.26376E-04
         0.26819E-04
         0.26702E-04
         0.27022E-04
         0.26300E-04
         0.26123E-04
         0.27750E-04
         0.25478E-04
         0.24925E-04
         0.25741E-04
         0.24863E-04
         0.26217E-04
         0.26021E-04
         0.25604E-04
         0.26788E-04
         0.25776E-04
         0.25566E-04
         0.24863E-04
         0.24580E-04
         0.28493E-04
         0.27909E-04
         0.29313E-04
         0.29125E-04
         0.28837E-04
         0.28504E-04
         0.28156E-04
         0.26669E-04
         0.25703E-04
         0.24543E-04
         0.23121E-04
         0.23803E-04
         0.24200E-04
         0.26807E-04
         0.27860E-04
         0.28296E-04
         0.28720E-04
         0.29414E-04
         0.30599E-04
         0.30356E-04
         0.29951E-04
         0.29638E-04
         0.29094E-04
         0.29906E-04
         0.28901E-04
         0.29481E-04
         0.27833E-04
         0.26859E-04
         0.28354E-04
         0.28561E-04
         0.27204E-04
         0.25260E-04
         0.22931E-04
         0.25277E-04
         0.24408E-04
         0.24101E-04
         0.23611E-04
         0.23924E-04
         0.25709E-04
         0.27016E-04
         0.28211E-04
         0.29060E-04
         0.29129E-04
         0.30552E-04
         0.30199E-04
         0.30160E-04
         0.30308E-04
         0.29549E-04
         0.20276E-04
         0.20108E-04
         0.22075E-04
         0.22632E-04
         0.23545E-04
         0.24809E-04
         0.19330E-04
         0.20252E-04
         0.22207E-04
         0.18703E-04
         0.18933E-04
         0.17213E-04
         0.17388E-04
         0.19413E-04
         0.16509E-04
         0.22308E-04
         0.21184E-04
         0.24715E-04
         0.21710E-04
         0.20563E-04
         0.21531E-04
         0.21773E-04
         0.21283E-04
         0.21733E-04
         0.18661E-04
         0.22264E-04
         0.17454E-04
         0.17519E-04
         0.16104E-04
         0.18148E-04
         0.23270E-04
         0.23186E-04
         0.24765E-04
         0.24421E-04
         0.21488E-04
         0.20216E-04
         0.18384E-04
         0.16423E-04
         0.15317E-04
         0.13969E-04
         0.11850E-04
         0.14554E-04
         0.18949E-04
         0.22219E-04
         0.23933E-04
         0.25005E-04
         0.25137E-04
         0.23486E-04
         0.23839E-04
         0.24507E-04
         0.25288E-04
         0.25782E-04
         0.21508E-04
         0.24307E-04
         0.20189E-04
         0.19405E-04
         0.18789E-04
         0.19282E-04
         0.16442E-04
         0.21177E-04
         0.17654E-04
         0.15553E-04
         0.14141E-04
         0.23481E-04
         0.24569E-04
         0.23273E-04
         0.20089E-04
         0.18758E-04
         0.18893E-04
         0.21920E-04
         0.24490E-04
         0.23676E-04
         0.19679E-04
         0.21565E-04
         0.22740E-04
         0.23981E-04
         0.25499E-04
         0.23489E-04
  
SCALARS                 displacement_z  double 1
LOOKUP_TABLE default
        -0.69150E-03
        -0.67814E-03
        -0.68457E-03
        -0.69753E-03
        -0.33074E-17
        -0.36425E-17
        -0.35199E-17
        -0.32812E-17
        -0.69310E-03
        -0.69633E-03
        -0.33333E-17
        -0.32619E-17
        -0.67283E-03
        -0.67958E-03
        -0.38438E-17
        -0.36557E-17
        -0.69257E-03
        -0.68004E-03
        -0.29471E-17
        -0.31989E-17
        -0.66744E-03
        -0.66874E-03
        -0.67258E-03
        -0.37701E-17
        -0.33000E-17
        -0.34279E-17
        -0.66768E-03
        -0.66036E-03
        -0.36476E-17
        -0.30491E-17
        -0.70859E-03
        -0.69545E-03
        -0.70795E-03
        -0.33365E-17
        -0.30253E-17
        -0.29968E-17
        -0.69561E-03
        -0.68903E-03
        -0.34764E-17
        -0.31283E-17
        -0.69410E-03
        -0.68524E-03
        -0.30115E-17
        -0.26136E-17
        -0.69609E-03
        -0.69753E-03
        -0.33120E-17
        -0.37019E-17
        -0.68327E-03
        -0.31068E-17
        -0.70211E-03
        -0.38097E-17
        -0.66440E-03
        -0.31992E-17
        -0.66580E-03
        -0.30491E-17
        -0.66546E-03
        -0.67745E-03
        -0.31203E-17
        -0.31029E-17
        -0.70580E-03
        -0.70712E-03
        -0.33816E-17
        -0.38444E-17
        -0.70528E-03
        -0.32550E-17
        -0.70200E-03
        -0.35319E-17
        -0.68618E-03
        -0.67913E-03
        -0.32666E-17
        -0.34002E-17
        -0.67625E-03
        -0.34126E-17
        -0.65524E-03
        -0.26234E-17
        -0.65735E-03
        -0.25468E-17
        -0.66069E-03
        -0.26890E-17
        -0.66170E-03
        -0.66955E-03
        -0.25618E-17
        -0.27220E-17
        -0.67723E-03
        -0.25655E-17
        -0.70350E-03
        -0.35444E-17
        -0.70747E-03
        -0.36232E-17
        -0.71485E-03
        -0.71337E-03
        -0.35168E-17
        -0.35538E-17
        -0.71310E-03
        -0.32320E-17
        -0.71105E-03
        -0.31911E-17
        -0.70639E-03
        -0.33890E-17
        -0.70491E-03
        -0.70159E-03
        -0.32886E-17
        -0.33574E-17
        -0.69069E-03
        -0.69102E-03
        -0.24954E-17
        -0.23623E-17
        -0.68833E-03
        -0.23279E-17
        -0.68271E-03
        -0.21944E-17
        -0.67649E-03
        -0.21690E-17
        -0.67066E-03
        -0.20632E-17
        -0.66476E-03
        -0.18217E-17
        -0.66243E-03
        -0.16266E-17
        -0.65984E-03
        -0.16290E-17
        -0.66091E-03
        -0.17627E-17
        -0.66652E-03
        -0.18515E-17
        -0.66832E-03
        -0.17315E-17
        -0.68078E-03
        -0.15665E-17
        -0.69079E-03
        -0.15799E-17
        -0.69518E-03
        -0.17997E-17
        -0.69983E-03
        -0.20818E-17
        -0.71114E-03
        -0.22271E-17
        -0.71815E-03
        -0.24003E-17
        -0.72167E-03
        -0.25980E-17
        -0.72077E-03
        -0.23929E-17
        -0.72148E-03
        -0.21105E-17
        -0.71878E-03
        -0.20941E-17
        -0.71419E-03
        -0.22719E-17
        -0.71045E-03
        -0.24051E-17
        -0.70581E-03
        -0.22501E-17
        -0.69852E-03
        -0.21639E-17
        -0.13387E-02
        -0.13122E-02
        -0.13148E-02
        -0.13433E-02
        -0.13242E-02
        -0.13299E-02
        -0.13030E-02
        -0.13211E-02
        -0.13459E-02
        -0.13309E-02
        -0.12913E-02
        -0.12833E-02
        -0.12907E-02
        -0.12984E-02
        -0.12762E-02
        -0.13637E-02
        -0.13480E-02
        -0.13666E-02
        -0.13408E-02
        -0.13326E-02
        -0.13295E-02
        -0.13147E-02
        -0.13299E-02
        -0.13349E-02
        -0.13285E-02
        -0.13426E-02
        -0.12995E-02
        -0.12953E-02
        -0.12863E-02
        -0.13122E-02
        -0.13518E-02
        -0.13430E-02
        -0.13505E-02
        -0.13413E-02
        -0.13123E-02
        -0.13024E-02
        -0.13006E-02
        -0.12655E-02
        -0.12671E-02
        -0.12714E-02
        -0.12738E-02
        -0.12858E-02
        -0.13011E-02
        -0.13355E-02
        -0.13384E-02
        -0.13396E-02
        -0.13425E-02
        -0.13427E-02
        -0.13390E-02
        -0.13343E-02
        -0.13339E-02
        -0.13351E-02
        -0.13266E-02
        -0.13363E-02
        -0.13204E-02
        -0.13108E-02
        -0.13047E-02
        -0.13008E-02
        -0.12870E-02
        -0.12777E-02
        -0.12851E-02
        -0.12875E-02
        -0.12836E-02
        -0.13130E-02
        -0.13182E-02
        -0.13241E-02
        -0.13394E-02
        -0.13493E-02
        -0.13539E-02
        -0.13500E-02
        -0.13520E-02
        -0.13628E-02
        -0.13713E-02
        -0.13683E-02
        -0.13571E-02
        -0.13476E-02
        -0.13422E-02
        -0.13406E-02
        -0.19538E-02
        -0.19127E-02
        -0.19026E-02
        -0.19498E-02
        -0.18965E-02
        -0.19068E-02
        -0.19034E-02
        -0.19365E-02
        -0.19667E-02
        -0.19527E-02
        -0.18887E-02
        -0.18671E-02
        -0.18712E-02
        -0.19044E-02
        -0.18651E-02
        -0.19761E-02
        -0.19676E-02
        -0.19849E-02
        -0.19439E-02
        -0.19415E-02
        -0.19077E-02
        -0.18965E-02
        -0.18986E-02
        -0.19211E-02
        -0.19455E-02
        -0.19291E-02
        -0.19117E-02
        -0.19028E-02
        -0.18802E-02
        -0.19171E-02
        -0.19429E-02
        -0.19154E-02
        -0.19459E-02
        -0.19297E-02
        -0.18776E-02
        -0.18738E-02
        -0.18794E-02
        -0.18512E-02
        -0.18544E-02
        -0.18546E-02
        -0.18519E-02
        -0.18672E-02
        -0.18839E-02
        -0.18999E-02
        -0.18963E-02
        -0.18843E-02
        -0.18955E-02
        -0.19014E-02
        -0.18972E-02
        -0.18940E-02
        -0.18933E-02
        -0.19055E-02
        -0.18825E-02
        -0.18962E-02
        -0.18828E-02
        -0.18803E-02
        -0.18756E-02
        -0.18723E-02
        -0.18606E-02
        -0.18505E-02
        -0.18526E-02
        -0.18580E-02
        -0.18572E-02
        -0.18796E-02
        -0.18813E-02
        -0.18850E-02
        -0.19007E-02
        -0.19055E-02
        -0.19108E-02
        -0.19009E-02
        -0.18932E-02
        -0.19007E-02
        -0.19146E-02
        -0.19137E-02
        -0.19066E-02
        -0.19010E-02
        -0.19001E-02
        -0.19014E-02
        -0.25274E-02
        -0.24800E-02
        -0.24546E-02
        -0.25084E-02
        -0.24396E-02
        -0.24515E-02
        -0.24764E-02
        -0.25223E-02
        -0.25416E-02
        -0.25395E-02
        -0.24635E-02
        -0.24298E-02
        -0.24307E-02
        -0.24909E-02
        -0.24411E-02
        -0.25387E-02
        -0.25430E-02
        -0.25502E-02
        -0.25038E-02
        -0.25132E-02
        -0.24512E-02
        -0.24532E-02
        -0.24287E-02
        -0.24623E-02
        -0.25258E-02
        -0.24668E-02
        -0.25011E-02
        -0.24860E-02
        -0.24542E-02
        -0.24905E-02
        -0.24828E-02
        -0.24417E-02
        -0.24910E-02
        -0.24702E-02
        -0.24209E-02
        -0.24229E-02
        -0.24373E-02
        -0.24292E-02
        -0.24280E-02
        -0.24241E-02
        -0.24171E-02
        -0.24287E-02
        -0.24435E-02
        -0.24257E-02
        -0.24150E-02
        -0.23976E-02
        -0.24118E-02
        -0.24224E-02
        -0.24191E-02
        -0.24144E-02
        -0.24169E-02
        -0.24411E-02
        -0.24345E-02
        -0.24498E-02
        -0.24335E-02
        -0.24398E-02
        -0.24363E-02
        -0.24400E-02
        -0.24354E-02
        -0.24217E-02
        -0.24261E-02
        -0.24320E-02
        -0.24272E-02
        -0.24481E-02
        -0.24399E-02
        -0.24410E-02
        -0.24532E-02
        -0.24491E-02
        -0.24461E-02
        -0.24224E-02
        -0.24074E-02
        -0.24233E-02
        -0.24430E-02
        -0.24427E-02
        -0.24310E-02
        -0.24295E-02
        -0.24381E-02
        -0.24502E-02
        -0.30677E-02
        -0.30109E-02
        -0.29711E-02
        -0.30371E-02
        -0.29390E-02
        -0.29574E-02
        -0.30135E-02
        -0.30687E-02
        -0.30823E-02
        -0.30869E-02
        -0.30002E-02
        -0.29501E-02
        -0.29507E-02
        -0.30359E-02
        -0.29703E-02
        -0.30713E-02
        -0.30823E-02
        -0.30859E-02
        -0.30300E-02
        -0.30490E-02
        -0.29526E-02
        -0.29671E-02
        -0.29195E-02
        -0.29726E-02
        -0.30686E-02
        -0.29762E-02
        -0.30500E-02
        -0.30300E-02
        -0.29874E-02
        -0.30279E-02
        -0.29970E-02
        -0.29402E-02
        -0.30093E-02
        -0.29800E-02
        -0.29153E-02
        -0.29282E-02
        -0.29542E-02
        -0.29618E-02
        -0.29560E-02
        -0.29445E-02
        -0.29244E-02
        -0.29386E-02
        -0.29597E-02
        -0.29159E-02
        -0.28998E-02
        -0.28752E-02
        -0.28950E-02
        -0.29144E-02
        -0.29133E-02
        -0.29025E-02
        -0.29010E-02
        -0.29378E-02
        -0.29204E-02
        -0.29358E-02
        -0.29285E-02
        -0.29451E-02
        -0.29348E-02
        -0.29353E-02
        -0.29307E-02
        -0.29153E-02
        -0.29127E-02
        -0.29130E-02
        -0.29091E-02
        -0.29242E-02
        -0.29259E-02
        -0.29238E-02
        -0.29266E-02
        -0.29204E-02
        -0.29238E-02
        -0.29034E-02
        -0.28798E-02
        -0.28936E-02
        -0.29160E-02
        -0.29184E-02
        -0.29089E-02
        -0.29121E-02
        -0.29260E-02
        -0.29402E-02
        -0.35748E-02
        -0.35085E-02
        -0.34576E-02
        -0.35331E-02
        -0.34163E-02
        -0.34384E-02
        -0.35155E-02
        -0.35829E-02
        -0.35946E-02
        -0.36039E-02
        -0.35034E-02
        -0.34449E-02
        -0.34424E-02
        -0.35492E-02
        -0.34756E-02
        -0.35713E-02
        -0.35904E-02
        -0.35919E-02
        -0.35212E-02
        -0.35498E-02
        -0.34330E-02
        -0.34568E-02
        -0.33905E-02
        -0.34514E-02
        -0.35786E-02
        -0.34561E-02
        -0.35659E-02
        -0.35399E-02
        -0.34921E-02
        -0.35327E-02
        -0.34852E-02
        -0.34147E-02
        -0.35012E-02
        -0.34629E-02
        -0.33899E-02
        -0.34089E-02
        -0.34443E-02
        -0.34711E-02
        -0.34625E-02
        -0.34480E-02
        -0.34234E-02
        -0.34355E-02
        -0.34543E-02
        -0.33860E-02
        -0.33654E-02
        -0.33351E-02
        -0.33613E-02
        -0.33894E-02
        -0.33893E-02
        -0.33714E-02
        -0.33655E-02
        -0.34110E-02
        -0.33988E-02
        -0.34174E-02
        -0.34063E-02
        -0.34285E-02
        -0.34228E-02
        -0.34315E-02
        -0.34351E-02
        -0.34262E-02
        -0.34261E-02
        -0.34239E-02
        -0.34104E-02
        -0.34246E-02
        -0.34214E-02
        -0.34113E-02
        -0.34103E-02
        -0.33977E-02
        -0.33929E-02
        -0.33636E-02
        -0.33384E-02
        -0.33600E-02
        -0.33897E-02
        -0.33926E-02
        -0.33762E-02
        -0.33786E-02
        -0.34021E-02
        -0.34215E-02
        -0.40640E-02
        -0.39837E-02
        -0.39238E-02
        -0.40158E-02
        -0.38632E-02
        -0.38942E-02
        -0.39905E-02
        -0.40709E-02
        -0.40931E-02
        -0.40985E-02
        -0.39760E-02
        -0.39039E-02
        -0.39021E-02
        -0.40302E-02
        -0.39431E-02
        -0.40614E-02
        -0.40858E-02
        -0.40862E-02
        -0.39980E-02
        -0.40317E-02
        -0.38826E-02
        -0.39139E-02
        -0.38351E-02
        -0.39158E-02
        -0.40677E-02
        -0.39237E-02
        -0.40500E-02
        -0.40197E-02
        -0.39641E-02
        -0.40125E-02
        -0.39630E-02
        -0.38744E-02
        -0.39818E-02
        -0.39312E-02
        -0.38277E-02
        -0.38582E-02
        -0.39039E-02
        -0.39421E-02
        -0.39276E-02
        -0.39051E-02
        -0.38712E-02
        -0.38884E-02
        -0.39128E-02
        -0.38320E-02
        -0.38062E-02
        -0.37662E-02
        -0.38027E-02
        -0.38433E-02
        -0.38445E-02
        -0.38183E-02
        -0.38047E-02
        -0.38604E-02
        -0.38234E-02
        -0.38434E-02
        -0.38428E-02
        -0.38737E-02
        -0.38641E-02
        -0.38691E-02
        -0.38791E-02
        -0.38751E-02
        -0.38641E-02
        -0.38565E-02
        -0.38434E-02
        -0.38473E-02
        -0.38509E-02
        -0.38408E-02
        -0.38347E-02
        -0.38203E-02
        -0.38213E-02
        -0.37905E-02
        -0.37528E-02
        -0.37767E-02
        -0.38126E-02
        -0.38185E-02
        -0.37996E-02
        -0.38035E-02
        -0.38374E-02
        -0.38575E-02
        -0.45235E-02
        -0.44369E-02
        -0.43737E-02
        -0.44757E-02
        -0.42999E-02
        -0.43364E-02
        -0.44383E-02
        -0.45273E-02
        -0.45546E-02
        -0.45612E-02
        -0.44200E-02
        -0.43431E-02
        -0.43425E-02
        -0.44816E-02
        -0.43885E-02
        -0.45243E-02
        -0.45485E-02
        -0.45479E-02
        -0.44584E-02
        -0.44946E-02
        -0.43317E-02
        -0.43660E-02
        -0.42768E-02
        -0.43710E-02
        -0.45282E-02
        -0.43814E-02
        -0.45068E-02
        -0.44734E-02
        -0.44131E-02
        -0.44705E-02
        -0.44277E-02
        -0.43277E-02
        -0.44457E-02
        -0.43870E-02
        -0.42575E-02
        -0.42954E-02
        -0.43466E-02
        -0.43921E-02
        -0.43749E-02
        -0.43454E-02
        -0.43065E-02
        -0.43306E-02
        -0.43620E-02
        -0.42686E-02
        -0.42355E-02
        -0.41874E-02
        -0.42386E-02
        -0.42906E-02
        -0.42922E-02
        -0.42580E-02
        -0.42351E-02
        -0.42988E-02
        -0.42391E-02
        -0.42656E-02
        -0.42606E-02
        -0.42955E-02
        -0.42901E-02
        -0.43004E-02
        -0.43190E-02
        -0.43173E-02
        -0.43086E-02
        -0.42912E-02
        -0.42712E-02
        -0.42811E-02
        -0.42842E-02
        -0.42716E-02
        -0.42631E-02
        -0.42398E-02
        -0.42315E-02
        -0.41871E-02
        -0.41456E-02
        -0.41814E-02
        -0.42249E-02
        -0.42338E-02
        -0.42094E-02
        -0.42098E-02
        -0.42539E-02
        -0.42811E-02
        -0.49553E-02
        -0.48664E-02
        -0.48041E-02
        -0.49120E-02
        -0.47165E-02
        -0.47609E-02
        -0.48608E-02
        -0.49517E-02
        -0.49884E-02
        -0.49930E-02
        -0.48384E-02
        -0.47567E-02
        -0.47591E-02
        -0.49023E-02
        -0.48050E-02
        -0.49519E-02
        -0.49808E-02
        -0.49793E-02
        -0.48877E-02
        -0.49263E-02
        -0.47579E-02
        -0.47949E-02
        -0.47005E-02
        -0.48013E-02
        -0.49621E-02
        -0.48132E-02
        -0.49327E-02
        -0.49009E-02
        -0.48369E-02
        -0.49012E-02
        -0.48620E-02
        -0.47598E-02
        -0.48814E-02
        -0.48221E-02
        -0.46661E-02
        -0.47127E-02
        -0.47666E-02
        -0.48111E-02
        -0.47903E-02
        -0.47540E-02
        -0.47093E-02
        -0.47449E-02
        -0.47863E-02
        -0.46927E-02
        -0.46556E-02
        -0.46023E-02
        -0.46619E-02
        -0.47186E-02
        -0.47197E-02
        -0.46812E-02
        -0.46518E-02
        -0.47228E-02
        -0.46212E-02
        -0.46531E-02
        -0.46497E-02
        -0.46887E-02
        -0.46826E-02
        -0.46879E-02
        -0.47072E-02
        -0.47073E-02
        -0.46958E-02
        -0.46667E-02
        -0.46486E-02
        -0.46620E-02
        -0.46784E-02
        -0.46708E-02
        -0.46558E-02
        -0.46286E-02
        -0.46241E-02
        -0.45773E-02
        -0.45362E-02
        -0.45729E-02
        -0.46159E-02
        -0.46262E-02
        -0.46012E-02
        -0.46019E-02
        -0.46503E-02
        -0.46773E-02
        -0.53579E-02
        -0.52673E-02
        -0.52084E-02
        -0.53158E-02
        -0.51131E-02
        -0.51553E-02
        -0.52559E-02
        -0.53472E-02
        -0.53963E-02
        -0.53977E-02
        -0.52327E-02
        -0.51539E-02
        -0.51553E-02
        -0.52980E-02
        -0.52064E-02
        -0.53489E-02
        -0.53860E-02
        -0.53843E-02
        -0.52829E-02
        -0.53261E-02
        -0.51528E-02
        -0.51925E-02
        -0.50925E-02
        -0.51945E-02
        -0.53696E-02
        -0.52057E-02
        -0.53352E-02
        -0.53060E-02
        -0.52393E-02
        -0.53047E-02
        -0.52599E-02
        -0.51544E-02
        -0.52837E-02
        -0.52234E-02
        -0.50635E-02
        -0.51137E-02
        -0.51650E-02
        -0.52165E-02
        -0.51943E-02
        -0.51529E-02
        -0.51071E-02
        -0.51460E-02
        -0.51873E-02
        -0.50813E-02
        -0.50447E-02
        -0.49928E-02
        -0.50559E-02
        -0.51130E-02
        -0.51153E-02
        -0.50755E-02
        -0.50414E-02
        -0.51158E-02
        -0.50027E-02
        -0.50333E-02
        -0.50320E-02
        -0.50708E-02
        -0.50676E-02
        -0.50799E-02
        -0.51101E-02
        -0.51125E-02
        -0.50997E-02
        -0.50622E-02
        -0.50427E-02
        -0.50622E-02
        -0.50761E-02
        -0.50627E-02
        -0.50432E-02
        -0.50118E-02
        -0.50006E-02
        -0.49530E-02
        -0.49168E-02
        -0.49567E-02
        -0.49966E-02
        -0.50043E-02
        -0.49768E-02
        -0.49747E-02
        -0.50272E-02
        -0.50576E-02
        -0.57303E-02
        -0.56404E-02
        -0.55837E-02
        -0.56948E-02
        -0.54772E-02
        -0.55211E-02
        -0.56245E-02
        -0.57118E-02
        -0.57685E-02
        -0.57632E-02
        -0.55977E-02
        -0.55153E-02
        -0.55217E-02
        -0.56608E-02
        -0.55662E-02
        -0.57235E-02
        -0.57573E-02
        -0.57623E-02
        -0.56554E-02
        -0.56981E-02
        -0.55160E-02
        -0.55573E-02
        -0.54551E-02
        -0.55671E-02
        -0.57395E-02
        -0.55794E-02
        -0.57013E-02
        -0.56783E-02
        -0.56135E-02
        -0.56784E-02
        -0.56351E-02
        -0.55254E-02
        -0.56637E-02
        -0.56019E-02
        -0.54237E-02
        -0.54809E-02
        -0.55335E-02
        -0.55800E-02
        -0.55625E-02
        -0.55205E-02
        -0.54673E-02
        -0.55104E-02
        -0.55529E-02
        -0.54448E-02
        -0.54080E-02
        -0.53523E-02
        -0.54180E-02
        -0.54783E-02
        -0.54847E-02
        -0.54433E-02
        -0.54009E-02
        -0.54799E-02
        -0.53361E-02
        -0.53633E-02
        -0.53729E-02
        -0.54157E-02
        -0.54093E-02
        -0.54156E-02
        -0.54470E-02
        -0.54471E-02
        -0.54314E-02
        -0.53913E-02
        -0.53712E-02
        -0.53850E-02
        -0.54004E-02
        -0.53917E-02
        -0.53681E-02
        -0.53377E-02
        -0.53344E-02
        -0.52965E-02
        -0.52626E-02
        -0.52980E-02
        -0.53325E-02
        -0.53377E-02
        -0.53133E-02
        -0.53114E-02
        -0.53630E-02
        -0.53906E-02
        -0.60543E-02
        -0.59748E-02
        -0.59256E-02
        -0.60294E-02
        -0.58202E-02
        -0.58613E-02
        -0.59544E-02
        -0.60324E-02
        -0.60862E-02
        -0.60816E-02
        -0.59255E-02
        -0.58465E-02
        -0.58559E-02
        -0.59840E-02
        -0.58937E-02
        -0.60486E-02
        -0.60775E-02
        -0.60853E-02
        -0.59880E-02
        -0.60279E-02
        -0.58550E-02
        -0.58961E-02
        -0.57957E-02
        -0.59058E-02
        -0.60613E-02
        -0.59169E-02
        -0.60256E-02
        -0.60054E-02
        -0.59432E-02
        -0.60081E-02
        -0.59706E-02
        -0.58648E-02
        -0.60008E-02
        -0.59441E-02
        -0.57675E-02
        -0.58229E-02
        -0.58700E-02
        -0.59102E-02
        -0.58965E-02
        -0.58527E-02
        -0.57997E-02
        -0.58458E-02
        -0.58915E-02
        -0.57836E-02
        -0.57461E-02
        -0.56922E-02
        -0.57594E-02
        -0.58192E-02
        -0.58272E-02
        -0.57868E-02
        -0.57405E-02
        -0.58200E-02
        -0.56698E-02
        -0.56926E-02
        -0.57022E-02
        -0.57400E-02
        -0.57377E-02
        -0.57475E-02
        -0.57776E-02
        -0.57752E-02
        -0.57653E-02
        -0.57258E-02
        -0.57033E-02
        -0.57183E-02
        -0.57316E-02
        -0.57222E-02
        -0.56974E-02
        -0.56670E-02
        -0.56606E-02
        -0.56234E-02
        -0.55978E-02
        -0.56328E-02
        -0.56623E-02
        -0.56635E-02
        -0.56399E-02
        -0.56352E-02
        -0.56846E-02
        -0.57144E-02
        -0.63330E-02
        -0.62641E-02
        -0.62190E-02
        -0.63142E-02
        -0.61151E-02
        -0.61541E-02
        -0.62453E-02
        -0.63117E-02
        -0.63597E-02
        -0.63559E-02
        -0.62177E-02
        -0.61400E-02
        -0.61498E-02
        -0.62690E-02
        -0.61824E-02
        -0.63277E-02
        -0.63522E-02
        -0.63614E-02
        -0.62725E-02
        -0.63081E-02
        -0.61454E-02
        -0.61841E-02
        -0.60899E-02
        -0.61976E-02
        -0.63385E-02
        -0.62075E-02
        -0.63068E-02
        -0.62895E-02
        -0.62313E-02
        -0.62910E-02
        -0.62569E-02
        -0.61580E-02
        -0.62877E-02
        -0.62375E-02
        -0.60652E-02
        -0.61191E-02
        -0.61625E-02
        -0.61965E-02
        -0.61837E-02
        -0.61420E-02
        -0.60905E-02
        -0.61355E-02
        -0.61797E-02
        -0.60788E-02
        -0.60437E-02
        -0.59931E-02
        -0.60576E-02
        -0.61142E-02
        -0.61234E-02
        -0.60863E-02
        -0.60399E-02
        -0.61169E-02
        -0.59618E-02
        -0.59792E-02
        -0.59944E-02
        -0.60262E-02
        -0.60208E-02
        -0.60262E-02
        -0.60548E-02
        -0.60546E-02
        -0.60414E-02
        -0.60062E-02
        -0.59907E-02
        -0.60025E-02
        -0.60198E-02
        -0.60091E-02
        -0.59804E-02
        -0.59512E-02
        -0.59504E-02
        -0.59224E-02
        -0.58998E-02
        -0.59289E-02
        -0.59524E-02
        -0.59498E-02
        -0.59290E-02
        -0.59260E-02
        -0.59733E-02
        -0.59998E-02
        -0.65556E-02
        -0.64974E-02
        -0.64592E-02
        -0.65414E-02
        -0.63663E-02
        -0.63987E-02
        -0.64787E-02
        -0.65333E-02
        -0.65761E-02
        -0.65707E-02
        -0.64524E-02
        -0.63830E-02
        -0.63937E-02
        -0.64952E-02
        -0.64184E-02
        -0.65534E-02
        -0.65682E-02
        -0.65812E-02
        -0.65014E-02
        -0.65298E-02
        -0.63853E-02
        -0.64188E-02
        -0.63386E-02
        -0.64381E-02
        -0.65554E-02
        -0.64486E-02
        -0.65284E-02
        -0.65154E-02
        -0.64649E-02
        -0.65163E-02
        -0.64909E-02
        -0.64037E-02
        -0.65182E-02
        -0.64748E-02
        -0.63237E-02
        -0.63698E-02
        -0.64060E-02
        -0.64291E-02
        -0.64198E-02
        -0.63836E-02
        -0.63360E-02
        -0.63765E-02
        -0.64157E-02
        -0.63304E-02
        -0.62991E-02
        -0.62550E-02
        -0.63143E-02
        -0.63645E-02
        -0.63729E-02
        -0.63396E-02
        -0.62967E-02
        -0.63663E-02
        -0.62305E-02
        -0.62430E-02
        -0.62569E-02
        -0.62809E-02
        -0.62758E-02
        -0.62789E-02
        -0.63049E-02
        -0.63071E-02
        -0.62953E-02
        -0.62598E-02
        -0.62429E-02
        -0.62556E-02
        -0.62733E-02
        -0.62648E-02
        -0.62371E-02
        -0.62127E-02
        -0.62138E-02
        -0.61882E-02
        -0.61709E-02
        -0.61973E-02
        -0.62168E-02
        -0.62132E-02
        -0.61943E-02
        -0.61898E-02
        -0.62323E-02
        -0.62574E-02
        -0.67211E-02
        -0.66751E-02
        -0.66426E-02
        -0.67117E-02
        -0.65625E-02
        -0.65904E-02
        -0.66578E-02
        -0.67011E-02
        -0.67322E-02
        -0.67292E-02
        -0.66338E-02
        -0.65716E-02
        -0.65831E-02
        -0.66694E-02
        -0.66012E-02
        -0.67191E-02
        -0.67246E-02
        -0.67414E-02
        -0.66748E-02
        -0.66974E-02
        -0.65756E-02
        -0.66032E-02
        -0.65377E-02
        -0.66243E-02
        -0.67155E-02
        -0.66357E-02
        -0.66967E-02
        -0.66862E-02
        -0.66454E-02
        -0.66881E-02
        -0.66719E-02
        -0.66005E-02
        -0.66935E-02
        -0.66570E-02
        -0.65263E-02
        -0.65650E-02
        -0.65952E-02
        -0.66093E-02
        -0.66030E-02
        -0.65739E-02
        -0.65336E-02
        -0.65681E-02
        -0.66014E-02
        -0.65339E-02
        -0.65107E-02
        -0.64755E-02
        -0.65266E-02
        -0.65665E-02
        -0.65709E-02
        -0.65407E-02
        -0.65036E-02
        -0.65645E-02
        -0.64454E-02
        -0.64590E-02
        -0.64679E-02
        -0.64874E-02
        -0.64804E-02
        -0.64791E-02
        -0.64984E-02
        -0.65008E-02
        -0.64916E-02
        -0.64628E-02
        -0.64528E-02
        -0.64583E-02
        -0.64763E-02
        -0.64719E-02
        -0.64494E-02
        -0.64303E-02
        -0.64363E-02
        -0.64187E-02
        -0.64051E-02
        -0.64264E-02
        -0.64427E-02
        -0.64358E-02
        -0.64159E-02
        -0.64111E-02
        -0.64501E-02
        -0.64731E-02
        -0.68272E-02
        -0.67923E-02
        -0.67697E-02
        -0.68231E-02
        -0.67098E-02
        -0.67289E-02
        -0.67779E-02
        -0.68104E-02
        -0.68379E-02
        -0.68356E-02
        -0.67598E-02
        -0.67123E-02
        -0.67209E-02
        -0.67865E-02
        -0.67340E-02
        -0.68282E-02
        -0.68318E-02
        -0.68447E-02
        -0.67940E-02
        -0.68104E-02
        -0.67151E-02
        -0.67361E-02
        -0.66857E-02
        -0.67550E-02
        -0.68221E-02
        -0.67656E-02
        -0.68072E-02
        -0.67982E-02
        -0.67660E-02
        -0.68012E-02
        -0.67949E-02
        -0.67408E-02
        -0.68120E-02
        -0.67829E-02
        -0.66846E-02
        -0.67107E-02
        -0.67310E-02
        -0.67364E-02
        -0.67328E-02
        -0.67111E-02
        -0.66814E-02
        -0.67074E-02
        -0.67347E-02
        -0.66862E-02
        -0.66714E-02
        -0.66463E-02
        -0.66871E-02
        -0.67174E-02
        -0.67199E-02
        -0.66937E-02
        -0.66626E-02
        -0.67099E-02
        -0.66283E-02
        -0.66365E-02
        -0.66431E-02
        -0.66544E-02
        -0.66461E-02
        -0.66424E-02
        -0.66548E-02
        -0.66552E-02
        -0.66527E-02
        -0.66310E-02
        -0.66275E-02
        -0.66316E-02
        -0.66455E-02
        -0.66397E-02
        -0.66224E-02
        -0.66081E-02
        -0.66169E-02
        -0.66063E-02
        -0.65965E-02
        -0.66149E-02
        -0.66286E-02
        -0.66227E-02
        -0.66040E-02
        -0.65958E-02
        -0.66267E-02
        -0.66456E-02
        -0.68845E-02
        -0.68628E-02
        -0.68479E-02
        -0.68869E-02
        -0.68051E-02
        -0.68211E-02
        -0.68505E-02
        -0.68700E-02
        -0.68927E-02
        -0.68906E-02
        -0.68367E-02
        -0.68018E-02
        -0.68098E-02
        -0.68545E-02
        -0.68177E-02
        -0.68918E-02
        -0.68908E-02
        -0.68993E-02
        -0.68702E-02
        -0.68791E-02
        -0.68119E-02
        -0.68258E-02
        -0.67918E-02
        -0.68437E-02
        -0.68799E-02
        -0.68522E-02
        -0.68697E-02
        -0.68633E-02
        -0.68410E-02
        -0.68692E-02
        -0.68706E-02
        -0.68349E-02
        -0.68824E-02
        -0.68621E-02
        -0.67856E-02
        -0.68034E-02
        -0.68183E-02
        -0.68175E-02
        -0.68166E-02
        -0.68015E-02
        -0.67815E-02
        -0.68005E-02
        -0.68237E-02
        -0.67959E-02
        -0.67862E-02
        -0.67679E-02
        -0.67983E-02
        -0.68198E-02
        -0.68213E-02
        -0.67996E-02
        -0.67758E-02
        -0.68105E-02
        -0.67445E-02
        -0.67546E-02
        -0.67552E-02
        -0.67641E-02
        -0.67537E-02
        -0.67460E-02
        -0.67558E-02
        -0.67588E-02
        -0.67585E-02
        -0.67418E-02
        -0.67473E-02
        -0.67489E-02
        -0.67615E-02
        -0.67580E-02
        -0.67486E-02
        -0.67397E-02
        -0.67517E-02
        -0.67457E-02
        -0.67356E-02
        -0.67486E-02
        -0.67603E-02
        -0.67584E-02
        -0.67423E-02
        -0.67329E-02
        -0.67568E-02
        -0.67676E-02
        -0.69120E-02
        -0.68992E-02
        -0.68898E-02
        -0.69163E-02
        -0.68637E-02
        -0.68746E-02
        -0.68897E-02
        -0.69002E-02
        -0.69184E-02
        -0.69158E-02
        -0.68805E-02
        -0.68583E-02
        -0.68634E-02
        -0.68912E-02
        -0.68697E-02
        -0.69228E-02
        -0.69172E-02
        -0.69244E-02
        -0.69095E-02
        -0.69120E-02
        -0.68725E-02
        -0.68791E-02
        -0.68604E-02
        -0.68949E-02
        -0.69061E-02
        -0.69017E-02
        -0.69010E-02
        -0.68956E-02
        -0.68799E-02
        -0.69022E-02
        -0.69118E-02
        -0.68909E-02
        -0.69186E-02
        -0.69042E-02
        -0.68513E-02
        -0.68598E-02
        -0.68688E-02
        -0.68670E-02
        -0.68669E-02
        -0.68541E-02
        -0.68399E-02
        -0.68540E-02
        -0.68752E-02
        -0.68657E-02
        -0.68595E-02
        -0.68480E-02
        -0.68693E-02
        -0.68823E-02
        -0.68820E-02
        -0.68648E-02
        -0.68481E-02
        -0.68711E-02
        -0.68278E-02
        -0.68393E-02
        -0.68319E-02
        -0.68370E-02
        -0.68308E-02
        -0.68247E-02
        -0.68305E-02
        -0.68341E-02
        -0.68336E-02
        -0.68157E-02
        -0.68186E-02
        -0.68231E-02
        -0.68398E-02
        -0.68427E-02
        -0.68402E-02
        -0.68337E-02
        -0.68447E-02
        -0.68397E-02
        -0.68326E-02
        -0.68435E-02
        -0.68518E-02
        -0.68494E-02
        -0.68363E-02
        -0.68274E-02
        -0.68456E-02
        -0.68518E-02
        -0.69230E-02
        -0.69157E-02
        -0.69110E-02
        -0.69286E-02
        -0.68952E-02
        -0.69032E-02
        -0.69072E-02
        -0.69128E-02
        -0.69291E-02
        -0.69267E-02
        -0.69009E-02
        -0.68876E-02
        -0.68915E-02
        -0.69075E-02
        -0.68956E-02
        -0.69349E-02
        -0.69286E-02
        -0.69329E-02
        -0.69276E-02
        -0.69276E-02
        -0.69069E-02
        -0.69096E-02
        -0.68994E-02
        -0.69209E-02
        -0.69191E-02
        -0.69264E-02
        -0.69154E-02
        -0.69132E-02
        -0.69036E-02
        -0.69201E-02
        -0.69312E-02
        -0.69212E-02
        -0.69340E-02
        -0.69247E-02
        -0.68872E-02
        -0.68900E-02
        -0.68950E-02
        -0.68922E-02
        -0.68951E-02
        -0.68872E-02
        -0.68780E-02
        -0.68876E-02
        -0.69055E-02
        -0.69046E-02
        -0.69009E-02
        -0.68939E-02
        -0.69090E-02
        -0.69155E-02
        -0.69139E-02
        -0.69006E-02
        -0.68896E-02
        -0.69051E-02
        -0.68730E-02
        -0.68809E-02
        -0.68728E-02
        -0.68753E-02
        -0.68718E-02
        -0.68656E-02
        -0.68692E-02
        -0.68702E-02
        -0.68719E-02
        -0.68612E-02
        -0.68668E-02
        -0.68671E-02
        -0.68805E-02
        -0.68894E-02
        -0.68922E-02
        -0.68884E-02
        -0.68961E-02
        -0.68909E-02
        -0.68870E-02
        -0.68943E-02
        -0.69004E-02
        -0.68997E-02
        -0.68895E-02
        -0.68811E-02
        -0.68940E-02
        -0.68928E-02
        -0.69272E-02
        -0.69219E-02
        -0.69202E-02
        -0.69335E-02
        -0.69109E-02
        -0.69164E-02
        -0.69134E-02
        -0.69171E-02
        -0.69341E-02
        -0.69302E-02
        -0.69089E-02
        -0.69009E-02
        -0.69039E-02
        -0.69134E-02
        -0.69070E-02
        -0.69400E-02
        -0.69341E-02
        -0.69370E-02
        -0.69349E-02
        -0.69333E-02
        -0.69220E-02
        -0.69218E-02
        -0.69184E-02
        -0.69322E-02
        -0.69235E-02
        -0.69377E-02
        -0.69193E-02
        -0.69181E-02
        -0.69134E-02
        -0.69261E-02
        -0.69399E-02
        -0.69363E-02
        -0.69412E-02
        -0.69342E-02
        -0.69061E-02
        -0.69048E-02
        -0.69067E-02
        -0.69030E-02
        -0.69075E-02
        -0.69046E-02
        -0.69013E-02
        -0.69054E-02
        -0.69188E-02
        -0.69249E-02
        -0.69243E-02
        -0.69201E-02
        -0.69296E-02
        -0.69311E-02
        -0.69296E-02
        -0.69191E-02
        -0.69108E-02
        -0.69212E-02
        -0.69002E-02
        -0.69070E-02
        -0.68975E-02
        -0.68985E-02
        -0.68960E-02
        -0.68887E-02
        -0.68897E-02
        -0.68917E-02
        -0.68968E-02
        -0.68902E-02
        -0.69010E-02
        -0.68984E-02
        -0.69075E-02
        -0.69137E-02
        -0.69191E-02
        -0.69183E-02
        -0.69264E-02
        -0.69241E-02
        -0.69195E-02
        -0.69226E-02
        -0.69255E-02
        -0.69267E-02
        -0.69183E-02
        -0.69100E-02
        -0.69206E-02
        -0.69177E-02
        -0.69267E-02
        -0.69238E-02
        -0.69241E-02
        -0.69334E-02
        -0.69181E-02
        -0.69214E-02
        -0.69157E-02
        -0.69185E-02
        -0.69336E-02
        -0.69313E-02
        -0.69126E-02
        -0.69067E-02
        -0.69089E-02
        -0.69168E-02
        -0.69126E-02
        -0.69383E-02
        -0.69347E-02
        -0.69354E-02
        -0.69365E-02
        -0.69350E-02
        -0.69288E-02
        -0.69272E-02
        -0.69259E-02
        -0.69351E-02
        -0.69250E-02
        -0.69390E-02
        -0.69217E-02
        -0.69201E-02
        -0.69176E-02
        -0.69283E-02
        -0.69407E-02
        -0.69397E-02
        -0.69430E-02
        -0.69376E-02
        -0.69149E-02
        -0.69121E-02
        -0.69116E-02
        -0.69085E-02
        -0.69128E-02
        -0.69120E-02
        -0.69114E-02
        -0.69132E-02
        -0.69243E-02
        -0.69313E-02
        -0.69321E-02
        -0.69305E-02
        -0.69373E-02
        -0.69368E-02
        -0.69369E-02
        -0.69285E-02
        -0.69210E-02
        -0.69278E-02
        -0.69089E-02
        -0.69153E-02
        -0.69060E-02
        -0.69067E-02
        -0.69057E-02
        -0.68977E-02
        -0.68980E-02
        -0.69005E-02
        -0.69061E-02
        -0.69011E-02
        -0.69137E-02
        -0.69095E-02
        -0.69171E-02
        -0.69238E-02
        -0.69298E-02
        -0.69308E-02
        -0.69381E-02
        -0.69362E-02
        -0.69338E-02
        -0.69345E-02
        -0.69348E-02
        -0.69376E-02
        -0.69312E-02
        -0.69230E-02
        -0.69308E-02
        -0.69256E-02
        -0.69271E-02
        -0.69243E-02
        -0.69238E-02
        -0.69332E-02
        -0.69194E-02
        -0.69230E-02
        -0.69166E-02
        -0.69194E-02
        -0.69330E-02
        -0.69315E-02
        -0.69130E-02
        -0.69082E-02
        -0.69109E-02
        -0.69168E-02
        -0.69131E-02
        -0.69395E-02
        -0.69344E-02
        -0.69356E-02
        -0.69379E-02
        -0.69350E-02
        -0.69301E-02
        -0.69282E-02
        -0.69292E-02
        -0.69374E-02
        -0.69250E-02
        -0.69415E-02
        -0.69218E-02
        -0.69203E-02
        -0.69188E-02
        -0.69284E-02
        -0.69414E-02
        -0.69420E-02
        -0.69429E-02
        -0.69386E-02
        -0.69175E-02
        -0.69144E-02
        -0.69139E-02
        -0.69105E-02
        -0.69147E-02
        -0.69141E-02
        -0.69154E-02
        -0.69172E-02
        -0.69268E-02
        -0.69355E-02
        -0.69364E-02
        -0.69348E-02
        -0.69398E-02
        -0.69382E-02
        -0.69385E-02
        -0.69322E-02
        -0.69268E-02
        -0.69314E-02
        -0.69164E-02
        -0.69225E-02
        -0.69155E-02
        -0.69152E-02
        -0.69133E-02
        -0.69061E-02
        -0.69058E-02
        -0.69092E-02
        -0.69164E-02
        -0.69087E-02
        -0.69218E-02
        -0.69201E-02
        -0.69247E-02
        -0.69290E-02
        -0.69345E-02
        -0.69378E-02
        -0.69450E-02
        -0.69418E-02
        -0.69397E-02
        -0.69399E-02
        -0.69412E-02
        -0.69433E-02
        -0.69388E-02
        -0.69322E-02
        -0.69388E-02
        -0.69321E-02
        -0.69272E-02
        -0.69241E-02
        -0.69245E-02
        -0.69331E-02
        -0.69211E-02
        -0.69238E-02
        -0.69175E-02
        -0.69203E-02
        -0.69333E-02
        -0.69316E-02
        -0.69143E-02
        -0.69098E-02
        -0.69120E-02
        -0.69176E-02
        -0.69138E-02
        -0.69390E-02
        -0.69339E-02
        -0.69357E-02
        -0.69358E-02
        -0.69337E-02
        -0.69298E-02
        -0.69285E-02
        -0.69302E-02
        -0.69365E-02
        -0.69260E-02
        -0.69407E-02
        -0.69218E-02
        -0.69218E-02
        -0.69203E-02
        -0.69290E-02
        -0.69401E-02
        -0.69418E-02
        -0.69415E-02
        -0.69383E-02
        -0.69191E-02
        -0.69157E-02
        -0.69147E-02
        -0.69105E-02
        -0.69150E-02
        -0.69153E-02
        -0.69156E-02
        -0.69176E-02
        -0.69281E-02
        -0.69366E-02
        -0.69376E-02
        -0.69368E-02
        -0.69413E-02
        -0.69395E-02
        -0.69394E-02
        -0.69333E-02
        -0.69282E-02
        -0.69320E-02
        -0.69177E-02
        -0.69242E-02
        -0.69171E-02
        -0.69174E-02
        -0.69156E-02
        -0.69090E-02
        -0.69095E-02
        -0.69131E-02
        -0.69191E-02
        -0.69131E-02
        -0.69246E-02
        -0.69222E-02
        -0.69274E-02
        -0.69308E-02
        -0.69370E-02
        -0.69394E-02
        -0.69448E-02
        -0.69435E-02
        -0.69417E-02
        -0.69413E-02
        -0.69415E-02
        -0.69427E-02
        -0.69395E-02
        -0.69334E-02
        -0.69370E-02
        -0.69317E-02
        -0.69275E-02
        -0.69226E-02
        -0.69237E-02
        -0.69316E-02
        -0.69187E-02
        -0.69227E-02
        -0.69154E-02
        -0.69190E-02
        -0.69305E-02
        -0.69275E-02
        -0.69124E-02
        -0.69073E-02
        -0.69090E-02
        -0.69180E-02
        -0.69124E-02
        -0.69367E-02
        -0.69310E-02
        -0.69347E-02
        -0.69338E-02
        -0.69332E-02
        -0.69299E-02
        -0.69282E-02
        -0.69293E-02
        -0.69350E-02
        -0.69230E-02
        -0.69373E-02
        -0.69218E-02
        -0.69215E-02
        -0.69187E-02
        -0.69283E-02
        -0.69386E-02
        -0.69390E-02
        -0.69410E-02
        -0.69363E-02
        -0.69169E-02
        -0.69121E-02
        -0.69115E-02
        -0.69101E-02
        -0.69155E-02
        -0.69150E-02
        -0.69140E-02
        -0.69144E-02
        -0.69251E-02
        -0.69342E-02
        -0.69344E-02
        -0.69365E-02
        -0.69406E-02
        -0.69393E-02
        -0.69395E-02
        -0.69317E-02
        -0.69277E-02
        -0.69316E-02
        -0.69212E-02
        -0.69278E-02
        -0.69229E-02
        -0.69218E-02
        -0.69223E-02
        -0.69151E-02
        -0.69150E-02
        -0.69226E-02
        -0.69273E-02
        -0.69263E-02
        -0.69321E-02
        -0.69333E-02
        -0.69359E-02
        -0.69358E-02
        -0.69438E-02
        -0.69448E-02
        -0.69476E-02
        -0.69451E-02
        -0.69406E-02
        -0.69384E-02
        -0.69423E-02
        -0.69439E-02
        -0.69413E-02
        -0.69357E-02
        -0.69380E-02
        -0.69361E-02
  
SCALARS                     velocity_x  double 1
LOOKUP_TABLE default
         0.96137E+01
         0.55459E+01
         0.42140E+01
        -0.24693E+02
        -0.33199E+01
        -0.35943E+01
        -0.42134E+01
        -0.48644E+01
        -0.38975E+00
        -0.20556E+02
        -0.40908E+01
        -0.70486E+01
        -0.68231E+00
        -0.19079E+02
        -0.16843E+01
        -0.24333E+01
        -0.48576E+01
        -0.69099E+01
        -0.17550E+01
        -0.70692E+00
         0.18175E+01
         0.83148E+01
        -0.85361E+01
        -0.47275E+00
        -0.11950E+01
        -0.31581E+01
        -0.20318E+01
         0.22165E+01
         0.75137E+00
        -0.33710E-01
         0.37910E+02
        -0.10357E+02
         0.88385E+01
         0.50357E+01
         0.35595E+01
         0.12284E+01
        -0.32288E+01
         0.20670E+02
         0.79434E+01
         0.80670E+01
         0.62652E+01
         0.10533E+02
         0.69610E+01
         0.75513E+01
         0.11772E+02
         0.11796E+02
         0.38521E+01
         0.41606E+01
         0.98672E+01
         0.21109E+01
        -0.18810E+02
         0.31086E+01
        -0.12541E+01
         0.47442E+00
         0.20730E+02
         0.21913E+01
        -0.42383E+01
        -0.77722E+01
         0.35351E+01
         0.37734E+01
         0.92115E+01
        -0.19317E+02
        -0.11873E+01
        -0.10082E+01
        -0.23444E+02
        -0.27964E+01
         0.13094E+02
        -0.43307E+01
         0.73690E+01
        -0.16744E+02
        -0.38912E+01
        -0.45287E+01
        -0.75928E+01
        -0.43585E+01
        -0.10365E+01
         0.31045E+00
         0.35265E+01
         0.16477E+00
        -0.96334E+01
         0.20346E+01
         0.27961E+02
        -0.22728E+01
         0.20577E+01
         0.16157E+01
         0.10286E+00
         0.43176E+01
        -0.64919E+01
         0.21185E+01
         0.33856E+02
         0.14793E+01
        -0.74369E+01
        -0.46230E+01
         0.30396E+01
         0.30558E+01
         0.47971E+01
         0.34923E-02
        -0.21676E+01
        -0.36902E+01
        -0.16258E+02
        -0.52492E+01
         0.75564E+01
         0.16998E-01
        -0.44443E+01
        -0.52615E+01
        -0.21663E+02
         0.60111E+01
        -0.33010E+01
        -0.43870E+01
         0.26894E+01
        -0.27915E+01
        -0.47317E+01
        -0.23684E+01
        -0.13148E+01
        -0.15786E+01
        -0.17387E+01
        -0.17713E+01
        -0.43051E+01
        -0.15588E+01
         0.46952E+01
         0.59925E+00
        -0.65858E+01
         0.22054E+01
         0.58850E+01
         0.32089E+01
        -0.15596E+02
         0.31566E+01
         0.75681E+01
         0.20687E+01
         0.15861E+01
         0.39140E+01
         0.15025E+02
         0.65165E+01
        -0.60321E+01
         0.52300E+01
         0.14144E+02
         0.37941E+01
        -0.12580E+02
         0.12126E+01
         0.55193E+01
         0.22383E+01
        -0.17894E+01
         0.33970E+01
         0.19795E+02
         0.39718E+01
        -0.12418E+02
         0.16816E+01
         0.63403E+01
        -0.11525E+01
        -0.11471E+02
        -0.34907E+01
        -0.23247E+01
        -0.31987E+01
        -0.11912E+02
        -0.48315E+01
        -0.40512E+01
        -0.53451E+01
         0.21013E+00
         0.19950E+00
         0.69582E+01
        -0.80254E+01
        -0.16066E+02
        -0.27540E+02
         0.15669E+02
        -0.50380E+01
        -0.13514E+02
        -0.16629E+02
        -0.11522E+02
         0.51738E+01
        -0.22794E+02
         0.72272E+01
         0.93258E+01
         0.19074E+02
         0.14060E+02
        -0.17669E+01
        -0.84222E+01
         0.31018E+02
        -0.74584E+01
         0.23450E+02
         0.19269E+02
         0.80950E+01
        -0.62598E+01
        -0.19452E+02
         0.64009E+01
         0.18816E+02
        -0.59730E+01
         0.14311E+02
        -0.10137E+02
        -0.16113E+00
         0.47669E+01
        -0.19387E+01
         0.14430E+02
        -0.15557E+02
        -0.63954E+01
        -0.14151E+02
        -0.71222E+01
        -0.32973E+01
         0.56791E+01
         0.16653E+01
        -0.64391E+01
        -0.38826E+01
         0.32568E+02
        -0.22365E+01
        -0.11340E+02
         0.99264E+01
        -0.84449E+01
        -0.12044E+02
        -0.10523E+02
         0.18701E+02
        -0.21039E+01
        -0.85874E+01
         0.35497E+01
        -0.81751E+01
         0.71648E+01
         0.18996E+01
        -0.10716E+02
         0.59088E+01
         0.51821E+01
         0.10855E+02
         0.72573E+01
         0.42939E+01
         0.62753E+00
         0.10711E+02
         0.10055E+00
         0.18570E+02
        -0.14811E+02
         0.10210E+02
        -0.12958E+02
         0.84844E+01
        -0.16427E+02
         0.22713E+02
        -0.19935E+02
         0.82427E+01
        -0.66918E+01
        -0.45012E+01
         0.25502E+01
         0.11998E+00
        -0.16560E+01
        -0.84513E+01
        -0.27835E+01
        -0.15972E+02
         0.11983E+02
        -0.14101E+02
        -0.36607E+01
        -0.77711E+01
        -0.65587E+01
         0.35854E+00
        -0.18572E+02
         0.45228E+01
        -0.12681E+01
         0.24653E+02
         0.22168E+01
         0.13298E+01
        -0.36725E+01
         0.10044E+02
        -0.10635E+01
         0.13937E-01
         0.16792E+02
         0.12243E+02
        -0.24964E+01
        -0.22855E+02
         0.14711E+02
         0.59492E+01
        -0.55648E+01
         0.15432E+02
        -0.11210E+02
        -0.82578E+01
         0.16374E+01
         0.61178E+01
        -0.45782E+00
        -0.17352E+02
         0.60690E+01
        -0.69215E+01
         0.87629E+01
         0.33004E+01
         0.18649E+02
        -0.40826E+01
         0.16666E+00
        -0.15080E+02
         0.18547E+02
         0.21396E+02
        -0.11223E+02
         0.19947E+02
        -0.74293E+01
        -0.14680E+02
        -0.17543E+02
         0.22991E+02
        -0.49319E+01
        -0.96470E-01
        -0.89226E+01
         0.26116E+01
         0.15572E+01
        -0.60636E+01
         0.40860E+01
         0.68593E+00
        -0.70477E+01
        -0.72232E+01
        -0.32411E+01
        -0.86763E+00
         0.44749E+01
         0.10791E+02
         0.18674E+01
         0.75825E+01
        -0.57793E+01
         0.80061E+01
        -0.13076E+02
         0.17241E+02
        -0.16411E+02
         0.71239E+01
        -0.70062E+01
         0.31048E+01
        -0.12291E+02
        -0.55364E+01
         0.48563E+01
        -0.10848E+02
        -0.65938E+01
        -0.70129E+01
         0.52394E+00
        -0.16772E+01
         0.10359E+02
        -0.17310E+02
         0.11157E+02
         0.49671E+00
         0.12431E+02
         0.46942E+01
        -0.69522E+01
        -0.63046E+01
         0.14842E+00
         0.15184E+02
        -0.62863E+01
         0.26466E+01
        -0.11071E+02
         0.64121E+01
         0.18056E+02
         0.50132E+00
         0.90048E+01
         0.42253E+02
        -0.45422E+01
        -0.16914E+02
        -0.14588E+01
        -0.97953E+00
        -0.91212E+01
         0.15947E+02
        -0.14035E+02
        -0.14562E+01
        -0.13580E+02
        -0.35450E+01
        -0.76138E+01
        -0.17222E+02
         0.36352E+01
        -0.76382E+01
         0.14813E+02
         0.16439E+01
         0.43175E+01
         0.54805E+01
         0.12450E+02
        -0.16376E+02
         0.18211E+02
         0.26257E+02
        -0.43292E+01
         0.14231E+02
        -0.69091E+01
        -0.12047E+02
        -0.21085E+02
         0.18375E+02
        -0.93765E+00
        -0.11883E+02
         0.24187E+01
        -0.64299E+00
        -0.97282E+01
        -0.55873E+01
         0.58457E+00
        -0.73723E+01
         0.11661E+02
         0.55124E+01
         0.81711E+01
        -0.46042E+01
         0.11720E+02
         0.77139E+01
         0.87476E+01
        -0.32599E+01
         0.13306E+02
        -0.66303E+01
        -0.24269E+02
         0.48874E+01
        -0.26635E+01
         0.36003E-01
        -0.47414E+01
         0.25323E+01
        -0.13543E+02
        -0.24396E+01
        -0.45797E+01
        -0.39255E+01
         0.90748E+01
        -0.15562E+01
        -0.74006E+01
        -0.13738E+02
         0.11474E+02
        -0.14948E+02
        -0.38073E+00
         0.64077E+01
        -0.12803E+02
         0.21607E+02
         0.21357E+01
        -0.68875E+01
        -0.16221E+02
         0.12465E+02
         0.17746E+02
        -0.61008E+01
        -0.26251E+01
         0.99975E+01
         0.64030E+01
        -0.12425E+02
         0.15168E+00
         0.20928E+02
        -0.30164E+01
        -0.63332E+01
         0.70529E+01
        -0.17031E+02
         0.18186E+02
         0.36949E+00
        -0.15867E+02
         0.23922E+01
        -0.11977E+02
         0.12748E+02
        -0.58656E+00
        -0.19900E+02
        -0.11891E+02
        -0.64467E+01
         0.17329E+02
        -0.44287E+01
        -0.15803E+02
         0.50706E+01
         0.78246E+01
        -0.27365E+02
         0.15672E+01
         0.23102E+02
        -0.65228E+00
         0.71957E+01
        -0.36792E+01
         0.79686E+01
        -0.14252E+02
         0.65476E+01
        -0.22099E+01
        -0.10506E+02
        -0.47750E+01
         0.47048E+01
         0.11491E+01
        -0.11218E+02
         0.11527E+02
        -0.58485E+01
        -0.43499E+01
        -0.59945E+01
         0.18861E+02
         0.16811E+01
         0.56864E+01
        -0.55818E+01
         0.14906E+02
        -0.59342E+01
         0.18195E+02
        -0.66941E+01
         0.20199E+01
        -0.14974E+01
         0.42685E+01
        -0.18040E+02
         0.85712E+01
        -0.91027E+01
        -0.62275E+01
         0.39308E+01
        -0.62647E+01
        -0.38641E+01
         0.13349E+02
        -0.13658E+01
         0.10563E+01
        -0.15104E+02
         0.66335E+01
        -0.15421E+02
        -0.55181E+01
         0.89452E+01
        -0.34935E+01
         0.12153E+02
        -0.41603E+01
         0.32441E+01
        -0.69690E+01
         0.11931E+02
         0.11928E+02
        -0.56126E+01
        -0.87201E+01
        -0.39679E+01
         0.65682E+01
         0.44160E+00
         0.92618E+01
         0.20917E+02
        -0.40204E+01
        -0.47862E+00
         0.30613E+01
        -0.10850E+02
         0.11302E+02
         0.60006E+01
        -0.10515E+02
         0.10951E+02
        -0.45343E+01
         0.93554E+01
         0.15988E+02
        -0.11293E+02
        -0.13281E+02
        -0.20004E+01
         0.70920E+01
         0.55369E+01
        -0.35275E+01
        -0.45233E+01
         0.22648E+02
        -0.11608E+02
         0.10232E+02
         0.30380E+02
        -0.44685E+01
        -0.32771E+01
        -0.64517E+01
         0.62532E+01
        -0.24819E+02
        -0.76526E+01
        -0.44244E+01
         0.70509E+01
        -0.34314E+01
        -0.87132E+01
         0.43389E+01
        -0.15411E+02
        -0.14825E+01
        -0.24772E+01
         0.10455E+02
        -0.27678E+01
         0.17692E+01
        -0.50714E+01
         0.16747E+02
        -0.40178E+01
         0.21899E+02
        -0.98007E+01
         0.98843E+01
        -0.10783E+02
        -0.22140E+01
        -0.62213E+01
         0.15198E+02
        -0.13385E+02
         0.75935E+01
        -0.58920E+01
         0.68622E-03
        -0.47222E+01
        -0.45710E+01
        -0.21213E+01
         0.72051E+01
        -0.99234E+00
        -0.55298E+00
        -0.95511E+01
         0.17067E+02
        -0.65764E+01
         0.76737E+00
         0.46028E+00
        -0.73416E+01
        -0.21645E+01
        -0.61818E+00
         0.25658E+01
        -0.15209E+02
         0.10432E+02
         0.19093E+02
        -0.24973E+01
        -0.83225E+01
         0.54339E+01
        -0.39974E+01
         0.19207E+01
         0.91392E+01
        -0.39975E+01
        -0.13297E+02
        -0.31481E+01
         0.70913E+01
        -0.75400E+00
         0.14437E+01
        -0.10952E+01
        -0.14244E+02
         0.11701E+02
        -0.10402E+02
         0.10791E+02
         0.37682E+01
        -0.13855E+02
        -0.64233E+01
         0.59437E+01
        -0.41833E+01
        -0.17162E+01
         0.47143E+01
        -0.90912E+01
         0.10735E+02
        -0.84609E+01
        -0.94563E-01
         0.47331E+01
        -0.10152E+02
        -0.66557E+01
        -0.52828E+01
         0.10610E+02
        -0.34249E+01
        -0.22699E+01
        -0.17518E+02
        -0.10301E+02
         0.19139E+02
        -0.62750E+01
        -0.61324E+00
         0.75353E+01
         0.30886E+01
        -0.10421E+02
         0.25931E+01
         0.92551E+00
         0.12116E+02
         0.25677E+01
         0.57054E+01
         0.74474E+00
         0.38018E+01
        -0.10140E+02
         0.22725E+02
        -0.53747E+01
         0.94784E+00
        -0.13564E+02
         0.18441E+02
        -0.11112E+02
        -0.97246E+01
         0.83637E+00
        -0.10600E+01
        -0.76868E+01
        -0.66384E+01
         0.62691E+01
         0.80884E+01
        -0.16422E+01
        -0.17568E+01
        -0.17400E+02
         0.19320E+02
        -0.14457E+02
        -0.11115E+02
        -0.10597E+02
         0.11671E+02
        -0.44024E+01
        -0.39018E+01
         0.12499E+00
        -0.14304E+02
         0.71914E+01
         0.15968E+02
        -0.48602E+01
        -0.78420E+01
         0.10519E+02
        -0.25689E+01
         0.43537E+00
         0.19783E+02
        -0.39170E+01
         0.21293E+01
         0.29440E+01
        -0.21993E+00
         0.65704E+01
         0.17337E+02
         0.60487E+00
        -0.31906E+01
         0.22036E+02
        -0.93765E+01
         0.72478E+01
        -0.41755E+01
        -0.14586E+02
        -0.49035E+01
         0.10731E+02
         0.37766E+01
         0.28851E+01
         0.44743E+01
        -0.39951E+01
         0.56654E+01
         0.75839E+01
         0.33830E+01
        -0.90851E+00
         0.61504E+01
        -0.59208E+01
        -0.15983E+02
         0.18847E+01
         0.11811E+02
        -0.11918E+02
        -0.78256E-02
         0.29425E+01
         0.12933E+01
        -0.36999E+01
        -0.13874E+01
        -0.49001E+01
        -0.83565E+01
         0.69446E+01
        -0.39636E+01
        -0.51563E+01
        -0.21864E+01
         0.36752E+01
         0.10420E+01
         0.68679E+01
         0.11538E+02
        -0.62606E+01
        -0.29705E+00
        -0.95759E+01
         0.31429E+02
        -0.51942E+01
         0.95694E+01
        -0.37785E+01
         0.20563E+01
        -0.10477E+02
        -0.13388E+01
        -0.26222E+01
        -0.22212E+01
         0.59371E+01
         0.63305E+01
         0.37540E+00
         0.42465E+01
        -0.24458E+01
         0.16098E+02
         0.27597E+01
        -0.64669E+01
         0.80924E+01
         0.33093E+01
        -0.39126E+01
        -0.61723E+01
         0.37750E+01
        -0.56372E+01
         0.20176E+01
         0.69815E+01
        -0.23615E+01
        -0.86877E+01
         0.39601E+01
         0.45038E+01
         0.11743E+01
         0.83009E+01
        -0.75100E+01
        -0.39221E+01
        -0.32799E+01
         0.60104E+01
        -0.10479E+02
         0.22752E+01
         0.19173E+01
         0.23403E+01
         0.17533E+02
        -0.36113E+01
         0.56670E+01
         0.33411E+01
        -0.71288E+01
         0.14918E+00
         0.91200E+01
        -0.12687E+02
        -0.33882E+01
         0.10966E+02
        -0.94971E+00
         0.67052E+01
        -0.91025E+01
        -0.40341E+01
        -0.34313E+01
         0.13590E+02
        -0.82814E-01
        -0.15583E+02
        -0.71851E+01
         0.79886E+01
        -0.59541E+01
        -0.17152E+01
         0.13781E+00
         0.74333E+00
        -0.30441E+01
        -0.35537E+01
         0.70668E+01
        -0.65574E-02
        -0.40242E+01
         0.49285E+01
         0.20725E+01
        -0.53128E-01
         0.14950E+01
         0.93706E+01
        -0.58427E+01
         0.54188E+00
         0.58035E+01
         0.11603E+02
        -0.78730E+01
        -0.47554E+01
        -0.14272E+02
         0.69770E+01
        -0.50461E+01
         0.16809E+01
         0.97046E+01
         0.13527E+01
        -0.45045E+01
        -0.40026E+01
        -0.42822E+00
        -0.69486E+01
        -0.30729E+01
        -0.34329E+01
         0.57563E+00
         0.27846E+01
         0.71015E+01
         0.41171E+01
         0.93737E+01
        -0.10101E+02
        -0.12489E+02
        -0.99951E+01
         0.11876E+01
        -0.13554E+01
        -0.30156E+01
         0.50632E+01
         0.12973E+01
        -0.72430E+00
         0.20985E+00
         0.90196E+01
        -0.22985E+01
         0.11847E+02
         0.14800E+02
        -0.26032E+01
        -0.63429E+01
        -0.52116E+01
        -0.97762E+01
         0.66922E+01
        -0.33823E+01
        -0.50603E+01
         0.45742E+01
        -0.39651E+01
         0.59813E+01
        -0.81644E+01
        -0.95600E+01
         0.46691E+00
         0.10152E+02
        -0.11120E+01
         0.84411E+00
        -0.88940E+01
         0.32230E+01
        -0.12907E+01
        -0.65060E+01
        -0.15647E+01
        -0.11344E+01
         0.44910E+01
        -0.12486E+01
        -0.37226E+01
         0.44481E+01
         0.13808E+02
        -0.41119E+01
         0.13762E+01
        -0.12352E+02
        -0.63885E+01
         0.54807E+01
         0.12218E+01
        -0.78975E+01
         0.90800E+01
        -0.11640E+02
         0.73991E+01
        -0.27448E+01
         0.13115E+02
         0.13321E+01
         0.57040E+01
        -0.21659E+01
         0.97888E+01
        -0.46353E+01
         0.22691E+01
         0.15921E+02
         0.54281E+01
         0.19184E+00
         0.12137E+01
         0.15269E+01
        -0.44641E+01
        -0.24240E+02
        -0.83940E+01
        -0.10882E+01
        -0.19144E+01
         0.99841E+01
        -0.34824E+01
        -0.60287E+01
         0.16915E+01
         0.23571E+01
         0.44812E+01
        -0.26093E+01
         0.46535E+01
        -0.57336E-02
        -0.88739E+01
         0.17325E+01
         0.74168E+01
        -0.67468E+01
         0.86308E+01
        -0.27133E+01
         0.14845E+01
         0.19490E+01
         0.46014E+01
         0.34900E+01
        -0.77330E+01
        -0.52073E+01
        -0.14868E+01
         0.24223E+02
         0.19525E+01
        -0.11121E+01
        -0.97733E+01
        -0.24105E+01
        -0.18655E+01
         0.15248E+00
         0.97890E+00
         0.36752E+01
        -0.23680E+01
        -0.54989E+01
        -0.36262E+01
         0.49035E+01
         0.17035E+02
         0.16608E+02
         0.57001E+01
         0.93487E+01
         0.11347E+02
         0.15977E+02
         0.31596E+01
        -0.24588E+01
        -0.41187E+00
        -0.33826E+01
        -0.37444E+00
         0.49652E+01
         0.86548E+01
         0.55870E+01
         0.17112E+02
        -0.70717E+01
         0.14716E+02
        -0.11368E+02
        -0.27944E+01
        -0.70404E+01
        -0.14708E+01
         0.15076E+01
         0.37496E-01
        -0.99934E+01
         0.73756E+01
        -0.10926E+02
        -0.51966E+01
        -0.29390E+01
        -0.63422E+01
         0.87469E+00
         0.10643E+02
        -0.30981E+01
         0.44922E+01
        -0.25934E+01
        -0.53193E+00
         0.69970E+01
        -0.96292E+01
        -0.41849E+01
         0.38745E+01
        -0.12194E+00
         0.57305E+01
         0.14961E+02
        -0.48155E+00
         0.67111E+01
        -0.10043E+01
         0.20406E+00
        -0.30891E+01
         0.82314E+01
        -0.16061E+01
        -0.28418E+01
         0.44518E+01
         0.10244E+01
         0.51459E+00
        -0.82263E+01
        -0.12863E+02
        -0.36766E+00
         0.90067E+01
        -0.23912E+01
        -0.11989E+00
         0.11270E+01
        -0.24439E+01
        -0.68730E+01
         0.44819E+01
        -0.15708E+01
         0.82170E+01
         0.78626E+01
         0.26381E+01
         0.15779E+01
        -0.50033E+01
        -0.15094E+01
        -0.75802E+01
         0.10511E+01
        -0.34778E+00
         0.51342E+01
        -0.51889E+01
        -0.17059E+01
        -0.18518E+02
        -0.54929E+01
        -0.10596E+00
         0.65980E+01
        -0.10855E+02
        -0.49930E+01
        -0.25207E+01
         0.33591E+01
         0.34048E+00
         0.76312E+01
         0.69298E+01
        -0.58052E+00
         0.48716E+01
         0.54311E+01
        -0.65104E+01
        -0.91494E+01
         0.79518E+01
        -0.30720E-01
         0.39310E+01
        -0.11426E+02
        -0.75218E+01
        -0.22380E+00
         0.69935E+01
        -0.59678E+01
        -0.27141E+01
        -0.31739E+01
         0.11086E+02
         0.24926E+01
        -0.76226E+00
         0.88943E+01
         0.97753E+01
        -0.60760E+01
         0.25845E+01
         0.57877E+01
         0.62561E+01
         0.29197E+01
        -0.13055E+02
        -0.25668E+01
         0.11361E+01
        -0.46718E+01
         0.76439E+00
        -0.25658E+01
        -0.20463E+02
         0.14174E+01
        -0.55110E+01
         0.12895E+01
        -0.69773E+01
        -0.44359E+01
         0.12451E+01
         0.10842E+02
         0.25843E+01
         0.14798E+01
         0.57742E+01
         0.62324E+01
         0.13968E+01
         0.50915E+00
        -0.73212E+01
         0.22306E+01
        -0.47359E+00
        -0.13161E+01
        -0.11313E+01
         0.20843E+01
        -0.15632E+01
        -0.43568E+01
         0.10699E+02
         0.19000E+01
        -0.10548E+01
        -0.58642E+00
         0.50701E+01
        -0.62018E+01
         0.55813E+01
         0.92349E+01
         0.52600E+01
         0.14296E+00
         0.14879E+01
        -0.26143E+01
        -0.61695E+00
         0.39199E+01
        -0.14398E+01
        -0.35102E+01
        -0.17866E+01
        -0.21397E+01
        -0.12802E+01
         0.10931E+02
         0.10482E+02
        -0.10978E+01
        -0.91742E+01
         0.10740E+01
         0.64969E+01
         0.88446E+01
         0.26768E+01
         0.39250E+01
        -0.92806E+00
        -0.77401E+00
        -0.21324E+01
         0.21807E+00
         0.73707E+01
        -0.15029E+01
        -0.39767E+01
        -0.34434E+01
         0.66435E+01
        -0.35062E+00
         0.75003E+01
         0.28088E+01
        -0.10484E+02
        -0.36482E+01
         0.49369E+01
        -0.14570E+01
        -0.92749E+01
         0.42657E+01
         0.33782E+01
        -0.27699E+01
        -0.90188E+01
         0.49601E+01
         0.49652E+01
        -0.14681E+01
         0.77051E+01
         0.27807E+01
        -0.16047E+01
         0.19799E+01
        -0.21220E+01
         0.87095E+01
        -0.85292E+01
         0.66569E+01
        -0.15316E+01
        -0.48086E+01
        -0.32910E+01
         0.12735E+02
         0.81790E+01
        -0.55385E+01
        -0.90953E+00
        -0.76343E+01
         0.15183E+02
         0.10401E+02
        -0.20661E+00
        -0.25764E+01
        -0.42191E+01
         0.22803E+01
         0.28279E+01
        -0.25548E+01
         0.48363E+01
         0.80603E+01
         0.61582E+01
        -0.31045E-01
        -0.10002E+01
        -0.46201E+01
         0.30532E+01
        -0.40134E+01
        -0.66305E+01
         0.38850E+01
        -0.77390E+01
         0.19688E+01
         0.24408E+01
         0.14401E+01
        -0.21214E+01
         0.19832E+01
        -0.69242E+01
         0.33470E+01
         0.51483E+01
        -0.98388E+01
         0.76731E+01
         0.29583E+01
        -0.13497E+02
        -0.77252E+01
        -0.26632E+01
        -0.89266E+00
         0.10693E+01
         0.89050E+01
         0.61200E+01
         0.17214E+01
        -0.81209E+01
         0.28546E+00
         0.91642E+01
         0.11517E+02
        -0.45490E+01
        -0.95945E+01
         0.70203E+01
         0.60630E+00
        -0.52306E+01
        -0.73218E+01
        -0.37918E+01
        -0.81579E+01
         0.13125E+02
         0.25569E+01
         0.59358E+01
        -0.64313E+01
         0.13949E+02
        -0.43385E+01
         0.25723E+01
         0.11811E+02
        -0.41264E+00
         0.10714E+01
        -0.33011E+01
        -0.10774E+02
        -0.30515E+01
         0.47278E+00
         0.40523E+00
         0.49818E+00
        -0.22125E+01
         0.14853E+00
         0.47965E+01
         0.72910E+01
         0.19538E+01
         0.26590E+01
        -0.56972E+01
         0.34023E+01
         0.41685E+00
         0.71707E+01
         0.58135E+01
        -0.65832E+00
         0.27788E+01
         0.16683E-01
        -0.16764E+02
         0.27107E+01
         0.32588E+01
         0.42221E+00
        -0.44634E+01
        -0.53303E-01
        -0.51445E+01
        -0.91421E+01
         0.48914E+01
         0.38278E+01
         0.80690E+00
        -0.12746E+01
        -0.13889E+01
        -0.53040E+00
        -0.19192E+00
         0.67305E+01
        -0.48808E+01
        -0.92443E+01
         0.16717E+01
         0.28815E+01
        -0.14973E+01
         0.15536E+01
        -0.56682E+01
        -0.49553E+01
        -0.10064E+02
        -0.25563E+01
         0.40405E+01
        -0.92799E+00
         0.44374E+00
         0.66140E+01
         0.66853E+01
         0.51380E+01
         0.33013E+01
         0.56233E+01
         0.45529E+01
         0.21759E+01
        -0.74418E+01
        -0.24471E+01
         0.13941E+01
         0.12819E+01
         0.15898E+01
         0.70828E+00
        -0.84180E+01
        -0.79429E+01
         0.56072E+01
         0.14128E+01
         0.11034E+01
         0.31740E+00
         0.24333E+01
        -0.10237E+02
         0.13231E+02
        -0.73468E+01
        -0.98106E+00
        -0.10393E+01
         0.85425E+01
        -0.55522E+01
        -0.13121E+01
         0.41634E+01
        -0.20168E+01
         0.36252E+01
         0.61712E+01
        -0.25649E+00
        -0.72389E+01
        -0.29802E+01
        -0.75118E+01
        -0.22427E+01
        -0.61260E+01
         0.10688E+01
        -0.21800E+01
        -0.42250E+01
        -0.24413E+01
         0.29654E+00
         0.10639E+01
         0.81592E+00
        -0.92188E+00
        -0.40336E+01
        -0.54329E+01
         0.12581E+00
        -0.65076E+01
         0.15839E+01
         0.48780E+01
         0.29778E+01
         0.21042E+01
        -0.26722E+01
         0.89262E+00
         0.27131E+01
        -0.49622E+01
         0.14361E+01
        -0.12051E+02
        -0.44643E+01
         0.18160E+01
        -0.18928E+00
         0.10489E+01
         0.66195E-01
         0.11597E+01
         0.47835E+00
         0.37197E+01
        -0.13104E+01
         0.28863E+01
         0.24832E+01
         0.10076E+02
         0.66281E+01
         0.21448E+01
        -0.26776E+01
        -0.30669E+01
        -0.73241E+00
         0.67548E+01
         0.45355E+01
         0.24936E+01
        -0.31253E+01
        -0.53175E+01
        -0.58508E+01
        -0.49438E+01
         0.65954E+00
         0.64019E+00
         0.49189E+01
         0.14893E+01
         0.14584E+01
         0.38525E+01
         0.29524E+00
         0.15713E+01
         0.56391E+01
         0.42627E+01
        -0.39231E+01
         0.49863E+01
        -0.25605E+01
         0.33974E+01
         0.59267E+01
        -0.49507E+01
        -0.81420E-01
         0.50002E+01
        -0.25925E+01
         0.44560E+01
         0.10304E+02
         0.38856E+01
        -0.44449E+01
         0.18850E+01
        -0.55075E+01
        -0.28224E+01
        -0.80016E+00
         0.63520E+01
         0.27327E+01
         0.87439E+01
         0.53760E+01
         0.20053E+00
         0.22059E+01
        -0.20359E+01
         0.16092E+01
        -0.52885E+01
         0.34942E+01
        -0.47333E+01
         0.41492E+01
         0.63709E+00
         0.27417E+01
        -0.13655E+02
        -0.30389E+01
        -0.60345E+01
         0.28543E+01
         0.28678E+01
        -0.21137E+01
        -0.18053E+01
        -0.30017E+01
        -0.63425E+01
        -0.63695E+01
         0.19520E+01
         0.11818E+01
         0.89086E+01
        -0.53117E+00
         0.25256E+01
         0.31721E+01
         0.60262E+01
         0.74202E+00
         0.16447E+01
         0.29050E+01
        -0.21735E+01
         0.10957E+01
        -0.28327E+01
         0.19273E+01
        -0.14539E+02
        -0.83747E+01
        -0.50009E+01
         0.24175E+01
         0.26861E+01
        -0.38099E+01
        -0.12565E+02
        -0.63339E+00
         0.51753E+01
         0.15675E+02
         0.65506E+01
         0.49559E+00
         0.56478E+00
        -0.57347E+00
        -0.55340E+01
        -0.42614E+01
        -0.78836E+01
         0.54813E+00
         0.86837E+01
        -0.65566E+01
        -0.89159E+01
        -0.58590E+01
         0.25134E+01
        -0.48404E+01
        -0.36427E+01
        -0.10121E+01
         0.38353E+00
         0.64272E+01
         0.25545E+01
         0.39069E+01
         0.47471E+00
         0.49226E+01
        -0.53776E+01
        -0.42570E+01
         0.58873E+01
         0.32421E+01
         0.33007E+01
         0.54193E+01
         0.49600E+01
        -0.15226E+01
        -0.17562E+01
        -0.89932E+01
        -0.71325E+01
        -0.72457E+01
        -0.29555E+01
         0.21641E+00
        -0.53212E+01
        -0.15919E+01
        -0.68801E+01
         0.45339E+00
        -0.13146E+01
         0.31169E+01
        -0.32089E+01
         0.10929E+01
        -0.48781E+01
         0.38745E+01
         0.13202E+01
        -0.35752E+00
         0.64149E+01
        -0.37391E+01
        -0.27079E+01
        -0.45847E+01
         0.34250E+01
         0.52258E+01
         0.36705E+01
        -0.70490E+00
        -0.10366E+01
        -0.42108E+01
        -0.10717E+00
        -0.10179E+02
        -0.10391E+01
        -0.19388E+01
         0.38515E+00
         0.19432E+01
         0.46121E+00
        -0.63442E+01
         0.19370E+01
         0.18547E+01
        -0.93771E+01
        -0.20017E+01
         0.86567E+00
        -0.44474E+01
        -0.57440E+01
         0.62778E+00
         0.10514E+02
         0.57339E+01
        -0.18543E+01
        -0.65177E+01
        -0.10753E+02
        -0.20371E+00
         0.52418E+01
         0.53291E+01
         0.23099E+01
         0.89112E+00
         0.87138E+00
         0.18112E+01
        -0.20352E+01
        -0.59219E+01
        -0.47236E+01
        -0.10545E+01
         0.29917E+01
         0.14923E+01
         0.30958E+01
        -0.23308E+01
        -0.12510E+01
        -0.10298E+02
        -0.77144E+01
         0.37781E+01
        -0.49109E+01
        -0.67102E+00
        -0.51944E+00
         0.70347E+01
         0.26035E+01
        -0.97791E+01
         0.70686E+00
        -0.46675E+01
        -0.99094E+01
        -0.33733E+01
         0.56796E+01
        -0.12185E+02
        -0.19100E+01
         0.45499E+01
        -0.14522E+01
        -0.15322E+01
        -0.38912E+01
         0.18559E+01
        -0.58920E+00
         0.52359E+01
         0.24015E+00
        -0.12191E+00
        -0.24365E+01
        -0.19324E+01
        -0.24848E+01
        -0.10119E+01
        -0.11421E+01
        -0.25114E+01
        -0.13726E+01
        -0.33891E+00
        -0.25231E+01
         0.17385E+01
         0.23210E+01
         0.36810E+01
         0.45803E+01
         0.15662E+01
        -0.11380E+01
        -0.28912E+01
        -0.69587E+00
        -0.50802E+01
         0.22446E+01
         0.50393E+01
        -0.25392E+01
        -0.32612E+01
         0.63935E+00
        -0.58917E+01
         0.21240E+01
        -0.23941E+00
        -0.40664E+01
         0.24395E+00
        -0.12611E+01
        -0.21464E+01
         0.10846E+01
         0.13337E+01
         0.84474E+01
        -0.43731E+01
        -0.10045E+02
         0.25282E+01
         0.21221E+01
         0.28207E+01
        -0.17114E+01
        -0.82870E+00
        -0.44113E+01
        -0.12394E+02
        -0.12122E+02
         0.20675E+01
         0.38779E+01
        -0.52540E+01
         0.77420E+01
        -0.19072E+01
        -0.10569E+02
        -0.10514E+02
        -0.68190E+00
         0.44201E+01
         0.69647E+00
         0.77785E+00
         0.56223E+01
        -0.27246E+01
         0.57467E+01
         0.98627E+01
         0.27902E+01
        -0.30521E+01
         0.20618E+01
         0.69274E+01
        -0.28200E+00
         0.24229E+01
        -0.46470E+01
        -0.44883E+01
        -0.74128E+00
         0.21919E+01
         0.29238E+01
        -0.20028E+01
        -0.43816E+01
        -0.68568E+01
        -0.24021E+01
         0.22428E+01
         0.69503E+01
         0.77836E+01
        -0.14837E+01
        -0.60535E+01
        -0.17522E+01
        -0.18744E+01
         0.12492E+02
         0.52732E+01
        -0.91537E+00
        -0.58293E+01
        -0.19908E+01
         0.38307E+01
         0.28023E+01
         0.33472E+01
         0.32716E+00
         0.21507E+01
        -0.67047E+01
         0.29889E+01
        -0.10312E+02
        -0.12264E+01
         0.25392E+01
         0.49149E+01
        -0.71772E+01
         0.20362E+01
         0.24401E+01
         0.11983E+01
         0.65536E+01
         0.29740E+01
         0.54826E+01
         0.20017E+01
         0.66409E+01
        -0.18552E+01
        -0.61387E+01
        -0.31698E+01
         0.53517E+01
         0.27262E+01
        -0.44526E+01
        -0.23247E+01
         0.48944E+01
         0.37268E+00
         0.49742E+01
         0.39466E+01
        -0.61689E+00
         0.15299E+01
         0.31402E+00
        -0.43395E+01
        -0.27192E+01
         0.28278E+01
        -0.90898E+01
         0.85394E+01
        -0.11664E+02
        -0.22680E+01
         0.48582E+01
         0.12914E+02
         0.34853E+01
        -0.72937E+01
        -0.52965E+01
         0.98278E+01
        -0.27614E+01
        -0.83186E+01
        -0.88622E+01
        -0.84068E+01
        -0.33429E+01
         0.75077E+00
        -0.60123E+00
        -0.20105E+00
        -0.71735E+01
         0.60957E+01
         0.93305E+01
        -0.56623E+00
        -0.26546E+01
         0.49646E+01
        -0.12583E+02
        -0.19441E+01
        -0.28826E+00
        -0.56213E+01
        -0.62121E+01
        -0.14808E+01
        -0.95622E+00
        -0.24045E+01
        -0.49461E+00
         0.47356E+01
         0.29191E+01
         0.50084E+01
         0.66145E+01
        -0.50802E+00
         0.21180E-01
        -0.16937E+01
        -0.60351E+00
        -0.16518E+01
        -0.29410E+01
         0.16614E+01
        -0.12343E+01
        -0.42583E+01
        -0.33751E+00
        -0.30302E+01
         0.35046E+01
         0.11480E+02
        -0.40303E+01
         0.17030E+01
        -0.36745E+01
         0.50761E+00
        -0.69197E+00
        -0.54999E+01
        -0.29246E+01
        -0.34992E+01
        -0.22517E+01
        -0.52119E+01
         0.67303E+01
         0.31418E+01
         0.56525E+00
         0.22184E+01
         0.82627E+01
         0.23352E+01
        -0.28627E+01
        -0.24438E+01
         0.84960E+00
         0.23067E+01
        -0.12278E+01
        -0.20167E+01
        -0.41368E+01
        -0.46809E+01
        -0.33105E+01
        -0.45518E+01
        -0.72008E+01
        -0.72391E+01
        -0.60605E+01
         0.12013E+01
         0.71044E+01
         0.99095E+01
        -0.57577E+01
        -0.13739E+02
        -0.39549E+01
         0.12538E+02
         0.73637E+01
        -0.94341E+01
         0.35064E+01
         0.12244E+02
         0.50054E+01
        -0.35446E+01
         0.32865E+01
         0.88184E+01
         0.29984E+01
         0.84094E+01
        -0.38977E+01
        -0.80806E+01
        -0.56024E+01
        -0.66333E+00
         0.14931E+01
        -0.16770E+01
        -0.32091E+00
         0.21153E+01
        -0.16938E+00
         0.42682E+01
         0.33824E+01
         0.33010E+00
        -0.39378E+01
        -0.10512E+01
         0.24370E+01
         0.23906E+01
        -0.31005E+01
        -0.11453E+00
        -0.55032E+01
         0.52480E+01
         0.41588E+01
        -0.19269E+01
         0.35486E+01
        -0.19485E+01
        -0.14256E+01
        -0.42320E+01
         0.12634E+01
         0.15904E+01
        -0.95490E+00
        -0.50459E+00
         0.10545E+01
         0.79591E+01
         0.50348E+01
         0.31674E+01
         0.15608E+01
         0.82248E+00
        -0.84908E+00
         0.44006E+01
         0.21103E+01
         0.38937E+01
        -0.81855E+00
        -0.17754E+01
        -0.62589E+01
         0.26874E+00
         0.46226E+00
        -0.42605E+01
        -0.14599E+02
        -0.64217E+01
        -0.25998E+00
        -0.15968E+01
        -0.10377E+01
         0.48423E+01
         0.71169E+01
         0.14905E+02
         0.38104E+01
         0.10369E+01
         0.48841E+01
         0.62125E+01
         0.83058E+01
         0.10708E+01
         0.25274E+01
        -0.47721E+01
         0.11745E+00
        -0.12356E+02
        -0.26290E+01
         0.12029E+02
        -0.42387E+01
        -0.70599E+00
        -0.14674E+02
         0.78684E+01
         0.71988E+01
        -0.14004E+02
        -0.10269E+01
         0.48444E+01
        -0.16154E+01
        -0.20899E+01
        -0.59708E+01
        -0.37506E+01
         0.46229E+01
        -0.20501E+01
         0.17972E+01
         0.46133E+01
        -0.69041E+01
        -0.10747E+01
         0.27708E+01
        -0.94609E+01
         0.27917E+00
         0.85689E+00
        -0.42157E+01
        -0.62343E+01
         0.51970E-01
        -0.11692E+01
        -0.65391E+01
         0.54249E+01
        -0.34140E+01
         0.77250E+01
        -0.18984E+02
        -0.10064E+02
        -0.38277E+00
         0.20165E+01
        -0.56033E+01
         0.23347E+00
        -0.69800E+01
        -0.31996E+01
         0.10383E+02
         0.64592E+01
        -0.25480E+01
         0.80430E+00
        -0.60900E+01
         0.84273E+01
        -0.33837E+01
        -0.74387E+00
         0.73855E+01
        -0.16571E+01
        -0.34250E+00
        -0.18525E+01
         0.26844E+01
        -0.40125E+01
        -0.67492E+01
         0.11914E+01
        -0.14313E+01
        -0.13483E+01
        -0.11304E+01
         0.26353E+01
        -0.14422E+00
         0.24650E+01
        -0.21834E+01
        -0.32581E+01
        -0.15584E+01
        -0.51658E+01
        -0.40519E+01
         0.28759E+01
         0.24150E+01
        -0.28310E+01
         0.73245E+01
         0.96205E+01
         0.44623E+01
        -0.10290E+01
        -0.85162E+01
         0.31787E+01
         0.47547E+01
         0.50034E+01
        -0.19076E+01
         0.18194E+00
         0.19841E+01
         0.32662E+01
         0.46422E+01
         0.45322E+01
        -0.18983E+02
         0.16159E+02
        -0.73502E+01
        -0.23271E+01
        -0.68107E+01
         0.49250E+01
         0.12760E+02
        -0.68934E+01
        -0.24943E+01
         0.10637E+02
        -0.34469E+01
        -0.27407E+01
         0.15701E+01
        -0.50690E+00
         0.26060E+01
         0.44996E+01
         0.93035E+01
         0.98471E+01
        -0.51830E+00
        -0.55253E+00
         0.22477E+01
         0.44219E+01
        -0.21087E+01
         0.11914E+01
        -0.85021E+01
         0.11609E+01
        -0.18687E+01
        -0.28535E+01
         0.46132E+01
        -0.84737E+00
         0.45573E+01
         0.54240E+01
        -0.52453E+01
        -0.44780E+01
        -0.25603E+01
        -0.11704E+02
        -0.32040E+01
        -0.49448E+01
        -0.87991E+01
         0.11867E+02
         0.39314E+01
         0.79188E+01
        -0.11536E+02
         0.12809E+02
        -0.77283E+01
        -0.75948E+01
         0.12412E+02
         0.29196E+01
        -0.41763E+01
         0.18008E+01
        -0.38119E+01
        -0.76698E+01
        -0.11268E+02
        -0.31762E+01
         0.12755E+01
        -0.30029E+01
        -0.32806E+01
         0.74725E+01
         0.42598E+01
         0.90849E+00
        -0.37741E+01
        -0.32142E+01
        -0.53507E+01
        -0.43627E+01
         0.33478E+01
         0.18356E+01
         0.69158E+01
         0.36606E+01
         0.55746E+01
        -0.28794E+01
        -0.15947E+01
         0.11638E+01
         0.60250E+01
        -0.37584E+01
         0.85736E+01
        -0.97568E+01
         0.44704E+01
        -0.15438E+02
         0.46351E+01
        -0.12107E+02
        -0.10343E+01
         0.30028E+01
        -0.11480E+01
         0.60004E+01
        -0.29513E+01
         0.61779E+01
         0.50529E+01
         0.68543E+01
         0.29285E+01
        -0.62723E+00
         0.49863E+01
        -0.65939E+01
        -0.18121E+01
         0.70783E+00
  
SCALARS                     velocity_y  double 1
LOOKUP_TABLE default
        -0.70246E+01
         0.23550E+01
        -0.40035E+01
         0.54053E+01
        -0.33073E+01
        -0.32057E+01
        -0.13186E+01
         0.14277E+01
        -0.84881E+01
         0.11519E+02
        -0.80337E+00
         0.25830E+01
        -0.63492E+01
        -0.14885E+02
        -0.31811E+01
        -0.43679E+01
         0.96793E+01
        -0.14454E+02
        -0.17514E+01
        -0.24378E+01
         0.17050E+01
        -0.88417E+01
         0.35232E+00
        -0.30892E+01
        -0.27842E+01
        -0.26278E+01
         0.12652E+02
        -0.72610E+01
        -0.41843E+01
        -0.39163E+01
        -0.21017E+02
         0.39676E+02
        -0.53195E+01
         0.19822E+01
         0.17774E+00
         0.81394E+00
         0.30040E+02
        -0.34399E+02
         0.26260E+00
        -0.13732E+01
        -0.17113E+02
         0.13991E+02
        -0.28708E+00
        -0.52815E+00
         0.15372E+02
         0.21895E+01
         0.98895E-01
         0.17531E+01
        -0.29912E+02
        -0.24779E+01
        -0.35667E+02
         0.26121E+01
        -0.18036E+02
        -0.25974E+01
         0.28413E+02
        -0.41639E+01
        -0.24075E+02
         0.20620E+02
        -0.45202E+01
        -0.27913E+01
         0.22822E+02
         0.12719E+02
         0.36455E+01
         0.28804E+01
        -0.93463E+01
         0.38801E+01
        -0.12452E+02
         0.26450E+01
        -0.10795E+01
         0.11844E+02
        -0.10093E+01
        -0.16410E+01
        -0.14704E+02
        -0.26361E+01
         0.72097E+01
        -0.43761E+01
        -0.17649E+02
        -0.36659E+01
        -0.18622E+01
        -0.43121E+01
        -0.10606E+02
         0.12566E+02
        -0.28419E+01
        -0.26147E+01
        -0.12971E+02
        -0.12518E+01
         0.50719E+01
         0.19738E+01
         0.29679E+02
         0.11306E+01
        -0.30143E+02
         0.47453E+01
         0.18484E+01
         0.44478E+01
         0.83184E+01
         0.74914E+01
         0.60621E+01
         0.64909E+01
         0.37118E+02
         0.26790E+01
        -0.34501E+02
         0.27808E+02
         0.16551E+01
         0.26841E+01
         0.15686E+02
        -0.14323E+02
        -0.21689E+01
        -0.16889E+01
        -0.21970E+02
        -0.37543E+01
         0.52610E+01
        -0.37875E+01
        -0.22036E+01
        -0.24923E+01
        -0.19494E+01
        -0.30266E+01
        -0.34965E+01
        -0.43491E+01
        -0.11520E+02
        -0.67251E+01
         0.89422E+01
        -0.33536E+01
        -0.11206E+02
        -0.24644E+01
         0.29457E+01
        -0.18336E+01
        -0.85682E+01
        -0.26424E+01
         0.68642E+00
        -0.18667E+01
        -0.80238E+01
        -0.78262E-01
         0.71559E+01
         0.19392E+01
        -0.24053E+01
         0.28748E+01
        -0.10030E+02
         0.13695E+01
         0.66089E+01
         0.11196E+01
         0.12191E+02
         0.10459E+01
         0.89459E+01
         0.31938E+01
         0.86986E+01
         0.51592E+01
        -0.99000E+01
         0.55568E+01
         0.89784E+01
         0.55578E+01
         0.42016E+01
         0.30779E+01
        -0.87229E+01
         0.30106E+01
         0.68364E+01
         0.18692E+01
        -0.47310E+01
        -0.23233E+02
         0.23322E+01
        -0.19640E+01
         0.42255E+01
         0.21569E+01
         0.28098E+02
        -0.39006E+02
         0.25874E+02
        -0.10542E+02
         0.11522E+02
        -0.21239E+02
         0.76442E+01
         0.93943E+01
        -0.15786E+01
        -0.30518E+02
         0.44711E+02
        -0.26603E+01
         0.23859E+02
        -0.47966E+02
        -0.57724E+01
         0.16092E+02
        -0.64381E+01
        -0.63989E+01
        -0.34501E+02
         0.12824E+01
        -0.10625E+02
         0.83904E+01
        -0.32308E+02
         0.17676E+02
         0.36880E+01
         0.32902E+02
        -0.12659E+00
        -0.91448E+01
        -0.18634E+02
         0.27178E+02
        -0.16013E+02
         0.48149E+00
        -0.10021E+02
         0.14526E+02
        -0.83333E+01
         0.72484E+01
         0.17095E+01
         0.14616E+02
        -0.13527E+01
        -0.38824E+02
         0.30854E+02
        -0.58106E+01
         0.17837E+02
         0.99472E+01
        -0.30704E+02
         0.23014E+02
         0.14622E+02
        -0.14321E+02
        -0.94546E+01
        -0.10907E+01
        -0.63303E+01
        -0.17596E+01
         0.18124E+01
        -0.19037E+02
         0.21299E+01
        -0.11566E+02
         0.60143E+01
        -0.49940E+01
         0.12858E+01
         0.19328E+01
        -0.24325E+01
         0.11751E+02
        -0.58829E+01
         0.96591E+01
        -0.53747E+01
         0.24907E+01
         0.10006E+02
         0.17154E+01
         0.14886E+02
         0.12418E+02
         0.42412E+00
         0.12881E+02
         0.80756E+00
        -0.26332E+02
         0.95051E+01
         0.32626E+01
         0.20371E+01
         0.34565E+01
         0.16114E+02
        -0.41730E+02
         0.99309E+01
         0.52684E+01
        -0.20735E+02
        -0.15060E+01
         0.42362E+01
         0.13290E+02
        -0.15837E+02
        -0.27028E+02
         0.37452E+02
        -0.70563E+01
         0.29035E+02
        -0.38581E+02
         0.64854E+01
         0.84078E+01
        -0.20325E+02
        -0.12129E+02
        -0.18848E+02
        -0.86909E+01
         0.13503E+01
         0.76507E+01
        -0.42516E+02
         0.22197E+02
         0.59103E+01
        -0.24441E+01
         0.16845E+02
        -0.14017E+02
        -0.13150E+02
         0.30738E+02
        -0.24352E+02
         0.95770E+01
        -0.25046E+02
         0.22274E+02
        -0.11723E+02
         0.12094E+01
        -0.70874E+01
         0.16191E+02
        -0.28994E+01
        -0.20940E+02
         0.31181E+02
        -0.18813E+02
         0.85488E+01
         0.14882E+02
        -0.22143E+02
         0.16236E+02
        -0.47616E+00
        -0.65411E+01
        -0.16294E+02
        -0.16138E+01
         0.50013E+01
        -0.10158E+02
         0.62714E+01
        -0.94404E+01
         0.60728E+01
        -0.13035E+02
        -0.66872E+01
        -0.31623E+01
         0.10269E+00
        -0.10277E+02
         0.29233E+01
         0.67441E+01
        -0.13837E+02
         0.11291E+02
         0.18133E+02
         0.77516E+01
         0.57773E+01
        -0.42546E+00
        -0.28227E+01
         0.47831E+01
        -0.72044E+01
         0.58632E+01
         0.11669E+02
        -0.20239E+02
        -0.79786E+01
         0.30022E+01
        -0.11651E+02
         0.47355E+00
         0.18702E+02
        -0.13561E+02
         0.64076E+01
         0.16906E+02
        -0.19404E+02
         0.81920E+01
         0.44736E+01
         0.94302E+01
        -0.11102E+02
        -0.33569E+02
         0.16162E+02
        -0.21548E+01
         0.19413E+02
        -0.25606E+02
         0.10402E+02
        -0.58474E+01
        -0.10140E+02
         0.16312E+02
        -0.32094E+02
         0.16351E+02
        -0.11997E+02
         0.15308E+02
        -0.22892E+02
         0.17830E+02
         0.16359E+01
         0.63322E+01
         0.12021E+02
        -0.40849E+01
        -0.79707E+01
         0.19686E+02
        -0.21587E+02
         0.75813E+01
        -0.24608E+02
         0.23036E+01
        -0.10716E+02
         0.44121E+01
        -0.31508E+01
         0.93824E+01
         0.50080E+01
        -0.19854E+02
         0.34719E+02
        -0.16050E+02
         0.13452E+02
         0.23627E+02
        -0.14510E+02
         0.19360E+01
         0.32997E+01
         0.55419E+01
         0.93673E+01
        -0.58090E+01
        -0.72357E+01
         0.90055E+00
        -0.18439E+02
         0.26089E+01
        -0.11382E+02
         0.21244E+01
        -0.20013E+01
         0.68163E+01
         0.28309E+01
         0.45581E+01
        -0.65247E+01
         0.12785E+02
        -0.64637E+01
         0.51495E+01
        -0.67749E+01
        -0.30616E+01
        -0.35225E+01
         0.15624E+02
        -0.49440E+00
         0.19890E+02
         0.38168E+01
         0.12145E+01
         0.14755E+02
        -0.11228E+02
         0.80464E-01
         0.36827E+01
        -0.38466E+00
         0.55723E+01
         0.11891E+01
        -0.16466E+02
        -0.79170E-01
         0.78201E+01
        -0.31990E+02
         0.13605E+02
         0.12768E+01
         0.67321E+01
        -0.54339E+01
        -0.32589E+02
         0.70577E+01
        -0.18160E+01
         0.13333E+02
        -0.18836E+02
         0.44238E+01
        -0.21990E+01
        -0.29792E+02
         0.17108E+02
        -0.20497E+02
         0.70818E+01
        -0.19198E+02
         0.11473E+02
        -0.14126E+02
         0.30714E+02
         0.32768E+01
         0.24688E+01
         0.75278E+01
        -0.15421E+02
         0.33318E+01
         0.25575E+02
        -0.17894E+02
         0.32843E+00
        -0.48235E+01
         0.84300E+01
        -0.14525E+02
         0.94512E+01
        -0.25301E+01
        -0.82181E+01
        -0.13144E+01
        -0.91406E+01
         0.48931E+01
        -0.16759E+02
         0.96529E+01
         0.57481E+01
        -0.99390E+00
         0.14016E+01
        -0.20794E+02
         0.37692E+00
        -0.46495E+01
        -0.75959E+01
         0.76880E+00
         0.68530E-01
        -0.56161E+01
         0.48259E+01
        -0.18098E+02
         0.10771E+01
        -0.16752E+02
        -0.58670E+01
        -0.12541E+02
        -0.12914E+01
         0.50475E+01
        -0.31086E+00
         0.36689E+01
        -0.94448E+00
         0.10470E+02
         0.18885E+02
        -0.96280E+01
         0.22259E+02
        -0.19127E+02
         0.88680E+00
        -0.27168E+01
         0.27739E+01
         0.59150E+01
        -0.22503E+02
        -0.12328E+02
        -0.34172E+01
        -0.85822E+01
        -0.38557E+00
         0.21353E+02
         0.72468E+01
         0.22325E+01
         0.86978E+01
        -0.14557E+02
         0.97534E+01
        -0.10494E+02
         0.12022E+02
        -0.19964E+02
        -0.22978E+02
         0.27238E+01
         0.36677E+01
         0.17483E+02
        -0.13393E+02
        -0.80426E+01
         0.38866E+01
        -0.16041E+02
         0.22061E+02
        -0.20631E+02
         0.18633E+02
        -0.28034E+02
         0.18279E+02
        -0.86106E+01
         0.76692E+01
         0.93855E+01
         0.11566E+02
         0.13037E+02
        -0.98594E+01
         0.41844E-01
         0.22655E+02
        -0.17958E+02
        -0.44597E+01
        -0.12147E+02
        -0.14558E+01
        -0.25465E+02
        -0.65342E+01
        -0.84734E+01
         0.98320E+01
         0.20530E+01
        -0.45646E+01
        -0.35318E+01
         0.88448E+00
         0.15944E+02
         0.13391E+02
         0.43347E+00
         0.39900E+01
        -0.63861E+01
         0.84060E+01
         0.13214E+02
        -0.47206E+01
         0.24656E+01
        -0.37889E+01
        -0.15493E+02
         0.82513E+01
        -0.12920E+02
         0.10640E+02
         0.72492E+01
         0.13710E+02
         0.79190E+00
         0.55996E+01
        -0.84163E+01
         0.82985E+01
        -0.10958E+01
         0.43976E+01
        -0.15979E+01
         0.31259E+01
        -0.17865E+02
         0.17084E+02
        -0.45214E+01
         0.37208E+01
         0.94496E+01
        -0.89174E+01
         0.83076E+01
        -0.20118E+02
        -0.69733E+01
         0.46175E+00
         0.52514E+01
         0.12970E+02
         0.12664E+02
         0.50478E+01
         0.11222E+02
        -0.17593E+01
        -0.12007E+02
         0.95949E+01
        -0.69057E+01
         0.62343E+01
        -0.70039E+01
        -0.18979E+02
         0.41884E+01
        -0.72886E+00
         0.14666E+02
        -0.10627E+02
        -0.15692E+01
         0.50796E+01
        -0.10193E+02
        -0.12585E+02
        -0.30055E+02
         0.70300E+01
        -0.20909E+02
         0.22438E+02
        -0.57325E+01
         0.40817E+01
        -0.19670E+01
         0.71503E+01
        -0.37216E+01
        -0.11817E+02
        -0.37762E+01
         0.19429E+02
        -0.98287E+01
        -0.64962E+01
        -0.86144E+01
         0.45692E+01
        -0.50806E+01
        -0.36429E+00
         0.63818E+01
         0.21472E+01
        -0.61900E+01
        -0.41628E+01
        -0.22485E+02
        -0.11592E+02
        -0.32034E+01
         0.14461E+02
        -0.10011E+02
         0.39552E+01
        -0.14055E+02
         0.66559E+01
        -0.32626E+01
        -0.10371E+02
         0.25127E+01
        -0.86962E+01
         0.42070E+00
        -0.37084E+01
        -0.65571E+01
        -0.92475E+01
        -0.12187E+02
        -0.16352E+02
        -0.38945E+01
        -0.14922E+01
        -0.63678E+01
         0.55807E+01
         0.79378E+00
         0.47074E+01
         0.25343E+01
         0.16186E+02
        -0.86050E+00
         0.21187E+02
        -0.11855E+02
        -0.14219E+01
        -0.97632E+00
        -0.72285E+01
         0.59556E+00
        -0.22258E+02
        -0.91290E+01
        -0.17631E+01
        -0.20927E+01
         0.11162E+02
        -0.33813E+01
        -0.10312E+02
         0.72589E+01
        -0.60821E+01
        -0.78643E+01
         0.27442E+01
         0.40705E+01
         0.33112E+01
        -0.42184E+01
        -0.94249E+01
         0.14073E+02
        -0.20170E+01
         0.13245E+02
        -0.10879E+02
         0.52611E+01
         0.61719E+01
        -0.14501E+02
        -0.13030E+02
        -0.11097E+02
         0.52320E+01
        -0.28619E+02
         0.12515E+02
        -0.93064E+01
        -0.50707E+01
         0.12699E+02
         0.14109E+02
        -0.32446E+01
        -0.34277E+01
        -0.30400E+01
         0.24415E+02
         0.60167E+01
         0.18064E+01
        -0.61714E+01
         0.30285E+01
         0.91853E+00
        -0.76659E+01
        -0.12430E+02
         0.42179E+01
         0.10390E+02
         0.98986E+01
         0.11019E+01
         0.10261E+02
         0.11705E+01
         0.14578E+02
        -0.24937E+02
         0.65488E+01
        -0.19851E+01
        -0.74465E+01
         0.58257E+00
        -0.39970E+01
         0.65702E+01
        -0.77572E+01
        -0.25035E+01
        -0.12770E+02
         0.26897E+01
         0.43368E+00
         0.23741E+01
         0.93229E+01
         0.35013E+01
        -0.77411E+00
         0.90208E+00
         0.69350E+01
        -0.14747E+02
         0.49968E+01
        -0.13662E+01
        -0.12061E+01
        -0.10314E+02
         0.47320E+01
         0.41315E+00
         0.10473E+02
         0.78866E+00
        -0.15607E+01
         0.34295E+01
        -0.21521E+02
        -0.88740E+01
         0.79973E+00
        -0.38006E+01
         0.48189E+01
        -0.12992E+01
         0.50198E+01
         0.57912E+01
         0.71395E+01
        -0.67978E+01
         0.45806E+01
         0.15272E+01
         0.60861E+01
        -0.10152E+02
        -0.75507E+01
         0.44483E+01
         0.12250E+01
         0.10002E+02
        -0.71401E+01
         0.17075E+01
        -0.23857E+01
        -0.70544E+01
        -0.64588E+01
         0.89492E+00
        -0.14277E+01
        -0.14021E+02
         0.15443E+02
        -0.11087E+02
        -0.68002E+01
         0.47709E+01
        -0.48927E+01
        -0.56669E+01
         0.39550E+01
        -0.30565E+01
         0.15092E+02
         0.52034E+00
         0.32501E+01
        -0.12066E+02
        -0.56749E+01
        -0.23412E+01
        -0.10004E+00
        -0.66202E+01
        -0.58209E+01
        -0.12999E+02
        -0.34762E+01
        -0.30502E+01
        -0.16707E+01
        -0.91226E+01
         0.14683E+02
        -0.22034E+02
         0.94366E+00
         0.24504E+01
        -0.11210E+01
        -0.62579E+01
        -0.41250E+01
        -0.56966E+01
        -0.10935E+02
         0.48903E+01
         0.12823E+01
        -0.32860E+01
        -0.45015E+01
        -0.13741E+02
        -0.19965E+01
        -0.77738E+01
        -0.19832E+01
        -0.13092E+02
         0.72121E+01
        -0.24225E+01
         0.15070E+02
        -0.95096E+01
         0.46163E+01
         0.63109E+01
         0.14266E+00
        -0.15047E+00
         0.78139E+00
         0.65849E+01
         0.33573E+01
        -0.25620E+01
        -0.21581E+02
        -0.52788E+01
         0.18631E+00
         0.61614E+01
         0.39390E+01
        -0.34491E+01
         0.92045E+01
         0.13862E+01
        -0.71232E+01
        -0.11606E+02
         0.24576E+01
        -0.14257E+01
         0.10466E+02
        -0.92211E+01
        -0.57009E+01
        -0.43089E+01
        -0.94364E+00
         0.68465E+01
        -0.73131E+01
         0.19300E+01
        -0.29327E+01
         0.12708E+02
        -0.41618E+01
        -0.74073E+01
         0.45689E+01
        -0.55661E+01
         0.55694E+01
        -0.10689E+02
         0.90988E+01
         0.21608E+01
         0.48684E+01
        -0.51387E+01
         0.22911E+01
         0.51868E+01
         0.13049E+02
        -0.64170E+01
         0.54535E+01
        -0.13027E+02
         0.50541E+00
         0.77411E+01
        -0.19799E+01
         0.47154E+01
         0.24680E+01
        -0.10216E+02
         0.20773E+02
         0.76938E+01
         0.35060E+01
        -0.10416E+02
         0.12383E+02
        -0.98306E+01
         0.98493E+00
        -0.52008E+01
        -0.17597E+00
        -0.59523E+01
         0.25077E+00
         0.50847E+01
        -0.27865E+01
        -0.13089E+02
        -0.74371E+01
        -0.80306E+01
         0.19616E+01
         0.19306E+01
        -0.49679E+01
        -0.76176E+01
         0.10146E+02
        -0.31794E+01
         0.35134E+01
        -0.59320E+01
        -0.62097E+01
         0.23335E+01
        -0.73040E+00
         0.28301E+01
        -0.61406E+01
         0.82524E+01
         0.25376E+01
        -0.10595E+01
        -0.64110E+01
         0.90178E+00
        -0.12530E+02
        -0.58619E+01
        -0.33867E+00
         0.44369E+01
        -0.35252E+01
        -0.76127E+01
         0.14883E+02
         0.68957E+01
        -0.32396E+01
        -0.18237E+02
         0.70863E-01
         0.12414E+02
         0.12205E+02
        -0.11262E+02
        -0.24670E+01
         0.44503E+01
         0.31050E+01
         0.10071E+02
        -0.66220E+01
        -0.35624E+01
        -0.63576E+01
        -0.35759E+01
        -0.49022E+01
        -0.21671E+00
        -0.46427E+01
        -0.10149E+02
        -0.33693E+01
        -0.23866E+01
         0.51583E+01
         0.13053E+01
        -0.56215E+01
         0.28874E+01
         0.53264E+01
        -0.30286E+00
         0.15152E+02
         0.41778E+01
         0.51024E+01
        -0.94780E+01
         0.21576E+01
         0.32923E+01
        -0.34439E+01
        -0.24085E+01
        -0.52402E+01
        -0.12128E+02
         0.75398E+01
        -0.38070E+01
         0.10842E+01
        -0.58309E+01
         0.85047E+01
        -0.13900E+02
        -0.92889E+01
        -0.12636E+02
         0.15027E+02
         0.47270E+01
         0.22302E+01
        -0.21824E+02
         0.80848E+01
        -0.32369E+01
         0.11105E+02
        -0.68213E+01
        -0.48129E+01
        -0.11407E+02
         0.29913E+01
         0.60066E+01
        -0.45924E+01
         0.54057E+00
        -0.98913E+01
         0.15593E+02
        -0.10467E+01
        -0.12016E+01
         0.61365E+01
         0.33365E+00
         0.20891E+01
        -0.39668E+01
        -0.10123E+00
         0.12668E+02
        -0.66953E+01
         0.28259E-01
        -0.97854E+01
        -0.37502E+01
        -0.14002E+00
         0.11045E+01
         0.44980E+01
        -0.10608E+02
        -0.92106E+00
         0.80565E+00
        -0.39460E+01
        -0.79594E+01
        -0.11192E+01
         0.13590E+02
         0.33248E+01
        -0.40227E+01
        -0.11491E+01
         0.72344E+01
        -0.49780E+00
         0.99492E+01
        -0.44765E+01
         0.11199E+01
         0.22611E+01
         0.36891E+01
        -0.17024E+01
         0.33660E+01
         0.23112E+01
        -0.35894E+01
        -0.10795E+01
        -0.10796E+02
        -0.11700E+02
        -0.23871E+01
        -0.49279E+01
        -0.12489E+01
         0.41560E+01
        -0.12939E+02
         0.50959E+01
         0.14157E+01
         0.99948E+01
        -0.75167E+01
        -0.19915E+01
         0.11911E+02
        -0.60462E+01
        -0.58237E+01
         0.57357E+01
        -0.17404E+01
         0.63047E+01
         0.10467E+01
         0.12681E+02
         0.53217E+00
         0.94991E+01
         0.12632E+01
         0.51916E+01
        -0.41529E+01
         0.38611E+01
        -0.86638E+01
         0.73668E+01
        -0.63906E+01
         0.10707E+01
        -0.64959E+01
         0.21886E+01
        -0.12995E+02
         0.95177E+01
        -0.75576E+01
        -0.49420E+01
        -0.54900E+01
        -0.58920E+01
         0.60720E+01
        -0.40806E+01
         0.36225E+01
        -0.53621E+01
         0.79457E-01
        -0.64535E+01
        -0.24152E+01
         0.47711E+01
         0.21556E+01
         0.29375E+00
         0.82847E+01
        -0.10990E+02
         0.18805E+01
        -0.57447E+01
        -0.25246E+01
        -0.17327E+01
         0.28018E+01
        -0.57083E+00
        -0.25778E+01
         0.57735E+01
        -0.68081E+01
         0.59510E+00
        -0.47343E+01
         0.95649E+01
         0.62041E+01
        -0.70028E+01
        -0.10790E+02
        -0.46485E+01
        -0.41398E+01
        -0.44455E+01
        -0.76499E+00
        -0.89042E+01
         0.23304E+01
         0.34955E+01
         0.38033E+01
        -0.25119E+00
         0.65074E+01
         0.18834E+01
        -0.37223E+01
         0.78833E+01
        -0.29262E+01
        -0.31433E+01
         0.25953E+01
        -0.37779E+01
         0.32451E+01
        -0.11953E+01
        -0.39651E+00
        -0.19254E+01
        -0.15115E+02
        -0.24011E+01
        -0.26637E+01
        -0.61477E+01
        -0.37535E+01
         0.32134E+01
         0.37563E+01
         0.16745E+01
        -0.87056E+00
         0.29751E+01
        -0.10491E+02
         0.12500E+00
        -0.42205E+01
         0.64405E+01
         0.20255E+01
        -0.20617E+01
         0.30898E+01
         0.71474E+01
        -0.15766E+01
         0.14477E+01
        -0.29724E+01
         0.94854E+01
        -0.60679E+01
        -0.24907E+01
        -0.49157E+01
         0.64838E+01
        -0.10906E+02
         0.16775E+02
        -0.77177E+00
        -0.66809E+00
         0.39646E+01
        -0.23276E+01
         0.58614E+01
         0.60175E+01
         0.12165E+02
         0.19618E+01
         0.37182E+01
        -0.20203E+01
         0.78775E+01
        -0.10704E+02
        -0.30799E+01
         0.13950E+01
         0.10427E+02
         0.43212E+01
         0.80682E+01
         0.52969E+01
         0.36135E+01
        -0.22242E+00
         0.70081E+00
         0.24365E+01
        -0.42985E+01
        -0.11793E+02
         0.48991E+01
         0.80887E+01
         0.12029E+02
         0.68594E+01
        -0.72636E+01
         0.33611E+01
        -0.73545E+00
         0.89674E+01
         0.58211E+01
         0.65234E+00
        -0.47808E+01
         0.33345E+01
        -0.34742E+01
         0.65666E+01
        -0.24248E+01
        -0.33359E+01
         0.60280E+00
         0.75201E+01
         0.71502E+01
         0.70366E+00
         0.33771E+01
        -0.46770E+01
         0.80920E+01
         0.15053E+01
        -0.94854E+00
         0.74903E+01
        -0.24473E+01
        -0.29638E+01
        -0.85598E+00
         0.40682E+01
         0.27133E+01
        -0.47370E+01
         0.90640E+00
        -0.83036E+01
        -0.14476E+01
         0.18863E+02
        -0.36345E+01
        -0.94303E+00
        -0.89251E+01
        -0.60305E+01
        -0.11365E+02
        -0.83717E+01
        -0.19313E+01
        -0.29743E+01
         0.10040E+02
         0.19256E+01
        -0.11924E+02
        -0.38601E+01
        -0.92850E+00
         0.75591E+01
        -0.13317E+02
         0.14915E+01
        -0.51313E+01
        -0.10530E+02
        -0.44182E+01
         0.11916E+01
        -0.66105E+01
         0.26815E+01
        -0.14697E+01
        -0.91737E+01
         0.52377E+00
        -0.75539E+01
         0.77721E+01
        -0.90170E+00
         0.53628E+01
         0.88166E+01
         0.35350E+01
         0.24041E+01
         0.31177E+01
        -0.49247E+01
         0.37571E+01
        -0.24176E+01
         0.33375E+01
        -0.37629E+01
        -0.83060E+01
         0.66773E+01
        -0.80248E+01
         0.16779E+01
        -0.14443E+02
        -0.70666E+01
        -0.15999E+01
         0.55098E+01
        -0.23047E+01
        -0.73965E+01
        -0.46544E+01
        -0.55805E+01
        -0.35183E+01
        -0.59920E+01
         0.25742E+01
         0.19224E+01
         0.68503E+01
         0.93374E+01
         0.62252E+01
        -0.63145E+01
         0.60130E+01
         0.40598E+01
         0.11047E+02
         0.34471E+01
        -0.44859E+01
        -0.65767E+01
         0.35973E+00
        -0.29759E+00
         0.80446E+01
         0.55066E+01
        -0.44287E+01
         0.81770E+01
        -0.89593E+01
        -0.96544E+01
         0.23645E+01
         0.32402E+01
         0.94540E-01
         0.20069E+01
         0.10885E+02
         0.16393E+02
        -0.10505E+01
         0.41415E+01
         0.20211E+01
         0.67576E+01
         0.39454E+01
        -0.49676E+01
        -0.82838E+01
         0.58389E+01
        -0.65611E+01
         0.21487E+01
         0.54862E+01
         0.12684E+02
        -0.15035E+02
         0.48919E+01
         0.25987E+01
        -0.16976E+01
         0.45922E+01
         0.61301E+01
        -0.43051E+01
        -0.18505E+00
         0.64299E+01
         0.79503E+00
         0.34939E+01
         0.14020E+02
        -0.56792E+01
        -0.57696E+01
         0.53413E+01
        -0.40138E+01
        -0.43200E+01
         0.31668E+01
         0.63521E+01
         0.63031E+00
         0.59263E+01
         0.52742E+00
         0.32979E+01
        -0.62412E+00
         0.33409E+01
        -0.28173E+01
         0.47598E+01
         0.81012E+01
         0.45387E+00
        -0.19458E+01
         0.38703E+01
         0.65466E+01
         0.21369E+01
         0.18066E+01
         0.75711E+01
         0.59403E+01
         0.33229E+01
         0.44285E+01
         0.31954E+01
         0.16674E+01
         0.27101E+01
         0.77248E+01
        -0.64922E+00
         0.11319E+02
         0.19496E+01
         0.38928E+01
        -0.38943E+01
        -0.69301E+01
         0.25311E+01
         0.58789E+01
         0.50390E+01
        -0.60381E+01
         0.60962E+01
        -0.24530E+01
         0.83895E+01
         0.15836E+01
        -0.34939E+01
         0.13561E+02
         0.15809E+01
        -0.63120E+01
         0.24243E+00
         0.11098E+02
         0.86225E+01
        -0.38277E+01
        -0.26417E+01
        -0.22385E+02
        -0.17411E+02
        -0.59499E+01
        -0.39086E+01
         0.15872E+01
         0.43456E+01
        -0.11367E+01
         0.83398E+01
         0.95922E+01
         0.20816E+01
         0.45738E+01
        -0.43647E+01
         0.18224E+00
         0.18578E+01
        -0.81609E+01
         0.39023E+01
         0.48143E+01
         0.42329E+01
        -0.55423E+01
         0.42597E+01
        -0.55542E+01
        -0.34426E+01
         0.55091E+01
        -0.19859E+01
        -0.49786E+01
         0.87927E+01
         0.74347E+01
        -0.69546E+00
         0.43914E+01
         0.50517E+01
        -0.49875E+01
         0.49661E+00
         0.65699E+00
         0.48839E+01
         0.17217E+01
         0.44779E+01
        -0.28623E+00
         0.53038E+01
         0.38271E+01
         0.11628E+01
         0.10496E+02
         0.15492E+01
         0.11136E+02
        -0.51085E+01
         0.67521E+01
         0.55479E+01
         0.10583E+01
        -0.47838E+01
        -0.23365E+01
         0.15076E+01
        -0.23437E+01
        -0.47701E+01
         0.11044E+01
         0.35391E+01
         0.44838E+01
         0.39925E+01
        -0.30207E+01
         0.64261E+01
         0.57994E+01
         0.65894E+01
        -0.34928E+01
        -0.98176E+01
        -0.17259E+01
         0.37161E+01
         0.13494E+02
        -0.11859E+01
        -0.38597E+01
         0.59131E+01
        -0.38408E+01
        -0.28452E+01
        -0.12948E+02
        -0.38459E+01
         0.54738E+01
         0.12483E+02
        -0.31539E+01
        -0.38491E+01
         0.11689E+02
         0.24827E+02
         0.22270E+02
         0.16772E+02
         0.96203E+01
        -0.22778E+01
         0.92173E+00
         0.10334E+02
         0.69472E+01
        -0.29874E+00
         0.16346E+01
        -0.19096E+01
         0.10344E+02
        -0.10322E+01
        -0.79484E+01
         0.13256E+02
         0.50954E+01
        -0.41341E+01
        -0.51670E+01
         0.19439E+01
        -0.45749E+01
        -0.13224E+01
         0.89601E+01
         0.61911E+01
        -0.82497E+01
         0.73659E+01
         0.80669E+01
         0.46530E+00
        -0.27223E+00
         0.73182E+01
         0.53375E+01
         0.29299E+01
         0.48282E+01
         0.32097E+01
        -0.76958E+00
         0.25197E+01
        -0.38335E+00
         0.79159E+01
         0.18745E+01
         0.68401E+01
         0.32331E+01
        -0.16705E+01
        -0.18916E+01
         0.27008E+00
        -0.28249E+01
         0.10866E+02
         0.27242E+01
         0.97038E+00
         0.14162E+02
         0.52634E+01
         0.85232E+01
         0.24655E+01
         0.66734E+01
         0.58038E+01
         0.66024E+00
        -0.43630E+00
        -0.24017E+01
         0.55150E+01
         0.16385E+02
        -0.30145E+00
         0.22398E+00
         0.87182E+01
         0.56338E+01
         0.79386E+01
         0.16678E+01
         0.37829E+01
        -0.48728E+01
         0.49634E+01
         0.10053E+01
         0.10742E+02
         0.44230E+01
         0.13038E+01
         0.18572E+01
         0.24907E+01
         0.51253E+00
        -0.41042E+01
         0.21144E+01
        -0.12870E+00
        -0.21596E+01
        -0.10279E+02
        -0.13602E+02
         0.36903E+01
         0.92296E+01
         0.33421E+01
         0.41565E+01
         0.66472E+00
         0.17178E+01
        -0.19454E+01
         0.15382E+01
         0.14107E+01
         0.56153E+00
         0.21361E+00
         0.98213E+01
         0.32135E+01
        -0.34652E+01
        -0.46433E+01
         0.13128E+02
        -0.63511E+01
         0.12114E+02
         0.15777E+01
        -0.29325E+01
         0.92971E+00
         0.50254E+01
         0.50205E+01
        -0.37097E+01
         0.43281E+01
         0.71172E+01
         0.27409E+01
        -0.78474E+01
         0.22687E+01
         0.10747E+02
        -0.62363E+00
         0.78895E+01
         0.77672E+01
         0.59651E+01
         0.69691E+01
         0.25224E+01
         0.22621E+01
         0.16583E+01
         0.50532E+01
        -0.17005E+01
         0.60375E+01
        -0.35673E+01
         0.83743E+01
         0.16951E+01
         0.42669E+01
         0.18400E+01
        -0.22711E+01
         0.23605E+01
         0.42608E+01
         0.41414E+01
         0.41116E+01
         0.21846E+01
         0.50508E+01
         0.28518E+01
         0.14021E+01
         0.43763E+01
         0.16106E+01
        -0.58144E+01
        -0.41360E+01
        -0.59908E+00
         0.63221E+01
         0.25691E+01
        -0.21388E+01
        -0.22666E+01
         0.10035E+01
         0.30614E+01
        -0.67720E+01
         0.38153E+00
         0.35625E+01
         0.18278E+01
         0.72740E+01
         0.11945E+01
        -0.91224E+01
         0.49671E+01
         0.57563E+01
         0.41408E+00
         0.82230E+01
         0.14594E+02
         0.10636E+02
         0.79200E+01
         0.69996E+01
         0.96318E+01
         0.12010E+02
         0.51915E+01
         0.92455E+01
         0.75962E+01
         0.13380E+02
         0.34517E+01
        -0.31200E+01
        -0.16916E+01
        -0.84146E+01
         0.98382E+01
         0.31788E+01
         0.38908E+01
        -0.35719E+01
        -0.20991E+00
         0.91433E+00
         0.31437E+01
         0.14136E+01
         0.88870E+00
         0.46818E+01
         0.92349E+01
         0.97305E+00
        -0.38731E+01
         0.96071E+01
         0.56165E+01
         0.10468E+02
         0.32286E+01
        -0.32560E+01
         0.10931E+02
         0.64100E+01
         0.19784E+01
         0.37033E+01
         0.37264E+01
        -0.82992E+00
        -0.33283E+01
        -0.46051E+01
        -0.11014E+02
         0.69058E+01
        -0.50339E+01
        -0.87938E+01
         0.48348E+01
         0.12770E+01
        -0.27258E+01
         0.65707E+01
         0.44486E+01
         0.22732E+01
         0.82920E+01
        -0.29015E+01
        -0.17494E+01
         0.21964E+01
         0.24446E+01
         0.51711E+01
        -0.50084E-01
         0.10028E+01
         0.23505E+01
        -0.95978E+00
        -0.21369E+01
        -0.35278E+01
         0.11971E+01
         0.17609E+01
         0.81656E-01
         0.53284E+01
         0.39033E+01
        -0.78766E+01
        -0.30774E+01
        -0.69590E+00
         0.12697E+01
        -0.96042E+00
        -0.10842E+01
        -0.38458E+01
        -0.43323E+01
         0.36516E+01
         0.11912E+02
         0.11929E+02
         0.63650E+01
        -0.42925E+01
        -0.50299E+01
        -0.24726E-01
         0.44583E+00
         0.17915E+01
        -0.78672E+00
         0.10005E+01
        -0.10664E+01
         0.23236E+01
         0.20533E+01
         0.79836E+01
         0.13280E+02
         0.16625E+01
         0.30791E+01
         0.47218E+01
        -0.12018E+02
         0.20550E+02
        -0.30972E-01
        -0.10202E+01
         0.13342E+01
        -0.10656E+01
         0.52295E-01
         0.44181E+01
        -0.90159E+01
         0.52180E+01
        -0.98431E-01
        -0.48810E+00
         0.73169E+00
         0.28706E+01
        -0.17504E+01
         0.43479E+01
         0.48615E+01
         0.22977E+01
         0.98686E+00
         0.58911E+01
         0.32015E+01
         0.63167E+01
        -0.12719E+00
         0.30229E+00
         0.22068E+01
         0.89869E+00
         0.58119E+00
         0.13046E+02
         0.41584E+01
        -0.14071E+01
         0.16673E+02
         0.71281E+01
        -0.11669E-01
        -0.43150E+01
         0.58280E+00
        -0.55344E+01
         0.37231E+00
        -0.67006E+00
         0.14877E+01
         0.25481E+01
         0.59511E+00
         0.39262E+01
         0.38664E+01
         0.80989E+01
         0.61734E+01
         0.27688E+01
         0.94686E+01
         0.69558E+01
         0.21952E+01
         0.85305E+01
         0.89198E+01
         0.84319E+01
         0.31819E+01
        -0.14123E+01
         0.18585E+01
        -0.18638E+01
         0.26777E+01
        -0.21231E+01
         0.31220E+01
         0.50015E+01
         0.54120E+01
        -0.45455E+00
        -0.12698E+02
         0.27785E+01
         0.85667E+01
         0.81425E+01
         0.44282E+01
         0.46902E+01
        -0.12626E+01
         0.62590E+01
        -0.23807E+01
        -0.76743E+00
        -0.23921E+01
        -0.51413E+01
        -0.13246E+02
        -0.36648E+00
        -0.53724E+00
        -0.48945E+00
         0.51383E+01
        -0.98227E+01
        -0.16269E+01
         0.30906E+01
         0.42978E+00
         0.57379E+01
         0.27319E+01
        -0.67897E+01
         0.51865E+01
         0.11434E+02
        -0.19541E+01
         0.43532E+01
         0.23428E+01
         0.29800E+01
         0.14909E+02
         0.48899E+01
         0.40506E+01
         0.95437E+00
        -0.79430E+00
         0.14902E+01
         0.10444E+01
         0.36741E+01
         0.28935E+01
         0.18888E+00
        -0.46297E+00
         0.11727E+01
        -0.11941E+01
         0.13370E+01
        -0.11721E+01
        -0.25970E+01
        -0.60918E+01
        -0.21102E+01
         0.56769E+01
         0.80762E+01
        -0.13618E+01
         0.89954E+01
         0.10461E+02
         0.44542E+01
        -0.16795E+01
         0.28844E+01
         0.73410E+01
         0.90106E+00
         0.12671E+01
        -0.70203E+01
        -0.24432E+01
         0.52668E+01
         0.72324E+01
         0.96602E-01
        -0.60499E+01
         0.14451E+01
        -0.16187E+00
        -0.41728E+01
        -0.41342E+01
        -0.33927E+01
        -0.22138E+01
         0.11119E+01
         0.37251E+01
         0.77523E+01
        -0.47385E+01
        -0.54531E+01
        -0.81200E+00
        -0.51456E+01
        -0.62763E+01
         0.44351E+01
         0.77054E+01
         0.11754E+01
        -0.23987E+01
         0.41333E+01
         0.13758E+01
         0.50255E+01
         0.80048E+01
        -0.52885E-01
         0.12994E+02
         0.11114E+02
         0.49596E+01
         0.12015E+02
        -0.30279E+01
         0.38397E+01
         0.81756E+01
         0.74654E+00
         0.64659E+01
         0.37075E+01
        -0.35513E+01
        -0.53944E+01
         0.62690E+01
         0.46856E+01
         0.11443E+02
         0.91861E+00
        -0.28575E+01
         0.83386E+01
         0.16300E+01
         0.45434E+01
         0.61723E+01
        -0.27690E+00
         0.96156E+01
         0.52535E+01
        -0.13806E+01
         0.45680E+01
         0.48329E+01
        -0.33288E+01
        -0.52448E+00
         0.53717E+01
         0.32916E+01
        -0.86348E+00
         0.78149E+01
        -0.14968E+02
         0.82072E+01
         0.77508E+01
         0.57461E+00
         0.14248E+02
         0.87499E+00
        -0.38241E+01
        -0.33764E+01
         0.91956E+00
        -0.51289E+01
         0.29426E+01
         0.28508E+01
        -0.39200E+00
         0.94805E+00
         0.44567E+00
         0.23142E+01
         0.47029E+01
         0.55381E+01
         0.26182E+01
         0.40476E+01
         0.16435E+01
         0.59577E+01
         0.60522E+01
         0.67859E+01
        -0.20563E+01
         0.46576E+01
         0.55301E+01
         0.58402E+01
        -0.85439E+00
        -0.44567E+01
         0.83064E+01
         0.33716E+01
         0.22804E-01
        -0.64263E+01
         0.15629E+01
         0.41094E+01
         0.13641E+01
         0.68428E+00
        -0.33193E+01
         0.20744E+01
        -0.17557E+00
         0.10334E+02
         0.75699E+01
        -0.53903E+01
         0.26729E+01
        -0.58205E+01
        -0.79844E+01
        -0.27619E+01
        -0.52721E+01
         0.10745E+01
         0.11864E+02
        -0.91138E+01
         0.12545E+02
        -0.77778E+01
        -0.39536E+01
         0.66424E+01
         0.84919E-01
        -0.21074E+01
         0.59763E+01
        -0.72253E+01
        -0.77019E+01
         0.56849E+01
         0.17436E+00
        -0.22540E+01
        -0.29273E+01
        -0.71974E+01
        -0.12890E+01
         0.27419E+01
        -0.12030E+02
         0.13714E+01
         0.12724E+02
         0.76954E+01
         0.26622E+01
        -0.49056E+01
         0.57895E+01
        -0.28663E+01
         0.14331E+02
        -0.21422E+00
        -0.20781E+01
        -0.10898E+02
        -0.79809E+00
         0.19195E+02
         0.48112E+01
         0.32499E+01
        -0.10046E+01
        -0.68443E+00
        -0.90926E+01
         0.95826E+00
         0.37859E+01
         0.59193E+01
         0.85215E+01
        -0.13611E+01
        -0.10624E+02
         0.74761E+01
         0.32609E+01
        -0.13312E+01
         0.10584E+02
         0.46441E+01
        -0.16956E+01
        -0.91849E+01
         0.13064E+01
        -0.64289E+01
        -0.93068E+01
        -0.12566E+01
         0.11757E+00
        -0.27956E+01
         0.78394E+01
         0.71714E+01
         0.44777E+00
        -0.52903E+01
         0.11659E+01
         0.50381E+01
         0.90996E+00
        -0.11425E+02
         0.66767E+01
         0.41459E+01
         0.90172E+01
        -0.71546E+01
        -0.59673E+01
        -0.10464E+01
         0.79754E+01
         0.70797E+00
        -0.13322E+00
        -0.34029E+01
         0.94673E+01
        -0.10939E+00
         0.36813E+01
         0.12602E+02
        -0.83727E+01
         0.16532E+02
        -0.53593E+01
         0.10124E+01
         0.45371E+01
        -0.12550E+01
         0.75300E+00
        -0.51474E+01
        -0.32626E+01
         0.25156E+01
         0.15690E+02
        -0.76199E+01
         0.42970E+01
        -0.18987E+01
         0.40409E+01
         0.12900E+02
        -0.37805E+01
         0.12451E+02
  
SCALARS                     velocity_z  double 1
LOOKUP_TABLE default
        -0.84202E+02
         0.58440E+02
         0.40386E+01
         0.49860E+02
         0.00000E+00
         0.00000E+00
         0.00000E+00
         0.00000E+00
        -0.53929E+02
         0.24893E+02
         0.00000E+00
         0.00000E+00
        -0.28485E+02
         0.44246E+02
         0.00000E+00
         0.00000E+00
        -0.34025E+02
         0.50462E+01
         0.00000E+00
         0.00000E+00
         0.12460E+02
        -0.58410E+01
        -0.59522E+01
         0.00000E+00
         0.00000E+00
         0.00000E+00
        -0.61416E+00
         0.17380E+02
         0.00000E+00
         0.00000E+00
        -0.34585E+02
         0.16001E+02
         0.75061E+02
         0.00000E+00
         0.00000E+00
         0.00000E+00
         0.26395E+02
        -0.14346E+02
         0.00000E+00
         0.00000E+00
        -0.67132E+01
        -0.31787E+01
         0.00000E+00
         0.00000E+00
         0.28937E+02
        -0.24596E+02
         0.00000E+00
         0.00000E+00
         0.10594E+02
         0.00000E+00
         0.17505E+02
         0.00000E+00
        -0.47296E+01
         0.00000E+00
         0.11404E+02
         0.00000E+00
        -0.14947E+02
         0.18541E+02
         0.00000E+00
         0.00000E+00
         0.18033E+02
        -0.10865E+02
         0.00000E+00
         0.00000E+00
        -0.42269E+02
         0.00000E+00
        -0.54923E+02
         0.00000E+00
         0.22529E+02
        -0.31471E+02
         0.00000E+00
         0.00000E+00
         0.90747E+01
         0.00000E+00
        -0.25567E+02
         0.00000E+00
         0.22258E+02
         0.00000E+00
        -0.25397E+02
         0.00000E+00
         0.19359E+02
        -0.73564E+01
         0.00000E+00
         0.00000E+00
        -0.11302E+01
         0.00000E+00
        -0.17113E+02
         0.00000E+00
         0.16681E+02
         0.00000E+00
        -0.28342E+02
         0.23629E+02
         0.00000E+00
         0.00000E+00
        -0.27889E+02
         0.00000E+00
         0.32607E+02
         0.00000E+00
         0.25742E+02
         0.00000E+00
        -0.22512E+01
         0.25853E+01
         0.00000E+00
         0.00000E+00
         0.15215E+01
         0.10712E+02
         0.00000E+00
         0.00000E+00
         0.20263E+02
         0.00000E+00
        -0.12663E+02
         0.00000E+00
         0.53567E+01
         0.00000E+00
        -0.49804E+01
         0.00000E+00
        -0.21579E+01
         0.00000E+00
         0.55017E+01
         0.00000E+00
         0.33404E+01
         0.00000E+00
         0.90281E-01
         0.00000E+00
         0.10748E+01
         0.00000E+00
        -0.32400E+01
         0.00000E+00
         0.83787E+01
         0.00000E+00
        -0.34240E+01
         0.00000E+00
        -0.75100E+00
         0.00000E+00
        -0.33378E+01
         0.00000E+00
        -0.10708E+02
         0.00000E+00
         0.46141E+01
         0.00000E+00
         0.12199E+02
         0.00000E+00
        -0.34382E+01
         0.00000E+00
         0.73756E+01
         0.00000E+00
        -0.96567E+01
         0.00000E+00
        -0.89487E+01
         0.00000E+00
         0.81853E+01
         0.00000E+00
        -0.12498E+02
         0.00000E+00
         0.56555E+01
         0.00000E+00
         0.13749E+02
         0.35267E+02
         0.39486E+02
        -0.56081E+02
        -0.92442E+01
         0.61667E+01
        -0.39099E+02
         0.71604E+02
        -0.44492E+02
        -0.24823E+02
        -0.37232E+02
         0.11085E+02
         0.12465E+02
         0.22404E+02
        -0.38013E+00
        -0.82382E+00
        -0.17837E+02
         0.74256E+02
         0.16328E+02
         0.10592E+02
        -0.12679E+02
         0.63292E+01
         0.57560E+01
        -0.14138E+02
         0.37377E+02
        -0.15680E+01
        -0.40811E+02
         0.33756E+02
        -0.18082E+02
        -0.70850E+01
        -0.42635E+01
         0.37448E+02
        -0.28808E+02
         0.27148E+02
         0.14402E+02
        -0.18996E+02
        -0.31094E+02
         0.11671E+02
        -0.11484E+02
         0.89145E+01
         0.23983E+00
         0.20042E+02
        -0.81451E+01
         0.76259E+01
        -0.20819E+02
         0.60188E+01
        -0.25579E+02
         0.15555E+02
         0.90152E+01
        -0.57001E+01
        -0.77363E+01
         0.77894E+01
        -0.11702E+02
        -0.20985E+01
        -0.11636E+01
         0.34307E+01
         0.99429E+01
        -0.16520E+01
         0.94907E+01
        -0.75534E+01
        -0.23987E+01
        -0.48952E+01
         0.11320E+01
        -0.89357E+01
         0.18649E+01
        -0.38663E+01
         0.77272E+01
        -0.19858E+01
         0.12928E+02
        -0.70885E+00
        -0.33036E+01
        -0.38778E+01
         0.64988E+01
        -0.10966E+02
         0.15398E+02
        -0.96347E+01
         0.88061E+01
        -0.49543E+01
         0.39631E+01
         0.14827E+02
         0.38292E+02
        -0.31973E+02
        -0.32006E+02
         0.25887E+02
        -0.22662E+02
         0.19883E+02
        -0.37288E+02
         0.35712E+02
         0.20916E+01
        -0.73017E+01
         0.10771E+02
        -0.44558E+02
         0.23111E+02
        -0.10696E+02
        -0.16863E+02
         0.41624E+02
         0.23924E+02
         0.94208E+01
        -0.84179E-01
        -0.30855E+01
        -0.12123E+02
        -0.56630E-01
         0.31184E+02
         0.91045E+01
        -0.75982E+00
        -0.13479E+02
        -0.23208E+01
        -0.30053E+01
        -0.13931E+02
         0.26176E+02
        -0.58277E+01
         0.93229E+01
         0.69648E+01
        -0.19054E+02
         0.28605E+01
         0.24698E+02
        -0.13827E+02
        -0.11828E+02
         0.15573E+02
        -0.17249E+02
         0.12387E+02
         0.70422E+01
        -0.14705E+02
         0.21458E+02
        -0.22442E+02
         0.21876E+02
        -0.15835E+02
         0.20660E+02
        -0.13756E+02
        -0.10123E+02
         0.13599E+02
         0.12846E+02
         0.14913E+01
         0.14869E+02
        -0.10213E+02
         0.59354E+01
        -0.14193E+02
         0.94146E+01
         0.34662E+00
         0.18144E+02
        -0.12430E+02
         0.12741E+02
        -0.12148E+00
         0.14862E+01
        -0.99616E+00
        -0.53851E+01
        -0.25703E+01
        -0.58339E+01
         0.11643E+02
         0.61858E+01
        -0.22548E+01
        -0.22691E+01
         0.29661E+01
         0.18900E+01
         0.12179E+01
        -0.69281E+01
        -0.67384E+01
        -0.16191E+01
         0.49779E+02
        -0.28635E+02
        -0.51821E+01
         0.12720E+02
         0.57406E+00
         0.36492E+02
        -0.63731E+01
         0.17421E+02
        -0.25838E+02
         0.19515E+02
         0.46363E+01
        -0.78569E+01
         0.66654E+00
        -0.95909E+00
        -0.12883E+02
         0.47881E+02
         0.24120E+02
        -0.90280E+01
        -0.76202E+00
         0.63533E+01
        -0.13540E+02
        -0.41402E+01
         0.22239E+02
         0.57492E+01
        -0.10219E+01
         0.66253E+01
        -0.41285E+01
         0.91258E+01
        -0.21906E+02
         0.21048E+02
         0.14493E+02
         0.24935E+02
        -0.78854E+00
        -0.14384E+02
         0.75288E+00
        -0.43276E+01
        -0.11488E+02
         0.25760E+02
        -0.86730E+01
         0.19109E+02
        -0.17205E+02
         0.20585E+02
        -0.30561E+01
        -0.30899E+01
        -0.83813E+01
         0.24494E+02
        -0.16885E+02
         0.29295E+02
        -0.16641E+01
        -0.28940E+02
         0.16090E+01
        -0.10661E+02
        -0.14583E+02
         0.76651E+01
        -0.54614E+01
         0.57052E+01
         0.64324E+01
         0.58255E+01
        -0.85586E+01
        -0.96185E+01
         0.21171E+01
        -0.17933E+01
        -0.17887E+01
         0.46764E+01
         0.33062E+01
         0.40259E+01
         0.12657E+02
        -0.28411E+00
        -0.24158E+01
        -0.10837E+02
         0.68926E+01
        -0.26660E+01
         0.44688E+01
        -0.11377E+02
         0.23474E+02
         0.61592E+00
        -0.15604E+02
        -0.12510E+02
         0.62152E+02
        -0.39927E+02
         0.14455E+02
         0.13266E+02
         0.10404E+01
         0.21995E+02
        -0.21596E+02
         0.95147E+01
        -0.21758E+02
         0.37692E+01
         0.41743E+01
         0.19423E+02
        -0.37155E+01
         0.10042E+01
        -0.93283E+01
         0.41560E+02
         0.38704E+02
         0.47439E+01
        -0.15798E+02
         0.19326E+02
         0.14978E+02
        -0.12371E+02
         0.31929E+02
         0.76936E+00
        -0.73350E+01
        -0.97225E+01
         0.31630E+01
        -0.16427E+01
        -0.22330E+02
         0.12751E+02
         0.90440E+01
         0.18910E+02
        -0.24964E+02
         0.97153E+00
         0.36450E+01
         0.30101E+02
        -0.17108E+02
         0.15238E+02
        -0.21502E+02
         0.46023E+01
        -0.32754E+01
         0.23975E+02
        -0.19233E+02
         0.14866E+02
        -0.20624E+01
         0.38291E+02
        -0.20521E+02
         0.13638E+02
         0.19676E+02
        -0.25203E+02
         0.16009E+02
         0.11993E+00
         0.58932E+01
         0.97097E+01
        -0.31135E+01
         0.26086E+01
        -0.19643E+00
        -0.77466E+01
         0.18680E+02
         0.22946E+01
         0.10743E+02
         0.58272E+01
         0.59566E+01
        -0.55719E+01
         0.25485E+01
        -0.86852E+01
        -0.16088E+02
         0.11637E+02
         0.26707E+01
         0.35269E+01
         0.22610E+01
         0.21107E+01
         0.15760E+01
        -0.25474E+01
        -0.33062E+01
         0.60829E+01
         0.13513E+02
        -0.75069E+01
         0.54029E+02
        -0.40011E+02
         0.75025E+01
         0.92529E+01
         0.83557E+01
         0.20386E+02
         0.20545E+01
         0.18487E+02
         0.22030E+01
         0.39976E+01
         0.87895E+01
         0.39652E+01
        -0.18649E+02
        -0.20861E+01
        -0.47074E+01
         0.64219E+02
         0.32123E+02
         0.19740E+01
        -0.74908E+01
        -0.11287E+02
         0.26368E+02
        -0.24526E+02
         0.13482E+02
        -0.27624E+01
         0.76167E+01
        -0.11508E+02
         0.15933E+02
         0.12971E+02
        -0.19651E+02
         0.27469E+02
         0.14871E+02
         0.18662E+02
        -0.25896E+02
        -0.49276E+01
        -0.33178E+01
         0.12125E+02
        -0.63696E+00
         0.25098E+02
        -0.15246E+01
         0.89970E+01
        -0.29478E+01
         0.16725E+02
        -0.19795E+02
         0.29609E+01
        -0.12275E+02
         0.46978E+02
        -0.26692E+02
         0.37145E+01
         0.41044E+02
        -0.19691E+02
         0.55439E+01
        -0.23938E+01
         0.15237E+01
         0.10198E+01
         0.14641E+00
         0.76503E+01
         0.20696E+02
        -0.79534E+01
         0.11884E+02
        -0.33212E+02
         0.26500E+02
        -0.15119E+02
         0.10460E+02
         0.46713E+01
         0.94171E+01
        -0.24124E+01
         0.94012E+01
         0.15451E+02
        -0.67520E+01
         0.31359E+01
        -0.67102E+01
         0.31210E+01
         0.75781E+01
        -0.15001E+02
         0.14483E+02
        -0.37855E+01
        -0.44848E+01
        -0.23088E+02
         0.49010E+02
        -0.47204E+02
        -0.13656E+01
         0.14053E+02
         0.11713E+02
         0.14481E+02
         0.67348E+01
         0.65271E+01
        -0.21715E+02
         0.12443E+02
         0.62338E+01
         0.13073E+02
        -0.49481E+00
         0.57966E+01
        -0.15395E+02
         0.50847E+02
         0.35667E+02
         0.40999E+01
         0.67034E+01
         0.16870E+02
         0.12306E+02
        -0.32154E+02
         0.16901E+02
         0.81407E+01
        -0.66005E+01
        -0.72955E+01
         0.11231E+02
         0.44764E+01
        -0.22363E+02
         0.23746E+02
         0.11592E+02
         0.30914E+02
        -0.34670E+01
         0.19857E+02
         0.92753E+01
         0.26231E+02
        -0.78841E+01
         0.26715E+02
        -0.45673E+02
         0.21092E+02
        -0.35333E+01
         0.28412E+02
        -0.10321E+02
         0.53214E+01
        -0.21663E+02
         0.56053E+02
        -0.22538E+02
         0.40794E+01
         0.25229E+02
        -0.49081E+01
        -0.43331E+01
         0.18303E+02
         0.56367E+01
         0.56100E+00
         0.77754E+01
        -0.12048E+02
         0.71307E+01
        -0.97446E+01
         0.17155E+02
         0.54803E+00
         0.28855E+02
        -0.45219E+01
         0.10009E+02
        -0.84511E+01
         0.25036E+01
        -0.79141E+01
         0.19112E+01
        -0.15081E+01
         0.19723E+01
         0.13158E+02
         0.75416E+01
         0.83533E+01
         0.54123E+01
        -0.12033E+02
         0.10976E+01
         0.55596E+00
         0.46487E+01
        -0.23861E+02
         0.48400E+02
        -0.29560E+02
        -0.10793E+01
         0.19561E+02
         0.94496E+01
         0.19473E+02
         0.14544E+02
         0.27931E+02
         0.24795E+02
         0.19022E+02
         0.57919E+01
        -0.16510E+01
        -0.38488E+01
         0.73142E+01
        -0.90739E+01
         0.41511E+02
         0.33043E+02
        -0.60951E+01
        -0.29674E+01
         0.36689E+01
         0.54013E+01
        -0.10451E+02
         0.30624E+02
         0.13199E+02
        -0.80689E+01
         0.32655E+01
         0.16496E+02
         0.17495E+01
        -0.69149E+01
         0.76610E+01
         0.15597E+02
         0.28651E+02
         0.15623E+00
         0.50449E+01
         0.17294E+01
         0.11121E+02
         0.17986E+01
         0.35418E+02
        -0.48506E+02
         0.34507E+02
         0.35586E+01
         0.15436E+02
        -0.58508E+01
         0.11725E+02
        -0.13859E+02
         0.39278E+02
        -0.26190E+02
         0.17192E+02
         0.15218E+02
        -0.12250E+02
         0.77540E+01
        -0.46399E+01
        -0.37995E+01
         0.34248E+01
         0.91326E+01
        -0.56427E+01
         0.15636E+02
         0.11569E+01
         0.12042E+02
        -0.10549E+02
         0.12482E+02
         0.55144E+01
         0.57006E+01
        -0.11577E+01
         0.20426E+02
        -0.16902E+01
         0.61285E+01
         0.12335E+02
         0.13712E+02
         0.66468E+01
        -0.72570E+01
         0.10807E+01
         0.15715E+02
        -0.18961E+01
         0.17658E+02
        -0.68672E+01
        -0.12704E+00
        -0.17500E+02
         0.42551E+02
        -0.29892E+02
        -0.67916E+00
         0.26273E+02
         0.70753E+01
         0.32259E+02
         0.13080E+01
         0.16063E+02
        -0.91931E+01
         0.15276E+02
         0.79825E+01
        -0.81524E+01
        -0.58413E+00
        -0.37015E+01
        -0.55683E+01
         0.52187E+02
         0.42780E+02
         0.12914E+01
        -0.30053E+01
         0.12265E+02
         0.31318E+01
        -0.13826E+02
         0.21501E+02
         0.23294E+02
        -0.26395E+01
        -0.35765E+01
         0.50899E+01
         0.66449E+01
        -0.13401E+01
         0.20634E+02
         0.19038E+02
         0.30853E+02
        -0.22743E+01
         0.42725E+01
         0.88701E+01
         0.64845E+01
         0.11644E+01
         0.29276E+02
        -0.46151E+02
         0.26287E+02
        -0.45113E+01
         0.81361E+01
         0.12098E+01
        -0.12441E+01
        -0.21108E+02
         0.46483E+02
        -0.16340E+02
         0.89295E+01
        -0.58046E+01
        -0.68884E+01
         0.78018E+01
         0.15680E+02
         0.56127E+01
         0.59144E+01
         0.80135E+00
        -0.23333E+00
         0.10891E+02
        -0.13251E+01
         0.11600E+01
         0.14315E+02
         0.23127E+02
         0.36167E+01
         0.51233E+01
         0.16417E+01
         0.38710E+01
        -0.22276E-03
         0.11334E+02
         0.23816E+01
        -0.53897E+01
         0.16448E+02
         0.18242E+02
         0.10428E+02
         0.82872E+01
         0.14961E+01
         0.16398E+02
        -0.11125E+01
        -0.42052E+01
        -0.17053E+02
         0.50604E+02
        -0.33618E+02
         0.17829E+01
         0.22552E+02
         0.20723E+02
         0.30219E+02
         0.45921E+01
         0.30523E+02
         0.19667E+02
         0.23506E+02
        -0.14390E+01
        -0.26534E+02
         0.22146E+02
        -0.20092E+02
         0.30485E+01
         0.43509E+02
         0.29341E+02
        -0.35407E+01
        -0.41389E+01
         0.25460E+02
         0.82803E+01
        -0.67119E+01
         0.54741E+02
         0.24661E+02
        -0.15036E+02
         0.90141E+01
         0.31574E+01
        -0.13416E+01
        -0.98036E+01
         0.29591E+02
         0.13677E+02
         0.35523E+02
        -0.52997E+01
         0.13890E+02
         0.67578E+01
         0.22884E+02
         0.73445E+01
         0.23278E+02
        -0.29905E+02
         0.37019E+02
         0.30711E+01
         0.23654E+02
         0.87196E+01
        -0.50839E+01
        -0.18175E+02
         0.51674E+02
        -0.21962E+02
         0.94501E+01
         0.41062E+00
         0.19111E+01
        -0.76100E+01
         0.92654E+01
         0.54552E+01
         0.12040E+02
         0.67154E+01
        -0.76428E+01
         0.97574E+01
         0.70158E+01
         0.10645E+02
         0.30129E+01
         0.68630E+01
         0.69946E+01
         0.48382E+01
         0.36264E+01
         0.11936E+02
         0.50038E+01
         0.78024E+01
         0.51805E+01
         0.22208E+02
         0.11079E+02
        -0.56518E+01
        -0.34546E+01
         0.25636E+02
         0.58813E+01
         0.15661E+01
        -0.90077E+00
         0.97957E+01
        -0.15429E+02
         0.51997E+02
        -0.25467E+02
        -0.16002E+01
         0.18887E+02
         0.20830E+02
         0.22556E+02
         0.85776E+01
         0.92367E+01
        -0.13346E+01
         0.16536E+02
        -0.47514E+01
        -0.22195E+02
         0.14944E+02
        -0.42203E+01
        -0.60470E+01
         0.57325E+02
         0.21357E+02
         0.67162E+01
         0.21263E+01
         0.19397E+02
         0.93040E+01
        -0.12171E+02
         0.21907E+02
         0.18051E+02
         0.41422E+01
         0.97876E+01
         0.95920E+00
         0.15070E+02
        -0.15485E+01
         0.21649E+02
         0.22005E+02
         0.29661E+02
        -0.27323E+01
         0.11759E+02
         0.50568E+01
         0.14566E+02
        -0.11633E+02
         0.28173E+02
        -0.75417E+01
         0.36866E+02
        -0.13019E+02
         0.14833E+02
         0.29425E+01
        -0.15331E+01
        -0.23335E+02
         0.50049E+02
        -0.18654E+02
         0.14355E+02
         0.90725E+01
         0.65721E+01
         0.10495E+02
         0.16590E+02
         0.13579E+02
         0.53736E+01
        -0.27804E+01
         0.17157E+02
         0.15286E+01
         0.18890E+01
         0.56622E+01
         0.91688E+01
         0.10185E+02
         0.34480E+01
         0.82736E+01
         0.51292E+01
        -0.22336E+01
         0.15200E+02
        -0.44942E+00
         0.64905E+01
         0.23327E+02
         0.13042E+02
         0.13098E+02
         0.15686E+02
         0.11150E+02
         0.30473E+01
         0.21772E+02
        -0.25133E+01
         0.47107E+01
        -0.23344E+02
         0.37467E+02
        -0.29987E+02
         0.53993E+00
         0.30130E+02
         0.15475E+02
         0.24291E+02
         0.16044E+02
         0.14979E+02
         0.93220E+01
         0.22290E+02
         0.12986E+02
        -0.12834E+02
         0.23409E+02
        -0.58976E+01
         0.80093E+01
         0.57389E+02
         0.20797E+02
         0.89932E+01
         0.84249E+00
         0.29786E+02
         0.12478E+02
        -0.12259E+02
         0.85574E+01
         0.23779E+02
         0.26622E+02
         0.16176E+02
         0.15640E+02
         0.23727E+02
        -0.11614E+02
         0.19143E+02
         0.70576E+01
         0.16399E+02
        -0.87259E+00
         0.10069E+02
         0.16736E+02
         0.20312E+02
        -0.14476E+02
         0.23236E+02
        -0.16754E+02
         0.19077E+02
        -0.42097E+01
         0.25010E+02
         0.25008E+02
         0.72740E+01
        -0.19845E+02
         0.56944E+02
        -0.69333E+01
         0.16189E+02
        -0.75550E+01
         0.88731E+01
        -0.15027E+01
         0.15466E+02
         0.16280E+02
         0.11916E+02
        -0.67771E+00
         0.38614E+01
        -0.17887E+01
         0.20971E+02
         0.16883E+02
         0.72711E+00
         0.16036E+02
         0.11789E+02
         0.93111E+01
         0.12167E+02
         0.14362E+01
         0.16038E+02
         0.23820E+01
         0.11580E+02
         0.80628E+01
         0.85354E+01
         0.98954E+01
        -0.72524E+00
         0.12548E+02
         0.10671E+02
         0.57659E+01
         0.42780E+00
         0.10184E+02
        -0.87989E+01
         0.49077E+02
        -0.20741E+02
         0.50245E+01
         0.26674E+02
         0.23213E+02
         0.25390E+02
         0.15432E+02
         0.14862E+02
         0.91995E+01
         0.51724E+01
        -0.46060E+01
        -0.14476E+02
         0.34746E+01
        -0.13763E+02
         0.62982E+01
         0.62624E+02
         0.21086E+02
         0.67318E+01
         0.11991E+01
         0.15604E+02
         0.15329E+02
        -0.51152E+01
         0.25373E+02
         0.18309E+02
         0.29436E+02
         0.23544E+02
         0.11143E+02
         0.30116E+02
        -0.33255E+01
         0.24483E+02
         0.16877E+02
         0.33538E+02
        -0.36934E+00
         0.14123E+02
         0.93256E+01
         0.11174E+02
        -0.15512E+02
         0.22466E+02
        -0.11284E+02
         0.34893E+02
        -0.14946E+02
         0.73525E+01
         0.97365E+01
         0.27450E+01
        -0.19787E+02
         0.43414E+02
        -0.19670E+02
         0.21656E+02
         0.17084E+02
         0.13786E+02
        -0.30181E+01
         0.21641E+02
         0.10127E+02
         0.11287E+02
         0.60761E+01
         0.15323E+02
         0.10562E+02
         0.63770E+01
         0.22397E+01
         0.69423E+01
         0.26427E+02
         0.73268E+00
         0.50158E+01
         0.16816E+02
         0.80915E+01
         0.13910E+02
        -0.60550E+01
         0.15248E+02
         0.25300E+02
         0.10415E+02
         0.11926E+02
         0.11624E+02
         0.13887E+02
         0.99821E+01
         0.40851E+01
         0.45295E+01
         0.44758E+01
        -0.85565E+01
         0.43977E+02
        -0.28992E+02
         0.65384E+01
         0.16829E+02
         0.28563E+02
         0.19629E+02
         0.14565E+02
         0.10129E+02
         0.38187E+02
         0.18488E+02
        -0.81754E+01
        -0.22339E+02
         0.97730E+01
        -0.16082E+02
         0.62219E+01
         0.57643E+02
         0.26364E+02
         0.76899E+01
         0.52377E+00
         0.32449E+02
         0.14758E+02
        -0.35028E+00
         0.16776E+02
         0.18166E+02
         0.27307E+02
         0.12916E+02
        -0.12469E+01
         0.19279E+02
         0.44737E+01
         0.35407E+02
         0.11861E+02
         0.26950E+02
        -0.40842E+01
         0.58956E+01
        -0.28406E+01
         0.23327E+02
        -0.33184E+01
         0.22688E+02
        -0.17112E+02
         0.30892E+02
         0.42361E+01
         0.11064E+02
         0.22749E+02
         0.30234E+01
        -0.10018E+02
         0.53371E+02
        -0.11107E+02
         0.21299E+02
        -0.65549E+00
        -0.11616E+01
         0.67648E+01
         0.21570E+02
         0.16914E+02
         0.14673E+02
         0.69219E+01
         0.12619E+02
         0.73400E+01
         0.15986E+02
         0.12875E+02
         0.10308E+02
         0.19877E+02
         0.10640E+02
         0.20052E+02
         0.57911E+01
         0.87581E+01
         0.71488E+01
         0.13750E+02
         0.16719E+02
        -0.73295E-01
         0.18669E+02
         0.88609E+01
         0.80646E+01
         0.78050E+01
         0.15593E+02
         0.22543E+02
         0.53341E+01
         0.52926E+01
         0.53275E+01
         0.58150E+02
        -0.25038E+02
         0.20932E+02
         0.27889E+02
         0.29899E+02
         0.31731E+02
         0.14103E+02
         0.16211E+02
         0.16071E+02
         0.15215E+02
        -0.25294E+01
        -0.17987E+02
         0.49469E+01
        -0.17488E+02
         0.87288E+01
         0.56976E+02
         0.41406E+02
         0.10058E+02
        -0.30352E+01
         0.28034E+02
         0.14673E+02
         0.17978E+02
         0.18591E+02
         0.26020E+02
         0.43038E+02
         0.14670E+02
         0.43912E+01
         0.17292E+02
         0.61297E+01
         0.41053E+02
         0.67582E+01
         0.33121E+02
        -0.26667E+01
         0.20024E+02
         0.84751E+01
         0.28511E+02
         0.10113E+01
         0.37680E+02
        -0.45428E+01
         0.27338E+02
        -0.47885E+01
         0.37486E+01
         0.14263E+02
        -0.51968E+01
        -0.17435E+02
         0.48059E+02
        -0.12791E+02
         0.31016E+02
         0.12619E+02
         0.11237E+02
         0.50384E+01
         0.11792E+02
         0.83821E+01
         0.12542E+02
         0.18684E+02
         0.67883E+01
         0.48782E+01
         0.86039E+01
         0.10770E+01
         0.83487E+01
         0.87252E+01
         0.17278E+02
         0.50870E+01
         0.12779E+02
         0.11010E+02
         0.12033E+02
         0.18977E+02
        -0.24312E+01
         0.25913E+02
         0.23899E+02
         0.10532E+01
         0.18968E+02
         0.17157E+02
         0.62446E+01
         0.11261E+02
        -0.10801E+01
        -0.60796E+01
        -0.34121E+01
         0.43863E+02
        -0.33348E+02
         0.13391E+02
         0.19419E+02
         0.24171E+02
         0.26599E+02
         0.18805E+02
         0.13169E+02
         0.11670E+02
         0.29812E+02
         0.32375E+01
        -0.29328E+02
         0.14366E+02
        -0.24250E+02
         0.13679E+02
         0.60938E+02
         0.25280E+02
         0.66307E+00
        -0.36712E+00
         0.25030E+02
         0.23296E+02
        -0.81289E+01
         0.28465E+02
         0.15248E+02
         0.19488E+02
        -0.78546E+01
         0.28259E+01
         0.27113E+02
         0.84342E+01
         0.45922E+02
         0.68159E+01
         0.28310E+02
        -0.15831E+00
         0.22709E+02
         0.10988E+02
         0.29362E+02
        -0.69969E+01
         0.32909E+02
        -0.61369E+01
         0.27544E+02
        -0.26769E+01
         0.54182E+01
         0.21425E+02
         0.82473E+01
        -0.10935E+02
         0.49571E+02
        -0.23180E+02
         0.19819E+02
         0.11870E+02
         0.93844E+01
         0.79750E+01
         0.26020E+02
         0.96657E+01
         0.85117E+01
         0.15850E+02
         0.93448E+01
         0.17442E+02
         0.17559E+02
         0.15667E+02
         0.18037E+02
         0.22140E+02
         0.18506E+02
         0.10386E+02
         0.15540E+02
         0.18136E+02
         0.44317E+01
         0.14249E+02
         0.14371E+02
         0.21822E+02
         0.17637E+02
         0.14409E+02
         0.21690E+02
         0.11137E+02
         0.16196E+02
         0.22835E+02
         0.18219E+02
         0.17315E+01
         0.51163E+01
         0.51248E+02
        -0.21337E+02
         0.14148E+02
         0.15916E+02
         0.30909E+02
         0.35624E+02
         0.23375E+02
         0.12737E+02
         0.47245E+02
         0.33042E+02
        -0.52403E+01
        -0.14389E+02
         0.17631E+02
        -0.26939E+02
         0.71481E+01
         0.71298E+02
         0.38416E+02
         0.49718E+00
         0.12959E+02
         0.31442E+02
         0.38365E+02
         0.89471E+01
         0.33024E+02
         0.12860E+02
         0.27444E+02
         0.63239E+01
         0.85007E+01
         0.23070E+02
         0.11717E+02
         0.42935E+02
         0.14807E+02
         0.40452E+02
        -0.35292E+01
         0.15340E+02
         0.50466E+00
         0.29644E+02
         0.11118E+01
         0.40096E+02
        -0.36484E+01
         0.39166E+02
         0.40049E+01
         0.58383E+01
         0.16968E+02
         0.43996E+01
        -0.11317E+02
         0.55082E+02
        -0.17138E+02
         0.20801E+02
        -0.87410E+00
        -0.11889E+01
         0.35820E+02
         0.12486E+02
         0.14666E+02
         0.10479E+02
         0.23537E+02
         0.26164E+01
         0.91944E+01
         0.59014E+01
         0.13881E+02
         0.50511E+01
         0.11591E+02
         0.12141E+02
         0.10743E+02
         0.14660E+02
         0.13375E+02
         0.13316E+02
         0.18566E+02
         0.10033E+02
         0.18164E+02
         0.18458E+02
         0.11504E+02
         0.18321E+02
         0.11880E+02
         0.23572E+02
         0.25521E+02
        -0.88555E+01
        -0.64812E+01
         0.58490E+01
         0.55346E+02
        -0.20339E+02
         0.16520E+02
         0.21919E+02
         0.17975E+02
         0.26509E+02
         0.14061E+02
         0.11473E+02
         0.22519E+02
         0.21587E+02
        -0.65497E+01
        -0.12815E+02
         0.75687E+01
        -0.28941E+02
         0.83628E+01
         0.67349E+02
         0.51597E+02
         0.11804E+02
        -0.58219E+01
         0.18464E+02
         0.23320E+02
         0.12219E+02
         0.35822E+02
         0.13103E+02
         0.41066E+02
         0.99103E+01
         0.75620E+01
         0.22046E+02
         0.64678E+01
         0.37288E+02
         0.10654E+02
         0.44250E+02
        -0.13209E+02
         0.23284E+02
         0.11749E+02
         0.27961E+02
        -0.11386E+02
         0.29706E+02
         0.50596E+01
         0.36134E+02
        -0.59827E+01
        -0.70038E+00
         0.21110E+02
         0.10399E+02
        -0.17586E+02
         0.49600E+02
        -0.12956E+02
         0.34046E+02
         0.73565E+01
         0.15511E+01
         0.61109E+01
         0.18898E+02
         0.20016E+02
         0.20913E+02
         0.15075E+02
         0.87750E+01
         0.29616E+02
         0.16957E+02
         0.30347E+02
         0.11680E+02
         0.32302E+02
         0.16962E+02
         0.20626E+02
         0.16905E+02
         0.15876E+02
         0.78523E+00
         0.92221E+01
         0.20589E+02
         0.27333E+02
         0.19701E+02
         0.10285E+02
         0.25684E+02
         0.18171E+02
         0.15086E+02
         0.29253E+02
         0.16444E+02
        -0.53785E+01
         0.12716E+02
         0.57263E+02
        -0.21800E+02
         0.18211E+02
         0.20334E+02
         0.41116E+02
         0.40725E+02
         0.84097E+01
         0.16380E+02
         0.51263E+02
         0.29371E+02
         0.69990E+00
        -0.39849E+01
         0.12813E+02
        -0.23255E+02
         0.29630E+01
         0.67340E+02
         0.47211E+02
         0.71719E+01
         0.55971E+01
         0.31364E+02
         0.38401E+02
         0.17290E+02
         0.37814E+02
         0.32475E+02
         0.42422E+02
         0.59515E+01
         0.99587E+01
         0.28988E+02
         0.20689E+02
         0.59734E+02
         0.12749E+02
         0.34223E+02
        -0.11320E+01
         0.29483E+02
         0.18540E+02
         0.33018E+02
        -0.81894E+01
         0.34682E+02
         0.64418E+01
         0.40349E+02
         0.47724E+01
         0.10332E+02
         0.28134E+02
         0.13677E+02
        -0.15947E+02
         0.45284E+02
        -0.25200E+02
         0.28688E+02
         0.10109E+02
        -0.30273E+00
         0.83912E+01
         0.16244E+02
         0.15213E+02
         0.10685E+02
         0.21308E+02
         0.14667E+02
         0.91546E+01
         0.79728E+01
         0.95726E+01
         0.16483E+02
         0.76394E+01
         0.63819E+01
         0.10946E+02
         0.14327E+02
         0.19258E+02
         0.21932E+02
         0.34999E+02
         0.66191E+01
         0.86390E+01
         0.33060E+02
         0.11272E+02
         0.13674E+02
         0.17048E+02
         0.88715E+01
         0.15510E+02
         0.11131E+02
        -0.21216E+01
         0.89870E+01
         0.52660E+02
        -0.18070E+02
         0.13998E+02
         0.24130E+02
         0.34834E+02
         0.39204E+02
         0.14838E+02
         0.22612E+02
         0.28803E+02
         0.22679E+02
         0.50830E+00
        -0.24270E+02
         0.14490E+01
        -0.26622E+02
         0.42706E+01
         0.67684E+02
         0.48596E+02
         0.50014E+01
         0.87420E+01
         0.30021E+02
         0.38058E+02
         0.14008E+02
         0.42807E+02
         0.16772E+02
         0.33304E+02
         0.54346E+01
         0.16234E+02
         0.29847E+02
         0.14378E+02
         0.44808E+02
         0.93314E+01
         0.31953E+02
        -0.15013E+02
         0.15544E+02
         0.13972E+02
         0.31911E+02
         0.76020E+01
         0.34645E+02
        -0.16553E+02
         0.34309E+02
         0.69435E+01
        -0.80634E+01
         0.82945E+01
         0.57545E+01
        -0.14252E+02
         0.57183E+02
        -0.14820E+02
         0.39959E+02
         0.28998E+02
         0.95257E+01
         0.32621E+02
         0.24824E+02
         0.22590E+02
         0.13013E+02
         0.25036E+02
         0.14486E+02
         0.22758E+02
         0.29295E+02
         0.28032E+02
         0.18353E+02
         0.29509E+02
         0.20328E+02
         0.31454E+02
         0.18106E+02
         0.13046E+02
         0.31612E+01
         0.14724E+02
         0.17402E+02
         0.28634E+02
         0.22667E+02
         0.18609E+02
         0.22310E+02
         0.13457E+02
         0.20646E+02
         0.22282E+02
         0.58985E+01
        -0.29336E+01
         0.58484E+01
         0.56009E+02
        -0.15853E+02
         0.17234E+02
         0.21474E+02
         0.28054E+02
         0.29321E+02
         0.17844E+02
         0.33305E+02
         0.29116E+02
         0.35468E+02
         0.11710E+02
        -0.18516E+02
         0.13532E+02
        -0.21868E+02
         0.12598E+02
         0.74830E+02
         0.51267E+02
         0.52105E+00
         0.18462E+01
         0.29921E+02
         0.39653E+02
         0.16299E+02
         0.54985E+02
         0.18861E+02
         0.41047E+02
         0.77444E+01
         0.99117E+01
         0.16972E+02
         0.16815E+02
         0.44845E+02
         0.13217E+02
         0.28582E+02
        -0.64806E-01
         0.24171E+02
         0.21926E+02
         0.33539E+02
         0.21623E+01
         0.38829E+02
        -0.17255E+01
         0.34164E+02
         0.31558E+01
         0.75466E+01
         0.29533E+02
         0.18443E+02
        -0.18914E+02
         0.49790E+02
        -0.16707E+02
         0.39586E+02
         0.12884E+02
         0.14900E+01
         0.11725E+02
         0.18394E+02
         0.11200E+02
         0.10649E+02
         0.27451E+02
         0.81193E+01
         0.21336E+02
         0.82042E+01
         0.74181E+01
         0.10968E+02
         0.27023E+02
         0.11049E+01
         0.11743E+02
         0.93692E+01
         0.32932E+02
         0.18084E+02
         0.23839E+02
         0.25301E+02
         0.19501E+02
         0.97148E+01
         0.15101E+02
         0.21901E+02
         0.13849E+02
        -0.41353E+01
         0.25129E+02
         0.16755E+02
        -0.61986E+01
         0.16088E+01
         0.55759E+02
        -0.52176E+01
         0.14103E+02
         0.25749E+02
         0.33743E+02
         0.37938E+02
         0.11260E+02
         0.22667E+02
         0.43987E+02
         0.26243E+02
         0.40872E+01
        -0.40921E+01
         0.33502E+01
        -0.17945E+02
         0.12000E+01
         0.87500E+02
         0.51677E+02
         0.81569E+01
        -0.19863E+01
         0.28965E+02
         0.39046E+02
         0.28264E+01
         0.46055E+02
         0.17233E+02
         0.31978E+02
         0.43534E+01
         0.17482E+02
         0.27332E+02
         0.10841E+02
         0.45276E+02
         0.12950E+02
         0.33727E+02
         0.44712E+01
         0.22354E+02
         0.17906E+02
         0.26336E+02
        -0.37060E+01
         0.48155E+02
         0.47579E+01
         0.33744E+02
         0.83846E+01
         0.78912E+01
         0.27054E+02
         0.23391E+02
        -0.17934E+02
         0.51095E+02
        -0.17912E+02
         0.45952E+02
         0.24541E+02
         0.45244E+01
         0.36485E+02
         0.13664E+02
         0.17401E+02
         0.16085E+02
         0.29863E+02
         0.65613E+01
         0.27370E+02
         0.20655E+02
         0.31977E+02
         0.22295E+02
         0.94791E+01
         0.35014E+02
         0.24246E+02
         0.20867E+02
         0.15690E+02
         0.58189E+01
         0.19945E+02
         0.64179E+01
         0.19642E+02
         0.36173E+02
         0.14016E+02
         0.18982E+02
         0.14704E+02
         0.16207E+02
         0.34080E+02
         0.76865E+01
         0.21526E+02
         0.12357E+02
         0.59784E+02
        -0.19146E+02
         0.20355E+02
         0.21875E+02
         0.22000E+02
         0.31300E+02
         0.16582E+02
         0.24946E+02
         0.13172E+02
         0.26806E+02
         0.97028E+01
         0.16985E+01
         0.16744E+02
        -0.12626E+02
         0.23430E+02
         0.64961E+02
         0.50732E+02
         0.19085E+02
         0.22359E+00
         0.24922E+02
         0.27759E+02
         0.22930E+02
         0.40728E+02
         0.20036E+02
         0.28241E+02
         0.64633E+01
         0.40636E+01
         0.25900E+02
         0.18002E+02
         0.39236E+02
         0.81624E+01
         0.30536E+02
        -0.68159E-01
         0.15573E+02
         0.10026E+02
         0.39380E+02
         0.89964E+01
         0.33387E+02
         0.50677E+01
         0.34424E+02
        -0.77435E+01
        -0.63805E+01
         0.12658E+02
         0.24823E+02
        -0.87394E+01
         0.56721E+02
        -0.11004E+02
         0.32763E+02
         0.20208E+02
         0.36062E+01
         0.15234E+02
         0.25777E+02
         0.19924E+02
         0.18949E+02
         0.25112E+02
         0.17351E+02
         0.20422E+02
         0.84452E+01
         0.13573E+02
         0.62788E+01
         0.35671E+02
         0.14789E+02
         0.78108E+01
         0.25306E+02
         0.16882E+02
         0.21075E+02
         0.25843E+02
         0.13889E+02
         0.24909E+02
         0.13026E+02
         0.11374E+02
         0.20600E+02
         0.11119E+02
         0.93522E+01
         0.15487E+02
         0.13132E+02
        -0.11640E+02
         0.23436E+02
         0.53365E+02
        -0.54186E+01
         0.23297E+02
         0.26749E+02
         0.27032E+02
         0.39625E+02
         0.22148E+02
         0.28747E+02
         0.36242E+02
         0.34600E+02
         0.14339E+01
        -0.26220E+02
         0.19980E+02
        -0.18077E+02
        -0.15460E-01
         0.74010E+02
         0.62624E+02
         0.10195E+01
        -0.63854E+01
         0.32612E+02
         0.37445E+02
         0.18194E+02
         0.52374E+02
         0.18188E+02
         0.38162E+02
         0.47272E+01
         0.12411E+02
         0.27530E+02
         0.23331E+02
         0.57929E+02
         0.21552E+02
         0.99212E+01
        -0.11810E+01
         0.16420E+02
         0.14998E+02
         0.25296E+02
         0.37682E+01
         0.31209E+02
         0.58299E+01
         0.38400E+02
         0.59769E+01
        -0.11530E+02
         0.23840E+02
        -0.22883E+01
        -0.10448E+02
         0.45715E+02
        -0.21805E+02
         0.23367E+02
         0.26610E+02
         0.10526E+02
         0.23957E+02
         0.20105E+02
         0.25420E+02
         0.15076E+02
         0.23172E+02
         0.17857E+02
         0.19046E+02
         0.18657E+02
         0.23753E+02
         0.20125E+02
         0.22199E+02
         0.17960E+02
         0.24532E+02
         0.14319E+02
         0.19360E+02
         0.20638E+02
         0.20814E+02
         0.15974E+02
         0.32793E+02
         0.23594E+02
         0.12553E+02
         0.26370E+02
         0.20049E+02
         0.15455E+02
         0.20704E+02
         0.89783E+01
  
SCALARS                 acceleration_x  double 1
LOOKUP_TABLE default
        -0.79813E+06
         0.33723E+07
         0.22854E+07
        -0.19471E+07
        -0.34550E+07
         0.19259E+07
        -0.18221E+07
        -0.15161E+07
        -0.42404E+06
        -0.93325E+06
         0.18374E+07
         0.88556E+06
         0.45163E+07
         0.34159E+07
         0.17124E+07
         0.27585E+07
        -0.43030E+07
        -0.47863E+07
        -0.53902E+07
        -0.43259E+07
         0.18808E+07
        -0.10106E+08
        -0.52190E+07
         0.15229E+07
         0.12984E+07
         0.25720E+07
         0.39555E+07
         0.45006E+07
         0.21120E+06
         0.14512E+06
        -0.19745E+07
        -0.30354E+07
        -0.52394E+07
        -0.49541E+07
         0.44927E+06
        -0.49733E+07
        -0.61688E+07
        -0.76104E+07
        -0.29631E+07
        -0.29519E+07
        -0.85362E+07
        -0.79666E+07
        -0.36939E+07
        -0.19034E+07
        -0.70502E+07
         0.29696E+06
         0.62540E+06
        -0.54753E+07
         0.11030E+07
         0.26580E+07
         0.43647E+07
         0.94846E+06
        -0.10402E+06
        -0.11278E+07
         0.24424E+07
         0.13710E+07
         0.82321E+07
         0.32637E+06
         0.23704E+07
        -0.43852E+07
         0.86228E+06
         0.39291E+07
        -0.91002E+05
        -0.18377E+07
        -0.27144E+07
         0.10981E+07
        -0.88254E+06
         0.82049E+06
        -0.54854E+07
         0.27360E+07
         0.43511E+07
         0.30557E+07
         0.33375E+07
         0.37981E+07
         0.81773E+07
        -0.17560E+07
        -0.17802E+06
         0.90129E+06
        -0.30437E+07
        -0.64783E+06
        -0.69083E+07
        -0.56806E+07
         0.23017E+07
        -0.15164E+07
        -0.89309E+07
        -0.63521E+06
        -0.24219E+07
        -0.11452E+06
         0.62325E+05
         0.20762E+07
        -0.32022E+07
         0.16084E+07
        -0.51857E+07
        -0.85202E+05
        -0.21816E+07
        -0.37419E+07
        -0.28416E+07
        -0.48925E+06
         0.31199E+07
         0.28962E+07
         0.73523E+07
         0.14375E+05
         0.42081E+07
         0.66933E+06
         0.40109E+07
         0.27830E+07
         0.33652E+07
         0.32528E+07
        -0.37056E+07
         0.16394E+07
         0.24112E+07
        -0.36879E+07
         0.42835E+07
        -0.86545E+07
         0.10306E+07
        -0.92159E+07
        -0.67407E+07
        -0.36115E+07
         0.86459E+06
         0.24033E+07
         0.62047E+07
         0.36504E+07
         0.76734E+07
        -0.19032E+07
         0.27487E+07
         0.77419E+05
         0.77946E+07
         0.20418E+07
         0.95773E+06
        -0.14099E+07
        -0.38889E+07
        -0.30213E+07
         0.25406E+07
        -0.42465E+07
         0.67573E+07
         0.84479E+06
        -0.74474E+07
        -0.51534E+07
        -0.10074E+07
        -0.49986E+07
        -0.88388E+06
        -0.60744E+07
         0.59759E+07
        -0.22167E+07
        -0.14949E+07
        -0.43015E+07
        -0.44884E+07
        -0.12949E+07
         0.10145E+08
         0.47842E+07
        -0.25131E+06
         0.26443E+07
        -0.21687E+07
         0.15463E+07
         0.37518E+06
         0.47895E+07
        -0.64286E+07
         0.11085E+07
         0.21361E+07
        -0.32220E+07
         0.46829E+07
         0.30281E+07
         0.26298E+07
        -0.27908E+07
        -0.52517E+07
        -0.77245E+07
         0.10887E+08
        -0.14226E+07
        -0.44939E+06
         0.54131E+07
         0.11656E+08
         0.46726E+06
         0.42176E+07
        -0.48952E+07
        -0.40667E+07
        -0.10446E+07
        -0.90945E+07
        -0.31142E+07
        -0.83488E+07
        -0.23713E+07
         0.97473E+07
         0.64579E+07
        -0.34154E+07
         0.87263E+06
         0.13344E+08
         0.11006E+08
         0.17846E+07
         0.47819E+07
        -0.14681E+07
        -0.91146E+06
         0.38052E+07
         0.81936E+07
         0.74103E+07
         0.56608E+07
        -0.41222E+07
         0.67811E+05
        -0.29279E+06
         0.18177E+07
        -0.40472E+06
        -0.14776E+07
         0.19055E+07
        -0.50780E+07
         0.12880E+07
        -0.10495E+07
        -0.40973E+07
        -0.16961E+06
         0.52739E+07
         0.17035E+07
         0.35148E+07
         0.21905E+07
        -0.70241E+07
        -0.27266E+07
        -0.73259E+07
        -0.57783E+07
        -0.21859E+07
        -0.29672E+07
        -0.45319E+07
        -0.11136E+07
        -0.11534E+07
         0.92161E+06
        -0.24531E+07
         0.20232E+07
        -0.46599E+07
        -0.29447E+07
        -0.84290E+07
         0.55976E+07
        -0.24662E+07
         0.43452E+07
        -0.59200E+07
        -0.80408E+07
         0.77281E+07
         0.10622E+07
         0.24728E+07
         0.66402E+07
        -0.41005E+07
        -0.65153E+07
        -0.71405E+07
        -0.28809E+07
         0.88524E+06
         0.11272E+07
        -0.25979E+07
        -0.20243E+07
         0.16111E+07
        -0.21920E+07
         0.12857E+08
         0.28742E+07
        -0.12306E+07
        -0.30359E+07
         0.65616E+07
        -0.57902E+06
         0.18225E+07
         0.16937E+04
        -0.73321E+07
        -0.10605E+08
        -0.34419E+07
        -0.14778E+07
        -0.22735E+07
        -0.16198E+07
         0.66435E+07
         0.34537E+06
        -0.83336E+07
         0.24751E+07
         0.41163E+07
        -0.36627E+07
        -0.20115E+06
        -0.14644E+07
         0.38398E+06
        -0.49400E+05
         0.17935E+07
        -0.13056E+07
        -0.51225E+06
        -0.12291E+07
         0.42655E+07
         0.86114E+07
         0.34068E+07
        -0.17268E+05
        -0.32215E+07
         0.24619E+07
         0.19445E+07
        -0.58428E+07
         0.10203E+07
         0.40173E+07
         0.30727E+07
         0.30276E+07
         0.66769E+07
         0.61412E+06
         0.27174E+07
         0.38578E+07
        -0.10865E+08
        -0.21873E+07
        -0.32679E+07
        -0.10456E+08
        -0.11406E+07
         0.20869E+07
         0.17329E+07
         0.43557E+07
        -0.24193E+07
         0.11379E+07
        -0.44586E+07
        -0.96392E+06
        -0.97266E+07
         0.19480E+07
         0.12158E+07
        -0.11845E+07
        -0.83078E+07
         0.30312E+07
        -0.14408E+07
         0.36792E+07
         0.95835E+07
        -0.33637E+07
        -0.13241E+08
         0.87461E+06
         0.88187E+06
        -0.34076E+07
        -0.26328E+07
        -0.16485E+07
         0.17501E+07
        -0.19509E+07
        -0.17986E+07
        -0.10133E+07
         0.54388E+07
        -0.46319E+06
         0.16905E+08
         0.81772E+07
        -0.15043E+07
        -0.74669E+07
         0.39835E+07
        -0.10118E+07
         0.37948E+07
         0.47502E+06
        -0.34745E+07
        -0.68962E+07
        -0.13816E+06
         0.40413E+07
        -0.13378E+07
        -0.22785E+06
         0.57755E+07
        -0.17415E+07
        -0.10562E+08
         0.66305E+07
        -0.13466E+06
        -0.52617E+07
        -0.49540E+07
        -0.46483E+07
        -0.41827E+07
        -0.39213E+07
         0.11414E+08
         0.28652E+07
        -0.27573E+07
        -0.74969E+07
         0.96064E+07
         0.90303E+07
        -0.81560E+07
         0.10271E+07
         0.34508E+07
         0.35240E+07
         0.51608E+07
         0.58967E+07
         0.12239E+07
         0.31430E+07
         0.26826E+07
        -0.63974E+06
         0.47023E+07
        -0.19949E+07
         0.41473E+07
         0.28813E+07
        -0.43466E+07
        -0.55863E+07
        -0.10745E+07
        -0.64840E+07
        -0.53282E+07
        -0.11333E+07
        -0.24164E+06
         0.42509E+07
        -0.14946E+08
         0.26389E+07
        -0.17462E+07
         0.52252E+07
        -0.19323E+07
        -0.33177E+07
        -0.32298E+07
        -0.63768E+07
         0.56909E+07
         0.60537E+07
        -0.50884E+07
        -0.30625E+07
         0.15249E+07
         0.13672E+08
        -0.45968E+06
         0.70833E+06
         0.11933E+06
        -0.30032E+07
        -0.22696E+07
         0.10540E+07
        -0.45878E+07
        -0.44293E+07
        -0.21759E+07
        -0.48534E+07
         0.55306E+06
        -0.61657E+07
         0.20834E+08
         0.84981E+07
        -0.34328E+07
        -0.25896E+07
         0.44700E+07
        -0.16601E+07
        -0.23559E+07
         0.33106E+07
        -0.87699E+07
        -0.74390E+07
        -0.80970E+07
        -0.12015E+07
        -0.44435E+07
        -0.88648E+07
         0.49897E+06
        -0.37444E+07
        -0.59875E+07
         0.59618E+07
        -0.71449E+07
        -0.32407E+07
         0.83877E+05
        -0.28041E+07
         0.35101E+07
         0.29396E+07
         0.27367E+07
         0.16894E+07
        -0.40471E+07
        -0.99967E+07
         0.52148E+07
         0.19511E+07
        -0.11985E+08
         0.24748E+07
         0.69055E+07
         0.43423E+07
         0.77739E+07
         0.11308E+08
         0.67308E+06
         0.66360E+07
         0.10233E+08
         0.22605E+07
        -0.22505E+07
        -0.18906E+07
        -0.65842E+07
         0.68067E+07
         0.27598E+07
        -0.10493E+07
         0.35619E+07
        -0.20442E+07
         0.13654E+06
         0.88159E+07
        -0.68361E+07
         0.54254E+07
        -0.12024E+07
         0.91054E+07
        -0.27614E+07
        -0.35279E+07
        -0.35719E+07
        -0.63541E+07
        -0.15496E+07
        -0.11487E+08
        -0.52486E+06
        -0.35455E+07
        -0.37823E+07
         0.35525E+06
        -0.13078E+08
        -0.67459E+07
        -0.86189E+07
         0.15538E+07
         0.51647E+07
         0.55424E+07
         0.26054E+07
         0.15612E+07
        -0.76749E+07
        -0.69713E+07
        -0.71642E+06
        -0.59374E+07
         0.26006E+07
        -0.41945E+07
        -0.14397E+06
        -0.29433E+07
        -0.29488E+07
        -0.79039E+07
        -0.57564E+07
         0.42653E+06
         0.46604E+05
         0.39712E+07
        -0.28730E+07
         0.13696E+07
        -0.39814E+07
         0.12666E+07
         0.20867E+07
        -0.16352E+06
         0.53002E+07
         0.88103E+06
         0.34817E+07
         0.16775E+08
        -0.11297E+06
         0.70413E+07
        -0.29543E+07
        -0.11861E+07
        -0.20786E+07
        -0.26238E+07
        -0.48008E+07
         0.56849E+07
         0.33564E+07
        -0.89881E+07
         0.77324E+07
         0.56132E+07
        -0.49469E+07
         0.75679E+07
         0.96829E+07
         0.92796E+07
         0.87205E+07
         0.10733E+08
        -0.39209E+06
         0.10361E+07
         0.13313E+07
        -0.43176E+07
         0.13425E+07
        -0.18945E+07
        -0.70058E+07
         0.12988E+08
         0.39937E+07
        -0.27879E+07
         0.88708E+06
        -0.18838E+07
         0.42234E+07
         0.60776E+07
        -0.14788E+08
         0.28760E+07
        -0.13135E+08
        -0.29818E+07
        -0.13552E+06
         0.54028E+07
         0.86299E+06
         0.39484E+07
         0.15093E+08
        -0.43883E+07
        -0.12547E+07
         0.32125E+07
         0.69314E+07
         0.79598E+07
        -0.35977E+07
         0.20491E+08
         0.42319E+07
         0.31567E+07
         0.15954E+07
         0.57768E+07
        -0.77467E+06
        -0.28230E+07
        -0.13999E+08
        -0.13640E+08
         0.25296E+07
        -0.56821E+07
        -0.11185E+07
        -0.78241E+07
        -0.13721E+07
        -0.16021E+05
        -0.12457E+07
        -0.40701E+07
        -0.26689E+07
         0.26670E+07
         0.70813E+06
         0.16114E+06
         0.10075E+07
         0.30766E+07
        -0.63487E+07
        -0.27005E+07
        -0.43825E+07
         0.16050E+07
        -0.11235E+07
         0.53980E+07
         0.42324E+07
         0.71911E+07
        -0.13287E+07
         0.57819E+07
        -0.11269E+07
         0.48397E+07
        -0.49924E+07
        -0.67092E+07
        -0.74946E+07
         0.36776E+07
         0.29980E+07
        -0.53525E+07
         0.15203E+07
        -0.26482E+07
        -0.61025E+07
         0.43063E+07
         0.39956E+07
         0.32371E+06
         0.25698E+07
         0.93603E+07
         0.32842E+07
        -0.10252E+07
        -0.41610E+07
        -0.42649E+07
         0.82795E+07
        -0.32588E+07
         0.37140E+07
         0.42464E+07
         0.77994E+07
        -0.56193E+07
        -0.33499E+07
        -0.74078E+06
        -0.23857E+07
        -0.15565E+07
        -0.62871E+07
         0.70464E+07
        -0.90323E+07
         0.12697E+08
         0.45865E+07
         0.35468E+07
        -0.19595E+06
         0.72656E+06
         0.66473E+07
        -0.59814E+07
         0.56254E+07
         0.11610E+07
        -0.30432E+06
         0.24740E+07
        -0.46839E+07
         0.15256E+08
         0.56789E+07
        -0.15224E+07
         0.15390E+07
        -0.59487E+06
        -0.24042E+07
         0.60296E+06
        -0.74060E+07
        -0.68641E+07
         0.21883E+06
         0.77194E+06
         0.20605E+07
        -0.17026E+07
         0.49757E+06
         0.57918E+07
        -0.36407E+07
         0.42154E+07
         0.33198E+07
         0.47794E+07
         0.36053E+07
         0.39486E+07
        -0.18560E+07
        -0.23096E+06
        -0.84241E+07
        -0.84796E+07
        -0.79209E+07
        -0.33586E+07
        -0.25366E+07
         0.17631E+07
         0.64021E+07
        -0.13420E+07
         0.28183E+07
         0.63405E+07
         0.32671E+07
         0.16145E+07
         0.43216E+07
         0.52199E+07
        -0.19608E+06
        -0.22504E+07
        -0.55838E+07
        -0.56321E+06
         0.98738E+06
         0.65299E+06
         0.51033E+07
         0.80647E+07
         0.23053E+07
        -0.85494E+07
        -0.76811E+07
        -0.72489E+06
        -0.28086E+07
        -0.31706E+07
         0.26231E+07
         0.10911E+08
         0.18042E+08
         0.36486E+07
         0.10589E+07
         0.82056E+07
         0.25812E+06
        -0.60664E+07
         0.21272E+07
         0.10664E+08
        -0.18894E+04
        -0.51485E+07
        -0.39871E+07
        -0.40914E+07
        -0.75531E+07
         0.43613E+07
         0.12878E+07
         0.11708E+07
         0.50664E+07
         0.42653E+07
         0.57816E+07
        -0.31683E+07
         0.79231E+07
        -0.60247E+07
        -0.11962E+08
         0.35874E+07
         0.59805E+07
        -0.61887E+07
        -0.38287E+07
         0.38571E+07
         0.81587E+06
        -0.37742E+07
        -0.31705E+07
        -0.90956E+06
        -0.82950E+06
        -0.56012E+07
        -0.41368E+07
         0.32545E+07
         0.34882E+07
         0.39528E+07
        -0.16298E+08
         0.13034E+07
        -0.22925E+07
        -0.11110E+07
        -0.22693E+07
         0.28982E+07
         0.12002E+07
         0.28857E+07
        -0.39522E+07
        -0.53755E+07
        -0.14371E+07
        -0.77800E+07
         0.24082E+07
         0.27555E+07
        -0.26586E+07
         0.21371E+07
         0.78121E+07
        -0.84837E+06
         0.35631E+07
         0.34227E+07
         0.77612E+06
        -0.46375E+06
         0.10533E+07
         0.16965E+06
         0.11954E+08
        -0.68569E+06
        -0.47578E+07
         0.22279E+07
         0.36867E+07
         0.33416E+07
         0.73499E+07
         0.37921E+07
        -0.95808E+06
        -0.17076E+07
        -0.54465E+07
        -0.38482E+07
        -0.37876E+07
        -0.39541E+07
         0.53813E+06
         0.57646E+07
         0.80859E+07
        -0.26843E+07
        -0.43316E+07
        -0.22058E+06
         0.17122E+07
         0.28694E+07
         0.34974E+07
        -0.98754E+06
         0.20730E+07
        -0.19882E+07
        -0.20224E+07
         0.35763E+07
         0.14337E+07
        -0.13992E+08
        -0.21630E+07
        -0.22424E+07
         0.19349E+07
        -0.42983E+07
        -0.34786E+07
        -0.67019E+07
        -0.90468E+06
         0.66826E+07
         0.22096E+07
         0.24657E+07
         0.70300E+07
         0.43159E+07
         0.71620E+07
         0.48134E+07
         0.17228E+07
         0.47799E+06
        -0.17953E+07
        -0.12188E+07
        -0.41893E+06
        -0.77282E+07
         0.45427E+06
         0.47886E+07
         0.15112E+07
         0.56143E+07
        -0.12074E+08
         0.47431E+07
         0.49981E+07
        -0.13067E+07
        -0.24998E+07
        -0.27397E+07
        -0.33721E+07
        -0.64740E+06
        -0.71909E+07
        -0.86589E+07
         0.84775E+06
        -0.52401E+07
         0.71004E+07
         0.64998E+06
         0.48401E+06
        -0.19016E+07
         0.76370E+07
         0.14295E+07
        -0.30552E+07
        -0.29683E+07
        -0.21557E+06
        -0.17650E+07
         0.17294E+06
        -0.26704E+07
         0.83057E+07
        -0.24485E+07
        -0.20398E+07
         0.27554E+07
         0.14762E+07
        -0.23368E+07
         0.10815E+07
         0.55284E+06
        -0.21307E+07
         0.44507E+07
         0.14280E+06
        -0.17965E+07
        -0.85970E+06
         0.25940E+07
         0.60336E+07
         0.37740E+07
        -0.49568E+07
        -0.11606E+08
        -0.17149E+07
        -0.12446E+08
        -0.33104E+07
        -0.16506E+07
         0.65378E+07
        -0.64716E+07
        -0.47325E+07
         0.74962E+07
         0.48168E+07
         0.35372E+07
         0.38040E+07
         0.15318E+08
         0.63716E+07
        -0.33238E+07
        -0.64605E+06
        -0.92200E+07
         0.44722E+07
         0.12358E+08
         0.56045E+07
        -0.18806E+07
         0.58921E+07
         0.31286E+07
         0.15622E+07
        -0.26595E+07
        -0.21730E+07
        -0.79758E+07
        -0.35750E+06
         0.13430E+07
         0.13258E+07
        -0.83856E+06
         0.92955E+07
         0.34180E+07
         0.67846E+07
         0.18195E+07
        -0.71225E+06
         0.14258E+07
         0.77380E+07
         0.86681E+07
         0.53855E+07
        -0.31465E+07
        -0.38505E+07
        -0.28886E+07
         0.15467E+06
        -0.32509E+07
        -0.35467E+07
        -0.17543E+07
         0.27811E+07
        -0.21848E+07
         0.60047E+07
        -0.31667E+07
         0.50261E+07
        -0.41602E+07
        -0.26581E+07
         0.13693E+07
         0.20626E+07
         0.62190E+06
        -0.12311E+07
        -0.38825E+07
        -0.17081E+07
        -0.36172E+07
         0.57938E+07
        -0.42523E+07
        -0.38576E+07
        -0.10353E+08
        -0.56631E+07
         0.34454E+07
         0.91358E+07
         0.23233E+07
        -0.22511E+07
        -0.15443E+06
        -0.57834E+07
        -0.54751E+07
        -0.17386E+07
         0.21889E+07
         0.42485E+07
         0.15449E+07
        -0.38878E+07
        -0.49886E+07
        -0.55491E+07
         0.20188E+06
         0.11061E+07
        -0.17601E+07
         0.29072E+07
        -0.46391E+06
        -0.17491E+07
         0.37253E+07
        -0.55967E+07
        -0.18808E+07
        -0.38567E+07
         0.87041E+07
        -0.51678E+07
         0.10222E+07
         0.11939E+08
        -0.21494E+07
        -0.44256E+07
        -0.77546E+07
         0.24554E+07
        -0.76916E+07
        -0.23319E+06
        -0.47269E+06
         0.32347E+07
         0.99728E+06
         0.27180E+07
         0.77466E+07
        -0.16065E+07
        -0.44067E+07
        -0.60259E+07
        -0.70690E+06
         0.10631E+07
         0.21280E+07
         0.51360E+07
         0.55290E+06
        -0.97297E+06
        -0.13002E+07
         0.15947E+08
         0.41627E+07
        -0.67622E+06
        -0.38997E+06
        -0.61561E+07
        -0.22606E+07
        -0.18497E+07
        -0.92641E+05
        -0.53391E+07
        -0.58956E+05
         0.34105E+07
         0.30872E+07
         0.10139E+07
        -0.10444E+08
         0.21270E+07
        -0.52993E+07
        -0.37878E+07
         0.29786E+07
         0.61757E+07
         0.43988E+07
         0.10410E+07
         0.16955E+07
         0.30906E+06
        -0.19009E+07
        -0.86961E+07
        -0.13378E+08
        -0.99571E+07
        -0.11840E+08
        -0.18178E+07
         0.79848E+07
         0.67684E+07
        -0.11111E+07
         0.36133E+06
        -0.24512E+07
         0.15128E+06
         0.11289E+08
         0.74990E+07
         0.19771E+07
        -0.17349E+07
        -0.23885E+07
        -0.28407E+05
        -0.17847E+07
        -0.15618E+08
        -0.66045E+07
        -0.13959E+07
         0.54147E+06
         0.12108E+07
        -0.42250E+06
        -0.45050E+07
         0.33607E+07
        -0.16699E+07
         0.13074E+08
         0.14931E+08
        -0.44345E+07
        -0.49083E+07
        -0.27074E+07
         0.17610E+07
         0.61959E+06
         0.15159E+07
        -0.39339E+07
         0.33810E+07
         0.31502E+07
         0.90057E+07
        -0.20056E+07
        -0.51029E+07
         0.32243E+07
         0.23491E+07
         0.29195E+07
         0.11813E+07
        -0.18496E+07
        -0.62137E+07
        -0.34587E+06
        -0.33674E+07
        -0.37137E+07
         0.38278E+07
         0.25576E+07
         0.13104E+07
         0.14294E+07
         0.10175E+08
         0.27548E+07
         0.15430E+07
         0.24021E+07
        -0.60702E+07
        -0.11554E+07
        -0.29232E+07
         0.26640E+07
        -0.30836E+07
         0.18757E+05
         0.40820E+07
         0.55878E+07
         0.94439E+06
        -0.49033E+07
         0.73047E+06
        -0.31514E+07
         0.30008E+07
         0.48772E+07
        -0.15298E+07
         0.17331E+07
         0.32513E+07
         0.43828E+07
         0.34615E+07
         0.11224E+07
        -0.42363E+07
        -0.78084E+07
        -0.45709E+07
        -0.40284E+07
         0.48423E+07
         0.33950E+07
        -0.58166E+06
         0.35687E+07
         0.72474E+07
        -0.21382E+07
         0.13805E+07
         0.13500E+08
         0.91230E+07
         0.35155E+07
         0.16522E+07
         0.34885E+07
         0.75267E+07
        -0.25319E+07
         0.36444E+07
         0.72711E+07
         0.22262E+05
        -0.49884E+07
         0.96205E+06
         0.72919E+07
        -0.14012E+07
         0.58160E+07
         0.34857E+07
         0.67787E+07
         0.12295E+08
        -0.78047E+07
         0.72378E+07
         0.44685E+06
         0.11498E+07
         0.10325E+08
         0.11331E+08
         0.98533E+06
        -0.11282E+07
        -0.80148E+07
         0.40199E+07
         0.25700E+07
        -0.61106E+07
        -0.16541E+07
        -0.45155E+07
         0.18695E+07
        -0.14683E+07
         0.31848E+06
        -0.87836E+06
        -0.14363E+07
        -0.18501E+07
        -0.56014E+07
        -0.23722E+07
        -0.42261E+07
        -0.25324E+07
        -0.32140E+07
        -0.28474E+07
         0.84665E+06
         0.85631E+06
        -0.28918E+07
        -0.18541E+07
        -0.27225E+06
        -0.49464E+07
        -0.26158E+06
         0.12523E+07
        -0.29232E+07
        -0.10644E+07
        -0.92973E+06
         0.18930E+07
         0.93340E+07
        -0.28914E+07
         0.27494E+07
         0.18227E+07
         0.25139E+07
        -0.68779E+07
        -0.57125E+07
         0.68613E+05
         0.85614E+06
        -0.45430E+06
        -0.13591E+07
         0.38941E+07
         0.37283E+07
         0.23410E+07
         0.10562E+07
         0.70058E+07
         0.43190E+07
         0.49602E+07
         0.97880E+07
         0.66805E+07
         0.33365E+06
        -0.27360E+07
         0.13619E+07
         0.66962E+06
        -0.87046E+06
         0.72529E+06
         0.33062E+07
         0.68565E+07
        -0.47193E+07
        -0.48822E+07
         0.90849E+06
         0.72727E+07
         0.25650E+07
        -0.19768E+07
         0.41992E+07
         0.22016E+07
         0.91264E+06
         0.31375E+07
        -0.54121E+07
        -0.83229E+07
         0.42740E+07
         0.71958E+07
        -0.84722E+06
         0.42712E+07
        -0.17314E+07
        -0.11710E+08
        -0.15383E+08
         0.49787E+07
        -0.32040E+07
        -0.27279E+07
         0.30717E+07
         0.92375E+06
         0.49616E+07
         0.18901E+07
         0.50015E+07
         0.37161E+07
         0.56933E+07
         0.47867E+07
         0.19375E+07
         0.18997E+07
        -0.25712E+07
         0.35659E+07
         0.14852E+07
         0.20519E+07
         0.15081E+07
         0.35256E+07
         0.25476E+07
         0.21683E+07
         0.41144E+06
         0.17433E+07
         0.15441E+07
         0.18058E+06
         0.16201E+07
         0.86638E+06
        -0.46358E+07
        -0.14136E+08
        -0.10035E+08
        -0.79813E+07
         0.64507E+07
        -0.75550E+06
         0.34150E+07
         0.18498E+07
        -0.20293E+07
        -0.12604E+08
        -0.96559E+07
        -0.80049E+06
        -0.81346E+06
         0.64830E+06
         0.30376E+07
         0.68719E+07
         0.62846E+07
         0.41079E+07
         0.91651E+06
        -0.23845E+06
        -0.36969E+07
        -0.45129E+07
         0.90562E+06
        -0.11004E+07
        -0.10134E+07
        -0.18709E+07
        -0.88574E+06
        -0.29770E+07
        -0.34596E+07
         0.10899E+07
         0.68608E+07
         0.81403E+07
        -0.21803E+07
        -0.75710E+06
         0.43780E+07
         0.45091E+07
         0.24816E+07
        -0.11856E+07
         0.32463E+06
         0.45725E+07
         0.17180E+07
         0.63237E+07
         0.33092E+07
        -0.22805E+08
        -0.22086E+07
         0.17557E+07
         0.35733E+07
        -0.11248E+07
        -0.51233E+07
         0.15291E+07
         0.23441E+07
         0.10130E+08
         0.12504E+07
        -0.60284E+07
        -0.12499E+07
         0.49918E+07
         0.22573E+07
        -0.52932E+07
         0.30406E+07
         0.23564E+07
         0.42124E+07
         0.39281E+07
         0.17490E+07
         0.35267E+07
        -0.18376E+06
         0.35879E+07
        -0.79732E+06
         0.23227E+07
         0.22713E+06
         0.61112E+07
         0.47596E+06
         0.17317E+07
        -0.23860E+07
        -0.31493E+07
         0.23686E+07
         0.48419E+07
         0.18717E+07
         0.43742E+07
         0.29303E+07
        -0.32707E+07
        -0.58571E+07
         0.19107E+07
         0.62031E+07
         0.40919E+07
         0.38779E+07
        -0.42832E+07
        -0.40503E+07
        -0.72692E+07
        -0.84596E+06
         0.25668E+07
         0.36088E+07
         0.23298E+07
         0.28189E+07
         0.43912E+07
         0.34011E+07
         0.22399E+07
        -0.65216E+07
        -0.53436E+07
        -0.77779E+06
         0.62494E+07
         0.51730E+07
         0.26209E+06
         0.60295E+06
        -0.10480E+07
         0.43649E+07
         0.57974E+07
         0.35431E+07
         0.26980E+07
         0.23957E+07
        -0.31319E+07
        -0.30309E+07
         0.59830E+07
         0.13894E+08
         0.27342E+07
         0.23239E+07
         0.33679E+07
        -0.30788E+07
         0.65104E+06
         0.51421E+07
         0.21650E+07
         0.11145E+08
         0.18113E+07
         0.90232E+07
         0.19633E+07
         0.63983E+07
         0.49771E+07
         0.41627E+07
        -0.59892E+06
        -0.11711E+08
        -0.60595E+07
        -0.85271E+06
         0.28847E+07
         0.38729E+07
        -0.12769E+05
        -0.97017E+07
        -0.29737E+07
         0.12020E+08
         0.11085E+07
         0.91442E+06
         0.14441E+07
         0.27462E+07
        -0.14509E+07
         0.22449E+06
        -0.60468E+06
        -0.36559E+07
         0.11013E+07
        -0.13218E+07
         0.68338E+07
         0.44257E+07
         0.17806E+07
        -0.67188E+06
         0.30798E+07
        -0.17567E+07
         0.15348E+07
         0.23059E+07
         0.85370E+06
         0.33783E+07
         0.87269E+07
         0.71019E+06
         0.68238E+07
        -0.28453E+07
         0.39370E+07
        -0.70795E+07
        -0.33852E+07
        -0.21547E+07
        -0.54086E+07
         0.13335E+07
        -0.46560E+06
        -0.38489E+07
         0.31654E+07
         0.46494E+07
        -0.41052E+07
        -0.15852E+06
         0.35024E+05
        -0.19526E+07
        -0.32107E+07
         0.79411E+06
         0.54801E+07
        -0.23806E+06
        -0.34846E+07
        -0.28060E+07
        -0.39928E+07
         0.43606E+07
         0.48685E+07
         0.39811E+07
         0.29580E+07
         0.10983E+07
        -0.27893E+07
        -0.50605E+06
        -0.12553E+08
        -0.15505E+08
         0.10650E+07
         0.17244E+07
         0.46200E+07
         0.21367E+07
         0.14369E+07
         0.53912E+07
        -0.13559E+08
        -0.89106E+07
         0.20090E+07
         0.57727E+07
         0.11185E+08
         0.89009E+07
         0.19039E+07
        -0.30392E+07
        -0.71289E+07
        -0.55460E+07
        -0.68584E+05
        -0.13633E+07
         0.63516E+07
         0.48146E+07
        -0.47540E+07
        -0.41824E+07
         0.93452E+07
         0.53271E+07
        -0.73779E+06
        -0.42262E+07
        -0.63513E+07
        -0.24871E+07
        -0.20815E+07
        -0.14773E+07
         0.10747E+07
         0.21688E+07
         0.35173E+07
         0.52735E+07
         0.10734E+08
         0.74095E+07
         0.18526E+07
         0.38915E+07
         0.44776E+07
         0.44674E+06
         0.41032E+07
         0.41122E+06
         0.17790E+07
         0.26336E+07
         0.89849E+07
         0.50534E+07
         0.43636E+07
         0.23038E+06
         0.59434E+07
        -0.14389E+07
         0.24280E+07
         0.34421E+07
        -0.16756E+07
         0.96139E+06
        -0.24345E+07
        -0.17912E+07
        -0.12222E+07
        -0.70775E+06
         0.10278E+07
        -0.37671E+07
        -0.33530E+07
        -0.81311E+06
        -0.86062E+06
         0.23465E+07
         0.15542E+05
        -0.96507E+07
        -0.68289E+07
         0.30222E+06
         0.86430E+06
         0.36582E+07
        -0.60876E+06
        -0.30184E+07
        -0.11880E+07
         0.39552E+07
         0.90824E+07
         0.15705E+07
         0.11942E+08
         0.48307E+07
         0.77619E+07
        -0.12268E+07
        -0.11526E+06
         0.39131E+07
         0.13383E+07
         0.47747E+07
         0.30907E+07
         0.10499E+08
         0.29728E+07
        -0.10072E+08
         0.34433E+07
         0.56271E+07
         0.43092E+07
        -0.14690E+07
        -0.47035E+07
         0.68756E+06
         0.90726E+06
         0.25151E+07
         0.19732E+07
        -0.70620E+06
         0.10400E+07
        -0.92677E+06
        -0.11333E+07
         0.61141E+07
        -0.43738E+07
        -0.65612E+07
        -0.24875E+07
        -0.24773E+07
         0.42487E+07
         0.28331E+07
        -0.41677E+07
        -0.14129E+07
        -0.25287E+07
        -0.10406E+07
         0.30050E+07
        -0.13244E+07
        -0.54129E+07
         0.67622E+06
        -0.20859E+07
         0.21252E+07
        -0.10381E+07
        -0.22401E+07
         0.25530E+07
        -0.63038E+06
         0.17332E+07
         0.40983E+07
         0.49809E+06
         0.63824E+07
        -0.23639E+07
         0.59245E+07
        -0.13407E+06
         0.19976E+07
         0.36321E+07
        -0.50162E+06
         0.22399E+07
         0.57818E+07
        -0.14788E+07
        -0.37989E+07
         0.38098E+07
        -0.21902E+07
        -0.58301E+07
        -0.46304E+07
        -0.31958E+07
        -0.16656E+07
         0.10737E+07
         0.65894E+06
         0.30249E+07
         0.13654E+07
         0.31672E+07
         0.47930E+07
         0.16939E+07
        -0.28913E+06
        -0.10808E+07
         0.64307E+06
         0.40164E+07
         0.13069E+07
        -0.13614E+08
        -0.38635E+07
        -0.33991E+07
         0.39132E+07
         0.28316E+06
        -0.14531E+07
        -0.32268E+07
        -0.43506E+07
        -0.15865E+07
         0.69956E+07
         0.15014E+08
         0.10731E+07
         0.26099E+07
         0.70751E+07
         0.57286E+07
         0.64340E+07
         0.36993E+07
         0.83846E+07
         0.10675E+08
         0.11087E+07
        -0.59029E+06
        -0.26948E+07
        -0.60797E+06
        -0.11107E+07
        -0.30684E+07
         0.14826E+07
        -0.44639E+07
        -0.25378E+07
         0.12071E+07
        -0.85782E+06
         0.50054E+07
         0.62351E+07
        -0.20106E+07
        -0.35323E+07
        -0.53931E+07
        -0.38088E+07
        -0.25652E+07
        -0.30053E+07
        -0.23015E+07
        -0.32410E+07
        -0.37943E+07
        -0.14272E+07
        -0.35098E+07
        -0.41622E+07
        -0.79790E+06
        -0.34529E+07
        -0.11656E+08
        -0.70907E+07
        -0.73253E+07
         0.55360E+06
        -0.29996E+07
        -0.70220E+05
         0.17244E+06
         0.51665E+07
         0.29243E+07
        -0.27875E+07
        -0.35749E+06
        -0.48518E+06
        -0.11271E+07
         0.11377E+07
         0.10180E+07
        -0.53605E+06
        -0.17416E+07
         0.25583E+07
         0.50708E+07
        -0.61806E+07
        -0.12685E+08
         0.55648E+06
         0.27036E+07
        -0.36488E+07
        -0.35535E+07
        -0.48689E+07
        -0.12383E+07
         0.11802E+07
         0.16838E+07
         0.32076E+07
         0.81383E+07
         0.72910E+07
        -0.30198E+07
        -0.13779E+07
        -0.68642E+07
        -0.50619E+06
         0.20601E+07
         0.20042E+07
        -0.14144E+07
         0.21106E+07
         0.15273E+07
        -0.70692E+07
         0.10630E+08
         0.37783E+07
         0.64472E+07
         0.10200E+08
         0.54201E+07
         0.79063E+07
         0.46906E+07
         0.38242E+07
         0.24603E+05
        -0.10342E+08
        -0.60687E+07
        -0.28846E+07
         0.12799E+07
         0.12827E+08
         0.13761E+08
         0.17252E+07
        -0.25671E+07
        -0.65576E+06
        -0.33808E+07
        -0.27669E+07
        -0.27011E+07
         0.22458E+06
         0.45291E+07
         0.21254E+07
        -0.15991E+07
         0.26090E+07
         0.33050E+07
         0.24929E+07
         0.35245E+07
         0.15351E+07
         0.50244E+06
        -0.40352E+07
         0.13010E+07
        -0.48965E+07
        -0.20622E+07
         0.53568E+06
        -0.25669E+07
         0.61267E+06
        -0.23211E+07
        -0.73517E+07
         0.35440E+07
        -0.46970E+07
         0.15969E+07
         0.10362E+07
         0.11696E+07
        -0.79007E+05
        -0.38712E+07
        -0.40264E+07
        -0.21058E+07
         0.12008E+07
        -0.78689E+07
        -0.35019E+07
         0.93187E+06
         0.29933E+07
         0.31789E+07
         0.28795E+07
         0.47419E+07
         0.43699E+07
         0.38566E+07
        -0.74466E+06
        -0.11499E+06
        -0.15738E+07
         0.71358E+06
         0.24702E+07
         0.40408E+07
         0.50708E+07
         0.46352E+07
         0.32273E+07
         0.62196E+07
         0.34194E+07
         0.64963E+06
         0.10723E+07
         0.33128E+07
         0.47798E+07
         0.20453E+07
         0.50586E+06
        -0.41883E+07
         0.12170E+07
         0.26823E+07
         0.95044E+06
        -0.49008E+07
        -0.58756E+07
         0.77349E+06
        -0.81048E+06
        -0.34453E+07
        -0.45439E+07
        -0.89778E+07
        -0.35567E+07
        -0.54852E+07
        -0.31780E+07
        -0.42934E+06
        -0.36215E+07
        -0.39166E+07
        -0.46251E+07
        -0.29589E+07
        -0.43790E+07
        -0.65934E+07
        -0.22965E+07
        -0.54502E+07
        -0.28662E+07
        -0.91671E+06
         0.20500E+06
        -0.14366E+07
        -0.14988E+07
         0.99049E+06
         0.10437E+07
        -0.44864E+06
         0.98050E+06
         0.11888E+07
        -0.31406E+07
        -0.20218E+07
        -0.12916E+07
        -0.43577E+07
        -0.14572E+07
         0.76798E+06
         0.34635E+07
        -0.34639E+07
        -0.11623E+08
        -0.43102E+07
        -0.54406E+07
        -0.50954E+07
        -0.11537E+08
        -0.16657E+07
        -0.29377E+07
        -0.65287E+06
        -0.48708E+06
         0.94770E+05
        -0.52576E+06
        -0.92621E+07
        -0.63186E+07
        -0.32835E+07
        -0.61491E+07
        -0.10286E+08
         0.53089E+07
         0.18477E+08
         0.20662E+07
        -0.10979E+07
        -0.82616E+06
         0.40771E+07
         0.91867E+07
         0.48897E+07
         0.31199E+07
         0.27702E+07
         0.99764E+06
        -0.29956E+07
        -0.26030E+07
        -0.44248E+07
        -0.48135E+07
         0.63187E+07
         0.84741E+07
         0.17574E+07
        -0.10652E+08
        -0.65484E+07
        -0.31604E+07
        -0.95419E+07
         0.17601E+08
         0.25581E+07
         0.12320E+08
        -0.25168E+07
         0.52946E+07
        -0.44751E+06
        -0.71934E+07
        -0.13128E+05
         0.73996E+06
         0.49569E+07
         0.52405E+07
        -0.30152E+07
         0.23264E+05
         0.51493E+07
         0.24669E+07
         0.21876E+07
        -0.86538E+06
         0.10015E+07
        -0.75663E+06
         0.19888E+06
         0.16704E+07
         0.30184E+07
         0.18455E+07
        -0.13450E+07
         0.93303E+06
         0.33454E+06
         0.88242E+05
         0.15907E+07
         0.51890E+07
         0.26963E+07
         0.41601E+07
         0.62287E+07
        -0.11628E+07
        -0.36095E+07
         0.22763E+07
        -0.30781E+07
        -0.54268E+07
        -0.55758E+07
        -0.54198E+07
        -0.43027E+07
        -0.36946E+07
        -0.42514E+07
        -0.38326E+07
         0.29928E+07
        -0.23926E+07
        -0.60091E+07
        -0.80854E+07
         0.20941E+06
        -0.19303E+07
         0.14176E+07
         0.99682E+06
         0.37339E+07
        -0.34918E+06
        -0.74656E+06
         0.31603E+07
        -0.30921E+07
        -0.49034E+07
        -0.43973E+07
        -0.88490E+07
        -0.87054E+07
        -0.95225E+06
        -0.58692E+06
         0.54339E+06
         0.42399E+06
         0.67466E+06
         0.46960E+06
        -0.14454E+07
        -0.39950E+07
        -0.14312E+07
         0.76731E+07
        -0.25245E+06
         0.41795E+07
         0.71401E+07
         0.10533E+08
        -0.40301E+07
        -0.91793E+07
         0.52777E+07
        -0.75070E+07
        -0.32189E+07
         0.11210E+08
         0.96377E+07
        -0.10431E+08
         0.88603E+07
        -0.16895E+07
        -0.17341E+07
         0.61739E+07
        -0.24855E+07
        -0.28434E+07
        -0.13940E+06
         0.26492E+07
         0.36809E+07
         0.58782E+07
         0.15454E+08
         0.15331E+08
         0.31149E+07
        -0.15267E+06
         0.12044E+07
         0.37588E+07
        -0.76611E+06
         0.42422E+07
         0.17884E+07
        -0.41262E+07
        -0.52051E+07
        -0.58379E+05
        -0.34793E+07
        -0.89140E+07
         0.85080E+07
         0.15291E+07
        -0.13211E+08
         0.61001E+07
        -0.18230E+07
        -0.97382E+06
        -0.40568E+07
        -0.26173E+07
        -0.11964E+08
        -0.13241E+08
        -0.32479E+07
        -0.84863E+07
        -0.30903E+07
        -0.67278E+07
        -0.10903E+07
        -0.82201E+07
         0.99332E+06
        -0.95681E+07
        -0.17615E+08
        -0.60779E+07
        -0.37838E+07
        -0.68371E+07
        -0.37095E+07
         0.77968E+04
         0.34436E+07
         0.94560E+06
        -0.99793E+05
         0.29781E+07
        -0.63908E+07
        -0.12075E+08
        -0.44141E+07
         0.78844E+07
        -0.24169E+07
        -0.11411E+06
        -0.39099E+07
        -0.30875E+07
         0.78984E+06
         0.22521E+07
         0.19470E+07
         0.15936E+07
        -0.36053E+06
        -0.13216E+08
        -0.10547E+08
         0.10263E+08
         0.80059E+07
         0.93293E+06
         0.11283E+08
        -0.99867E+06
        -0.13085E+08
        -0.19085E+08
         0.14205E+08
         0.71364E+08
         0.44039E+08
         0.40104E+08
        -0.71463E+06
         0.10060E+08
         0.15893E+08
        -0.16593E+05
         0.88920E+07
        -0.34254E+07
        -0.18123E+08
         0.82444E+07
         0.46034E+07
        -0.77676E+07
         0.62252E+07
         0.11260E+07
        -0.99903E+07
  
SCALARS                 acceleration_y  double 1
LOOKUP_TABLE default
        -0.30803E+07
        -0.63305E+07
        -0.88158E+06
         0.93850E+06
        -0.80115E+06
         0.45956E+07
         0.16250E+07
        -0.18980E+07
        -0.26139E+06
        -0.24235E+07
         0.18800E+07
         0.67553E+06
        -0.75730E+07
        -0.49408E+07
        -0.59791E+06
        -0.28198E+06
        -0.29542E+06
        -0.17910E+07
         0.25833E+06
         0.60759E+06
         0.35084E+07
         0.26300E+07
         0.60103E+07
        -0.74034E+06
         0.79802E+07
         0.20160E+07
         0.63504E+07
        -0.53884E+06
        -0.32040E+07
         0.20514E+07
         0.31908E+07
         0.38525E+07
         0.56225E+07
         0.18993E+07
         0.17662E+07
        -0.47401E+06
        -0.50083E+07
         0.29432E+07
        -0.42790E+07
        -0.15258E+07
        -0.13263E+06
        -0.29856E+07
         0.53178E+07
         0.27785E+07
         0.40628E+07
        -0.10122E+08
         0.21907E+06
        -0.51426E+07
        -0.20969E+07
        -0.33704E+07
        -0.44537E+07
        -0.31993E+07
         0.30168E+06
         0.12338E+07
        -0.10569E+08
         0.58575E+07
        -0.82717E+07
         0.13510E+07
         0.45511E+07
         0.43493E+07
         0.17561E+07
        -0.37092E+07
         0.27796E+07
         0.98828E+06
         0.40203E+07
         0.21124E+07
         0.31502E+07
        -0.20195E+07
         0.17263E+08
         0.37447E+07
         0.86091E+06
         0.24996E+07
         0.16975E+07
         0.29058E+07
         0.36110E+07
         0.30639E+07
         0.90455E+07
         0.65513E+06
         0.89535E+07
         0.52039E+07
         0.63030E+07
         0.96019E+07
        -0.77967E+06
         0.22624E+07
         0.47764E+07
         0.20323E+07
         0.44702E+07
        -0.14047E+07
        -0.15350E+07
        -0.29905E+07
        -0.74505E+07
         0.22866E+07
        -0.18246E+07
        -0.91046E+07
         0.36279E+06
        -0.26599E+07
        -0.36248E+07
        -0.60393E+06
        -0.20321E+07
         0.42765E+06
        -0.15308E+06
         0.80066E+06
         0.65530E+07
        -0.92958E+06
         0.10613E+07
        -0.61053E+07
         0.13178E+07
         0.46716E+07
         0.10390E+08
         0.31521E+07
         0.91960E+07
         0.90015E+07
         0.57014E+07
         0.63978E+07
         0.26282E+07
         0.39803E+07
        -0.43699E+07
        -0.29875E+07
         0.89689E+06
        -0.22442E+07
        -0.37224E+07
         0.36300E+06
         0.21862E+07
        -0.22092E+07
        -0.58045E+07
        -0.66979E+07
         0.14767E+07
         0.71686E+06
        -0.19601E+07
         0.52849E+07
         0.13962E+08
         0.67819E+07
         0.13051E+08
         0.17887E+07
        -0.47956E+07
         0.20115E+07
        -0.25367E+07
         0.11031E+05
         0.18359E+07
         0.17804E+06
        -0.36748E+07
        -0.26110E+07
        -0.60214E+07
        -0.43324E+07
        -0.11151E+08
        -0.76482E+07
        -0.17069E+07
        -0.60650E+07
         0.14389E+07
        -0.12031E+07
        -0.52348E+07
         0.14849E+07
         0.16091E+07
         0.54222E+07
         0.70333E+07
         0.59258E+07
        -0.13450E+07
        -0.52990E+07
        -0.10588E+07
        -0.14854E+07
         0.45610E+06
        -0.52520E+07
        -0.65774E+07
        -0.29019E+07
         0.38145E+07
         0.33730E+07
         0.46093E+07
         0.14298E+08
         0.11625E+08
         0.81149E+07
         0.34401E+07
         0.38837E+07
         0.81777E+07
         0.56179E+07
        -0.71550E+07
         0.26207E+07
        -0.62231E+07
        -0.96153E+07
        -0.52530E+06
        -0.17437E+08
         0.23265E+07
        -0.44047E+07
         0.56086E+07
        -0.36305E+07
        -0.27186E+07
         0.45109E+06
        -0.20629E+07
        -0.79767E+06
        -0.28521E+07
        -0.67655E+07
         0.20325E+08
         0.34343E+07
         0.10420E+07
         0.16850E+07
         0.62132E+07
         0.71576E+07
         0.75995E+06
         0.70893E+07
        -0.18351E+07
         0.66072E+07
         0.28789E+07
        -0.53448E+06
         0.72743E+07
        -0.16334E+07
        -0.10139E+08
        -0.77527E+07
         0.87635E+05
        -0.28293E+07
        -0.24982E+07
         0.77182E+05
         0.41161E+07
         0.21334E+06
        -0.28084E+07
         0.76641E+07
        -0.64364E+06
         0.63741E+06
        -0.53059E+06
         0.14979E+08
        -0.19805E+08
         0.76248E+07
         0.38388E+07
        -0.48412E+07
        -0.19203E+07
        -0.93781E+06
         0.54597E+07
        -0.24604E+07
        -0.59787E+07
        -0.91464E+06
        -0.67382E+07
        -0.70431E+07
        -0.27797E+06
         0.48106E+07
         0.38389E+07
         0.10220E+08
        -0.28413E+07
        -0.15024E+07
         0.10963E+07
        -0.65170E+06
         0.99862E+05
        -0.29663E+07
        -0.48765E+07
        -0.51936E+07
        -0.33166E+07
        -0.37666E+07
        -0.48239E+07
         0.76152E+07
         0.84624E+07
         0.95511E+06
         0.12467E+07
         0.12386E+07
         0.36126E+06
         0.99656E+06
         0.63543E+06
         0.60088E+07
         0.23581E+07
         0.35752E+07
        -0.73237E+07
        -0.12956E+08
        -0.32391E+07
        -0.42906E+07
         0.24584E+07
         0.26566E+06
         0.10850E+07
        -0.11759E+07
        -0.60405E+06
        -0.12292E+07
        -0.43202E+06
        -0.26654E+07
         0.84558E+07
         0.16483E+07
         0.24783E+07
        -0.49709E+07
        -0.91608E+07
        -0.20170E+07
         0.53263E+07
         0.83563E+07
        -0.87455E+06
        -0.19834E+07
        -0.79948E+06
        -0.29792E+07
         0.48963E+07
         0.41383E+06
        -0.18453E+07
         0.36380E+07
         0.74127E+07
         0.61386E+06
         0.25993E+07
         0.67461E+07
         0.85537E+07
         0.92689E+07
        -0.24836E+07
         0.23529E+07
        -0.62778E+07
         0.44137E+07
        -0.10272E+08
         0.54927E+07
        -0.52390E+07
         0.11407E+08
         0.10646E+07
         0.94251E+07
         0.99695E+07
        -0.83573E+07
        -0.43618E+07
        -0.64683E+07
        -0.11597E+07
         0.12670E+07
         0.40485E+07
        -0.22957E+07
         0.34362E+06
         0.48230E+07
        -0.10056E+08
        -0.47702E+07
         0.19944E+07
         0.60544E+07
         0.51634E+07
         0.13754E+07
         0.42336E+06
         0.60254E+05
         0.28813E+07
        -0.42283E+07
        -0.21659E+07
        -0.57633E+07
         0.29703E+07
        -0.21269E+07
         0.22572E+07
         0.50080E+07
         0.89229E+07
         0.60783E+07
         0.19491E+06
         0.30192E+07
         0.55205E+07
         0.56600E+06
        -0.31965E+07
         0.15592E+06
        -0.12255E+08
         0.17027E+07
        -0.31585E+07
         0.69948E+07
         0.68489E+07
         0.80742E+07
         0.16138E+07
        -0.73141E+07
         0.47669E+07
         0.51006E+07
         0.17255E+07
        -0.25688E+07
        -0.75838E+07
        -0.26019E+06
         0.50598E+07
         0.34111E+07
        -0.28787E+07
         0.49607E+07
         0.95135E+07
         0.33968E+07
        -0.55331E+07
        -0.10556E+07
         0.21946E+07
        -0.58451E+07
        -0.17171E+07
        -0.25633E+07
        -0.52718E+06
         0.24356E+07
         0.31505E+07
         0.11190E+07
        -0.63027E+07
         0.67047E+07
        -0.34378E+07
         0.92042E+07
        -0.71582E+07
         0.16281E+07
         0.57887E+07
         0.56343E+07
        -0.73369E+07
         0.14032E+08
         0.93168E+07
        -0.21374E+07
        -0.81900E+07
        -0.31319E+06
        -0.47631E+07
        -0.12651E+08
         0.28672E+07
         0.26287E+06
         0.42455E+06
        -0.86872E+07
        -0.42872E+07
        -0.35852E+07
        -0.48387E+07
         0.53977E+07
         0.43910E+06
        -0.32786E+07
         0.12132E+07
         0.26193E+07
         0.24636E+07
        -0.13556E+07
         0.23530E+07
         0.33486E+07
         0.55740E+07
        -0.79891E+05
         0.17640E+06
         0.22238E+07
         0.79570E+07
        -0.17932E+08
        -0.79737E+07
         0.72821E+07
        -0.16253E+07
         0.45870E+07
         0.60569E+07
        -0.25912E+06
         0.27661E+07
         0.25796E+05
        -0.12020E+08
        -0.96889E+06
        -0.13633E+08
         0.17145E+07
         0.86539E+07
         0.48285E+07
         0.86848E+07
         0.12033E+08
         0.13473E+07
        -0.15798E+07
         0.11076E+05
        -0.15831E+07
        -0.23290E+07
        -0.50976E+07
        -0.85942E+07
        -0.26945E+07
         0.13015E+07
        -0.39219E+07
        -0.41736E+07
         0.19101E+07
        -0.39560E+07
         0.24896E+05
         0.31368E+07
        -0.16591E+07
        -0.11631E+07
        -0.10913E+08
        -0.10208E+08
        -0.89960E+07
        -0.42882E+07
        -0.30799E+07
        -0.17135E+07
         0.36962E+07
         0.44800E+07
         0.12935E+08
        -0.30749E+07
         0.10459E+08
        -0.37468E+07
         0.64397E+06
         0.34064E+07
        -0.64389E+07
         0.21240E+07
        -0.18825E+07
         0.10510E+07
        -0.20942E+07
         0.71385E+07
        -0.59387E+07
         0.20680E+07
         0.10574E+08
         0.25122E+07
        -0.18757E+07
         0.58553E+07
        -0.14370E+07
         0.14071E+07
         0.32109E+07
        -0.41177E+07
        -0.47728E+06
         0.68967E+07
         0.36856E+05
        -0.37750E+07
        -0.11928E+06
        -0.48663E+06
        -0.31557E+07
        -0.82287E+06
         0.13795E+07
         0.60742E+07
        -0.69410E+07
        -0.43691E+07
        -0.77648E+07
         0.10986E+08
        -0.13148E+08
        -0.53413E+07
         0.16182E+07
         0.12814E+07
         0.57211E+07
         0.13591E+07
        -0.18345E+05
         0.11957E+07
        -0.59725E+07
        -0.90215E+07
        -0.16981E+07
        -0.80021E+07
         0.89230E+07
        -0.22801E+07
         0.70185E+07
        -0.12351E+07
         0.49131E+07
         0.55025E+06
        -0.62958E+07
         0.57733E+07
         0.11954E+07
         0.28084E+07
        -0.34180E+07
        -0.68303E+07
        -0.22871E+07
         0.20303E+07
        -0.27500E+07
         0.96894E+06
         0.82094E+07
         0.31332E+07
        -0.16967E+06
         0.40332E+07
        -0.16551E+07
        -0.11139E+07
        -0.10530E+08
        -0.76451E+07
        -0.24495E+07
         0.19325E+07
        -0.89922E+06
        -0.24153E+07
         0.38427E+07
         0.28391E+07
        -0.16858E+07
        -0.77492E+07
         0.49029E+07
        -0.23357E+06
         0.19566E+07
         0.12449E+08
        -0.52731E+06
         0.83690E+07
        -0.11316E+08
         0.13632E+08
        -0.37062E+07
         0.10198E+08
         0.82383E+07
         0.10775E+08
         0.90006E+06
        -0.17280E+08
         0.12520E+08
         0.13388E+08
        -0.95005E+07
        -0.35853E+06
         0.29915E+07
        -0.38457E+07
        -0.48439E+07
         0.63643E+07
        -0.59759E+07
         0.76117E+06
         0.23695E+07
         0.12352E+07
        -0.79145E+06
         0.16753E+07
         0.23010E+07
         0.54008E+07
        -0.59397E+07
         0.15395E+07
        -0.69073E+07
         0.96169E+07
        -0.28303E+07
        -0.27518E+06
        -0.26728E+07
         0.83324E+07
         0.49294E+07
         0.32432E+07
         0.30281E+07
         0.12737E+06
        -0.39926E+07
        -0.33627E+07
        -0.12636E+07
        -0.43088E+07
         0.56131E+07
        -0.31645E+07
         0.41913E+07
        -0.94596E+07
        -0.57987E+07
        -0.37849E+07
        -0.36940E+07
         0.50113E+07
         0.25777E+07
         0.12234E+07
        -0.52185E+07
        -0.23955E+06
        -0.67618E+06
         0.21421E+07
         0.29344E+07
         0.44530E+07
         0.83175E+07
         0.23172E+07
        -0.30257E+07
        -0.74038E+06
        -0.16240E+07
        -0.13744E+07
        -0.10669E+08
        -0.49595E+06
         0.29445E+07
        -0.25165E+06
        -0.68955E+07
        -0.82626E+07
         0.16541E+07
         0.82444E+07
         0.49504E+07
        -0.83382E+07
         0.33511E+07
         0.43910E+07
        -0.81263E+07
         0.32626E+07
        -0.89146E+07
         0.58764E+07
        -0.15125E+07
         0.14781E+08
        -0.35585E+07
         0.32826E+07
        -0.24422E+07
        -0.84115E+07
         0.21783E+07
        -0.31841E+07
         0.12815E+08
        -0.11042E+08
        -0.10869E+08
         0.41955E+07
         0.10712E+07
         0.13115E+07
         0.36084E+07
         0.99982E+07
         0.62774E+07
         0.14609E+07
         0.13028E+07
         0.48813E+07
         0.70145E+06
         0.70539E+07
         0.55500E+07
         0.22787E+07
        -0.24725E+06
         0.10002E+07
        -0.14270E+07
         0.34260E+07
        -0.40302E+07
        -0.53144E+07
        -0.24270E+07
         0.24981E+07
        -0.21687E+07
         0.15773E+07
        -0.20466E+07
        -0.19856E+07
         0.22971E+07
        -0.15624E+07
        -0.40380E+06
        -0.48094E+07
        -0.23113E+07
         0.22073E+07
        -0.30679E+07
        -0.91058E+07
        -0.76026E+07
        -0.20132E+07
         0.58613E+07
        -0.33282E+07
        -0.79602E+06
        -0.54920E+07
        -0.54938E+07
         0.81085E+07
         0.13297E+07
        -0.27741E+07
        -0.11024E+07
        -0.26815E+07
        -0.19523E+07
        -0.58934E+07
         0.74473E+06
         0.30122E+06
        -0.38824E+07
         0.21481E+06
         0.44375E+07
         0.77206E+07
         0.26751E+07
        -0.52737E+07
        -0.92069E+07
        -0.64891E+07
         0.30710E+07
        -0.72992E+07
         0.51748E+07
        -0.13295E+08
        -0.22173E+07
         0.74107E+07
        -0.48935E+07
         0.37267E+07
        -0.69974E+06
         0.10620E+08
         0.69063E+07
         0.37940E+07
         0.61566E+07
        -0.57821E+07
         0.48658E+07
         0.24090E+07
        -0.28887E+06
        -0.11797E+08
         0.10133E+08
         0.13035E+08
         0.12666E+08
         0.27735E+07
        -0.68376E+07
        -0.35345E+07
        -0.18919E+07
        -0.31640E+07
         0.55983E+07
         0.57026E+06
        -0.12215E+07
         0.79007E+06
        -0.69709E+06
         0.33625E+07
         0.24175E+07
         0.48686E+07
         0.79756E+07
        -0.63225E+06
         0.36616E+05
         0.95407E+07
        -0.25471E+07
        -0.62525E+07
         0.10586E+08
         0.35680E+06
         0.25350E+07
        -0.23484E+07
        -0.22168E+06
        -0.41713E+06
        -0.18768E+07
        -0.30012E+07
        -0.48891E+07
         0.28073E+07
         0.76716E+07
        -0.59893E+07
         0.90528E+07
         0.16416E+07
        -0.38021E+07
         0.36718E+07
         0.10090E+07
         0.48676E+07
         0.80281E+07
         0.49769E+06
        -0.20246E+07
         0.10662E+08
         0.30531E+07
        -0.36289E+07
        -0.45369E+07
        -0.60858E+07
        -0.11920E+07
         0.11881E+07
         0.64891E+07
        -0.20115E+06
         0.64879E+07
         0.43067E+07
        -0.96846E+06
         0.49645E+07
         0.25750E+07
        -0.21893E+07
        -0.17519E+07
         0.89832E+07
         0.60727E+07
        -0.98159E+07
         0.85371E+05
         0.40423E+07
        -0.14599E+07
        -0.31171E+07
        -0.78997E+07
        -0.25003E+07
         0.58732E+06
         0.31410E+07
         0.13637E+07
        -0.58288E+07
        -0.27215E+07
        -0.96303E+07
         0.10411E+08
         0.51095E+07
         0.19945E+07
        -0.12388E+08
        -0.11308E+08
        -0.45839E+07
        -0.42948E+07
        -0.10372E+08
        -0.95077E+07
        -0.79727E+07
         0.11498E+08
         0.47808E+05
        -0.30311E+07
        -0.22499E+07
        -0.59561E+07
        -0.71471E+07
        -0.47547E+07
        -0.15528E+07
        -0.91915E+06
         0.99183E+06
         0.92834E+07
        -0.34916E+06
         0.31296E+07
        -0.93985E+06
        -0.28506E+07
        -0.37543E+07
         0.97115E+07
        -0.37168E+07
         0.61806E+06
        -0.33476E+07
        -0.22870E+07
         0.43964E+06
        -0.39608E+07
         0.29969E+07
         0.39098E+07
         0.57300E+07
         0.50828E+07
        -0.90229E+07
         0.66548E+07
         0.57813E+07
        -0.80013E+06
         0.16991E+07
        -0.75251E+07
        -0.56959E+06
         0.21118E+07
        -0.29204E+07
        -0.40611E+07
         0.35766E+07
        -0.85775E+06
        -0.31273E+07
        -0.72084E+07
        -0.84098E+07
        -0.47548E+07
        -0.65051E+07
        -0.11649E+07
        -0.51503E+05
         0.11078E+08
         0.65440E+07
        -0.30847E+07
         0.95217E+05
        -0.59025E+06
        -0.16754E+07
        -0.14345E+07
         0.58184E+07
         0.33551E+07
         0.34168E+07
         0.13896E+08
         0.11220E+08
        -0.33845E+07
        -0.54330E+07
         0.27149E+07
        -0.30815E+07
         0.16967E+05
         0.48579E+07
         0.42162E+07
        -0.10376E+08
        -0.10242E+07
        -0.24208E+07
        -0.47949E+07
        -0.47520E+07
         0.81937E+07
         0.71491E+07
        -0.41458E+07
         0.89862E+07
         0.14367E+08
         0.32286E+05
         0.32477E+07
        -0.91820E+07
         0.71154E+07
        -0.14140E+07
        -0.45707E+07
        -0.16726E+07
        -0.20466E+07
        -0.17473E+07
        -0.20696E+07
         0.15161E+07
         0.28088E+07
         0.66195E+06
         0.14523E+07
         0.96421E+06
         0.14771E+07
        -0.37201E+07
         0.32771E+05
         0.78606E+06
        -0.39672E+06
         0.16811E+07
        -0.61911E+06
         0.23723E+07
        -0.21516E+07
         0.23134E+07
         0.28539E+07
         0.40797E+07
         0.96855E+07
        -0.18357E+07
        -0.60820E+07
         0.58089E+06
         0.18450E+07
         0.11013E+07
         0.89359E+07
         0.10950E+08
        -0.32463E+07
        -0.38508E+07
        -0.51655E+06
        -0.40852E+07
        -0.15942E+07
        -0.26403E+05
         0.17431E+07
         0.19041E+07
        -0.99981E+06
        -0.80751E+06
         0.34432E+07
        -0.41265E+07
        -0.99719E+06
         0.10411E+07
         0.51321E+07
         0.71130E+07
         0.22758E+07
        -0.65694E+06
        -0.41440E+07
        -0.33365E+07
        -0.13953E+07
         0.12598E+06
         0.33465E+07
        -0.29239E+07
         0.58638E+07
         0.88254E+07
         0.29328E+07
        -0.30181E+07
        -0.37849E+07
         0.57058E+07
         0.48469E+07
        -0.15178E+07
         0.98822E+07
        -0.13619E+08
         0.56709E+07
         0.82877E+07
        -0.59344E+07
        -0.12845E+07
         0.51766E+07
         0.17366E+07
        -0.93458E+07
         0.36247E+07
         0.47114E+07
        -0.12849E+08
        -0.15719E+07
        -0.80743E+07
        -0.17052E+07
        -0.57945E+07
        -0.83410E+07
        -0.11081E+07
         0.30777E+06
        -0.17163E+07
        -0.21426E+07
        -0.13804E+07
        -0.21080E+06
         0.71811E+07
         0.78021E+06
        -0.59272E+06
        -0.50474E+07
         0.10411E+08
         0.30950E+07
         0.21014E+07
        -0.66634E+05
         0.53343E+07
         0.85016E+06
         0.11160E+07
        -0.95515E+06
         0.32185E+07
         0.64591E+06
        -0.14821E+07
         0.20693E+07
        -0.64942E+07
        -0.48785E+07
        -0.50726E+07
         0.33980E+07
        -0.76886E+07
         0.11058E+06
         0.72967E+07
        -0.68031E+07
        -0.11890E+07
         0.51985E+07
        -0.34673E+07
        -0.18434E+07
        -0.10034E+07
         0.49200E+06
         0.14239E+07
        -0.10835E+07
        -0.46531E+07
         0.25643E+07
         0.38579E+07
         0.32819E+06
        -0.20912E+07
        -0.14446E+05
         0.77368E+07
         0.13636E+08
         0.84379E+07
        -0.13622E+07
        -0.62382E+07
        -0.39804E+07
        -0.10276E+07
         0.13623E+07
         0.31999E+07
         0.22043E+07
         0.47418E+07
         0.42209E+07
         0.61775E+07
        -0.55789E+07
        -0.58347E+07
        -0.77472E+07
        -0.79692E+07
         0.11408E+08
         0.12947E+06
        -0.56927E+07
        -0.27956E+07
         0.35269E+07
         0.38585E+07
         0.35739E+07
        -0.17034E+07
        -0.78128E+07
        -0.89249E+07
         0.72553E+07
         0.38980E+07
        -0.28021E+07
        -0.51609E+07
         0.83908E+07
         0.36343E+07
        -0.22563E+07
         0.23435E+07
        -0.17252E+07
        -0.33647E+07
        -0.61984E+06
        -0.53722E+07
        -0.34674E+07
         0.11362E+07
         0.48257E+07
         0.34494E+07
         0.33820E+06
        -0.46581E+07
        -0.97178E+07
        -0.64736E+07
        -0.59810E+06
        -0.54244E+07
         0.19693E+07
         0.17029E+07
         0.27011E+07
         0.23647E+07
        -0.36808E+07
        -0.51328E+07
        -0.58675E+07
        -0.53152E+07
         0.82286E+06
        -0.51515E+07
         0.14218E+07
        -0.48870E+07
        -0.27039E+07
         0.12482E+07
        -0.80182E+07
        -0.35877E+06
         0.40303E+07
        -0.93601E+06
         0.55755E+06
        -0.17567E+07
        -0.15544E+07
        -0.24015E+07
        -0.51411E+07
        -0.88568E+07
        -0.57923E+07
        -0.50290E+07
        -0.45671E+07
        -0.34464E+07
        -0.33981E+07
         0.47717E+07
         0.17714E+08
         0.99058E+07
        -0.14478E+07
        -0.78289E+07
        -0.58180E+07
        -0.27670E+07
        -0.14112E+06
         0.64009E+07
         0.24539E+07
        -0.57148E+07
        -0.87082E+07
        -0.30741E+07
         0.36909E+06
         0.30135E+07
        -0.21937E+06
        -0.42473E+07
        -0.35175E+07
         0.47666E+07
        -0.10413E+08
        -0.73414E+07
        -0.70089E+06
        -0.14101E+07
         0.32407E+06
        -0.11534E+07
         0.12673E+08
         0.13020E+07
        -0.33806E+07
         0.34225E+07
         0.23243E+06
         0.23699E+07
         0.11389E+08
         0.64132E+07
        -0.10045E+07
         0.29695E+07
         0.53430E+04
        -0.69016E+04
         0.12931E+07
        -0.15782E+07
         0.20125E+07
         0.29859E+07
         0.74554E+07
         0.49904E+07
         0.66789E+07
        -0.63220E+05
        -0.52483E+07
         0.10535E+06
         0.40890E+07
        -0.15918E+07
         0.30226E+07
         0.48473E+07
         0.27749E+07
         0.43453E+07
        -0.11670E+07
        -0.46508E+06
        -0.42271E+07
         0.60643E+07
         0.11163E+08
         0.27773E+07
         0.61884E+07
         0.11984E+07
         0.30305E+07
         0.49819E+07
        -0.21648E+07
        -0.71160E+06
         0.16662E+07
         0.14811E+07
         0.63232E+07
         0.27087E+07
         0.41108E+07
         0.43221E+07
         0.27954E+06
        -0.44089E+07
        -0.37529E+07
        -0.40351E+07
        -0.42012E+07
        -0.19341E+07
         0.61283E+07
         0.46733E+07
         0.30078E+07
         0.55329E+06
        -0.36504E+07
        -0.31321E+07
         0.31756E+07
         0.79024E+07
         0.82282E+07
        -0.20224E+07
         0.52859E+06
        -0.24628E+07
         0.37412E+07
         0.75719E+05
        -0.59587E+07
         0.32099E+07
         0.40342E+07
        -0.33764E+07
        -0.80901E+07
         0.90848E+07
        -0.64369E+07
         0.22623E+07
        -0.42515E+07
        -0.28151E+07
         0.67147E+07
         0.17492E+07
         0.72960E+07
        -0.95687E+07
        -0.49018E+07
         0.33107E+07
         0.69394E+07
         0.43476E+07
        -0.75783E+07
        -0.26397E+07
        -0.19849E+07
        -0.55043E+07
        -0.33578E+07
        -0.31179E+07
        -0.48691E+07
         0.25452E+06
        -0.68516E+06
         0.33535E+07
         0.20894E+07
        -0.51788E+07
        -0.73709E+06
         0.97570E+07
         0.19997E+07
         0.16316E+07
         0.54919E+07
         0.36343E+07
        -0.97109E+06
        -0.28453E+07
        -0.50176E+07
         0.16448E+06
        -0.13047E+07
        -0.30910E+07
        -0.89889E+06
        -0.42055E+07
        -0.55250E+06
        -0.19452E+07
         0.74438E+06
         0.86231E+05
         0.16900E+07
         0.36846E+07
        -0.39145E+07
        -0.27267E+07
        -0.31867E+07
        -0.37153E+07
        -0.34636E+07
         0.70172E+07
         0.21993E+07
         0.13870E+07
         0.21582E+07
         0.18264E+07
         0.69948E+07
         0.10861E+08
        -0.32134E+07
        -0.48109E+07
        -0.28330E+07
        -0.51634E+07
        -0.13894E+08
        -0.65857E+07
        -0.37124E+07
        -0.28267E+07
        -0.15745E+07
         0.10356E+07
         0.20420E+07
         0.73234E+06
         0.49979E+07
        -0.62962E+07
         0.38743E+07
         0.50451E+07
        -0.88204E+07
        -0.63716E+07
         0.35783E+07
         0.24672E+07
         0.86837E+06
         0.17981E+08
        -0.86681E+07
        -0.81738E+07
        -0.55674E+07
         0.25839E+07
         0.57311E+07
        -0.29104E+07
        -0.24391E+07
        -0.50930E+07
         0.71734E+07
         0.45683E+07
         0.26267E+07
        -0.63798E+07
        -0.14061E+08
         0.67421E+06
         0.25783E+07
        -0.25515E+05
        -0.41119E+07
        -0.33176E+07
        -0.26551E+07
        -0.24557E+07
        -0.57386E+07
        -0.39842E+07
         0.73003E+05
         0.39471E+07
         0.26894E+07
        -0.56581E+07
        -0.74433E+07
        -0.67872E+07
        -0.17252E+07
        -0.32772E+07
         0.39488E+07
         0.69995E+07
         0.11322E+07
         0.48986E+07
         0.38883E+07
        -0.19457E+07
        -0.67358E+06
        -0.65163E+07
        -0.11672E+07
         0.39651E+07
         0.22232E+06
         0.36823E+06
         0.37835E+07
         0.31691E+07
        -0.15706E+07
         0.13319E+07
        -0.16286E+07
        -0.15737E+06
        -0.44706E+07
         0.31523E+07
        -0.18640E+07
        -0.42823E+07
        -0.27288E+07
        -0.63691E+06
         0.28571E+07
        -0.37413E+06
        -0.21767E+07
        -0.41091E+07
        -0.69269E+07
        -0.71171E+07
        -0.96343E+07
        -0.12554E+07
         0.44100E+07
         0.56694E+07
         0.33186E+07
         0.94759E+06
        -0.54828E+07
        -0.45943E+06
        -0.77139E+07
        -0.85686E+07
         0.18369E+05
         0.10955E+07
        -0.87900E+07
         0.61802E+07
         0.85160E+07
        -0.47396E+07
         0.78801E+07
        -0.14936E+08
        -0.19099E+08
        -0.72111E+07
        -0.33587E+07
         0.68896E+07
         0.49324E+07
         0.87738E+06
        -0.14421E+07
         0.13525E+05
         0.21554E+07
        -0.81295E+06
         0.36478E+07
         0.58301E+07
         0.40782E+07
        -0.89234E+07
        -0.17246E+08
         0.16686E+07
        -0.66065E+06
        -0.99107E+06
        -0.13935E+07
        -0.11773E+07
        -0.20171E+07
        -0.10803E+07
         0.15302E+07
         0.34170E+07
         0.26028E+07
        -0.69258E+07
        -0.12104E+08
        -0.54780E+07
        -0.20694E+07
        -0.79570E+07
        -0.97286E+06
         0.35622E+07
        -0.69583E+06
         0.20700E+07
        -0.14317E+07
         0.80380E+06
        -0.46791E+07
         0.10623E+07
         0.14516E+07
         0.26564E+07
        -0.27955E+07
         0.12997E+07
         0.53360E+07
         0.64682E+07
        -0.23257E+07
        -0.59275E+07
        -0.46221E+07
        -0.41355E+07
        -0.16183E+07
         0.29186E+06
         0.10104E+07
         0.40364E+06
        -0.19950E+07
        -0.11092E+07
        -0.35070E+07
        -0.59301E+07
         0.45543E+07
        -0.24597E+07
        -0.13341E+07
        -0.23254E+07
         0.12878E+07
         0.11304E+07
         0.24277E+06
         0.16700E+07
         0.42918E+07
         0.50438E+07
        -0.10109E+07
        -0.99751E+06
         0.41504E+07
         0.29708E+07
         0.47210E+07
        -0.64278E+06
        -0.52622E+07
         0.19940E+07
         0.22205E+07
        -0.27950E+07
         0.15043E+08
        -0.10558E+08
         0.18839E+08
         0.70407E+07
        -0.34281E+07
         0.30844E+07
         0.37382E+07
         0.66945E+07
        -0.58312E+07
        -0.13971E+08
         0.11003E+07
         0.49227E+07
         0.38646E+07
         0.48033E+07
         0.30430E+07
        -0.43256E+07
        -0.20732E+07
         0.17660E+06
         0.20775E+07
         0.31888E+07
         0.26095E+07
         0.21558E+07
         0.27658E+07
        -0.27215E+06
        -0.16926E+07
        -0.30460E+07
        -0.44053E+07
        -0.93791E+07
        -0.68047E+07
        -0.18999E+07
        -0.65643E+07
        -0.55122E+07
        -0.28136E+07
        -0.61256E+07
         0.37063E+06
        -0.34351E+07
        -0.47466E+07
        -0.15222E+07
        -0.30537E+07
        -0.15861E+07
        -0.34478E+07
        -0.52760E+07
        -0.93125E+05
        -0.36800E+07
        -0.27194E+06
         0.10295E+07
        -0.39917E+07
         0.18334E+07
         0.63752E+07
         0.17777E+07
         0.38747E+07
         0.67940E+06
         0.31105E+07
         0.23656E+07
         0.46781E+07
         0.67773E+07
        -0.15955E+06
        -0.47439E+07
         0.18701E+07
         0.54221E+05
         0.38546E+06
         0.71868E+07
         0.17073E+08
         0.10094E+08
         0.88845E+06
        -0.44243E+07
        -0.38141E+07
        -0.29353E+07
         0.13590E+07
         0.11171E+07
         0.69521E+07
         0.92882E+07
         0.38610E+07
         0.84951E+05
         0.47664E+07
        -0.41175E+06
         0.22513E+07
         0.88526E+07
         0.51706E+07
        -0.21076E+07
        -0.10538E+07
        -0.50229E+07
         0.10571E+07
         0.10086E+08
         0.38995E+07
        -0.33219E+07
        -0.12324E+08
        -0.16481E+08
         0.22151E+07
         0.37636E+07
        -0.12271E+08
        -0.15054E+08
        -0.19750E+07
         0.13523E+07
         0.57252E+07
        -0.46214E+06
         0.14354E+07
         0.97266E+06
         0.18265E+07
         0.10165E+07
         0.63266E+06
         0.13808E+06
        -0.63186E+06
        -0.28149E+07
        -0.22537E+07
        -0.69294E+07
         0.66468E+07
         0.39301E+07
        -0.74842E+07
         0.21197E+07
         0.21954E+07
        -0.46597E+07
         0.12998E+07
         0.31789E+07
        -0.41792E+06
         0.46025E+07
         0.46210E+07
         0.59783E+07
         0.12746E+08
        -0.48538E+07
         0.90044E+07
        -0.61211E+07
        -0.72619E+07
        -0.78387E+07
        -0.21928E+07
         0.84185E+07
         0.91728E+07
         0.56795E+07
         0.26083E+07
        -0.30923E+07
        -0.23682E+07
        -0.20089E+06
         0.12340E+07
         0.77038E+06
        -0.16707E+06
         0.15299E+07
         0.22880E+07
         0.72284E+07
         0.63821E+07
         0.59831E+07
         0.12427E+07
         0.35793E+07
         0.42849E+07
         0.25692E+07
         0.13183E+06
        -0.29490E+07
        -0.18425E+07
        -0.56363E+07
         0.26023E+07
        -0.63376E+07
         0.80095E+06
         0.31226E+07
         0.33858E+07
         0.31974E+07
         0.42408E+07
         0.85725E+07
        -0.15125E+08
        -0.46348E+07
        -0.17165E+08
        -0.39978E+07
        -0.24762E+07
         0.10164E+08
         0.22739E+07
        -0.22093E+06
         0.70510E+07
         0.25960E+07
         0.67377E+07
         0.66810E+07
         0.79893E+06
         0.20854E+07
         0.64689E+07
        -0.56217E+06
         0.78637E+06
        -0.44007E+07
        -0.26601E+07
        -0.18482E+07
        -0.28300E+07
         0.17734E+07
        -0.21757E+07
        -0.36870E+07
        -0.41193E+07
        -0.39812E+07
        -0.10498E+07
         0.10373E+07
         0.12033E+08
         0.37469E+07
         0.42710E+05
         0.10338E+08
        -0.13891E+07
        -0.34622E+07
        -0.25158E+07
        -0.21737E+07
        -0.99216E+06
        -0.11913E+07
         0.19033E+07
         0.11203E+07
         0.10110E+07
        -0.32096E+06
         0.49874E+06
         0.11304E+07
        -0.70198E+06
        -0.94500E+06
         0.12049E+07
        -0.41617E+06
        -0.16845E+07
        -0.14088E+07
        -0.39703E+07
         0.68148E+07
         0.56823E+06
        -0.10144E+07
         0.28184E+07
         0.29121E+07
         0.97895E+07
         0.17154E+08
         0.98429E+07
         0.77582E+07
         0.21929E+07
        -0.18161E+07
        -0.12235E+08
        -0.61581E+07
        -0.82361E+06
         0.73690E+06
        -0.30055E+07
        -0.97858E+07
        -0.59719E+07
         0.90534E+07
         0.10005E+08
        -0.52721E+07
        -0.34185E+07
         0.12218E+07
         0.14104E+07
        -0.29874E+07
        -0.15921E+08
        -0.52680E+07
        -0.14094E+08
        -0.58587E+07
         0.52402E+07
         0.39467E+07
        -0.10220E+08
         0.54558E+07
         0.59168E+07
         0.50732E+07
         0.46115E+07
        -0.82913E+07
        -0.66761E+07
         0.20691E+07
         0.30003E+07
        -0.69418E+07
        -0.15197E+08
         0.58754E+06
         0.10745E+08
         0.47734E+06
        -0.15852E+06
         0.39247E+07
         0.19735E+07
         0.42894E+07
        -0.27242E+06
        -0.40149E+07
        -0.53412E+07
        -0.52454E+06
        -0.57754E+07
         0.33025E+06
        -0.47212E+07
        -0.48949E+07
         0.18669E+07
        -0.11961E+07
        -0.17033E+07
        -0.60920E+06
         0.13561E+07
        -0.26418E+07
         0.19797E+07
        -0.55410E+07
        -0.45910E+07
        -0.43907E+07
        -0.10490E+08
        -0.13753E+07
        -0.59318E+07
         0.21700E+07
         0.39246E+07
         0.46077E+07
         0.32411E+07
        -0.35168E+07
        -0.43204E+07
        -0.11115E+07
        -0.52265E+06
         0.80449E+07
         0.30835E+07
        -0.16717E+07
         0.11793E+07
         0.33713E+07
         0.20519E+07
        -0.39264E+07
        -0.17114E+07
        -0.30149E+07
        -0.19889E+07
        -0.22378E+06
         0.43586E+07
        -0.24049E+06
        -0.19713E+07
        -0.10797E+07
        -0.24580E+07
        -0.87171E+07
        -0.57280E+07
        -0.41590E+06
         0.22419E+06
        -0.15706E+07
         0.20181E+07
         0.67670E+07
         0.55994E+07
         0.38232E+07
         0.31971E+06
         0.20141E+07
         0.72176E+07
        -0.44735E+07
        -0.12288E+07
        -0.10830E+08
        -0.65830E+07
        -0.35976E+07
        -0.13406E+07
         0.10385E+07
        -0.75813E+07
        -0.47056E+07
        -0.20058E+07
        -0.59891E+06
        -0.28669E+07
        -0.70291E+07
        -0.10073E+08
        -0.31458E+07
         0.34490E+07
         0.17265E+07
         0.29851E+06
         0.14474E+07
         0.15064E+07
         0.19481E+07
        -0.34029E+06
        -0.69591E+06
        -0.10424E+07
         0.66013E+06
        -0.46865E+07
         0.47055E+06
        -0.41366E+07
        -0.35166E+07
         0.26255E+07
        -0.32121E+07
         0.18308E+06
         0.21296E+07
         0.61232E+06
         0.71759E+07
         0.91132E+07
         0.33487E+06
         0.78881E+05
        -0.35829E+07
        -0.12329E+07
        -0.19212E+07
        -0.22103E+07
         0.28186E+07
         0.38356E+07
         0.34413E+07
         0.44024E+07
        -0.28643E+07
        -0.18690E+07
        -0.23224E+07
        -0.17929E+07
        -0.27901E+07
        -0.39327E+07
        -0.42360E+07
         0.28569E+07
         0.35320E+07
        -0.27822E+07
        -0.91780E+07
        -0.16248E+07
        -0.88379E+06
        -0.38127E+07
        -0.51342E+06
         0.83942E+07
         0.39114E+07
        -0.18743E+06
        -0.14348E+07
        -0.29252E+07
        -0.66603E+07
        -0.55123E+07
        -0.11562E+08
         0.13919E+07
        -0.93326E+07
         0.12032E+07
         0.11227E+08
         0.40935E+07
        -0.56702E+07
         0.11054E+08
        -0.15583E+07
         0.34175E+07
         0.11061E+08
         0.12686E+08
         0.29828E+07
         0.21001E+07
        -0.46602E+06
         0.33507E+07
         0.43251E+07
        -0.10732E+08
        -0.22833E+07
         0.33969E+07
         0.79383E+06
         0.28811E+07
         0.42749E+07
         0.27025E+07
        -0.11509E+07
         0.33890E+07
         0.18707E+07
         0.99811E+06
         0.27046E+07
         0.19920E+07
         0.49615E+07
         0.23448E+07
         0.60434E+06
         0.15158E+07
         0.10998E+07
         0.59944E+06
         0.51059E+07
         0.89332E+07
         0.24573E+07
         0.37720E+07
         0.48287E+07
         0.11743E+07
         0.16161E+07
         0.95895E+06
         0.21657E+07
         0.37426E+07
        -0.69132E+07
        -0.36453E+07
        -0.96489E+07
        -0.42528E+07
         0.55763E+06
         0.58294E+06
         0.35438E+07
         0.29706E+07
         0.17258E+07
         0.22620E+07
        -0.34666E+05
         0.72714E+06
        -0.11693E+07
        -0.15058E+07
         0.61117E+07
        -0.64562E+06
        -0.32937E+07
         0.67218E+06
        -0.56199E+05
         0.18369E+07
         0.35147E+07
         0.20447E+07
        -0.16331E+07
        -0.49610E+07
        -0.14178E+07
        -0.27777E+07
        -0.12029E+07
        -0.32731E+07
        -0.57509E+07
        -0.64859E+07
        -0.59956E+07
        -0.17283E+07
         0.99489E+07
         0.26213E+07
        -0.31223E+07
        -0.86994E+07
         0.59813E+07
         0.12219E+08
         0.78921E+06
         0.56240E+07
        -0.10267E+08
        -0.12233E+08
        -0.43386E+07
        -0.28696E+06
        -0.40970E+07
        -0.65237E+07
         0.29556E+07
         0.66866E+07
         0.54458E+07
        -0.78535E+07
        -0.14343E+08
         0.93500E+06
         0.19422E+07
        -0.19522E+07
        -0.35960E+07
         0.19688E+07
         0.22238E+07
         0.28201E+07
         0.48524E+07
         0.92366E+07
         0.68920E+07
         0.20993E+07
         0.51406E+07
        -0.35544E+07
         0.54104E+07
         0.10342E+08
        -0.16812E+07
         0.72147E+07
        -0.14215E+08
         0.58809E+07
         0.28660E+07
        -0.66980E+07
         0.72926E+07
         0.25834E+07
        -0.34199E+07
        -0.21023E+07
         0.56169E+07
         0.89775E+07
        -0.45907E+07
         0.23577E+07
        -0.28702E+07
         0.12525E+08
         0.70281E+07
         0.13653E+08
         0.13044E+07
         0.20418E+07
         0.16100E+07
         0.10062E+08
         0.93370E+07
         0.89074E+07
         0.32844E+07
        -0.27773E+07
         0.94166E+07
         0.22657E+07
        -0.20654E+05
         0.58762E+06
        -0.30721E+07
         0.47924E+07
         0.15293E+08
         0.65188E+07
         0.23199E+06
         0.60961E+07
         0.24944E+07
        -0.20560E+08
        -0.10462E+08
        -0.41070E+07
        -0.41926E+07
        -0.49932E+07
        -0.73897E+07
        -0.10453E+08
         0.17745E+08
         0.24480E+07
         0.74942E+07
         0.84037E+06
        -0.26098E+07
        -0.11240E+08
         0.87233E+07
        -0.10870E+08
        -0.22761E+08
        -0.35666E+08
        -0.38344E+08
         0.12104E+08
         0.52256E+07
        -0.67446E+07
        -0.85220E+07
        -0.73356E+07
        -0.34813E+07
         0.17830E+07
         0.22548E+07
         0.21121E+08
         0.17247E+08
        -0.33348E+06
         0.16268E+07
         0.94653E+06
        -0.13449E+08
         0.17842E+06
  
SCALARS                 acceleration_z  double 1
LOOKUP_TABLE default
        -0.24496E+07
         0.19103E+07
        -0.23427E+07
        -0.71158E+05
         0.00000E+00
         0.00000E+00
         0.00000E+00
         0.00000E+00
        -0.11339E+07
        -0.41336E+06
         0.00000E+00
         0.00000E+00
         0.14939E+08
         0.39551E+07
         0.00000E+00
         0.00000E+00
         0.22854E+06
        -0.70971E+07
         0.00000E+00
         0.00000E+00
         0.65764E+07
        -0.10275E+08
        -0.27412E+07
         0.00000E+00
         0.00000E+00
         0.00000E+00
         0.60266E+07
        -0.13730E+08
         0.00000E+00
         0.00000E+00
         0.38889E+07
         0.64807E+07
         0.10000E+07
         0.00000E+00
         0.00000E+00
         0.00000E+00
         0.29821E+07
        -0.75286E+04
         0.00000E+00
         0.00000E+00
        -0.69924E+07
        -0.48834E+07
         0.00000E+00
         0.00000E+00
        -0.32339E+07
         0.81009E+07
         0.00000E+00
         0.00000E+00
        -0.51326E+07
         0.00000E+00
         0.25068E+07
         0.00000E+00
         0.37517E+06
         0.00000E+00
        -0.42914E+07
         0.00000E+00
        -0.13843E+07
         0.96133E+06
         0.00000E+00
         0.00000E+00
        -0.10383E+07
        -0.65750E+06
         0.00000E+00
         0.00000E+00
        -0.43473E+06
         0.00000E+00
         0.38068E+07
         0.00000E+00
        -0.59523E+07
        -0.37003E+07
         0.00000E+00
         0.00000E+00
         0.10540E+07
         0.00000E+00
        -0.37962E+07
         0.00000E+00
         0.23892E+07
         0.00000E+00
         0.22313E+07
         0.00000E+00
        -0.38997E+07
        -0.30501E+07
         0.00000E+00
         0.00000E+00
         0.71200E+06
         0.00000E+00
        -0.24491E+07
         0.00000E+00
        -0.37014E+07
         0.00000E+00
         0.77536E+07
         0.30186E+05
         0.00000E+00
         0.00000E+00
        -0.61681E+07
         0.00000E+00
         0.31988E+07
         0.00000E+00
         0.84070E+07
         0.00000E+00
         0.26722E+07
         0.15970E+07
         0.00000E+00
         0.00000E+00
         0.94820E+07
        -0.15228E+07
         0.00000E+00
         0.00000E+00
        -0.25165E+07
         0.00000E+00
        -0.33337E+07
         0.00000E+00
        -0.45002E+07
         0.00000E+00
         0.10850E+08
         0.00000E+00
         0.13752E+08
         0.00000E+00
        -0.36723E+07
         0.00000E+00
         0.44052E+07
         0.00000E+00
        -0.88774E+07
         0.00000E+00
         0.18476E+07
         0.00000E+00
         0.13609E+06
         0.00000E+00
        -0.15866E+06
         0.00000E+00
         0.34541E+07
         0.00000E+00
        -0.89579E+05
         0.00000E+00
         0.30896E+07
         0.00000E+00
        -0.60324E+06
         0.00000E+00
        -0.18721E+07
         0.00000E+00
        -0.87435E+07
         0.00000E+00
         0.39599E+07
         0.00000E+00
        -0.13269E+07
         0.00000E+00
        -0.64039E+07
         0.00000E+00
        -0.43502E+07
         0.00000E+00
        -0.66426E+07
         0.00000E+00
         0.10328E+07
         0.00000E+00
        -0.30033E+07
         0.00000E+00
         0.15173E+07
         0.30906E+07
         0.15636E+06
        -0.59743E+06
         0.28992E+07
         0.49654E+07
         0.12348E+08
         0.41508E+07
        -0.24446E+07
        -0.72212E+07
         0.10334E+08
        -0.60176E+07
        -0.34088E+07
         0.35864E+07
        -0.81783E+07
        -0.16171E+06
        -0.26573E+07
        -0.46090E+07
         0.37177E+07
         0.11695E+06
        -0.32032E+07
        -0.41093E+07
        -0.64909E+07
         0.64127E+07
        -0.11555E+08
         0.43315E+07
         0.32410E+07
        -0.22969E+07
        -0.40611E+07
        -0.25696E+07
         0.47008E+06
         0.62362E+07
        -0.56699E+07
        -0.28977E+07
        -0.80941E+07
        -0.72237E+07
        -0.39766E+07
        -0.20111E+07
         0.26279E+07
        -0.53745E+06
        -0.14927E+07
        -0.22906E+07
        -0.21682E+06
        -0.61982E+07
        -0.96956E+06
         0.24826E+07
         0.67042E+07
        -0.15470E+07
        -0.40886E+07
        -0.22596E+07
         0.56041E+07
         0.57566E+07
         0.46544E+07
         0.76600E+06
         0.58001E+07
         0.47902E+07
        -0.21946E+07
        -0.74305E+06
        -0.11093E+08
        -0.56564E+07
         0.91007E+07
        -0.33582E+06
         0.43497E+07
         0.10186E+07
        -0.70016E+06
        -0.33971E+07
        -0.24441E+07
        -0.21279E+07
         0.27929E+06
         0.26746E+07
        -0.53914E+07
         0.10021E+07
         0.93521E+06
         0.27585E+07
         0.90173E+05
         0.87568E+06
        -0.78684E+07
        -0.35226E+07
        -0.31995E+07
        -0.31089E+06
        -0.77819E+06
        -0.17304E+07
        -0.79947E+06
        -0.27475E+07
        -0.62229E+06
        -0.66287E+07
        -0.59060E+07
        -0.45679E+07
         0.86579E+06
         0.52216E+07
        -0.30555E+07
        -0.94704E+07
         0.64200E+07
        -0.11652E+07
        -0.62898E+07
        -0.47000E+07
         0.45339E+07
         0.17306E+07
         0.74948E+07
         0.37862E+07
        -0.74343E+07
         0.24022E+07
        -0.43948E+07
         0.18402E+07
         0.35260E+07
         0.62834E+07
        -0.10314E+08
        -0.45569E+07
         0.37974E+07
         0.53043E+07
        -0.19096E+07
        -0.62745E+07
         0.55151E+07
        -0.58520E+06
        -0.37663E+07
        -0.10158E+07
        -0.22993E+07
        -0.89438E+07
        -0.40258E+06
         0.22115E+07
        -0.33112E+07
        -0.96410E+07
        -0.44163E+07
        -0.53287E+07
         0.17381E+07
        -0.60548E+07
        -0.82222E+07
        -0.19707E+07
         0.16521E+08
         0.24462E+07
         0.23218E+06
        -0.22265E+07
         0.15001E+07
        -0.72282E+07
         0.15447E+07
         0.40317E+07
         0.47000E+07
         0.12394E+08
        -0.63548E+07
         0.54852E+07
        -0.96250E+05
        -0.18479E+07
        -0.18737E+07
         0.99891E+06
         0.91946E+07
         0.29135E+07
         0.43055E+07
        -0.59474E+07
         0.20393E+07
         0.36244E+07
        -0.74586E+07
        -0.15118E+07
        -0.30997E+07
         0.54639E+07
        -0.42631E+07
         0.29626E+07
         0.46966E+07
         0.32380E+07
         0.11452E+07
         0.31470E+07
        -0.57447E+07
        -0.68069E+07
         0.11487E+07
         0.38612E+07
        -0.14826E+07
         0.20053E+07
        -0.34340E+07
        -0.19961E+07
        -0.81174E+07
        -0.69198E+07
         0.41671E+06
         0.19539E+07
        -0.74777E+07
         0.23837E+07
         0.26256E+07
        -0.25151E+07
        -0.11153E+07
        -0.67561E+06
        -0.12515E+08
        -0.13755E+07
         0.92892E+06
         0.16893E+07
         0.36993E+07
         0.10399E+08
        -0.76710E+07
        -0.86930E+07
         0.79868E+07
         0.71797E+07
         0.44187E+07
        -0.23167E+07
         0.50729E+05
        -0.31133E+07
        -0.68543E+07
        -0.38142E+07
        -0.64055E+07
        -0.91520E+07
         0.71932E+07
         0.12209E+08
        -0.26913E+07
        -0.10098E+08
        -0.33963E+07
        -0.98570E+06
         0.39025E+06
        -0.72344E+07
        -0.87388E+07
        -0.46703E+07
         0.31860E+07
        -0.28495E+07
         0.25942E+07
        -0.80211E+07
         0.49722E+07
        -0.12049E+06
         0.71034E+07
        -0.71010E+06
        -0.64837E+07
        -0.10367E+08
         0.33931E+05
         0.12184E+08
        -0.15007E+08
         0.46444E+07
         0.27352E+07
        -0.65341E+07
        -0.42026E+07
        -0.10344E+08
         0.32878E+07
         0.60958E+07
        -0.24921E+07
         0.65851E+07
        -0.23219E+07
         0.41561E+07
        -0.75507E+06
        -0.12365E+08
        -0.46978E+07
         0.83739E+07
        -0.79677E+07
        -0.55359E+07
        -0.42711E+07
        -0.38146E+07
        -0.48026E+07
        -0.20654E+07
        -0.25369E+07
        -0.37953E+07
        -0.94592E+07
        -0.15308E+07
        -0.22481E+07
        -0.23114E+07
        -0.59229E+07
        -0.54145E+07
         0.90524E+06
        -0.44554E+06
        -0.29873E+07
        -0.60472E+07
         0.10471E+08
         0.77055E+07
        -0.17505E+07
        -0.69399E+07
        -0.77544E+07
         0.74132E+06
         0.37758E+07
        -0.12532E+07
         0.22916E+07
         0.46259E+07
        -0.10246E+08
        -0.40216E+07
         0.18310E+07
         0.10878E+07
        -0.57100E+06
        -0.17780E+07
        -0.31213E+07
        -0.55496E+07
        -0.55548E+07
         0.32746E+07
        -0.18996E+07
        -0.94448E+07
         0.22573E+07
        -0.38225E+07
        -0.11982E+08
        -0.11219E+08
        -0.81362E+07
        -0.60049E+07
         0.38646E+06
        -0.20231E+07
        -0.11496E+07
         0.43092E+07
         0.73535E+07
         0.24666E+07
        -0.30069E+07
         0.24069E+07
        -0.46169E+07
        -0.19546E+07
        -0.25799E+07
         0.51481E+07
         0.11179E+08
        -0.49410E+06
         0.12158E+08
         0.31835E+07
         0.60022E+07
         0.14047E+08
        -0.69213E+07
        -0.40648E+07
         0.46966E+07
         0.13820E+07
         0.86048E+06
         0.22973E+07
        -0.24523E+08
        -0.24134E+07
        -0.67859E+07
        -0.41220E+07
         0.67583E+07
        -0.16441E+07
        -0.21711E+07
         0.87485E+07
        -0.65608E+07
        -0.71466E+07
        -0.49031E+07
        -0.40448E+07
         0.23115E+06
         0.11395E+07
        -0.30405E+07
        -0.42223E+07
        -0.38144E+07
        -0.81618E+06
        -0.77890E+05
        -0.33039E+07
        -0.36290E+07
        -0.64242E+07
        -0.29275E+07
         0.22859E+07
         0.47470E+06
        -0.10470E+07
         0.27179E+07
         0.12116E+07
        -0.29486E+07
        -0.39709E+07
        -0.52681E+07
        -0.69893E+07
        -0.13673E+06
        -0.24332E+07
        -0.46114E+07
        -0.80098E+06
        -0.19508E+07
        -0.26954E+07
         0.10112E+07
        -0.12039E+07
         0.93713E+05
        -0.36375E+07
         0.34784E+07
        -0.32497E+07
        -0.32586E+07
        -0.30364E+07
        -0.62004E+06
        -0.80577E+06
         0.29380E+06
        -0.93838E+07
        -0.11270E+08
        -0.43253E+07
        -0.17151E+07
        -0.17951E+07
        -0.70411E+06
         0.22370E+07
         0.52442E+07
         0.47583E+07
        -0.26053E+07
        -0.70710E+06
         0.48728E+07
         0.54051E+07
         0.15270E+07
         0.29840E+06
        -0.57402E+07
         0.18806E+06
         0.32716E+07
        -0.85188E+07
         0.34282E+07
        -0.19532E+07
        -0.29780E+07
         0.13082E+08
        -0.11201E+08
        -0.83828E+05
         0.27642E+07
         0.47105E+07
        -0.45487E+06
         0.62855E+07
         0.21532E+07
         0.12569E+08
         0.74372E+07
        -0.35082E+07
        -0.67897E+07
        -0.10936E+08
        -0.28694E+07
         0.27523E+07
        -0.54218E+07
        -0.88366E+07
        -0.47885E+07
        -0.35075E+07
         0.43507E+07
         0.38987E+07
        -0.59796E+07
        -0.30707E+07
        -0.23565E+07
         0.93798E+06
         0.19400E+07
        -0.34031E+07
        -0.80253E+07
        -0.33486E+06
         0.16881E+07
         0.82422E+06
        -0.12424E+07
        -0.21775E+07
        -0.20798E+07
        -0.19052E+07
        -0.53699E+07
         0.32064E+07
        -0.31175E+07
        -0.89615E+07
        -0.18033E+07
        -0.60525E+07
        -0.34945E+07
        -0.57643E+07
        -0.10544E+07
         0.91031E+06
        -0.57664E+07
        -0.87823E+07
        -0.68309E+07
        -0.10989E+08
        -0.54988E+07
        -0.11612E+08
        -0.10868E+08
         0.21412E+07
         0.43528E+06
        -0.15057E+06
        -0.45168E+07
        -0.13277E+07
         0.73720E+07
        -0.13318E+07
        -0.72916E+07
        -0.13884E+08
        -0.84437E+07
        -0.14701E+07
         0.18747E+07
        -0.45669E+06
        -0.75507E+07
        -0.54558E+07
        -0.12323E+07
        -0.29699E+04
        -0.98359E+07
        -0.38260E+07
        -0.10084E+07
         0.91443E+06
         0.45846E+07
         0.50348E+07
         0.49679E+07
         0.59169E+07
        -0.99022E+07
         0.68706E+07
        -0.11442E+08
        -0.33367E+07
        -0.85132E+07
        -0.30306E+07
        -0.42667E+07
        -0.10772E+08
        -0.98255E+07
         0.75302E+06
        -0.21822E+07
        -0.35901E+07
        -0.46854E+06
        -0.74713E+05
        -0.33126E+06
        -0.27854E+07
        -0.35439E+06
        -0.32768E+06
        -0.33462E+06
         0.15945E+07
         0.12706E+07
         0.83392E+06
        -0.51768E+07
        -0.66816E+07
         0.14448E+07
        -0.25068E+06
        -0.12513E+08
        -0.54479E+07
        -0.22979E+07
        -0.88482E+07
        -0.14626E+07
         0.40778E+07
         0.40863E+07
         0.37194E+07
         0.40667E+07
         0.60348E+07
        -0.73237E+07
        -0.65454E+07
        -0.21109E+07
        -0.61528E+07
         0.83269E+06
        -0.71604E+07
        -0.75976E+07
        -0.12939E+08
        -0.80795E+07
         0.94900E+06
         0.14690E+07
        -0.65237E+07
         0.24070E+07
        -0.36636E+07
        -0.11821E+08
        -0.82607E+07
        -0.26257E+07
         0.45736E+07
         0.32459E+07
         0.11698E+07
         0.41623E+07
         0.55873E+06
         0.25138E+07
        -0.31742E+07
        -0.86083E+07
        -0.83957E+07
         0.60366E+06
         0.58659E+07
         0.55637E+07
         0.24716E+07
        -0.59230E+05
        -0.43929E+07
         0.62386E+07
         0.11274E+08
        -0.98782E+07
        -0.17792E+07
         0.21529E+07
        -0.19539E+07
        -0.30330E+07
         0.15156E+07
        -0.15815E+07
        -0.27292E+07
         0.51157E+07
         0.92151E+07
        -0.76935E+07
         0.16970E+07
         0.40810E+07
        -0.72922E+06
         0.44562E+07
        -0.33193E+07
         0.19764E+07
         0.10991E+08
         0.17427E+07
        -0.46092E+07
        -0.57883E+07
         0.76582E+06
        -0.23537E+07
        -0.47304E+07
        -0.13420E+07
         0.35708E+07
         0.26533E+07
         0.12354E+07
        -0.15037E+07
        -0.58443E+06
        -0.16304E+07
        -0.31589E+07
        -0.45424E+07
         0.43823E+07
        -0.87060E+07
        -0.40682E+07
        -0.20348E+07
        -0.68232E+07
         0.28178E+07
        -0.70608E+07
        -0.28448E+07
        -0.44693E+07
        -0.33905E+07
         0.29432E+07
        -0.11577E+08
        -0.12645E+08
        -0.60558E+07
        -0.16464E+08
         0.81171E+07
        -0.15044E+08
        -0.54812E+07
        -0.76638E+07
        -0.39466E+07
        -0.75574E+06
        -0.38003E+07
        -0.72628E+07
        -0.19049E+07
        -0.23610E+07
        -0.11946E+08
        -0.35382E+07
         0.56580E+06
         0.46754E+07
         0.32842E+07
         0.48272E+07
         0.17190E+08
         0.10591E+08
        -0.37622E+05
        -0.44711E+07
        -0.68755E+07
        -0.44043E+07
         0.57210E+07
         0.46436E+07
        -0.11519E+07
        -0.17544E+07
         0.64003E+07
        -0.49682E+04
         0.24951E+07
         0.82929E+07
        -0.29317E+07
         0.18090E+07
         0.39451E+07
        -0.22452E+07
        -0.94548E+07
        -0.15908E+07
         0.66740E+07
        -0.66055E+07
        -0.20299E+07
        -0.59303E+07
        -0.35744E+07
        -0.19675E+07
        -0.30322E+07
        -0.95674E+07
         0.43859E+06
        -0.14159E+08
        -0.86697E+07
        -0.58344E+07
        -0.41221E+07
         0.68212E+06
        -0.19549E+07
         0.29776E+07
        -0.46161E+07
        -0.52601E+07
        -0.22408E+07
         0.18910E+07
         0.24247E+07
         0.12892E+07
        -0.20653E+07
        -0.23407E+07
        -0.15860E+07
        -0.23429E+07
        -0.70752E+07
         0.19565E+07
         0.43881E+07
        -0.11421E+07
        -0.49790E+07
         0.16773E+07
         0.38439E+07
        -0.20993E+07
        -0.77874E+07
        -0.40964E+06
         0.48433E+07
         0.12662E+07
         0.19863E+07
        -0.65010E+07
         0.19063E+07
        -0.42419E+06
        -0.41356E+06
        -0.80640E+07
        -0.15049E+07
        -0.75925E+07
        -0.77077E+07
        -0.82591E+07
         0.34063E+07
         0.44729E+06
         0.29068E+07
        -0.34269E+07
        -0.35950E+07
         0.86437E+06
        -0.72721E+06
        -0.58647E+07
        -0.10836E+08
        -0.85440E+07
         0.10308E+08
         0.93309E+07
        -0.18257E+07
        -0.17684E+07
        -0.11825E+07
         0.54373E+07
         0.89904E+07
         0.41246E+07
        -0.50295E+07
        -0.72164E+07
         0.27484E+07
        -0.18166E+07
        -0.23276E+07
        -0.51131E+06
         0.59499E+07
        -0.52333E+07
        -0.10898E+08
         0.18699E+07
         0.12748E+07
        -0.28231E+07
         0.60155E+07
        -0.14720E+08
         0.25284E+07
         0.56280E+07
         0.26652E+07
        -0.16880E+07
         0.11818E+06
        -0.95962E+07
         0.16208E+07
         0.50547E+07
         0.18336E+07
         0.10507E+07
         0.56800E+07
         0.44608E+07
        -0.52277E+07
         0.22636E+07
         0.56729E+07
         0.32584E+07
        -0.18190E+07
        -0.14696E+07
        -0.39599E+07
         0.20277E+07
        -0.69286E+07
        -0.10634E+07
        -0.98552E+06
        -0.25238E+07
        -0.39076E+07
         0.18120E+06
         0.68285E+07
         0.28534E+07
         0.16601E+07
         0.26889E+07
        -0.50027E+05
         0.19366E+07
        -0.77766E+07
         0.53150E+07
         0.86025E+07
         0.10881E+06
         0.92925E+06
        -0.11419E+08
        -0.29144E+07
         0.27863E+07
        -0.80353E+07
        -0.98431E+07
         0.35019E+06
        -0.28305E+07
         0.26560E+07
        -0.11569E+08
         0.25071E+07
        -0.69916E+07
         0.60583E+07
         0.13174E+06
        -0.11693E+08
        -0.40799E+07
         0.97511E+06
        -0.83580E+07
        -0.21815E+07
         0.64663E+07
         0.22334E+08
         0.11861E+08
        -0.77054E+07
        -0.93081E+07
        -0.63804E+07
        -0.15098E+07
        -0.39858E+07
        -0.36007E+07
        -0.55907E+07
        -0.57088E+07
        -0.11716E+06
        -0.10345E+06
        -0.39851E+07
        -0.31995E+07
         0.71796E+07
        -0.53925E+07
        -0.10748E+08
         0.56620E+07
        -0.31228E+07
        -0.49072E+07
         0.14262E+08
        -0.17364E+08
        -0.59667E+07
         0.66833E+07
        -0.40717E+07
        -0.96267E+07
         0.25116E+07
        -0.12513E+08
        -0.15242E+08
         0.10582E+08
         0.25078E+07
        -0.95828E+07
        -0.18947E+07
        -0.63638E+07
        -0.96587E+07
        -0.33201E+07
        -0.91207E+07
        -0.42508E+07
        -0.63588E+07
        -0.52263E+07
        -0.34554E+07
        -0.81574E+06
         0.54100E+05
         0.85138E+07
        -0.10028E+07
         0.86425E+06
        -0.81313E+07
         0.39496E+07
         0.56078E+07
        -0.87186E+07
        -0.43996E+07
         0.24880E+07
        -0.71078E+07
        -0.32962E+07
        -0.78164E+07
        -0.43253E+07
         0.68537E+07
         0.26536E+07
        -0.53705E+07
        -0.10283E+08
        -0.64153E+07
        -0.28165E+06
        -0.27677E+07
        -0.76910E+07
        -0.12964E+07
        -0.46679E+07
         0.96289E+06
        -0.75565E+07
        -0.11972E+06
        -0.26869E+07
        -0.47712E+06
        -0.32757E+07
        -0.11835E+08
        -0.59028E+07
        -0.13621E+07
        -0.11299E+08
        -0.33467E+07
         0.37652E+07
         0.16888E+08
         0.13248E+08
        -0.99421E+06
        -0.56522E+07
         0.86419E+06
         0.29312E+07
         0.15667E+07
         0.37260E+06
        -0.50026E+07
        -0.60947E+07
         0.30417E+07
         0.84613E+07
        -0.63895E+07
         0.81089E+06
         0.38964E+07
         0.47222E+06
        -0.28900E+07
         0.10063E+08
         0.52708E+07
        -0.13954E+08
         0.29879E+07
        -0.21412E+08
        -0.97063E+07
         0.12128E+08
         0.86896E+07
         0.10290E+07
         0.10699E+08
         0.74370E+07
         0.58877E+06
         0.15039E+08
         0.40820E+06
        -0.14376E+07
         0.88979E+07
        -0.47012E+06
        -0.27359E+07
        -0.34039E+07
        -0.79909E+07
         0.21861E+07
        -0.17833E+07
         0.91810E+06
        -0.45125E+06
        -0.28252E+07
        -0.16960E+06
         0.11842E+07
         0.44593E+07
         0.25262E+07
        -0.35145E+07
         0.43995E+07
         0.62042E+07
        -0.12077E+08
        -0.23836E+07
        -0.70367E+06
        -0.98095E+07
         0.38718E+07
        -0.35756E+07
        -0.83021E+06
         0.56789E+07
        -0.20345E+07
        -0.56691E+07
        -0.66303E+07
        -0.55224E+07
         0.36445E+07
        -0.34659E+07
         0.21510E+07
        -0.42706E+07
        -0.62518E+07
        -0.54563E+07
        -0.13260E+08
         0.89509E+07
         0.60689E+07
         0.23776E+07
        -0.10516E+08
        -0.49675E+07
         0.42220E+06
         0.42952E+07
        -0.11636E+08
         0.50700E+06
         0.43016E+07
         0.63997E+07
         0.42473E+07
        -0.21796E+07
        -0.77954E+06
         0.27216E+07
        -0.28590E+07
         0.25111E+07
         0.59145E+07
         0.97537E+06
        -0.56821E+07
        -0.97050E+06
        -0.38882E+06
        -0.10096E+08
        -0.24848E+07
        -0.24106E+07
         0.74892E+06
        -0.15299E+07
         0.49515E+07
         0.34856E+07
        -0.15116E+08
         0.10094E+08
        -0.64297E+07
        -0.20440E+08
         0.86836E+07
         0.12003E+07
        -0.10730E+08
        -0.97673E+07
        -0.72727E+07
        -0.55761E+07
        -0.31298E+06
        -0.83022E+07
         0.53931E+07
         0.11779E+08
         0.39308E+07
         0.11222E+07
        -0.22395E+07
        -0.16984E+07
         0.40692E+07
        -0.18128E+07
         0.49426E+07
         0.68971E+07
        -0.19852E+07
         0.62422E+07
         0.31745E+07
        -0.68239E+06
        -0.57681E+07
        -0.38707E+07
        -0.51686E+06
        -0.91904E+07
        -0.11418E+08
         0.28741E+07
        -0.76429E+07
        -0.49989E+07
         0.11314E+07
        -0.48450E+07
        -0.19343E+07
        -0.14464E+07
        -0.38110E+07
        -0.36369E+07
         0.28321E+07
        -0.36946E+07
        -0.64581E+07
        -0.62549E+07
        -0.32891E+07
        -0.28296E+07
        -0.22551E+06
         0.42636E+07
        -0.86549E+07
         0.33828E+07
        -0.20395E+06
        -0.38920E+06
        -0.10112E+08
         0.98585E+07
         0.12741E+08
         0.13647E+08
        -0.48852E+07
         0.55228E+07
         0.11782E+08
         0.14470E+08
         0.55431E+07
         0.32198E+07
         0.16689E+07
         0.19316E+07
        -0.59661E+07
        -0.31935E+07
         0.26817E+07
         0.34166E+07
         0.12976E+07
         0.10555E+08
         0.37316E+07
        -0.11092E+08
        -0.39231E+07
        -0.42473E+07
         0.29578E+07
         0.11908E+07
        -0.62079E+07
        -0.73439E+07
        -0.94968E+07
        -0.39668E+07
        -0.13883E+08
        -0.15564E+08
         0.66740E+07
        -0.62876E+07
        -0.19430E+07
         0.17069E+07
         0.10170E+08
         0.83675E+07
         0.99487E+06
        -0.57413E+07
        -0.47041E+07
         0.40035E+05
         0.49695E+06
         0.11918E+07
        -0.25562E+07
        -0.98079E+07
        -0.65940E+07
         0.45869E+07
         0.24412E+07
        -0.16828E+07
        -0.29787E+07
        -0.37989E+07
        -0.37199E+07
        -0.48288E+05
         0.19489E+07
         0.90149E+07
         0.91856E+07
        -0.30687E+07
        -0.47646E+07
         0.27621E+07
        -0.56857E+06
         0.52218E+07
         0.46410E+07
         0.63372E+07
         0.37955E+07
        -0.19204E+07
         0.34717E+06
         0.16337E+06
         0.31227E+07
        -0.18091E+06
        -0.10259E+08
         0.60732E+06
        -0.34282E+07
        -0.25520E+07
        -0.84781E+07
         0.17669E+07
        -0.24558E+07
         0.33061E+07
         0.22479E+07
        -0.23393E+07
        -0.15332E+08
        -0.28731E+07
         0.23629E+07
         0.77375E+07
        -0.49983E+07
        -0.97450E+07
         0.61041E+06
         0.18346E+08
         0.75445E+07
         0.18643E+07
         0.25265E+07
         0.40118E+07
         0.13482E+06
         0.22301E+07
         0.23067E+07
        -0.31808E+07
        -0.69619E+07
         0.84229E+07
         0.31201E+06
        -0.15242E+08
        -0.13734E+07
        -0.13002E+08
        -0.58921E+06
         0.96836E+07
         0.76478E+07
         0.44555E+07
         0.10038E+08
         0.56407E+07
         0.71135E+06
        -0.38850E+07
         0.20588E+07
        -0.10218E+07
         0.96423E+07
        -0.18763E+07
         0.97704E+06
         0.45432E+06
        -0.65486E+07
        -0.15638E+08
        -0.78471E+07
         0.43827E+07
        -0.30554E+07
        -0.96404E+07
         0.44170E+06
        -0.59220E+07
        -0.41576E+07
         0.33950E+06
        -0.40197E+07
        -0.76811E+07
        -0.20034E+07
        -0.49360E+07
        -0.22257E+07
        -0.22247E+07
        -0.26166E+07
         0.37821E+07
         0.22300E+07
         0.15007E+08
         0.11008E+07
        -0.27867E+07
         0.62019E+07
         0.10987E+08
        -0.79608E+06
         0.82202E+06
         0.18263E+07
        -0.17646E+07
        -0.95343E+06
        -0.11758E+07
        -0.58862E+07
        -0.67645E+04
        -0.85748E+07
        -0.36807E+07
        -0.89164E+07
        -0.41473E+07
        -0.11065E+08
         0.41808E+07
        -0.51961E+07
        -0.11344E+07
        -0.43377E+07
        -0.19595E+07
        -0.82770E+07
        -0.75032E+07
        -0.99731E+07
        -0.53935E+07
        -0.74303E+07
        -0.12118E+08
         0.20958E+07
         0.23460E+08
         0.11310E+08
        -0.46371E+07
        -0.19825E+06
         0.12049E+07
         0.15456E+07
         0.11781E+07
        -0.40931E+06
        -0.25774E+07
        -0.36777E+07
         0.77006E+07
         0.13320E+07
         0.75316E+07
         0.64739E+07
        -0.43067E+07
        -0.65089E+07
        -0.16881E+07
        -0.59869E+06
        -0.10903E+08
        -0.84206E+07
        -0.17944E+06
        -0.85874E+07
        -0.28322E+08
        -0.88849E+07
         0.32415E+07
         0.62925E+07
        -0.47695E+07
        -0.12541E+07
        -0.45160E+07
        -0.98003E+07
        -0.14175E+08
        -0.40644E+07
        -0.18876E+07
        -0.78426E+07
        -0.66444E+07
         0.50008E+07
        -0.48526E+07
        -0.55736E+07
        -0.45132E+07
         0.61287E+06
         0.87226E+06
         0.49394E+06
        -0.10735E+07
         0.10694E+07
        -0.49525E+07
        -0.11428E+08
        -0.98163E+07
        -0.10860E+08
         0.22797E+07
        -0.11733E+08
        -0.70832E+07
         0.49808E+07
         0.32072E+07
        -0.48049E+07
        -0.11009E+08
        -0.30804E+07
         0.59112E+06
         0.30540E+07
        -0.47139E+07
        -0.38585E+07
        -0.60414E+07
        -0.61099E+07
        -0.10250E+08
        -0.72265E+07
         0.37234E+07
        -0.15753E+07
         0.50507E+07
        -0.90906E+06
        -0.14266E+07
        -0.37649E+07
        -0.17257E+07
        -0.36394E+07
        -0.90837E+07
        -0.33249E+07
        -0.36692E+06
        -0.26132E+07
        -0.32876E+07
         0.44969E+07
         0.19055E+08
         0.65238E+07
        -0.17865E+07
        -0.25755E+07
         0.18435E+07
         0.73473E+06
        -0.15758E+07
        -0.30555E+07
        -0.34465E+07
        -0.34417E+07
         0.39125E+07
         0.21162E+07
        -0.13168E+07
         0.57820E+07
         0.24366E+07
         0.78114E+06
        -0.77102E+07
        -0.61648E+07
         0.15493E+07
         0.83141E+07
         0.10327E+07
        -0.57347E+07
        -0.34813E+07
         0.35518E+07
         0.13690E+08
         0.32571E+07
         0.57366E+07
         0.74289E+07
         0.25546E+07
         0.51778E+07
        -0.40508E+07
         0.48429E+07
         0.14903E+07
        -0.52188E+07
        -0.23238E+07
         0.42768E+07
        -0.65523E+07
        -0.38680E+07
         0.27152E+07
         0.11829E+08
         0.67319E+07
         0.95308E+06
        -0.19870E+07
        -0.26431E+07
         0.10810E+08
         0.18804E+07
        -0.56624E+07
        -0.11382E+07
         0.84264E+07
        -0.70270E+07
         0.57813E+07
         0.10573E+08
        -0.22335E+07
        -0.39234E+06
        -0.77801E+07
        -0.50491E+06
         0.60485E+06
         0.40772E+07
         0.52123E+06
         0.36805E+07
        -0.46855E+07
        -0.30796E+07
        -0.31848E+07
        -0.35245E+07
         0.14127E+08
         0.99331E+07
         0.95304E+07
         0.69927E+07
         0.76642E+07
         0.68513E+06
         0.55578E+07
        -0.17983E+07
        -0.31549E+07
         0.60805E+07
         0.11837E+08
         0.14318E+07
         0.61065E+07
         0.77503E+07
         0.95857E+07
         0.32453E+07
         0.45331E+07
        -0.41155E+07
        -0.24288E+07
        -0.78218E+07
        -0.73393E+06
         0.34688E+07
         0.38173E+07
         0.17968E+07
         0.74799E+07
         0.14938E+07
        -0.97419E+07
         0.19107E+07
        -0.89496E+07
        -0.61388E+07
         0.43782E+07
         0.11113E+08
        -0.20900E+07
         0.66516E+06
         0.56809E+06
         0.13656E+08
         0.92108E+07
        -0.30653E+07
        -0.24060E+07
        -0.69230E+07
         0.57362E+05
        -0.66550E+07
        -0.32742E+07
         0.29701E+07
        -0.68420E+07
         0.79229E+07
         0.14925E+07
        -0.74972E+07
        -0.45300E+07
         0.15877E+07
        -0.43375E+07
        -0.14452E+07
        -0.22373E+07
         0.22801E+07
        -0.22490E+07
        -0.32729E+07
        -0.58128E+07
        -0.22584E+07
         0.20142E+07
        -0.39883E+07
        -0.34306E+07
        -0.26690E+06
        -0.56856E+07
        -0.68429E+07
         0.22292E+07
        -0.50614E+07
        -0.48293E+07
        -0.25520E+07
        -0.36273E+07
        -0.32722E+07
        -0.47955E+07
        -0.22171E+07
         0.30606E+07
         0.56843E+07
        -0.37154E+06
        -0.74645E+07
        -0.13043E+07
        -0.88356E+07
         0.20644E+07
         0.36889E+07
         0.25856E+07
         0.26982E+07
        -0.37026E+06
        -0.70038E+07
        -0.11107E+07
        -0.56498E+07
        -0.57365E+07
        -0.11595E+07
         0.44695E+07
        -0.17871E+07
         0.48157E+07
         0.11191E+07
        -0.46490E+07
        -0.26803E+07
         0.53775E+07
        -0.36765E+07
        -0.71414E+07
        -0.13502E+08
        -0.48972E+07
        -0.40730E+06
         0.81051E+06
        -0.31066E+06
         0.51571E+07
         0.42344E+07
         0.15628E+07
        -0.73131E+07
         0.65960E+06
        -0.10649E+08
        -0.98820E+07
        -0.25458E+07
        -0.49356E+07
        -0.60841E+07
        -0.50622E+07
         0.85572E+07
         0.20628E+07
         0.65477E+06
         0.10803E+07
         0.60004E+07
         0.56794E+07
         0.11748E+07
         0.10501E+08
         0.11355E+08
         0.67650E+06
         0.48609E+07
        -0.37490E+07
        -0.45386E+07
        -0.70010E+07
        -0.16779E+08
        -0.63591E+07
        -0.44635E+07
         0.24347E+07
         0.66202E+06
        -0.16180E+07
         0.11703E+07
        -0.31360E+07
         0.10656E+07
        -0.31254E+07
        -0.56460E+07
         0.67887E+07
         0.20793E+07
        -0.90284E+06
         0.30831E+07
         0.30520E+07
        -0.20779E+07
         0.11166E+08
         0.61389E+07
         0.81127E+07
         0.50446E+07
         0.44017E+07
         0.37124E+07
         0.10362E+08
         0.77217E+07
         0.84939E+07
         0.51381E+07
         0.13936E+07
         0.60799E+07
        -0.11355E+07
        -0.41746E+07
        -0.22383E+07
        -0.10710E+07
         0.43207E+07
         0.55274E+07
         0.16319E+06
        -0.40515E+07
        -0.55886E+07
        -0.24380E+07
         0.22243E+07
         0.58011E+07
         0.77439E+07
         0.80365E+07
         0.80774E+07
        -0.53030E+07
        -0.83169E+06
         0.61622E+07
         0.54773E+07
         0.64015E+06
         0.13727E+07
        -0.20234E+07
        -0.47242E+07
        -0.49211E+07
         0.15165E+07
         0.50109E+07
         0.65017E+07
         0.72168E+06
         0.13216E+08
         0.86852E+07
         0.40773E+07
         0.39880E+07
         0.12037E+08
         0.11857E+08
         0.10186E+07
        -0.99516E+06
        -0.50618E+07
        -0.45379E+07
         0.34080E+07
         0.18088E+07
        -0.23116E+07
        -0.76177E+07
        -0.30786E+07
         0.51334E+07
        -0.41409E+07
        -0.47747E+07
        -0.78555E+07
        -0.23748E+07
        -0.46123E+06
        -0.96549E+07
         0.36433E+07
         0.54535E+07
        -0.47381E+07
         0.31514E+07
         0.46694E+07
         0.91665E+06
         0.24245E+07
         0.14689E+07
         0.24644E+07
        -0.80039E+07
        -0.93184E+07
        -0.94415E+07
         0.16642E+08
         0.56919E+07
         0.40163E+07
         0.86894E+07
         0.12488E+08
        -0.38839E+07
        -0.51560E+07
        -0.43066E+07
         0.31570E+07
         0.85677E+07
         0.11423E+08
         0.10126E+08
         0.22201E+07
        -0.62554E+07
        -0.64905E+07
        -0.54278E+07
        -0.13650E+07
        -0.87265E+07
         0.43404E+07
         0.25533E+07
         0.23226E+07
        -0.47277E+06
         0.19387E+07
         0.14940E+07
         0.49489E+07
         0.19028E+07
         0.28456E+07
         0.82317E+06
         0.28959E+07
         0.15505E+08
         0.28251E+08
         0.38790E+07
        -0.60552E+06
        -0.30638E+07
         0.44330E+06
         0.34915E+07
         0.33942E+07
         0.16469E+07
         0.22432E+07
         0.22988E+07
         0.14927E+07
         0.33943E+07
        -0.51763E+06
        -0.19087E+07
        -0.99790E+07
        -0.73440E+07
         0.41033E+06
        -0.42860E+07
        -0.13931E+08
        -0.15804E+08
        -0.61553E+07
         0.25120E+07
        -0.75573E+07
        -0.79403E+07
        -0.76586E+07
         0.13742E+07
         0.10110E+08
         0.27183E+07
        -0.36073E+07
         0.21277E+07
         0.42989E+07
        -0.21487E+07
        -0.76497E+07
         0.52971E+06
         0.20526E+07
        -0.15738E+08
        -0.11629E+08
        -0.83622E+07
        -0.26203E+07
         0.59412E+07
         0.30525E+07
        -0.63899E+06
        -0.33943E+07
        -0.14867E+07
         0.83987E+07
         0.15216E+06
        -0.70961E+07
        -0.37797E+07
         0.10865E+08
         0.15849E+06
         0.46531E+07
         0.93722E+07
         0.64769E+07
         0.13972E+07
        -0.30632E+07
        -0.28917E+07
         0.55364E+07
         0.57719E+07
        -0.17691E+07
        -0.55239E+06
         0.14342E+07
         0.55501E+07
        -0.44710E+07
         0.74434E+07
         0.34730E+07
        -0.81158E+07
        -0.27717E+07
         0.85633E+06
         0.64897E+07
         0.76021E+07
         0.19240E+07
        -0.69004E+06
        -0.28263E+07
         0.38604E+07
         0.75115E+07
         0.17592E+07
        -0.46913E+07
        -0.29276E+07
         0.16941E+08
         0.90253E+07
         0.27759E+07
         0.64115E+07
         0.69611E+07
         0.11581E+07
         0.16260E+07
         0.97464E+06
         0.13525E+07
         0.25523E+07
         0.70823E+07
         0.42040E+07
        -0.11503E+07
        -0.68305E+07
         0.10037E+08
         0.69725E+07
         0.30626E+07
         0.15374E+07
         0.41114E+07
         0.13110E+08
         0.14201E+08
        -0.14582E+07
         0.84421E+07
         0.14774E+08
        -0.12872E+07
        -0.19037E+07
        -0.11467E+07
         0.39934E+07
         0.12918E+08
         0.79816E+07
         0.71914E+06
         0.99422E+06
        -0.20512E+07
         0.28588E+07
         0.72893E+07
         0.52322E+07
         0.64503E+07
        -0.28887E+07
         0.13261E+07
        -0.18674E+07
        -0.25704E+07
        -0.80176E+06
        -0.22671E+07
        -0.26743E+07
        -0.33975E+07
         0.51182E+06
         0.41686E+07
         0.10667E+08
        -0.62746E+07
        -0.23616E+07
        -0.77340E+06
        -0.73736E+06
        -0.21142E+07
         0.27594E+06
         0.29285E+07
         0.20815E+07
        -0.10546E+08
        -0.77776E+07
        -0.57917E+07
        -0.37605E+07
         0.17308E+07
        -0.91995E+07
         0.81258E+07
        -0.25332E+07
         0.58947E+07
         0.22879E+07
         0.27292E+07
         0.24727E+07
        -0.39135E+06
        -0.13510E+07
        -0.17916E+07
        -0.33676E+07
         0.10353E+07
        -0.15679E+07
        -0.95103E+06
        -0.34373E+07
        -0.44150E+07
        -0.66470E+06
         0.15344E+08
         0.15280E+08
         0.10478E+08
         0.30954E+07
        -0.11791E+06
        -0.27384E+07
        -0.23825E+07
        -0.33732E+07
        -0.29494E+07
        -0.10303E+07
         0.17080E+07
        -0.98683E+06
         0.46874E+07
         0.82642E+07
        -0.27545E+07
        -0.10582E+08
        -0.30003E+06
         0.91974E+07
        -0.71139E+07
         0.21992E+07
         0.19921E+08
         0.18130E+08
         0.82577E+07
        -0.32671E+07
         0.59900E+07
         0.23012E+07
         0.58457E+07
         0.93920E+07
        -0.22653E+06
        -0.11640E+08
         0.94937E+06
         0.16645E+08
         0.62620E+07
         0.20662E+07
         0.89218E+07
         0.67259E+07
        -0.69218E+07
        -0.22187E+07
        -0.21819E+07
         0.14660E+07
        -0.14377E+07
        -0.59456E+06
        -0.57692E+07
        -0.18446E+07
         0.39658E+07
        -0.29730E+07
        -0.40573E+07
        -0.16867E+08
         0.11347E+08
        -0.31395E+07
         0.32451E+07
         0.14139E+08
         0.72475E+06
         0.38062E+07
        -0.18304E+07
         0.16880E+07
         0.35235E+07
         0.72504E+07
         0.26163E+07
        -0.35560E+07
        -0.24944E+07
        -0.13851E+08
        -0.17020E+08
        -0.36714E+07
        -0.25766E+07
        -0.66052E+07
         0.82113E+07
         0.17597E+07
         0.13405E+07
         0.12582E+06
        -0.11669E+07
        -0.48490E+07
        -0.68136E+06
        -0.21927E+07
         0.20698E+07
        -0.74567E+07
        -0.89144E+07
        -0.19853E+07
        -0.26845E+07
        -0.71530E+07
        -0.86166E+07
        -0.87187E+07
        -0.17087E+07
         0.10931E+08
         0.41022E+06
        -0.64743E+07
        -0.64909E+07
        -0.15859E+07
         0.11367E+08
         0.77085E+07
         0.10891E+08
        -0.10437E+08
         0.93857E+07
         0.74624E+07
         0.13817E+08
        -0.40383E+07
        -0.13455E+08
         0.36569E+07
        -0.12374E+08
        -0.17319E+08
        -0.40551E+08
        -0.41403E+07
         0.11266E+08
        -0.12572E+08
        -0.61398E+07
         0.48709E+07
         0.26410E+07
         0.37960E+07
         0.40319E+07
        -0.59626E+07
        -0.66968E+07
         0.50724E+07
         0.16813E+08
         0.13311E+08
         0.11427E+08
        -0.28216E+06
  
SCALARS                         fint_x  double 1
LOOKUP_TABLE default
         0.19640E+01
        -0.65933E+01
        -0.47867E+01
         0.70005E+01
         0.42510E+01
        -0.18829E+01
         0.19082E+01
         0.27249E+01
         0.81903E+00
         0.22983E+01
        -0.17744E+01
        -0.10903E+01
        -0.62427E+01
        -0.56751E+01
        -0.11839E+01
        -0.22922E+01
         0.11736E+02
         0.96322E+01
         0.73496E+01
         0.43544E+01
        -0.15373E+01
         0.15556E+02
         0.88351E+01
        -0.62269E+00
        -0.99944E+00
        -0.21772E+01
        -0.54819E+01
        -0.78904E+01
        -0.14645E+00
        -0.12723E+00
         0.64113E+01
         0.76963E+01
         0.16884E+02
         0.80420E+01
        -0.56946E+00
         0.80115E+01
         0.11708E+02
         0.16494E+02
         0.28121E+01
         0.31987E+01
         0.17484E+02
         0.18071E+02
         0.37831E+01
         0.21588E+01
         0.12286E+02
        -0.32141E+00
        -0.54497E+00
         0.29633E+01
        -0.22719E+01
        -0.27382E+01
        -0.74651E+01
        -0.81115E+00
         0.18700E+00
         0.10145E+01
        -0.44848E+01
        -0.12594E+01
        -0.13098E+02
        -0.63215E+00
        -0.18863E+01
         0.42476E+01
        -0.21172E+01
        -0.68215E+01
         0.11172E+00
         0.15954E+01
         0.74399E+01
        -0.15046E+01
         0.20998E+01
        -0.97567E+00
         0.59356E+01
        -0.45706E+01
        -0.23542E+01
        -0.25527E+01
        -0.63265E+01
        -0.36001E+01
        -0.16376E+02
         0.17584E+01
         0.34386E+00
        -0.87045E+00
         0.46206E+01
         0.49174E+00
         0.65935E+01
         0.89651E+01
        -0.10984E+01
         0.11967E+01
         0.18653E+02
         0.66338E+00
         0.40849E+01
         0.96588E-01
        -0.92479E-01
        -0.15406E+01
         0.31133E+01
        -0.26648E+01
         0.25213E+01
         0.70589E-01
         0.49047E+01
         0.42065E+01
         0.66969E+01
         0.57649E+00
        -0.59336E+01
        -0.27538E+01
        -0.86085E+01
        -0.28881E-01
        -0.24636E+01
        -0.67224E+00
        -0.29954E+01
        -0.26408E+01
        -0.12568E+01
        -0.15434E+01
         0.32938E+01
        -0.72881E+00
        -0.25236E+01
         0.19300E+01
        -0.43714E+01
         0.44156E+01
        -0.10214E+01
         0.45665E+01
         0.71183E+01
         0.19066E+01
        -0.96336E+00
        -0.13385E+01
        -0.65128E+01
        -0.19153E+01
        -0.62987E+01
         0.78105E+00
        -0.18403E+01
        -0.25916E-01
        -0.67343E+01
        -0.88203E+00
        -0.11018E+01
         0.81096E+00
         0.49146E+01
         0.19089E+01
        -0.30823E+01
         0.25759E+01
        -0.73982E+01
        -0.46248E+00
         0.74049E+01
         0.25621E+01
         0.81358E+00
         0.20185E+01
         0.60087E+00
         0.20650E+01
        -0.53064E+01
         0.98426E+00
         0.17569E+01
         0.25278E+01
         0.54490E+01
         0.78602E+00
        -0.99657E+01
        -0.23503E+01
         0.20046E+00
        -0.10548E+01
         0.21153E+01
        -0.75411E+00
        -0.43326E+00
        -0.27656E+01
         0.15820E+02
        -0.21667E+01
        -0.44744E+01
         0.11589E+02
        -0.90462E+01
        -0.74595E+01
        -0.36331E+01
         0.46337E+01
         0.14328E+02
         0.15535E+02
        -0.88901E+01
         0.21893E+01
         0.76070E+00
        -0.74915E+01
        -0.20431E+02
        -0.15176E+01
        -0.10699E+02
         0.15782E+02
         0.77187E+01
         0.22642E+01
         0.18626E+02
         0.70642E+01
         0.14547E+02
         0.25662E+01
        -0.20068E+02
        -0.11044E+02
         0.61308E+01
        -0.16007E+01
        -0.21222E+02
        -0.21312E+02
        -0.43821E+01
        -0.83010E+01
         0.40262E+01
         0.21705E+01
        -0.41174E+01
        -0.13685E+02
        -0.14044E+02
        -0.11336E+02
         0.79628E+01
        -0.10295E+00
         0.27944E+00
        -0.28682E+01
         0.84522E+00
         0.24919E+01
        -0.28268E+01
         0.49357E+01
        -0.21339E+01
         0.23596E+01
         0.96576E+01
         0.32263E+00
        -0.61750E+01
        -0.34243E+01
        -0.26241E+01
        -0.20785E+01
         0.62403E+01
         0.28538E+01
         0.74778E+01
         0.57279E+01
         0.23093E+01
         0.33085E+01
         0.47597E+01
         0.91430E+00
         0.77223E+00
        -0.79625E+00
         0.28224E+01
        -0.25573E+01
         0.56540E+01
         0.32239E+01
         0.83802E+01
        -0.45201E+01
         0.16763E+01
        -0.38581E+01
         0.69574E+01
         0.97615E+01
        -0.75902E+01
        -0.84705E+00
        -0.24122E+01
        -0.76679E+01
         0.10092E+02
         0.12733E+02
         0.14958E+02
         0.10368E+02
        -0.17104E+01
        -0.27776E+01
         0.35872E+01
         0.33591E+01
        -0.43973E+01
         0.44055E+01
        -0.10489E+02
        -0.44228E+01
         0.20830E+01
         0.41958E+01
        -0.11499E+02
         0.18812E+01
        -0.46254E+01
        -0.54634E-02
         0.13917E+02
         0.22991E+02
         0.70492E+01
         0.33525E+01
         0.39611E+01
         0.17527E+01
        -0.13673E+02
        -0.59060E+00
         0.14937E+02
        -0.45360E+01
        -0.65440E+01
         0.70913E+01
         0.49399E+00
         0.25417E+01
        -0.10536E+01
         0.11775E+00
        -0.19407E+01
         0.21803E+01
         0.97076E+00
         0.24612E+01
        -0.82403E+01
        -0.13074E+02
        -0.32516E+01
         0.27245E-01
         0.67277E+01
        -0.41512E+01
        -0.28839E+01
         0.56777E+01
        -0.16903E+01
        -0.90321E+01
        -0.72440E+01
        -0.57604E+01
        -0.78182E+01
        -0.12351E+01
        -0.20282E+01
        -0.36605E+01
         0.96481E+01
         0.22894E+01
         0.33365E+01
         0.10368E+02
         0.12055E+01
        -0.23287E+01
        -0.18211E+01
        -0.35770E+01
         0.16200E+01
        -0.98313E+00
         0.51306E+01
         0.12187E+01
         0.11803E+02
        -0.21326E+01
        -0.12087E+01
         0.95644E+00
         0.56460E+01
        -0.26912E+01
         0.16932E+01
        -0.44666E+01
        -0.94108E+01
         0.26820E+01
         0.12919E+02
        -0.10100E+01
        -0.21705E+01
         0.66582E+01
         0.55158E+01
         0.59352E+01
        -0.33819E+01
         0.48089E+01
         0.24823E+01
         0.16805E+01
        -0.14849E+02
         0.93033E+00
        -0.13778E+02
        -0.12581E+02
         0.25461E+01
         0.10305E+02
        -0.69795E+01
         0.32881E+01
        -0.96351E+01
        -0.15331E+01
         0.65954E+01
         0.14952E+02
         0.28295E+00
        -0.91682E+01
         0.23307E+01
         0.24653E+00
        -0.11881E+02
         0.29778E+01
         0.18903E+02
        -0.12139E+02
         0.21399E+00
         0.10185E+02
         0.12168E+02
         0.80672E+01
         0.11483E+02
         0.93552E+01
        -0.12351E+02
        -0.47837E+01
         0.52245E+01
         0.15010E+02
        -0.18559E+02
        -0.13711E+02
         0.77844E+01
        -0.16204E+01
        -0.72062E+01
        -0.59413E+01
        -0.76523E+01
        -0.57286E+01
        -0.20274E+01
        -0.70664E+01
        -0.63251E+01
         0.12174E+01
        -0.55062E+01
         0.40141E+01
        -0.30944E+01
        -0.27339E+01
         0.38579E+01
         0.58474E+01
         0.10973E+01
         0.64303E+01
         0.56341E+01
         0.12655E+01
         0.25409E+00
        -0.34917E+01
         0.10009E+02
        -0.22801E+01
         0.20097E+01
        -0.66078E+01
         0.23451E+01
         0.36320E+01
         0.32108E+01
         0.51486E+01
        -0.38670E+01
        -0.53743E+01
         0.59800E+01
         0.37179E+01
        -0.14971E+01
        -0.10899E+02
         0.44854E+00
        -0.81792E+00
        -0.29372E+00
         0.58669E+01
         0.47552E+01
        -0.37968E+01
         0.88669E+01
         0.10921E+02
         0.30014E+01
         0.80441E+01
        -0.15105E+01
         0.12376E+02
        -0.16964E+02
        -0.13072E+02
         0.58097E+01
         0.35691E+01
        -0.78303E+01
         0.53965E+01
         0.59844E+01
        -0.10690E+02
         0.16648E+02
         0.16130E+02
         0.16581E+02
         0.27260E+01
         0.77404E+01
         0.95906E+01
        -0.10260E+01
         0.64021E+01
         0.10700E+02
        -0.10904E+02
         0.11349E+02
         0.62714E+01
        -0.20603E+00
         0.48659E+01
        -0.96413E+01
        -0.70194E+01
        -0.29612E+01
        -0.28201E+01
         0.76675E+01
         0.20014E+02
        -0.10075E+02
        -0.29626E+01
         0.11439E+02
        -0.39035E+01
        -0.14420E+02
        -0.73198E+01
        -0.11524E+02
        -0.10983E+02
        -0.11148E+01
        -0.14920E+02
        -0.24132E+02
        -0.43026E+01
         0.26353E+01
         0.38062E+01
         0.49112E+01
        -0.64584E+01
        -0.24483E+01
         0.10984E+01
        -0.36384E+01
         0.20278E+01
        -0.14444E+00
        -0.98514E+01
         0.71926E+01
        -0.44574E+01
         0.80525E+00
        -0.78676E+01
         0.31785E+01
         0.44624E+01
         0.43355E+01
         0.69560E+01
         0.15404E+01
         0.92737E+01
         0.35659E+00
         0.31474E+01
         0.44449E+01
        -0.43128E+00
         0.12837E+02
         0.53762E+01
         0.84110E+01
        -0.17941E+01
        -0.12713E+02
        -0.10825E+02
        -0.54594E+01
        -0.56265E+01
         0.14836E+02
         0.17195E+02
         0.98770E+00
         0.98349E+01
        -0.71055E+01
         0.84137E+01
         0.11712E+00
         0.45268E+01
         0.49904E+01
         0.10878E+02
         0.10082E+02
        -0.13870E+01
        -0.11844E+00
        -0.12829E+02
         0.54540E+01
        -0.29702E+01
         0.81530E+01
        -0.28737E+01
        -0.36346E+01
         0.17689E+00
        -0.10894E+02
        -0.15062E+01
        -0.62125E+01
        -0.30652E+02
         0.17938E+00
        -0.13623E+02
         0.72575E+01
         0.20580E+01
         0.57123E+01
         0.62711E+01
         0.51946E+01
        -0.94878E+01
        -0.63582E+01
         0.17994E+02
        -0.14941E+02
        -0.85235E+01
         0.47216E+01
        -0.11936E+02
        -0.20218E+02
        -0.15641E+02
        -0.12925E+02
        -0.10422E+02
         0.64936E+00
        -0.23295E+01
        -0.31399E+01
         0.82197E+01
        -0.15722E+01
         0.38159E+01
         0.52241E+01
        -0.12323E+02
        -0.35412E+01
         0.29184E+01
        -0.90633E+00
         0.18690E+01
        -0.44699E+01
        -0.67964E+01
         0.15568E+02
        -0.23634E+01
         0.87974E+01
         0.25765E+01
         0.15601E+00
        -0.68355E+01
        -0.10476E+01
        -0.43223E+01
        -0.15002E+02
         0.35426E+01
         0.85229E+00
        -0.28516E+01
        -0.81455E+01
        -0.96632E+01
         0.35307E+01
        -0.16327E+02
        -0.41303E+01
        -0.36449E+01
        -0.39272E+01
        -0.11281E+02
         0.16234E+01
         0.10179E+02
         0.27066E+02
         0.33653E+02
        -0.34857E+01
         0.94064E+01
         0.30572E+01
         0.15684E+02
         0.11151E+01
         0.24636E-01
         0.21079E+01
         0.55938E+01
         0.46732E+01
        -0.86750E+01
        -0.18004E+01
        -0.52083E+00
        -0.19126E+01
        -0.66730E+01
         0.13000E+02
         0.61273E+01
         0.76326E+01
        -0.17361E+01
         0.23082E+01
        -0.92278E+01
        -0.75407E+01
        -0.13127E+02
         0.21087E+01
        -0.11184E+02
         0.27685E+01
        -0.83963E+01
         0.13727E+02
         0.16050E+02
         0.81094E+01
        -0.61366E+01
        -0.56784E+01
         0.10715E+02
        -0.29378E+01
         0.40214E+01
         0.58246E+01
        -0.67906E+01
        -0.83425E+01
        -0.54552E+00
        -0.38078E+01
        -0.90864E+01
        -0.54387E+01
         0.23050E+01
         0.98156E+01
         0.81212E+01
        -0.96956E+01
         0.65671E+01
        -0.27686E+01
        -0.40290E+01
        -0.69124E+01
         0.58826E+01
         0.34234E+01
         0.73512E+00
         0.25259E+01
         0.17418E+01
         0.66228E+01
        -0.57919E+01
         0.60500E+01
        -0.10971E+02
        -0.52806E+01
        -0.44883E+01
         0.23789E+00
        -0.79533E+00
        -0.66069E+01
         0.48282E+01
        -0.38207E+01
        -0.10305E+01
         0.35762E+00
        -0.30034E+01
         0.45958E+01
        -0.12153E+02
        -0.55433E+01
         0.17579E+01
        -0.37886E+01
         0.11614E+01
         0.50386E+01
        -0.21751E+01
         0.14321E+02
         0.16940E+02
        -0.30138E+00
        -0.12771E+01
        -0.56338E+01
         0.34108E+01
        -0.40400E+00
        -0.89044E+01
         0.61603E+01
        -0.57855E+01
        -0.58117E+01
        -0.15551E+02
        -0.91706E+01
        -0.12769E+02
         0.35237E+01
         0.50100E+00
         0.17249E+02
         0.19240E+02
         0.13794E+02
         0.36324E+01
         0.52092E+01
        -0.30137E+01
        -0.11389E+02
         0.24474E+01
        -0.44711E+01
        -0.12262E+02
        -0.80274E+01
        -0.28007E+01
        -0.11889E+02
        -0.12498E+02
         0.21216E+00
         0.37544E+01
         0.10575E+02
         0.11273E+01
        -0.19081E+01
        -0.99164E+00
        -0.48710E+01
        -0.12716E+02
        -0.48131E+01
         0.14406E+02
         0.11379E+02
         0.70350E+00
         0.46507E+01
         0.71289E+01
        -0.61887E+01
        -0.20782E+02
        -0.21129E+02
        -0.73563E+01
        -0.78910E+00
        -0.77853E+01
        -0.22865E+00
         0.63509E+01
        -0.21743E+01
        -0.10585E+02
         0.20014E-02
         0.57656E+01
         0.42024E+01
         0.33637E+01
         0.50597E+01
        -0.37687E+01
        -0.14829E+01
        -0.14819E+01
        -0.61516E+01
        -0.46689E+01
        -0.57460E+01
         0.25573E+01
        -0.53805E+01
         0.53470E+01
         0.14057E+02
        -0.43551E+01
        -0.58668E+01
         0.49289E+01
         0.37378E+01
        -0.44534E+01
        -0.20086E+01
         0.73670E+01
         0.66452E+01
         0.32827E+01
         0.16042E+01
         0.13828E+02
         0.56944E+01
        -0.53813E+01
        -0.95406E+01
        -0.79133E+01
         0.13220E+02
        -0.20035E+01
         0.38789E+01
         0.15227E+01
         0.39718E+01
        -0.94325E+01
        -0.30542E+01
        -0.93368E+01
         0.75035E+01
         0.11662E+02
         0.29424E+01
         0.17654E+02
        -0.41933E+01
        -0.29799E+01
         0.54574E+01
        -0.36527E+01
        -0.13877E+02
         0.15456E+01
        -0.56502E+01
        -0.66176E+01
        -0.19072E+01
         0.80435E+00
        -0.28992E+01
        -0.40657E+00
        -0.12935E+02
         0.11437E+01
         0.90094E+01
        -0.44592E+01
        -0.71251E+01
        -0.50749E+01
        -0.70153E+01
        -0.59781E+01
         0.20002E+01
         0.28768E+01
         0.80665E+01
         0.37337E+01
         0.62712E+01
         0.88907E+01
        -0.12698E+01
        -0.10981E+02
        -0.94695E+01
         0.54148E+01
         0.32270E+01
         0.20928E+00
        -0.15160E+01
        -0.30041E+01
        -0.35758E+01
         0.98043E+00
        -0.21968E+01
         0.22281E+01
         0.21330E+01
        -0.29410E+01
        -0.96046E+00
         0.12091E+02
         0.24911E+01
         0.28390E+01
        -0.23497E+01
         0.47049E+01
         0.34571E+01
         0.54091E+01
         0.61426E+00
        -0.59305E+01
        -0.25965E+01
        -0.29934E+01
        -0.68949E+01
        -0.34366E+01
        -0.69928E+01
        -0.55575E+01
        -0.42416E+01
        -0.93281E+00
         0.37632E+01
         0.44007E+01
         0.81033E+00
         0.19085E+02
        -0.62498E+00
        -0.79132E+01
        -0.41346E+01
        -0.11232E+02
         0.97849E+01
        -0.72896E+01
        -0.84561E+01
         0.17885E+01
         0.43744E+01
         0.89194E+01
         0.85854E+01
         0.20957E+01
         0.13653E+02
         0.18788E+02
        -0.17357E+01
         0.11891E+02
        -0.12362E+02
        -0.70282E+00
        -0.99313E+00
         0.32500E+01
        -0.13545E+02
        -0.26018E+01
         0.48427E+01
         0.57377E+01
         0.52978E+00
         0.30610E+01
        -0.47628E+00
         0.64056E+01
        -0.89867E+01
         0.40833E+01
         0.38620E+01
        -0.55146E+01
        -0.28532E+01
         0.35491E+01
        -0.10323E+01
        -0.87142E+00
         0.44482E+01
        -0.74973E+01
        -0.21144E+00
         0.17426E+01
         0.14233E+01
        -0.58325E+01
        -0.14239E+02
        -0.71908E+01
         0.58051E+01
         0.23424E+02
         0.12772E+01
         0.11808E+02
         0.29296E+01
         0.17281E+01
        -0.66859E+01
         0.64263E+01
         0.50173E+01
        -0.84068E+01
        -0.50830E+01
        -0.29094E+01
        -0.25486E+01
        -0.13238E+02
        -0.73388E+01
         0.42089E+01
         0.78461E+00
         0.10092E+02
        -0.44441E+01
        -0.99728E+01
        -0.38047E+01
         0.16689E+01
        -0.69237E+01
        -0.37981E+01
        -0.15319E+01
         0.21172E+01
         0.21219E+01
         0.92085E+01
         0.88023E+00
        -0.26202E+01
        -0.27792E+01
         0.30293E+01
        -0.17983E+02
        -0.84435E+01
        -0.93292E+01
        -0.30049E+01
         0.19494E+01
        -0.28506E+01
        -0.62648E+01
        -0.13320E+02
        -0.91108E+01
         0.43005E+01
         0.67366E+01
         0.94067E+01
        -0.39397E+00
         0.10529E+02
         0.67340E+01
         0.38069E+01
        -0.56938E+01
         0.49580E+01
        -0.10454E+02
         0.34238E+01
        -0.10308E+02
         0.71095E+01
         0.47074E+01
        -0.24898E+01
        -0.32680E+01
        -0.12018E+01
         0.30258E+01
         0.67323E+01
         0.47066E+01
         0.86847E+01
        -0.62688E+01
         0.70900E+01
         0.73028E+01
         0.20719E+02
         0.10946E+02
        -0.52330E+01
        -0.87200E+01
        -0.36616E+01
         0.46993E+01
         0.26011E+00
         0.85614E+01
         0.53094E+01
         0.28782E+01
        -0.49218E+01
        -0.10028E+02
        -0.29441E+01
         0.45533E+01
         0.10073E+02
         0.41315E+01
        -0.19153E+00
        -0.97840E+00
         0.18428E+01
        -0.29738E+01
         0.46077E+00
         0.18551E+01
        -0.41808E+01
         0.59094E+01
         0.15474E+01
         0.25841E+01
        -0.75220E+01
         0.59531E+01
        -0.12948E+01
        -0.14501E+02
         0.23526E+01
         0.43976E+01
         0.62576E+01
        -0.16667E+01
         0.68250E+01
         0.27402E+00
         0.57384E+00
        -0.31712E+01
        -0.79374E+00
        -0.26544E+01
        -0.89436E+01
         0.39558E+01
         0.85962E+01
         0.12633E+02
         0.25549E+01
        -0.20571E+01
        -0.52583E+01
        -0.70586E+01
        -0.91258E+00
         0.26640E+01
         0.25979E+01
        -0.12899E+02
        -0.63954E+01
         0.11439E+01
         0.53224E+00
         0.10768E+02
         0.73639E+01
         0.47136E+01
         0.30019E+00
         0.10138E+02
         0.12795E+00
        -0.69822E+01
        -0.70062E+01
        -0.17650E+01
         0.11291E+02
        -0.43606E+01
         0.90552E+01
         0.66980E+01
        -0.54104E+01
        -0.97807E+01
        -0.84989E+01
        -0.25589E+01
        -0.29397E+01
        -0.85205E+00
         0.45679E+01
         0.94090E+01
         0.22301E+02
         0.18847E+02
         0.23693E+02
         0.35138E+01
        -0.12128E+02
        -0.64603E+01
         0.17510E+01
        -0.75426E+00
         0.41279E+01
        -0.22390E+00
        -0.10945E+02
        -0.12413E+02
        -0.44457E+01
         0.40958E+01
         0.45528E+01
         0.33271E-01
         0.36054E+01
         0.11625E+02
         0.62658E+01
         0.12341E+01
        -0.56694E+00
        -0.12388E+01
         0.41973E+00
         0.47803E+01
        -0.37743E+01
         0.17643E+01
        -0.10758E+02
        -0.10005E+02
         0.38323E+01
         0.56550E+01
         0.34300E+01
        -0.21391E+01
        -0.67814E+00
        -0.15062E+01
         0.31743E+01
        -0.22946E+01
        -0.27951E+01
        -0.10582E+02
         0.24347E+01
         0.50018E+01
        -0.25657E+01
        -0.22944E+01
        -0.33705E+01
        -0.29089E+01
         0.36072E+01
         0.13028E+02
         0.12507E+01
         0.65167E+01
         0.91794E+01
        -0.52579E+01
        -0.42189E+01
        -0.35891E+01
        -0.28540E+01
        -0.82224E+01
        -0.42315E+01
        -0.26100E+01
        -0.32738E+01
         0.10616E+02
         0.37649E+01
         0.74526E+01
        -0.86368E+01
         0.58552E+01
        -0.40713E-01
        -0.83565E+01
        -0.12681E+02
        -0.16438E+01
         0.53003E+01
        -0.14969E+01
         0.53845E+01
        -0.52983E+01
        -0.88505E+01
         0.24217E+01
        -0.33477E+01
        -0.79925E+01
        -0.75981E+01
        -0.95480E+01
        -0.26998E+01
         0.45835E+01
         0.13014E+02
         0.86508E+01
         0.80604E+01
        -0.93609E+01
        -0.51570E+01
         0.55519E+00
        -0.56229E+01
        -0.15128E+02
         0.36003E+01
        -0.20426E+01
        -0.13085E+02
        -0.15100E+02
        -0.79048E+01
        -0.39009E+01
        -0.66509E+01
        -0.88155E+01
         0.51175E+01
        -0.27117E+01
        -0.68981E+01
        -0.19673E-01
         0.52233E+01
        -0.98452E+00
        -0.72456E+01
         0.14874E+01
        -0.65365E+01
        -0.36848E+01
        -0.55794E+01
        -0.82394E+01
         0.67451E+01
        -0.83399E+01
        -0.56623E+00
        -0.13969E+01
        -0.11300E+02
        -0.11258E+02
        -0.79500E+00
         0.76556E+00
         0.71108E+01
        -0.47234E+01
        -0.31200E+01
         0.59883E+01
         0.13159E+01
         0.44109E+01
        -0.21583E+01
         0.36159E+01
        -0.62101E+00
         0.18417E+01
         0.51960E+01
         0.35808E+01
         0.13850E+02
         0.32568E+01
         0.69670E+01
         0.69385E+01
         0.64132E+01
         0.22987E+01
        -0.13003E+01
        -0.14484E+01
         0.39357E+01
         0.32418E+01
         0.88736E+00
         0.12616E+02
         0.84847E+00
        -0.23779E+01
         0.63456E+01
         0.21789E+01
         0.21101E+01
        -0.32946E+01
        -0.10089E+02
         0.59226E+01
        -0.46974E+01
        -0.32133E+01
        -0.45574E+01
         0.10884E+02
         0.11032E+02
        -0.16869E+00
        -0.14840E+01
         0.12538E+01
         0.32719E+01
        -0.42133E+01
        -0.62129E+01
        -0.44301E+01
        -0.21133E+01
        -0.13544E+02
        -0.65610E+01
        -0.47345E+01
        -0.15420E+02
        -0.13944E+02
        -0.56171E+00
         0.40474E+01
        -0.13197E+01
        -0.11082E+01
         0.19573E+01
        -0.17128E+01
        -0.63045E+01
        -0.80308E+01
         0.95435E+01
         0.36316E+01
        -0.86187E+00
        -0.64236E+01
        -0.26859E+01
         0.20234E+01
        -0.41734E+01
        -0.23381E+01
        -0.10264E+01
        -0.33186E+01
         0.44556E+01
         0.55780E+01
        -0.36938E+01
        -0.82926E+01
         0.10738E+01
        -0.51896E+01
         0.18948E+01
         0.11634E+02
         0.12411E+02
        -0.33778E+01
         0.28424E+01
         0.32052E+01
        -0.37290E+01
        -0.90508E+00
        -0.39464E+01
        -0.18466E+01
        -0.57739E+01
        -0.91520E+01
        -0.11099E+02
        -0.10038E+02
        -0.70127E+01
        -0.36774E+01
         0.63593E+01
        -0.48931E+01
        -0.24471E+01
        -0.56239E+01
        -0.30073E+01
        -0.28435E+01
        -0.39119E+01
        -0.36673E+01
        -0.55919E+00
        -0.30474E+01
        -0.50343E+01
        -0.46081E+00
        -0.52577E+01
        -0.16452E+01
         0.10065E+02
         0.28937E+02
         0.22776E+02
         0.13889E+02
        -0.69715E+01
         0.15468E+01
        -0.58340E+01
        -0.32561E+01
         0.36752E+01
         0.19937E+02
         0.18644E+02
         0.19682E+01
         0.14099E+01
        -0.17901E+01
        -0.73193E+01
        -0.74351E+01
        -0.10471E+02
        -0.77727E+01
        -0.18336E+01
         0.46102E+00
         0.56161E+01
         0.43076E+01
        -0.14265E+01
         0.22967E+01
         0.17058E+01
         0.27670E+01
         0.85807E+00
         0.49266E+01
         0.77794E+01
        -0.25741E+01
        -0.13086E+02
        -0.95348E+01
         0.44112E+01
         0.56299E+00
        -0.41533E+01
        -0.39808E+01
        -0.25986E+01
         0.12139E+01
        -0.32271E+00
        -0.48582E+01
        -0.19336E+01
        -0.66928E+01
        -0.27249E+01
         0.15285E+02
         0.19089E+01
        -0.20236E+01
        -0.45300E+01
         0.13669E+01
         0.56070E+01
        -0.15190E+01
        -0.18910E+01
        -0.68718E+01
        -0.11092E+01
         0.70831E+01
         0.15174E+01
        -0.48899E+01
        -0.17951E+01
         0.51719E+01
        -0.35101E+01
        -0.58036E+01
        -0.82103E+01
        -0.82378E+01
        -0.63333E+01
        -0.68281E+01
         0.45463E+00
        -0.49206E+01
         0.13129E+01
        -0.63684E+01
        -0.45261E+00
        -0.49241E+01
        -0.73073E+00
        -0.29286E+01
         0.32382E+01
         0.55040E+01
        -0.77246E+01
        -0.12361E+02
        -0.60771E+01
        -0.83069E+01
        -0.63628E+01
         0.66949E+01
         0.13294E+02
        -0.33247E+01
        -0.67032E+01
        -0.83744E+01
        -0.66243E+01
         0.75281E+01
         0.73280E+01
         0.11493E+02
         0.16330E+01
        -0.63117E+01
        -0.62539E+01
        -0.64367E+01
        -0.67985E+01
        -0.47510E+01
        -0.56654E+01
        -0.42376E+01
         0.13046E+02
         0.10332E+02
         0.11816E+01
        -0.59651E+01
        -0.81473E+01
        -0.54698E+00
        -0.10148E+01
         0.15496E+01
        -0.42275E+01
        -0.95932E+01
        -0.79673E+01
        -0.63733E+01
        -0.45702E+01
         0.36686E+01
         0.61352E+01
        -0.44477E+01
        -0.13181E+02
        -0.24126E+01
        -0.24336E+01
        -0.34490E+01
         0.30612E+01
        -0.69203E+00
        -0.57916E+01
        -0.22927E+01
        -0.91793E+01
        -0.12141E+01
        -0.77988E+01
        -0.22632E+01
        -0.81131E+01
        -0.60488E+01
        -0.45555E+01
         0.59494E+00
         0.94467E+01
         0.41099E+01
         0.75637E+00
        -0.33894E+01
        -0.47017E+01
         0.12506E-01
         0.77131E+01
         0.29059E+01
        -0.13875E+02
        -0.27303E+01
        -0.17819E+01
        -0.30287E+01
        -0.99494E+01
         0.28096E+01
        -0.55557E+00
         0.82886E+00
         0.60163E+01
        -0.30206E+01
         0.26324E+01
        -0.55011E+01
        -0.67934E+01
        -0.30112E+01
         0.91058E+00
        -0.53815E+01
         0.57308E+01
        -0.39199E+01
        -0.74910E+01
        -0.16213E+01
        -0.73363E+01
        -0.17862E+02
        -0.16120E+01
        -0.11873E+02
         0.30744E+01
        -0.80538E+01
         0.12092E+02
         0.59409E+01
         0.38946E+01
         0.85476E+01
        -0.25736E+01
         0.11450E+01
         0.66691E+01
        -0.87498E+01
        -0.11223E+02
         0.44415E+01
         0.26401E+00
        -0.66252E-01
         0.39059E+01
         0.62084E+01
        -0.12065E+01
        -0.52308E+01
         0.37488E+00
         0.72720E+01
         0.47219E+01
         0.59023E+01
        -0.42221E+01
        -0.80555E+01
        -0.89523E+01
        -0.69885E+01
        -0.20957E+01
         0.32673E+01
         0.10249E+01
         0.93286E+01
         0.14709E+02
        -0.93929E+00
        -0.18059E+01
        -0.47323E+01
        -0.21249E+01
        -0.15280E+01
        -0.60764E+01
         0.14367E+02
         0.73406E+01
        -0.13467E+01
        -0.49895E+01
        -0.12895E+02
        -0.11289E+02
        -0.23141E+01
         0.33259E+01
         0.70810E+01
         0.44733E+01
         0.46510E-01
         0.12092E+01
        -0.74626E+01
        -0.58448E+01
         0.46551E+01
         0.33244E+01
        -0.91332E+01
        -0.61494E+01
         0.18173E+01
         0.82338E+01
         0.13322E+02
         0.90148E+01
         0.40314E+01
         0.36572E+01
        -0.14724E+01
        -0.35669E+01
        -0.96505E+01
        -0.10495E+02
        -0.86325E+01
        -0.11372E+02
        -0.31326E+01
        -0.52667E+01
        -0.78223E+01
        -0.14578E+01
        -0.10485E+02
        -0.13366E+01
        -0.33786E+01
        -0.57199E+01
        -0.18390E+02
        -0.11471E+02
        -0.75913E+01
        -0.24890E+00
        -0.12153E+02
         0.24575E+01
        -0.42545E+01
        -0.62154E+01
         0.26470E+01
        -0.18550E+01
         0.59876E+01
         0.31033E+01
         0.33803E+01
         0.17100E+01
        -0.11119E+01
         0.62726E+01
         0.63418E+01
         0.16264E+01
         0.16643E+01
        -0.35652E+01
        -0.14836E-01
         0.15195E+02
         0.14251E+02
        -0.50851E+00
        -0.12773E+01
        -0.35412E+01
         0.10072E+01
         0.67874E+01
         0.28072E+01
        -0.75484E+01
        -0.10639E+02
        -0.31823E+01
        -0.88722E+01
        -0.45826E+01
        -0.68423E+01
         0.12848E+01
         0.11809E+00
        -0.38924E+01
        -0.14238E+01
        -0.53855E+01
        -0.32769E+01
        -0.86511E+01
        -0.19930E+01
         0.87053E+01
        -0.39703E+01
        -0.71384E+01
        -0.52382E+01
         0.16076E+01
         0.46717E+01
        -0.55453E+00
        -0.61516E+00
        -0.22306E+01
        -0.23183E+01
         0.85732E+00
        -0.10181E+01
         0.73648E+00
         0.11077E+01
        -0.70576E+01
         0.10774E+02
         0.12780E+02
         0.52180E+01
         0.89836E+01
        -0.82301E+01
        -0.70157E+01
         0.57069E+01
         0.23224E+01
         0.69405E+01
         0.20697E+01
        -0.24143E+01
         0.20323E+01
         0.91523E+01
        -0.91389E+00
         0.36433E+01
        -0.69371E+01
         0.26538E+01
         0.72845E+01
        -0.48488E+01
         0.13693E+01
        -0.35472E+01
        -0.93034E+01
        -0.86644E+00
        -0.68948E+01
         0.48316E+01
        -0.10118E+02
         0.23457E+00
        -0.36034E+01
        -0.57351E+01
         0.96764E+00
        -0.55095E+01
        -0.10016E+02
         0.40918E+01
         0.91870E+01
        -0.41219E+01
         0.36462E+01
         0.11025E+02
         0.92611E+01
         0.61804E+01
         0.25307E+01
        -0.10249E+01
        -0.10374E+01
        -0.63122E+01
        -0.22971E+01
        -0.46796E+01
        -0.46385E+01
        -0.28023E+01
         0.65017E+00
         0.25543E+01
        -0.12275E+01
        -0.47050E+01
        -0.26495E+01
         0.10111E+02
         0.36650E+01
         0.29949E+01
        -0.40983E+01
        -0.29018E+00
         0.14457E+01
         0.34343E+01
         0.49105E+01
         0.16830E+01
        -0.57657E+01
        -0.10066E+02
        -0.92756E+00
        -0.30097E+01
        -0.89773E+01
        -0.69644E+01
        -0.70405E+01
        -0.36740E+01
        -0.67619E+01
        -0.72368E+01
        -0.98321E+00
         0.69351E+00
         0.32714E+01
         0.59508E+00
         0.88244E+00
         0.29995E+01
        -0.17114E+01
         0.10997E+02
         0.49422E+01
        -0.25323E+01
         0.31122E+01
        -0.96973E+01
        -0.15445E+02
         0.27517E+01
         0.58025E+01
         0.14807E+02
         0.75702E+01
         0.20590E+01
         0.46107E+01
         0.38912E+01
         0.43740E+01
         0.66257E+01
         0.46600E+01
         0.89763E+01
         0.13542E+02
         0.15155E+01
         0.75013E+01
         0.23855E+02
         0.16097E+02
         0.12741E+02
        -0.59798E+00
         0.61282E+01
         0.11991E+00
        -0.30125E+00
        -0.93104E+01
        -0.46155E+01
         0.53759E+01
         0.87941E+00
         0.84039E+00
         0.31204E+01
        -0.27538E+01
        -0.11013E+01
         0.89225E+00
         0.32932E+01
        -0.51165E+01
        -0.98072E+01
         0.93916E+01
         0.12108E+02
        -0.87596E+00
        -0.56414E+01
         0.61377E+01
         0.52491E+01
         0.47107E+01
         0.20484E+01
        -0.26539E+01
        -0.39799E+01
        -0.61242E+01
        -0.95337E+01
        -0.14788E+02
         0.22421E+01
         0.13071E+01
         0.60450E+01
         0.53016E+00
        -0.21116E+01
        -0.19945E+01
         0.15060E+01
        -0.23840E+01
        -0.16212E+01
         0.58276E+01
        -0.71279E+01
        -0.32659E+01
        -0.74358E+01
        -0.12945E+02
        -0.65902E+01
        -0.86514E+01
        -0.46582E+01
        -0.30838E+01
        -0.16677E-01
         0.91707E+01
         0.71298E+01
         0.35018E+01
        -0.12525E+01
        -0.10189E+02
        -0.13453E+02
        -0.19914E+01
         0.63243E+01
         0.12768E+01
         0.70930E+01
         0.10043E+02
         0.52339E+01
        -0.55647E+00
        -0.61953E+01
        -0.34894E+01
         0.43922E+01
        -0.51820E+01
        -0.26502E+01
        -0.38240E+01
        -0.59585E+01
        -0.20688E+01
        -0.87721E+00
         0.13179E+02
        -0.33288E+01
         0.15938E+02
         0.39170E+01
        -0.11639E+01
         0.52530E+01
        -0.13909E+01
         0.40369E+01
         0.79402E+01
        -0.72374E+01
         0.80201E+01
        -0.27854E+01
        -0.18655E+01
        -0.18453E+01
         0.15234E+00
         0.95240E+01
         0.69735E+01
         0.58329E+01
        -0.29092E+01
         0.85134E+01
         0.58277E+01
        -0.17618E+01
        -0.59859E+01
        -0.61487E+01
        -0.43757E+01
        -0.45263E+01
        -0.68778E+01
        -0.80468E+01
         0.12524E+01
         0.16982E+00
         0.15223E+01
        -0.11803E+01
        -0.55549E+01
        -0.95527E+01
        -0.96834E+01
        -0.54302E+01
        -0.65492E+01
        -0.46165E+01
        -0.32436E+01
        -0.57182E+00
        -0.11231E+01
        -0.33965E+01
        -0.47576E+01
        -0.21788E+01
        -0.57178E+00
         0.44484E+01
        -0.10035E+01
        -0.17987E+01
        -0.82157E+00
         0.56531E+01
         0.74587E+01
        -0.94058E+00
         0.88683E+00
         0.34213E+01
         0.36639E+01
         0.60846E+01
         0.31537E+01
         0.64442E+01
         0.38580E+01
         0.42007E+00
         0.28760E+01
         0.38296E+01
         0.53385E+01
         0.72900E+01
         0.85243E+01
         0.13834E+02
         0.83396E+01
         0.10562E+02
         0.71041E+01
         0.12533E+01
        -0.33635E+00
         0.39472E+01
         0.29749E+01
        -0.79348E+00
        -0.16007E+01
         0.75841E+00
        -0.13195E+01
        -0.20750E+01
         0.10260E+02
         0.51754E+01
         0.42064E+01
         0.82772E+01
         0.31663E+01
        -0.15716E+01
        -0.78632E+01
         0.60237E+01
         0.12551E+02
         0.87980E+01
         0.92888E+01
         0.88741E+01
         0.20748E+02
         0.26267E+01
         0.56629E+01
         0.16063E+01
         0.84346E+00
        -0.26264E+00
         0.12749E+01
         0.10020E+02
         0.10513E+02
         0.62069E+01
         0.12296E+02
         0.19896E+02
        -0.80677E+01
        -0.17636E+02
        -0.32515E+01
         0.22907E+01
         0.13893E+01
        -0.60197E+01
        -0.88835E+01
        -0.80870E+01
        -0.70159E+01
        -0.65498E+01
        -0.19055E+01
         0.35094E+01
         0.52848E+01
         0.32832E+01
         0.45659E+01
        -0.55591E+01
        -0.88758E+01
        -0.18022E+01
         0.10605E+02
         0.69786E+01
         0.35747E+01
         0.10140E+02
        -0.14516E+02
        -0.17155E+01
        -0.10650E+02
         0.29034E+01
        -0.67225E+01
         0.54423E+00
         0.78707E+01
         0.13035E-01
        -0.59659E+00
        -0.33589E+01
        -0.46464E+01
         0.35422E+01
        -0.28241E-01
        -0.50369E+01
        -0.19586E+01
        -0.21392E+01
         0.99880E+00
        -0.24675E+01
         0.14726E+01
        -0.41733E+00
        -0.60690E+01
        -0.58506E+01
        -0.45756E+01
         0.18379E+01
        -0.15300E+01
        -0.91949E+00
        -0.17504E+00
        -0.12731E+01
        -0.79567E+01
        -0.45578E+01
        -0.55905E+01
        -0.10870E+02
         0.38000E+01
         0.92438E+01
        -0.74168E+01
         0.58468E+01
         0.11794E+02
         0.11410E+02
         0.12305E+02
         0.74817E+01
         0.39895E+01
         0.86743E+01
         0.65430E+01
        -0.52042E+01
         0.42988E+01
         0.94723E+01
         0.15583E+02
        -0.51529E+00
         0.33424E+01
        -0.39307E+01
        -0.24193E+01
        -0.40396E+01
         0.58086E+00
         0.14111E+01
        -0.63191E+01
         0.59816E+01
         0.74520E+01
         0.41974E+01
         0.13924E+02
         0.18162E+02
         0.16011E+01
         0.86637E+00
        -0.52533E+00
        -0.70119E+00
        -0.15172E+01
        -0.11105E+01
         0.27614E+01
         0.46804E+01
         0.29072E+01
        -0.56918E+01
         0.23946E+00
        -0.36753E+01
        -0.74789E+01
        -0.10804E+02
         0.40131E+01
         0.97868E+01
        -0.59740E+01
         0.79826E+01
         0.26553E+01
        -0.75183E+01
        -0.83314E+01
         0.12035E+02
        -0.11253E+02
         0.20549E+01
         0.18974E+01
        -0.61301E+01
         0.20039E+01
         0.19264E+01
         0.12359E+00
        -0.31122E+01
        -0.44685E+01
        -0.57489E+01
        -0.12267E+02
        -0.14994E+02
        -0.35952E+01
         0.18810E+00
        -0.11719E+01
        -0.39440E+01
         0.13921E+01
        -0.41118E+01
        -0.22175E+01
         0.28184E+01
         0.42665E+01
         0.80244E-01
         0.34498E+01
         0.35655E+01
        -0.65226E+01
        -0.12924E+01
         0.88709E+01
        -0.53224E+01
         0.29792E+01
         0.12473E+01
         0.66112E+01
         0.24859E+01
         0.13002E+02
         0.13548E+02
         0.36872E+01
         0.73780E+01
         0.16684E+01
         0.68623E+01
         0.93071E+00
         0.71419E+01
        -0.89193E+00
         0.75398E+01
         0.16973E+02
         0.74786E+01
         0.32758E+01
         0.94820E+01
         0.45038E+01
        -0.42177E-02
        -0.28641E+01
        -0.89362E+00
         0.99768E-01
        -0.28807E+01
         0.48565E+01
         0.57630E+01
         0.34726E+01
        -0.82247E+01
         0.20317E+01
         0.84214E-01
         0.18898E+01
         0.25530E+01
        -0.88815E+00
        -0.26632E+01
        -0.18600E+01
        -0.93356E+00
         0.36628E+00
         0.49012E+01
         0.50022E+01
        -0.45116E+01
        -0.41931E+01
        -0.47853E+00
        -0.56184E+01
         0.53252E+00
         0.74086E+01
         0.10150E+02
        -0.58600E+01
        -0.23933E+02
        -0.19036E+02
        -0.23139E+02
         0.45386E+00
        -0.61186E+01
        -0.86949E+01
         0.82375E-02
        -0.35844E+01
         0.11603E+01
         0.80338E+01
        -0.48428E+01
        -0.27943E+01
         0.37981E+01
        -0.24706E+01
        -0.55067E+00
         0.57654E+01
  
SCALARS                         fint_y  double 1
LOOKUP_TABLE default
         0.75800E+01
         0.12377E+02
         0.18465E+01
        -0.33741E+01
         0.98573E+00
        -0.44931E+01
        -0.17018E+01
         0.34112E+01
         0.50486E+00
         0.59684E+01
        -0.18155E+01
        -0.83171E+00
         0.10468E+02
         0.82085E+01
         0.41335E+00
         0.23431E+00
         0.80572E+00
         0.36044E+01
        -0.35223E+00
        -0.61160E+00
        -0.28677E+01
        -0.40484E+01
        -0.10175E+02
         0.30272E+00
        -0.61428E+01
        -0.17065E+01
        -0.88010E+01
         0.94468E+00
         0.22218E+01
        -0.17985E+01
        -0.10360E+02
        -0.97681E+01
        -0.18118E+02
        -0.30832E+01
        -0.22387E+01
         0.76358E+00
         0.95057E+01
        -0.63788E+01
         0.40608E+01
         0.16534E+01
         0.27166E+00
         0.67725E+01
        -0.54463E+01
        -0.31513E+01
        -0.70801E+01
         0.10955E+02
        -0.19090E+00
         0.27832E+01
         0.43191E+01
         0.34720E+01
         0.76173E+01
         0.27361E+01
        -0.54235E+00
        -0.11099E+01
         0.19407E+02
        -0.53806E+01
         0.13161E+02
        -0.26168E+01
        -0.36216E+01
        -0.42127E+01
        -0.43117E+01
         0.64397E+01
        -0.34124E+01
        -0.85798E+00
        -0.11019E+02
        -0.28943E+01
        -0.74951E+01
         0.24014E+01
        -0.18680E+02
        -0.62558E+01
        -0.46580E+00
        -0.20881E+01
        -0.32177E+01
        -0.27543E+01
        -0.72315E+01
        -0.30682E+01
        -0.17472E+02
        -0.63272E+00
        -0.13592E+02
        -0.39500E+01
        -0.60158E+01
        -0.15154E+02
         0.37208E+00
        -0.17854E+01
        -0.99757E+01
        -0.21224E+01
        -0.75398E+01
         0.11848E+01
         0.22777E+01
         0.22190E+01
         0.72437E+01
        -0.37885E+01
         0.88710E+00
         0.75431E+01
        -0.81563E+00
         0.29901E+01
         0.85427E+01
         0.71163E+00
         0.38647E+01
        -0.40663E+00
         0.17924E+00
        -0.16086E+01
        -0.38364E+01
         0.93363E+00
        -0.79257E+00
         0.57933E+01
        -0.49215E+00
        -0.22165E+01
        -0.92354E+01
        -0.14013E+01
        -0.96248E+01
        -0.47107E+01
        -0.58184E+01
        -0.32642E+01
        -0.26048E+01
        -0.19723E+01
         0.46147E+01
         0.15771E+01
        -0.99935E+00
         0.12499E+01
         0.39072E+01
        -0.19046E+00
        -0.17945E+01
         0.90663E+00
         0.38861E+01
         0.22421E+01
        -0.12758E+01
        -0.30968E+00
         0.22549E+01
        -0.30399E+01
        -0.17645E+02
        -0.42850E+01
        -0.15833E+02
        -0.10850E+01
         0.52504E+01
        -0.11012E+01
         0.25222E+01
        -0.54841E-02
        -0.14826E+01
        -0.71897E-01
         0.24982E+01
         0.88759E+00
         0.53468E+01
         0.19237E+01
         0.13105E+02
         0.44946E+01
         0.20721E+01
         0.36816E+01
        -0.14135E+01
         0.59102E+00
         0.41756E+01
        -0.59232E+00
        -0.15695E+01
        -0.26444E+01
        -0.81221E+01
        -0.34218E+01
         0.33099E+01
         0.10358E+02
         0.22177E+01
         0.53428E+01
        -0.88108E+00
         0.12938E+02
         0.90867E+01
         0.48181E+01
        -0.10407E+02
        -0.67835E+01
        -0.37638E+01
        -0.22005E+02
        -0.19679E+02
        -0.11231E+02
        -0.60298E+01
        -0.12614E+02
        -0.20744E+02
        -0.18112E+02
         0.13581E+02
        -0.56804E+01
         0.12745E+02
         0.21811E+02
         0.91530E+00
         0.18870E+02
        -0.47899E+01
         0.75328E+01
        -0.10068E+02
         0.66598E+01
         0.43237E+01
        -0.87351E+00
         0.50654E+01
         0.13847E+01
         0.78215E+01
         0.16111E+02
        -0.21993E+02
        -0.57361E+01
        -0.19749E+01
        -0.33741E+01
        -0.12002E+02
        -0.10866E+02
        -0.72531E+00
        -0.11187E+02
         0.38325E+01
        -0.11142E+02
        -0.42707E+01
         0.51950E+00
        -0.12051E+02
         0.36723E+01
         0.23898E+02
         0.14747E+02
        -0.10261E+00
         0.56872E+01
         0.18651E+01
        -0.73234E-01
        -0.36567E+01
        -0.22329E+00
         0.28666E+01
        -0.75972E+01
         0.67998E+00
        -0.71073E+00
         0.55726E+00
        -0.12298E+02
         0.13260E+02
        -0.65876E+01
        -0.44167E+01
         0.61193E+01
         0.23300E+01
         0.10267E+01
        -0.54281E+01
         0.19868E+01
         0.40637E+01
         0.81210E+00
         0.79190E+01
         0.85502E+01
         0.27301E+00
        -0.38363E+01
        -0.37449E+01
        -0.11801E+02
         0.69926E+01
         0.29362E+01
        -0.22966E+01
         0.23453E+01
        -0.19294E+00
         0.73097E+01
         0.67336E+01
         0.86183E+01
         0.90522E+01
         0.75703E+01
         0.39355E+01
        -0.11718E+02
        -0.14324E+02
        -0.13200E+01
        -0.21848E+01
        -0.40240E+01
        -0.91683E+00
        -0.32147E+01
        -0.12061E+01
        -0.13026E+02
        -0.48294E+01
        -0.81106E+01
         0.12760E+02
         0.14019E+02
         0.66662E+01
         0.73371E+01
        -0.44064E+01
        -0.48686E+00
        -0.17248E+01
         0.22766E+01
         0.14835E+01
         0.21335E+01
         0.11854E+01
         0.63532E+01
        -0.91497E+01
        -0.27526E+01
        -0.46965E+01
         0.99536E+01
         0.17697E+02
         0.30623E+01
        -0.50836E+01
        -0.13184E+02
         0.18264E+01
         0.33444E+01
         0.11857E+01
         0.28950E+01
        -0.81112E+01
        -0.93042E+00
         0.43503E+01
        -0.69216E+01
        -0.86798E+01
        -0.12346E+01
        -0.19400E+01
        -0.64011E+01
        -0.75956E+01
        -0.97018E+01
         0.25357E+01
        -0.23329E+01
         0.66354E+01
        -0.49250E+01
         0.10795E+02
        -0.45108E+01
         0.35081E+01
        -0.98560E+01
        -0.12251E+01
        -0.11916E+02
        -0.12098E+02
         0.91494E+01
         0.43364E+01
         0.52229E+01
         0.78813E+00
        -0.11249E+01
        -0.47579E+01
         0.27870E+01
        -0.33743E+00
        -0.38454E+01
         0.98109E+01
         0.55084E+01
        -0.49085E+01
        -0.11830E+02
        -0.10817E+02
        -0.49522E+01
        -0.81811E+00
        -0.14852E+00
        -0.39765E+01
         0.70122E+01
         0.59137E+01
         0.11576E+02
        -0.24209E+01
         0.32722E+01
        -0.38203E+01
        -0.69117E+01
        -0.15634E+02
        -0.19754E+02
        -0.49489E+00
        -0.97440E+01
        -0.10479E+02
        -0.12272E+01
         0.65462E+01
        -0.35372E+00
         0.21350E+02
        -0.18423E+01
         0.64975E+01
        -0.11960E+02
        -0.12257E+02
        -0.14782E+02
        -0.25645E+01
         0.14157E+02
        -0.11708E+02
        -0.88521E+01
        -0.47369E+01
         0.61285E+01
         0.82061E+01
         0.43441E+00
        -0.95873E+01
        -0.68298E+01
         0.55615E+01
        -0.75320E+01
        -0.90802E+01
        -0.53586E+01
         0.11555E+02
         0.17797E+01
        -0.32542E+01
         0.56785E+01
         0.28443E+01
         0.57631E+01
         0.12430E+01
        -0.46349E+01
        -0.36891E+01
        -0.22517E+01
         0.47026E+01
        -0.63617E+01
         0.30513E+01
        -0.96344E+01
         0.73101E+01
        -0.16146E+01
        -0.61211E+01
        -0.62916E+01
         0.77150E+01
        -0.11526E+02
        -0.62391E+01
         0.18468E+01
         0.94258E+01
         0.39606E+00
         0.57806E+01
         0.13850E+02
        -0.28503E+01
        -0.21224E+00
        -0.28848E+00
         0.77122E+01
         0.50383E+01
         0.43524E+01
         0.47505E+01
        -0.43026E+01
        -0.42846E+00
         0.37859E+01
        -0.29861E+01
        -0.51169E+01
        -0.51617E+01
         0.48831E+01
        -0.45478E+01
        -0.82567E+01
        -0.76886E+01
         0.13241E+00
        -0.48178E+00
        -0.44635E+01
        -0.64791E+01
         0.27584E+02
         0.13495E+02
        -0.10036E+02
         0.28471E+01
        -0.14911E+02
        -0.15386E+02
         0.83669E+00
        -0.52509E+01
        -0.55935E-01
         0.24616E+02
         0.21981E+01
         0.23748E+02
        -0.18548E+01
        -0.17795E+02
        -0.82555E+01
        -0.15520E+02
        -0.22009E+02
        -0.21401E+01
         0.30572E+01
        -0.27207E-01
         0.27472E+01
         0.63971E+01
         0.12173E+02
         0.92993E+01
         0.44979E+01
        -0.24659E+01
         0.78520E+01
         0.80638E+01
        -0.29002E+01
         0.37758E+01
        -0.39269E-01
        -0.65502E+01
         0.27968E+01
         0.17242E+01
         0.10599E+02
         0.16908E+02
         0.20226E+02
         0.10113E+02
         0.58621E+01
         0.20065E+01
        -0.74411E+01
        -0.33417E+01
        -0.12273E+02
         0.27279E+01
        -0.10948E+02
         0.38272E+01
        -0.63878E+00
        -0.36035E+01
         0.71952E+01
        -0.22347E+01
         0.15466E+01
        -0.70388E+00
         0.18095E+01
        -0.82167E+01
         0.75117E+01
        -0.25100E+01
        -0.11575E+02
        -0.24972E+01
         0.15144E+01
        -0.39781E+01
         0.12757E+01
        -0.16536E+01
        -0.38980E+01
         0.40418E+01
         0.38037E+00
        -0.67303E+01
        -0.42558E-01
         0.92921E+01
         0.23296E+00
         0.10197E+01
         0.11373E+02
         0.15907E+01
        -0.34024E+01
        -0.83742E+01
         0.11497E+02
         0.11938E+02
         0.15575E+02
        -0.89372E+01
         0.20222E+02
         0.90392E+01
        -0.22272E+01
        -0.22442E+01
        -0.18604E+02
        -0.34540E+01
         0.59266E-01
        -0.22698E+01
         0.12952E+02
         0.18474E+02
         0.38527E+01
         0.13938E+02
        -0.96525E+01
         0.46865E+01
        -0.11999E+02
         0.22038E+01
        -0.89775E+01
        -0.87366E+00
         0.12181E+02
        -0.14183E+02
        -0.20741E+01
        -0.77181E+01
         0.81692E+01
         0.73906E+01
         0.38171E+01
        -0.38461E+01
         0.55053E+01
        -0.18722E+01
        -0.12466E+02
        -0.29905E+01
         0.26759E+00
        -0.84216E+01
         0.27896E+01
         0.16509E+01
         0.10225E+02
         0.12661E+02
         0.55074E+01
        -0.45580E+01
         0.17119E+01
         0.28284E+01
        -0.77398E+01
        -0.21171E+01
         0.15995E+01
         0.68713E+01
        -0.51324E+01
         0.23863E+00
        -0.19412E+01
        -0.13175E+02
         0.58967E+00
        -0.88107E+01
         0.92993E+01
        -0.91301E+01
         0.32024E+01
        -0.11740E+02
        -0.10423E+02
        -0.13079E+02
        -0.98529E+00
         0.17176E+02
        -0.10107E+02
        -0.90947E+01
         0.84331E+01
         0.42133E+00
        -0.36317E+01
         0.37741E+01
         0.38596E+01
        -0.62116E+01
         0.69002E+01
        -0.18737E+01
        -0.46271E+01
        -0.25884E+01
         0.28536E+01
        -0.32389E+01
        -0.56770E+01
        -0.74419E+01
         0.98328E+01
        -0.42078E+01
         0.13846E+02
        -0.78158E+01
         0.43521E+01
         0.46565E+00
         0.36735E+01
        -0.14590E+02
        -0.16034E+02
        -0.82458E+01
        -0.97875E+01
        -0.24181E+00
         0.86597E+01
         0.68857E+01
         0.28670E+01
         0.75042E+01
        -0.60713E+01
         0.65014E+01
        -0.71649E+01
         0.16854E+02
         0.10585E+02
         0.60069E+01
         0.71453E+01
        -0.12312E+02
        -0.44720E+01
        -0.33638E+01
         0.12484E+02
         0.25920E+00
         0.11283E+01
        -0.40573E+01
        -0.58740E+01
        -0.86048E+01
        -0.12630E+02
        -0.22116E+01
         0.47712E+01
         0.15459E+01
         0.27368E+01
         0.20365E+01
         0.10357E+02
         0.82129E+00
        -0.66204E+01
         0.59362E+00
         0.13130E+02
         0.96759E+01
        -0.33332E+01
        -0.61457E+01
        -0.46969E+01
         0.73899E+01
        -0.35082E+01
        -0.44873E+01
         0.80643E+01
        -0.34545E+01
         0.99760E+01
        -0.61902E+01
         0.12432E+01
        -0.99009E+01
         0.30749E+01
        -0.37794E+01
         0.30905E+01
         0.10212E+02
        -0.23845E+01
         0.31648E+01
        -0.10344E+02
         0.74997E+01
         0.96475E+01
        -0.49303E+01
        -0.13005E+01
        -0.12868E+01
        -0.28745E+01
        -0.97594E+01
        -0.72481E+01
        -0.35964E+01
        -0.25435E+01
        -0.10230E+02
        -0.25304E+01
        -0.13640E+02
        -0.13697E+02
        -0.31382E+01
         0.40907E+00
        -0.27346E+01
         0.28586E+01
        -0.27817E+01
         0.61961E+01
         0.89924E+01
         0.33310E+01
        -0.43733E+01
         0.70561E+01
        -0.40122E+01
         0.66186E+01
         0.37696E+01
        -0.49828E+01
         0.31992E+01
         0.91623E+00
         0.83753E+01
         0.24997E+01
        -0.45329E+01
         0.52440E+01
         0.16199E+02
         0.13864E+02
         0.31938E+01
        -0.11335E+02
         0.81776E+01
         0.13808E+01
         0.15109E+02
         0.13154E+02
        -0.87735E+01
        -0.22184E+01
         0.52537E+01
         0.22067E+01
         0.51820E+01
         0.29648E+01
         0.56251E+01
        -0.11742E+01
        -0.62890E+00
         0.65418E+01
        -0.31821E+00
        -0.43065E+01
        -0.12784E+02
        -0.60148E+01
         0.12442E+02
         0.17535E+02
         0.75992E+01
        -0.61918E+01
         0.54395E+01
        -0.49097E+01
         0.11777E+02
         0.23212E+01
        -0.75751E+01
         0.48572E+01
        -0.39476E+01
         0.78361E+00
        -0.11194E+02
        -0.56780E+01
        -0.25415E+01
        -0.53201E+01
         0.66580E+01
        -0.61587E+01
        -0.29250E+01
         0.31620E+00
         0.11725E+02
        -0.81791E+01
        -0.88519E+01
        -0.11241E+02
        -0.32592E+01
         0.83008E+01
         0.34672E+01
         0.15068E+01
         0.30888E+01
        -0.64639E+01
        -0.14039E+01
         0.23843E+01
        -0.16559E+01
         0.25158E+01
        -0.65031E+01
        -0.59683E+01
        -0.67017E+01
        -0.13188E+02
         0.17293E+01
        -0.73304E-01
        -0.77391E+01
         0.39152E+01
         0.10579E+02
        -0.14508E+02
        -0.62449E+00
        -0.82504E+01
         0.59762E+01
         0.71724E+00
         0.79195E+00
         0.40717E+01
         0.61450E+01
         0.11094E+02
        -0.48882E+01
        -0.82962E+01
         0.12295E+02
        -0.15473E+02
        -0.29160E+01
         0.69268E+01
        -0.58226E+01
        -0.19508E+01
        -0.11961E+02
        -0.13924E+02
        -0.13699E+01
         0.48522E+01
        -0.11536E+02
        -0.50926E+01
         0.68716E+01
         0.90805E+01
         0.11762E+02
         0.18103E+01
        -0.11340E+01
        -0.10230E+02
         0.41995E+00
        -0.10930E+02
        -0.63783E+01
         0.93965E+00
        -0.82199E+01
        -0.57898E+01
         0.51660E+01
         0.33374E+01
        -0.10520E+02
        -0.12250E+02
         0.73128E+01
        -0.80997E-01
        -0.35791E+01
         0.15284E+01
         0.31869E+01
         0.78428E+01
         0.26496E+01
        -0.65819E+00
        -0.33126E+01
        -0.11214E+01
         0.39049E+01
         0.23518E+01
         0.11091E+02
        -0.13180E+02
        -0.62046E+01
        -0.21831E+01
         0.12311E+02
         0.91262E+01
         0.31124E+01
         0.38114E+01
         0.12188E+02
         0.11542E+02
         0.78195E+01
        -0.91553E+01
        -0.46678E-01
         0.34997E+01
         0.55394E+01
         0.11623E+02
         0.14981E+02
         0.17168E+02
         0.30036E+01
         0.22699E+01
        -0.13645E+01
        -0.15341E+02
         0.95532E+00
        -0.62611E+01
         0.76165E+00
         0.43810E+01
         0.63518E+01
        -0.13292E+02
         0.65040E+01
        -0.20121E+01
         0.85230E+01
         0.74033E+01
        -0.83471E+00
         0.85939E+01
        -0.61360E+01
        -0.88722E+01
        -0.99764E+01
        -0.54961E+01
         0.18514E+02
        -0.11373E+02
        -0.10254E+02
         0.14563E+01
        -0.26932E+01
         0.14546E+02
         0.13998E+01
        -0.36624E+01
         0.80427E+01
         0.97415E+01
        -0.38699E+01
         0.14305E+01
         0.59210E+01
         0.14427E+02
         0.16254E+02
         0.72214E+01
         0.62090E+01
         0.18361E+01
         0.10752E+00
        -0.18660E+02
        -0.96896E+01
         0.29921E+01
        -0.15764E+00
         0.13272E+01
         0.39540E+01
         0.27332E+01
        -0.68142E+01
        -0.67712E+01
        -0.25447E+01
        -0.13184E+02
        -0.99292E+01
         0.35434E+01
         0.55561E+01
        -0.26959E+01
         0.32670E+01
        -0.19029E-01
        -0.51264E+01
        -0.34679E+01
         0.69518E+01
         0.88507E+00
         0.27883E+01
         0.60717E+01
         0.57712E+01
        -0.89685E+01
        -0.71043E+01
         0.33457E+01
        -0.61005E+01
        -0.12750E+02
        -0.37938E-01
        -0.39427E+01
         0.90037E+01
        -0.56645E+01
         0.13808E+01
         0.52771E+01
         0.41182E+01
         0.39931E+01
         0.36629E+01
         0.74764E+01
        -0.29330E+01
        -0.69384E+01
        -0.91022E+00
        -0.23985E+01
        -0.26391E+01
        -0.29532E+01
         0.30119E+01
        -0.50356E-01
        -0.13298E+01
         0.54221E+00
        -0.29411E+01
         0.20161E+01
        -0.60426E+01
         0.69686E+01
        -0.43923E+01
        -0.61931E+01
        -0.83525E+01
        -0.21979E+02
         0.31959E+01
         0.65757E+01
        -0.11914E+01
        -0.31530E+01
        -0.19504E+01
        -0.16248E+02
        -0.17348E+02
         0.62736E+01
         0.94644E+01
         0.89571E+00
         0.11257E+02
         0.38275E+01
         0.28567E-01
        -0.29064E+01
        -0.36047E+01
         0.20008E+01
         0.15608E+01
        -0.52297E+01
         0.39386E+01
         0.15716E+01
        -0.21734E+01
        -0.86438E+01
        -0.10530E+02
        -0.22069E+01
         0.10875E+01
         0.93178E+01
         0.78754E+01
         0.26591E+01
        -0.14755E+00
        -0.67572E+01
         0.21769E+01
        -0.55632E+01
        -0.78065E+01
        -0.30707E+01
         0.30872E+01
         0.37592E+01
        -0.60519E+01
        -0.54396E+01
         0.16026E+01
        -0.81301E+01
         0.91250E+01
        -0.49008E+01
        -0.95471E+01
         0.75164E+01
         0.15601E+01
        -0.56660E+01
        -0.17256E+01
         0.75417E+01
        -0.24604E+01
        -0.41806E+01
         0.15098E+02
         0.19083E+01
         0.79159E+01
         0.13572E+01
         0.56589E+01
         0.96299E+01
         0.27285E+01
        -0.60037E+00
         0.35981E+01
         0.77440E+01
         0.26709E+01
         0.52089E+00
        -0.98692E+01
        -0.12878E+01
         0.16229E+01
         0.10085E+02
        -0.84213E+01
        -0.47550E+01
        -0.35549E+01
         0.90943E-01
        -0.93306E+01
        -0.27694E+01
        -0.28438E+01
         0.30951E+01
        -0.61111E+01
        -0.14018E+01
         0.30342E+01
        -0.46960E+01
         0.11305E+02
         0.52740E+01
         0.10399E+02
        -0.58064E+01
         0.13596E+02
        -0.20086E+00
        -0.11556E+02
         0.13144E+02
         0.29225E+01
        -0.90133E+01
         0.95589E+01
         0.44299E+01
         0.10857E+01
        -0.82019E+00
        -0.26952E+01
         0.21682E+01
         0.89945E+01
        -0.38950E+01
        -0.36823E+01
        -0.51717E+00
         0.43652E+01
         0.24328E-01
        -0.11450E+02
        -0.13220E+02
        -0.13967E+02
         0.30630E+01
         0.14727E+02
         0.75872E+01
         0.12035E+01
        -0.27522E+01
        -0.23817E+01
        -0.20913E+01
        -0.41923E+01
        -0.44195E+01
        -0.63203E+01
         0.55423E+01
         0.61912E+01
         0.87007E+01
         0.84195E+01
        -0.93876E+01
        -0.86754E-01
         0.49197E+01
         0.32208E+01
        -0.44682E+01
        -0.46871E+01
        -0.39117E+01
         0.16925E+01
         0.63042E+01
         0.60570E+01
        -0.64375E+01
        -0.45803E+01
         0.34017E+01
         0.50586E+01
        -0.66768E+01
        -0.35497E+01
         0.26049E+01
        -0.57708E+01
         0.33647E+01
         0.70545E+01
         0.22413E+01
         0.10396E+02
         0.85706E+01
        -0.15607E+01
        -0.79602E+01
        -0.94476E+01
        -0.67528E+00
         0.37640E+01
         0.14927E+02
         0.10950E+02
         0.81516E+00
         0.94862E+01
        -0.64169E+01
        -0.43414E+01
        -0.87570E+01
        -0.44901E+01
         0.79894E+01
         0.10508E+02
         0.13316E+02
         0.92514E+01
        -0.88947E+00
         0.10556E+02
        -0.24293E+01
         0.86285E+01
         0.49067E+01
        -0.19760E+01
         0.15488E+02
         0.88195E+00
        -0.69870E+01
         0.25818E+01
        -0.13411E+01
         0.19007E+01
         0.25908E+01
         0.45451E+01
         0.10287E+02
         0.17122E+02
         0.87985E+01
         0.48001E+01
         0.71959E+01
         0.71939E+01
         0.57217E+01
        -0.70604E+01
        -0.17169E+02
        -0.16396E+02
         0.32554E+01
         0.18485E+02
         0.11092E+02
         0.32408E+01
         0.28523E+00
        -0.47627E+01
        -0.23280E+01
         0.50501E+01
         0.91182E+01
         0.31459E+01
        -0.36674E+00
        -0.31990E+01
         0.24655E+00
         0.44899E+01
         0.28951E+01
        -0.31943E+01
         0.89991E+01
         0.84593E+01
         0.88814E+00
         0.17131E+01
        -0.35468E+00
         0.11460E+01
        -0.10225E+02
        -0.88349E+00
         0.29993E+01
        -0.40215E+01
        -0.28217E+00
        -0.23225E+01
        -0.90604E+01
        -0.62646E+01
         0.11596E+01
        -0.73128E+01
        -0.10418E-01
         0.14471E-01
        -0.46780E+01
         0.30546E+01
        -0.49761E+01
        -0.40993E+01
        -0.12291E+02
        -0.13673E+02
        -0.13327E+02
         0.51037E-01
         0.80604E+01
        -0.17819E+00
        -0.55652E+01
         0.27832E+01
        -0.98519E+01
        -0.12364E+02
        -0.90010E+01
        -0.82513E+01
         0.25334E+01
         0.95205E+00
         0.95937E+01
        -0.10554E+02
        -0.12065E+02
        -0.56887E+01
        -0.10573E+02
        -0.21128E+01
        -0.54938E+01
        -0.78832E+01
         0.41808E+01
         0.17495E+01
        -0.28882E+01
        -0.40877E+01
        -0.15223E+02
        -0.29307E+01
        -0.68503E+01
        -0.81789E+01
        -0.55930E+00
         0.85237E+01
         0.57010E+01
         0.38514E+01
         0.66185E+01
         0.40369E+01
        -0.10317E+02
        -0.69131E+01
        -0.29145E+01
        -0.91571E+00
         0.82084E+01
         0.73965E+01
        -0.60556E+01
        -0.92558E+01
        -0.16639E+02
         0.15044E+01
        -0.50146E+00
         0.21753E+01
        -0.39175E+01
        -0.77506E-01
         0.59221E+01
        -0.34090E+01
        -0.45372E+01
         0.35714E+01
         0.66603E+01
        -0.60886E+01
         0.55632E+01
        -0.26072E+01
         0.53885E+01
         0.34204E+01
        -0.73488E+01
        -0.17378E+01
        -0.58862E+01
         0.64920E+01
         0.43486E+01
        -0.38900E+01
        -0.84244E+01
        -0.42597E+01
         0.60277E+01
         0.25788E+01
         0.22914E+01
         0.13556E+02
         0.65460E+01
         0.65381E+01
         0.17624E+02
        -0.49271E+00
         0.16946E+01
        -0.46017E+01
        -0.34425E+01
         0.14194E+02
         0.14698E+01
        -0.78693E+01
        -0.30707E+01
        -0.27596E+01
        -0.74640E+01
        -0.63530E+01
         0.31661E+01
         0.72606E+01
         0.16284E+02
        -0.31234E+00
         0.28326E+01
         0.63273E+01
         0.20402E+01
         0.73186E+01
         0.59711E+00
         0.39827E+01
        -0.12717E+01
        -0.15179E+00
        -0.30607E+01
        -0.58280E+01
         0.75580E+01
         0.67044E+01
         0.55232E+01
         0.10259E+02
         0.83458E+01
        -0.75922E+01
        -0.36642E+01
        -0.26243E+01
        -0.43178E+01
        -0.35312E+01
        -0.10626E+02
        -0.10367E+02
         0.50617E+01
         0.10041E+02
         0.47688E+01
         0.76363E+01
         0.13460E+02
         0.10899E+02
         0.83479E+01
         0.66762E+01
         0.30031E+01
        -0.12130E+01
        -0.41315E+01
        -0.54458E+00
        -0.47414E+01
         0.55584E+01
        -0.40570E+01
        -0.51654E+01
         0.87682E+01
         0.67698E+01
        -0.40273E+01
        -0.26112E+01
        -0.71505E+00
        -0.12052E+02
         0.74917E+01
         0.94209E+01
         0.70579E+01
        -0.31399E+01
        -0.62721E+01
         0.28913E+01
         0.19677E+01
         0.34549E+01
        -0.63634E+01
        -0.53676E+01
        -0.31888E+01
         0.62496E+01
         0.11181E+02
        -0.65876E+00
        -0.29764E+01
         0.62842E-01
         0.80145E+01
         0.69576E+01
         0.96146E+01
         0.47546E+01
         0.14198E+02
         0.54641E+01
        -0.12021E+00
        -0.10822E+02
        -0.53593E+01
         0.45590E+01
         0.11427E+02
         0.11478E+02
         0.23414E+01
         0.57276E+01
        -0.12878E+02
        -0.17869E+02
        -0.36761E+01
        -0.93026E+01
        -0.84430E+01
         0.39827E+01
         0.15289E+01
         0.11339E+02
         0.12613E+01
        -0.81148E+01
        -0.37977E+00
        -0.64720E+00
        -0.68454E+01
        -0.50105E+01
         0.30318E+01
        -0.32752E+01
         0.28223E+01
         0.43477E+00
         0.10782E+02
        -0.34106E+01
         0.31050E+01
         0.81015E+01
         0.54590E+01
         0.12315E+01
        -0.43406E+01
         0.35711E+00
         0.34282E+01
         0.85758E+01
         0.11658E+02
         0.10523E+02
         0.93308E+01
         0.20773E+01
        -0.99165E+01
        -0.13392E+02
        -0.63309E+01
        -0.11099E+01
         0.11099E+02
         0.34153E+00
         0.73179E+01
         0.75608E+01
        -0.19236E-01
        -0.11219E+01
         0.87398E+01
        -0.65693E+01
        -0.95915E+01
         0.50192E+01
        -0.64903E+01
         0.10011E+02
         0.16507E+02
         0.83125E+01
         0.42588E+01
        -0.83730E+01
        -0.53979E+01
        -0.87154E+00
         0.11632E+01
        -0.91730E-02
        -0.19119E+01
         0.95517E+00
        -0.44284E+01
        -0.57099E+01
        -0.32423E+01
         0.87199E+01
         0.19908E+02
        -0.41099E+01
         0.12874E+01
         0.20786E+01
         0.50485E+01
         0.22797E+01
         0.49920E+01
         0.14809E+01
        -0.25182E+01
        -0.93720E+01
        -0.51833E+01
         0.55751E+01
         0.18580E+02
         0.92636E+01
         0.28046E+01
         0.13904E+02
         0.31737E+01
        -0.90980E+01
         0.22604E+01
        -0.39311E+01
         0.31090E+01
        -0.16452E+01
         0.10621E+02
        -0.18482E+01
        -0.15684E+01
        -0.54342E+01
         0.47748E+01
        -0.22809E+01
        -0.96447E+01
        -0.10222E+02
         0.44884E+01
         0.14577E+02
         0.80089E+01
         0.11431E+02
         0.39066E+01
        -0.31577E+00
        -0.16827E+01
        -0.76352E+00
         0.39907E+01
         0.21448E+01
         0.53282E+01
         0.56603E+01
        -0.71719E+01
         0.51332E+01
         0.22450E+01
         0.34375E+01
        -0.12469E+01
        -0.18704E+01
        -0.54592E+00
        -0.39454E+01
        -0.81890E+01
        -0.59081E+01
         0.20474E+01
         0.74130E+00
        -0.39373E+01
        -0.26201E+01
        -0.49440E+01
         0.65841E+00
         0.52333E+01
        -0.21205E+01
        -0.25027E+01
         0.29616E+01
        -0.12393E+02
         0.70779E+01
        -0.16283E+02
        -0.81171E+01
         0.43478E+01
        -0.37489E+01
        -0.40908E+01
        -0.66496E+01
         0.47034E+01
         0.94747E+01
        -0.97595E+00
        -0.57838E+01
        -0.46915E+01
        -0.47034E+01
        -0.24188E+01
         0.42275E+01
         0.23932E+01
        -0.43500E+00
        -0.40476E+01
        -0.66885E+01
        -0.94584E+01
        -0.41753E+01
        -0.68469E+01
         0.37286E+00
         0.27838E+01
         0.83573E+01
         0.87673E+01
         0.75427E+01
         0.10443E+02
         0.32126E+01
         0.88840E+01
         0.96298E+01
         0.91815E+01
         0.15652E+02
        -0.12046E+01
         0.65238E+01
         0.10309E+02
         0.31155E+01
         0.69318E+01
         0.27593E+01
         0.37249E+01
         0.10788E+02
         0.15905E+00
         0.64484E+01
         0.49104E+00
        -0.16264E+01
         0.77018E+01
        -0.45092E+01
        -0.11045E+02
        -0.49164E+01
        -0.93618E+01
        -0.73505E+00
        -0.51793E+01
        -0.44743E+01
        -0.93573E+01
        -0.13106E+02
         0.24242E+00
         0.45281E+01
        -0.29446E+01
        -0.11315E+00
        -0.64856E+00
        -0.10621E+02
        -0.16527E+02
        -0.16700E+02
        -0.19979E+01
         0.10454E+02
         0.72791E+01
         0.34384E+01
        -0.27537E+01
        -0.82997E+00
        -0.65950E+01
        -0.81878E+01
        -0.40435E+01
        -0.87036E-01
        -0.47412E+01
         0.43806E+00
        -0.25393E+01
        -0.93859E+01
        -0.42606E+01
         0.14129E+01
         0.91089E+00
         0.57916E+01
        -0.13410E+01
        -0.12261E+02
        -0.42672E+01
         0.32994E+01
         0.99394E+01
         0.11175E+02
        -0.19645E+01
        -0.44219E+01
         0.14896E+02
         0.14738E+02
         0.15695E+01
        -0.13218E+01
        -0.66088E+01
         0.11384E+01
        -0.27960E+01
        -0.20403E+01
        -0.66234E+01
        -0.19690E+01
        -0.15667E+01
        -0.18907E+00
         0.10386E+01
         0.77261E+01
         0.44822E+01
         0.55673E+01
        -0.10199E+02
        -0.66451E+01
         0.10115E+02
        -0.37022E+01
        -0.71663E+01
         0.11912E+02
        -0.42266E+01
        -0.60376E+01
         0.90779E+00
        -0.94196E+01
        -0.10490E+02
        -0.10399E+02
        -0.13769E+02
         0.99206E+01
        -0.15378E+02
         0.10709E+02
         0.13100E+02
         0.12377E+02
         0.42300E+01
        -0.20707E+02
        -0.15890E+02
        -0.15715E+02
        -0.63078E+01
         0.33456E+01
         0.39425E+01
         0.37991E+00
        -0.24681E+01
        -0.14898E+01
         0.25385E+00
        -0.14603E+01
        -0.36021E+01
        -0.15084E+02
        -0.10737E+02
        -0.88402E+01
        -0.12026E+01
        -0.59214E+01
        -0.96356E+01
        -0.60718E+01
        -0.25165E+00
         0.34545E+01
         0.37352E+01
         0.41861E+01
        -0.24686E+01
         0.55840E+01
        -0.83884E+00
        -0.32000E+01
        -0.33686E+01
        -0.34031E+01
        -0.47866E+01
        -0.90942E+01
         0.12466E+02
         0.31075E+01
         0.14837E+02
         0.46103E+01
         0.31420E+01
        -0.12357E+02
        -0.24883E+01
         0.21942E+00
        -0.56863E+01
        -0.17599E+01
        -0.59751E+01
        -0.78492E+01
        -0.96988E+00
        -0.20412E+01
        -0.51395E+01
         0.54955E+00
        -0.90770E+00
         0.10841E+02
         0.51805E+01
         0.38772E+01
         0.10267E+02
        -0.34357E+01
         0.53893E+01
         0.50460E+01
         0.67669E+01
         0.10931E+02
         0.20865E+01
        -0.83262E+00
        -0.18461E+02
        -0.63350E+01
        -0.57639E-01
        -0.18052E+02
         0.45357E+01
         0.88547E+01
         0.81850E+01
         0.41285E+01
         0.21554E+01
         0.24380E+01
        -0.43208E+01
        -0.19486E+01
        -0.10920E+01
         0.65573E+00
        -0.85167E+00
        -0.19748E+01
         0.12650E+01
         0.14915E+01
        -0.23237E+01
         0.10238E+01
         0.29178E+01
         0.39003E+01
         0.96100E+01
        -0.73729E+01
        -0.94581E+00
         0.19181E+01
        -0.56367E+01
        -0.56322E+01
        -0.14875E+02
        -0.16373E+02
        -0.15494E+02
        -0.16188E+02
        -0.36887E+01
         0.26827E+01
         0.11837E+02
         0.10187E+02
         0.18521E+01
        -0.17418E+01
         0.57383E+01
         0.11464E+02
         0.12113E+02
        -0.67219E+01
        -0.94905E+01
         0.46429E+01
         0.35803E+01
        -0.12524E+01
        -0.14035E+01
         0.31810E+01
         0.17984E+02
         0.55919E+01
         0.11618E+02
         0.39284E+01
        -0.45295E+01
        -0.45519E+01
         0.12971E+02
        -0.66336E+01
        -0.64743E+01
        -0.50382E+01
        -0.37187E+01
         0.56201E+01
         0.59201E+01
        -0.24309E+01
        -0.36423E+01
         0.67932E+01
         0.12071E+02
        -0.57442E+00
        -0.12402E+02
        -0.11760E+01
         0.30865E+00
        -0.82342E+01
        -0.71634E+01
        -0.83116E+01
         0.67502E+00
         0.54919E+01
         0.87688E+01
         0.14407E+01
         0.11471E+02
        -0.26482E+00
         0.72420E+01
         0.82754E+01
        -0.25160E+01
         0.20882E+01
         0.55632E+01
         0.15587E+01
        -0.44143E+01
         0.50177E+01
        -0.43013E+01
         0.11339E+02
         0.10423E+02
         0.76363E+01
         0.11330E+02
         0.28086E+01
         0.10129E+02
        -0.37851E+01
        -0.70654E+01
        -0.72695E+01
        -0.62492E+01
         0.86522E+01
         0.74826E+01
         0.30788E+01
         0.12662E+01
        -0.87037E+01
        -0.51315E+01
         0.31606E+01
        -0.23585E+01
        -0.65208E+01
        -0.31180E+01
         0.37479E+01
         0.26935E+01
         0.62907E+01
         0.33451E+01
         0.33049E+00
        -0.42159E+01
         0.39778E+00
         0.44331E+01
         0.25523E+01
         0.46939E+01
         0.10212E+02
         0.11624E+02
         0.30870E+00
        -0.21266E+00
         0.13825E+01
        -0.21137E+01
        -0.69379E+01
        -0.55734E+01
        -0.40727E+01
        -0.36138E+00
        -0.21392E+01
        -0.59513E+01
         0.29998E+01
         0.10622E+01
         0.12493E+02
         0.83566E+01
         0.43748E+01
         0.14669E+01
        -0.10312E+01
         0.61131E+01
         0.31891E+01
         0.17785E+01
         0.70361E+00
         0.34804E+01
         0.68773E+01
         0.79996E+01
         0.30759E+01
        -0.39810E+01
        -0.42536E+01
        -0.58109E+00
        -0.30369E+01
        -0.54705E+01
        -0.37754E+01
         0.84343E+00
         0.95140E+00
         0.17102E+01
        -0.18137E+01
         0.93022E+01
        -0.37696E+00
         0.63440E+01
         0.59446E+01
        -0.35332E+01
         0.56067E+01
        -0.59810E+00
        -0.54513E+01
        -0.19941E+01
        -0.13630E+02
        -0.19802E+02
        -0.68527E+00
        -0.17908E+00
         0.62305E+01
         0.13315E+01
         0.39217E+01
         0.37737E+01
        -0.49088E+01
        -0.68981E+01
        -0.54269E+01
        -0.84862E+01
         0.70475E+01
         0.32366E+01
         0.64362E+01
         0.43474E+01
         0.30185E+01
         0.65433E+01
         0.80074E+01
        -0.57127E+01
        -0.68320E+01
         0.42280E+01
         0.87606E+01
         0.25568E+01
         0.18439E+01
         0.64114E+01
         0.75805E+00
        -0.81172E+01
        -0.64690E+01
         0.42149E+00
         0.33924E+01
         0.55870E+01
         0.78026E+01
         0.11191E+02
         0.85788E+01
        -0.13202E+01
         0.82106E+01
        -0.12602E+01
        -0.11513E+02
        -0.40752E+01
         0.60428E+01
        -0.12503E+02
         0.16560E+01
        -0.28185E+01
        -0.74176E+01
        -0.10966E+02
        -0.34411E+01
        -0.26665E+01
         0.56674E+00
        -0.36661E+01
        -0.42946E+01
         0.86531E+01
         0.15472E+01
        -0.30118E+01
        -0.93257E+00
        -0.34975E+01
        -0.41817E+01
        -0.21457E+01
         0.11254E+01
        -0.39116E+01
        -0.46094E+01
        -0.19426E+01
        -0.56753E+01
        -0.72374E+01
        -0.96169E+01
        -0.58137E+01
        -0.82578E+00
        -0.24856E+01
        -0.30229E+01
        -0.11891E+01
        -0.40865E+01
        -0.13698E+02
        -0.41538E+01
        -0.50690E+01
        -0.84269E+01
        -0.38374E+01
        -0.41387E+01
        -0.31246E+01
        -0.41139E+01
        -0.81334E+01
         0.14146E+02
         0.82764E+01
         0.16778E+02
         0.45922E+01
        -0.11378E+01
        -0.99520E+00
        -0.61625E+01
        -0.53372E+01
        -0.27204E+01
        -0.43594E+01
         0.85302E-01
        -0.12590E+01
         0.32422E+01
         0.36546E+01
        -0.66121E+01
         0.10740E+01
         0.62255E+01
        -0.13440E+01
         0.10871E+00
        -0.27917E+01
        -0.33548E+01
        -0.32173E+01
         0.34072E+01
         0.83412E+01
         0.20929E+01
         0.26853E+01
         0.19893E+01
         0.73607E+01
         0.13599E+02
         0.12391E+02
         0.70242E+01
         0.35108E+01
        -0.73800E+01
        -0.24864E+01
         0.27456E+01
         0.91122E+01
        -0.61352E+01
        -0.12167E+02
        -0.84144E+00
        -0.63659E+01
         0.10918E+02
         0.10091E+02
         0.29098E+01
         0.24806E+00
         0.47272E+01
         0.82852E+01
        -0.35949E+01
        -0.73161E+01
        -0.54071E+01
         0.63316E+01
         0.97177E+01
        -0.82895E+00
        -0.22817E+01
         0.23699E+01
         0.35168E+01
        -0.15628E+01
        -0.21750E+01
        -0.32548E+01
        -0.59783E+01
        -0.89877E+01
        -0.72315E+01
        -0.38147E+01
        -0.49826E+01
         0.44071E+01
        -0.36957E+01
        -0.84773E+01
         0.23108E+01
        -0.71535E+01
         0.56860E+01
        -0.45086E+01
        -0.24223E+01
         0.44976E+01
        -0.63630E+01
        -0.42220E+01
         0.43802E+01
         0.34260E+01
        -0.53350E+01
        -0.97560E+01
         0.46970E+01
        -0.26766E+01
         0.24953E+01
        -0.67620E+01
        -0.71686E+01
        -0.11654E+02
        -0.11333E+01
        -0.18334E+01
        -0.12687E+01
        -0.96954E+01
        -0.11489E+02
        -0.77113E+01
        -0.45549E+01
         0.33720E+01
        -0.50940E+01
        -0.18844E+01
         0.19518E-01
        -0.58748E+00
         0.29716E+01
        -0.36418E+01
        -0.72991E+01
        -0.51284E+01
        -0.24200E+00
        -0.51247E+01
        -0.18409E+01
         0.99375E+01
         0.86508E+01
         0.46182E+01
         0.49578E+01
         0.47702E+01
         0.43289E+01
         0.10619E+02
        -0.65807E+01
        -0.11611E+01
        -0.32943E+01
        -0.44014E+00
         0.13387E+01
         0.55969E+01
        -0.46515E+01
         0.61544E+01
         0.12105E+02
         0.14713E+02
         0.12859E+02
        -0.52321E+01
        -0.30150E+01
         0.42835E+01
         0.51831E+01
         0.40132E+01
         0.17283E+01
        -0.71875E+00
        -0.76381E+00
        -0.93628E+01
        -0.10131E+02
         0.20243E+00
        -0.79547E+00
        -0.37565E+00
         0.65772E+01
        -0.10296E+00
  
SCALARS                         fint_z  double 1
LOOKUP_TABLE default
         0.60280E+01
        -0.37348E+01
         0.49068E+01
         0.25583E+00
         0.10824E+03
        -0.19337E+03
        -0.25271E+03
        -0.38602E+03
         0.21901E+01
         0.10180E+01
         0.24431E+02
        -0.16650E+03
        -0.20649E+02
        -0.65708E+01
        -0.24576E+03
         0.94073E+01
        -0.62332E+00
         0.14283E+02
         0.79870E+02
         0.13665E+03
        -0.53754E+01
         0.15816E+02
         0.46404E+01
        -0.97081E+02
         0.27697E+01
        -0.13736E+01
        -0.83521E+01
         0.24072E+02
        -0.16255E+03
         0.75984E+02
        -0.12627E+02
        -0.16432E+02
        -0.32226E+01
         0.33445E+02
         0.20043E+03
        -0.84683E+02
        -0.56600E+01
         0.16317E-01
        -0.39404E+03
        -0.14907E+03
         0.14322E+02
         0.11077E+02
         0.18103E+03
        -0.90547E+02
         0.56356E+01
        -0.87678E+01
        -0.85029E+02
        -0.25840E+03
         0.10572E+02
         0.57721E+02
        -0.42874E+01
        -0.37849E+03
        -0.67446E+00
         0.44452E+00
         0.78800E+01
        -0.23914E+03
         0.22026E+01
        -0.18620E+01
        -0.11427E+03
        -0.23605E+03
         0.25494E+01
         0.11415E+01
        -0.62284E+03
         0.29182E+02
         0.11916E+01
        -0.59979E+03
        -0.90573E+01
        -0.34975E+03
         0.64408E+01
         0.61816E+01
         0.42319E+02
        -0.85807E+02
        -0.19979E+01
         0.16339E+03
         0.76024E+01
        -0.11399E+03
        -0.46148E+01
        -0.80786E+01
        -0.33874E+01
        -0.10930E+03
         0.37220E+01
         0.48137E+01
         0.16939E+03
        -0.14853E+02
        -0.14871E+01
         0.93303E+02
         0.41308E+01
         0.39276E+02
         0.54922E+01
        -0.84916E+00
        -0.75384E+01
        -0.50015E-01
        -0.65234E+00
         0.20790E+02
         0.13867E+02
         0.45139E+01
        -0.75388E+01
         0.30736E+03
        -0.15989E+02
        -0.31114E+02
        -0.31288E+01
        -0.32086E+01
         0.58153E+02
         0.61136E+02
        -0.70813E+01
         0.14450E+01
         0.12276E+03
         0.48496E+02
         0.22368E+01
        -0.27543E+02
         0.34892E+01
         0.69757E+02
         0.45925E+01
        -0.63937E+02
        -0.10754E+02
         0.11093E+03
        -0.14522E+02
         0.16909E+03
         0.40918E+01
         0.73460E+02
        -0.46240E+01
         0.99306E+02
         0.72870E+01
        -0.66120E+02
        -0.12370E+01
         0.99097E+02
        -0.11757E+00
        -0.51392E+02
         0.18252E+00
         0.28009E+02
        -0.43651E+01
         0.11472E+03
         0.10868E+00
         0.13201E+03
        -0.33827E+01
         0.12263E+03
         0.59979E+00
         0.61422E+02
         0.15119E+01
         0.80167E+02
         0.59440E+01
        -0.96202E+02
        -0.35163E+01
         0.15151E+03
         0.15595E+01
         0.83761E+01
         0.77744E+01
         0.28621E+01
         0.42734E+01
         0.63891E+02
         0.52986E+01
         0.20812E+01
        -0.10074E+01
         0.82189E+02
         0.34683E+01
         0.82059E+02
        -0.37339E+01
        -0.60411E+01
        -0.32753E+00
         0.21489E+01
        -0.56005E+01
        -0.12232E+02
        -0.17059E+02
        -0.68918E+01
         0.66697E+01
         0.14523E+02
        -0.84386E+01
         0.92613E+01
         0.57701E+01
        -0.49633E+01
         0.14335E+02
         0.52521E+00
         0.67407E+01
         0.14860E+02
        -0.70564E+01
        -0.25349E+00
         0.65604E+01
         0.93215E+01
         0.11310E+02
        -0.69398E+01
         0.23790E+02
        -0.74076E+01
        -0.58176E+01
         0.42134E+01
         0.64588E+01
         0.49760E+01
        -0.11543E+01
        -0.10826E+02
         0.15549E+02
         0.69006E+01
         0.87582E+01
         0.12065E+02
         0.75367E+01
         0.40271E+01
        -0.50763E+01
         0.81592E+00
         0.14246E+01
         0.36145E+01
         0.45280E+00
         0.10453E+02
         0.14383E+01
        -0.24130E+01
        -0.11107E+02
         0.34780E+01
         0.96372E+01
         0.42981E+01
        -0.65616E+01
        -0.11571E+02
        -0.34748E+01
        -0.72683E+00
        -0.51529E+01
        -0.50136E+01
         0.22401E+01
         0.73657E+00
         0.11719E+02
         0.63071E+01
        -0.95581E+01
         0.27571E+00
        -0.29123E+01
        -0.88008E+00
         0.80557E+00
         0.42939E+01
         0.29655E+01
         0.23296E+01
        -0.27767E+00
        -0.21598E+01
         0.36645E+01
        -0.88978E+00
        -0.10991E+01
        -0.33487E+01
        -0.88563E-01
        -0.69833E+00
         0.76757E+01
         0.40678E+01
         0.78742E+01
         0.60759E+00
         0.16302E+01
         0.62274E+01
         0.15447E+01
         0.67705E+01
         0.85927E+00
         0.11000E+02
         0.16119E+02
         0.91807E+01
        -0.70633E+00
        -0.80350E+01
         0.51719E+01
         0.13089E+02
        -0.11251E+02
         0.37857E+01
         0.15963E+02
         0.15161E+02
        -0.86061E+01
        -0.37517E+01
        -0.15350E+02
        -0.85891E+01
         0.12953E+02
        -0.25994E+01
         0.90446E+01
        -0.31469E+01
        -0.63199E+01
        -0.11515E+02
         0.16396E+02
         0.88225E+01
        -0.93259E+01
        -0.92068E+01
         0.52395E+01
         0.14956E+02
        -0.59677E+01
         0.97724E+00
         0.71375E+01
         0.20340E+01
         0.44418E+01
         0.13579E+02
         0.38424E+00
        -0.34892E+01
         0.69149E+01
         0.16257E+02
         0.65500E+01
         0.51781E+01
        -0.28793E+01
         0.13613E+02
         0.19384E+02
         0.37494E+01
        -0.19344E+02
        -0.49196E+01
        -0.17329E+00
         0.21127E+01
        -0.13321E+01
         0.75658E+01
        -0.15772E+01
        -0.39975E+01
        -0.49677E+01
        -0.13830E+02
         0.66783E+01
        -0.45046E+01
         0.64450E-01
         0.15967E+01
         0.21561E+01
        -0.12629E+01
        -0.11157E+02
        -0.31896E+01
        -0.42804E+01
         0.48023E+01
        -0.13859E+01
        -0.32179E+01
         0.87657E+01
         0.18353E+01
         0.30439E+01
        -0.43565E+01
         0.41592E+01
        -0.34211E+01
        -0.11559E+02
        -0.63268E+01
        -0.23992E+01
        -0.11330E+02
         0.11101E+02
         0.16779E+02
        -0.15853E+01
        -0.64034E+01
         0.40479E+01
        -0.40277E+01
         0.27988E+01
         0.30710E+01
         0.13739E+02
         0.95502E+01
        -0.73010E+00
        -0.63499E+01
         0.18986E+02
        -0.76929E+01
        -0.49840E+01
         0.54531E+01
         0.22841E+01
         0.15327E+01
         0.21802E+02
         0.14883E+01
        -0.19109E+01
        -0.28885E+01
        -0.66207E+01
        -0.19038E+02
         0.12190E+02
         0.16826E+02
        -0.19616E+02
        -0.12460E+02
        -0.12131E+02
         0.55271E+01
        -0.54891E-01
         0.51979E+01
         0.12988E+02
         0.76368E+01
         0.12375E+02
         0.13896E+02
        -0.68655E+01
        -0.19260E+02
         0.56201E+01
         0.17025E+02
         0.50360E+01
         0.95760E+00
        -0.64643E+00
         0.16265E+02
         0.20605E+02
         0.88876E+01
        -0.37306E+01
         0.57337E+01
        -0.19356E+01
         0.76108E+01
        -0.44132E+01
         0.12612E+00
        -0.72542E+01
         0.70423E+00
         0.68559E+01
         0.11576E+02
        -0.35679E-01
        -0.10008E+02
         0.10050E+02
        -0.40129E+01
        -0.31479E+01
         0.82630E+01
         0.51003E+01
         0.11325E+02
        -0.32684E+01
        -0.49217E+01
         0.16934E+01
        -0.58461E+01
         0.27287E+01
        -0.50455E+01
         0.74131E+00
         0.98569E+01
         0.45839E+01
        -0.96695E+01
         0.19611E+02
         0.10815E+02
         0.89487E+01
         0.13741E+02
         0.92822E+01
         0.50928E+01
         0.34994E+01
         0.62904E+01
         0.25836E+02
         0.30727E+01
         0.18306E+01
         0.35555E+01
         0.10024E+02
         0.74624E+01
        -0.15857E+01
         0.14484E+01
         0.75884E+01
         0.19526E+02
        -0.19876E+02
        -0.16709E+02
         0.35848E+01
         0.15745E+02
         0.13508E+02
        -0.80201E+00
        -0.77640E+01
         0.21427E+01
        -0.40952E+01
        -0.84609E+01
         0.16275E+02
         0.77825E+01
        -0.44974E+01
        -0.18876E+01
         0.15684E+01
         0.42457E+01
         0.33774E+01
         0.92639E+01
         0.10524E+02
        -0.65560E+01
         0.36703E+01
         0.14341E+02
        -0.21545E+01
         0.60294E+01
         0.25021E+02
         0.18912E+02
         0.12061E+02
         0.58322E+01
        -0.64009E+00
         0.45487E+01
         0.27110E+01
        -0.82021E+01
        -0.86108E+01
        -0.49658E+01
         0.22428E+01
        -0.22837E+01
         0.40958E+01
         0.20460E+01
         0.26353E+01
        -0.51067E+01
        -0.11826E+02
         0.55214E+00
        -0.12792E+02
        -0.26156E+01
        -0.40198E+01
        -0.12138E+02
         0.79667E+01
         0.51414E+01
        -0.57006E+01
        -0.15129E+01
        -0.85536E+00
        -0.18547E+01
         0.16661E+02
         0.21424E+01
         0.79747E+01
         0.50042E+01
        -0.66337E+01
         0.13103E+01
         0.21187E+01
        -0.10102E+02
         0.16149E+02
         0.13958E+02
         0.10274E+02
         0.14577E+02
        -0.44682E+00
        -0.28106E+01
         0.41919E+01
         0.69939E+01
         0.10422E+02
         0.16372E+01
         0.63363E-01
         0.50813E+01
         0.61415E+01
         0.88417E+01
         0.51272E+01
        -0.74334E+01
        -0.12064E+01
         0.33826E+01
        -0.51596E+01
        -0.26275E+01
         0.60380E+01
         0.90093E+01
         0.91759E+01
         0.75608E+01
         0.28103E+00
         0.41599E+01
         0.82284E+01
         0.14636E+01
         0.30974E+01
         0.52148E+01
        -0.24840E+01
         0.20889E+01
        -0.25754E+00
         0.86940E+01
        -0.37637E+01
         0.54237E+01
         0.61729E+01
         0.60787E+01
         0.11981E+01
         0.12235E+01
        -0.28042E+00
         0.14800E+02
         0.23532E+02
         0.72902E+01
         0.25420E+01
         0.17430E+01
         0.11661E+01
        -0.50296E+01
        -0.12369E+02
        -0.90587E+01
         0.30509E+01
         0.14242E+01
        -0.36335E+01
        -0.51284E+01
        -0.13540E+01
        -0.31237E+00
         0.58648E+01
        -0.18658E+00
        -0.34625E+01
         0.95263E+01
        -0.36091E+01
         0.16051E+01
         0.19946E+01
        -0.11304E+02
         0.12894E+02
         0.10606E+00
        -0.33555E+01
        -0.51566E+01
         0.45213E+00
        -0.50741E+01
        -0.14627E+01
        -0.11157E+02
        -0.87400E+01
         0.42590E+01
         0.66633E+01
         0.87133E+01
         0.28005E+01
        -0.31780E+01
         0.13347E+02
         0.17255E+02
         0.10035E+02
         0.12647E+02
        -0.84115E+01
        -0.96190E+01
         0.82395E+01
         0.50834E+01
         0.64408E+01
        -0.18803E+01
        -0.15766E+01
         0.52330E+01
         0.13580E+02
         0.46023E+00
        -0.29559E+01
        -0.26809E+01
         0.31587E+01
         0.70383E+01
         0.39482E+01
         0.41322E+01
         0.10996E+02
        -0.72750E+01
         0.54294E+01
         0.96930E+01
         0.37049E+01
         0.10347E+02
         0.62260E+01
         0.10522E+02
         0.16734E+01
        -0.17608E+01
         0.14167E+02
         0.15236E+02
         0.18783E+02
         0.26288E+02
         0.59498E+01
         0.19377E+02
         0.20584E+02
        -0.42863E+01
        -0.84111E+00
         0.22864E+00
         0.43111E+01
         0.20937E+01
        -0.15392E+02
         0.22444E+01
         0.10804E+02
         0.13478E+02
         0.13983E+02
         0.33054E+01
        -0.44224E+01
         0.86961E+00
         0.88423E+01
         0.10994E+02
         0.91862E+00
         0.28179E-02
         0.87172E+01
         0.40052E+01
         0.10305E+01
        -0.90745E+00
        -0.48541E+01
        -0.56343E+01
        -0.52331E+01
        -0.48634E+01
         0.66327E+01
        -0.59369E+01
         0.13174E+02
         0.42224E+01
         0.10335E+02
         0.33174E+01
         0.42407E+01
         0.86956E+01
         0.66734E+01
        -0.66837E+00
         0.25644E+01
         0.43584E+01
         0.45972E+00
         0.59517E-01
         0.32335E+00
         0.32161E+01
         0.87243E+00
         0.63972E+00
         0.70127E+00
        -0.57519E+01
        -0.24569E+01
        -0.20581E+01
         0.71296E+01
         0.11055E+02
        -0.39502E+01
         0.50218E+00
         0.10160E+02
         0.83758E+01
         0.38883E+01
         0.12144E+02
         0.25605E+01
        -0.13268E+02
        -0.10394E+02
        -0.12028E+02
        -0.77205E+01
        -0.13091E+02
         0.14996E+02
         0.14852E+02
         0.36760E+01
         0.66544E+01
        -0.17100E+01
         0.12240E+02
         0.13516E+02
         0.23597E+02
         0.12817E+02
        -0.18352E+01
        -0.36094E+01
         0.11316E+02
        -0.66218E+01
         0.87721E+01
         0.12790E+02
         0.13781E+02
         0.49727E+01
        -0.91547E+01
        -0.62726E+01
        -0.17766E+01
        -0.39728E+01
        -0.88094E+00
        -0.52484E+01
         0.53485E+01
         0.12752E+02
         0.81480E+01
        -0.99958E+00
        -0.13189E+02
        -0.13127E+02
        -0.47072E+01
         0.69363E-01
         0.88568E+01
        -0.46491E+01
        -0.10697E+02
         0.87505E+01
         0.18626E+01
        -0.22006E+01
         0.19394E+01
         0.32128E+01
        -0.16973E+01
         0.16669E+01
         0.22438E+01
        -0.34269E+01
        -0.79630E+01
         0.88590E+01
        -0.21479E+01
        -0.49551E+01
         0.79822E+00
        -0.44288E+01
         0.26791E+01
        -0.13422E+01
        -0.97546E+01
        -0.20479E+01
         0.55956E+01
         0.56782E+01
        -0.60992E+00
         0.22978E+01
         0.54618E+01
         0.33040E+01
        -0.69699E+01
        -0.55610E+01
        -0.44587E+01
         0.29082E+01
         0.14428E+01
         0.22443E+01
         0.52232E+01
         0.12424E+02
        -0.87732E+01
         0.70621E+01
         0.62535E+01
         0.34428E+01
         0.93516E+01
        -0.49319E+01
         0.22980E+02
         0.72396E+01
         0.14461E+02
         0.64370E+01
        -0.63852E+01
         0.23703E+02
         0.28693E+02
         0.10545E+02
         0.17805E+02
        -0.16662E+02
         0.25714E+02
         0.97364E+01
         0.13962E+02
         0.62583E+01
         0.14612E+01
         0.93386E+01
         0.12597E+02
         0.52434E+01
         0.56584E+01
         0.12925E+02
         0.59017E+01
        -0.10714E+01
        -0.93577E+01
        -0.63472E+01
        -0.73311E+01
        -0.16408E+02
        -0.16697E+02
         0.78546E-01
         0.75327E+01
         0.10183E+02
         0.42733E+01
        -0.94725E+01
        -0.10441E+02
         0.27181E+01
         0.33421E+01
        -0.74955E+01
         0.10022E-01
        -0.18589E+01
        -0.78680E+01
         0.25958E+01
        -0.18939E+01
        -0.40335E+01
         0.22291E+01
         0.10019E+02
         0.17828E+01
        -0.70387E+01
         0.54320E+01
         0.13599E+01
         0.51247E+01
         0.41165E+01
         0.24908E+01
         0.36821E+01
         0.10472E+02
        -0.43586E+00
         0.11428E+02
         0.58866E+01
         0.51778E+01
         0.48439E+01
        -0.82810E+00
         0.19173E+01
        -0.23709E+01
         0.45070E+01
         0.60732E+01
         0.55169E+01
        -0.36903E+01
        -0.50825E+01
        -0.46550E+01
         0.39949E+01
         0.57804E+01
         0.21820E+01
         0.38717E+01
         0.19358E+02
        -0.39143E+01
        -0.35561E+01
         0.17553E+01
         0.84237E+01
        -0.22956E+01
        -0.67265E+01
         0.68345E+01
         0.19827E+02
         0.13261E+01
        -0.91956E+01
        -0.27473E+01
        -0.40668E+01
         0.14752E+02
        -0.33190E+01
         0.45868E+00
         0.84856E+00
         0.13782E+02
         0.26691E+01
         0.13819E+02
         0.12217E+02
         0.15965E+02
        -0.83712E+01
        -0.77571E+00
        -0.80054E+01
         0.82202E+01
         0.38898E+01
        -0.14415E+01
         0.13769E+01
         0.11737E+02
         0.20944E+02
         0.12976E+02
        -0.98384E+01
        -0.14708E+02
         0.38115E+01
         0.29789E+01
         0.17509E+01
        -0.52742E+01
        -0.14884E+02
        -0.92741E+01
         0.11870E+02
         0.13750E+02
        -0.32188E+01
         0.36662E+01
         0.17335E+01
         0.48511E+00
        -0.52655E+01
         0.54792E+01
         0.11145E+02
        -0.18568E+01
        -0.13515E+01
         0.31660E+01
        -0.63480E+01
         0.12108E+02
        -0.16940E+01
        -0.48636E+01
        -0.30698E+01
         0.21376E+01
        -0.14353E+00
         0.10504E+02
        -0.16106E+01
        -0.40793E+01
        -0.12448E+01
        -0.93239E+00
        -0.66744E+01
        -0.54154E+01
         0.51262E+01
        -0.18020E+01
        -0.55395E+01
        -0.37620E+01
         0.44788E+01
         0.28673E+01
         0.83010E+01
        -0.73252E+01
         0.13404E+02
         0.26268E+01
         0.13551E+01
         0.41681E+01
         0.10695E+02
        -0.36227E+00
        -0.55285E+01
        -0.43846E+01
        -0.28084E+01
        -0.36750E+01
         0.87523E-01
        -0.63066E+01
         0.19808E+02
        -0.17214E+02
        -0.16334E+02
        -0.23612E+00
        -0.19025E+01
         0.25913E+02
         0.50738E+01
        -0.30125E+01
         0.16480E+02
         0.16821E+02
        -0.62018E+00
         0.51465E+01
        -0.42081E+01
         0.22357E+02
        -0.61618E+01
         0.12124E+02
        -0.16693E+02
        -0.31629E+00
         0.12652E+02
         0.68026E+01
        -0.18460E+01
         0.16726E+02
         0.42167E+01
        -0.98213E+01
        -0.21317E+02
        -0.18693E+02
         0.16085E+02
         0.15677E+02
         0.94451E+01
         0.14641E+01
         0.65983E+01
         0.80962E+01
         0.13196E+02
         0.10879E+02
         0.13721E+00
         0.20889E+00
         0.29670E+01
         0.30355E+01
        -0.63507E+01
         0.56460E+01
         0.10994E+02
        -0.56236E+01
         0.33121E+01
         0.55073E+01
        -0.15059E+02
         0.14286E+02
         0.39979E+01
        -0.57756E+01
         0.46904E+01
         0.12193E+02
        -0.30506E+01
         0.13696E+02
         0.15145E+02
        -0.85394E+01
        -0.17022E+01
         0.85032E+01
         0.22263E+01
         0.77256E+01
         0.94692E+01
         0.26425E+01
         0.89072E+01
         0.49077E+01
         0.15658E+02
         0.10195E+02
         0.72440E+01
         0.29483E+01
        -0.10468E+00
        -0.21038E+02
         0.13782E+01
        -0.14265E+01
         0.22263E+02
        -0.78913E+01
        -0.45358E+01
         0.13395E+02
         0.74426E+01
        -0.33957E+01
         0.12433E+02
         0.10738E+02
         0.19918E+02
         0.14016E+02
        -0.13014E+02
        -0.57591E+01
         0.10995E+02
         0.23335E+02
         0.11167E+02
         0.30449E+00
         0.56740E+01
         0.13142E+02
         0.22924E+01
         0.84790E+01
        -0.15250E+01
         0.14600E+02
         0.29427E+00
         0.46586E+01
         0.13154E+01
         0.78719E+01
         0.12805E+02
         0.98402E+01
         0.25783E+01
         0.22611E+02
         0.64692E+01
        -0.57190E+01
        -0.16120E+02
        -0.20876E+02
         0.20754E+01
         0.95185E+01
        -0.12790E+01
        -0.28418E+01
        -0.25933E+01
        -0.83782E+00
         0.11810E+02
         0.11617E+02
        -0.35624E+01
        -0.17094E+02
         0.47557E+01
        -0.76931E+00
        -0.34448E+01
        -0.49444E+00
         0.29568E+01
        -0.99967E+01
        -0.55928E+01
         0.15671E+02
        -0.31567E+01
         0.17619E+02
         0.65041E+01
        -0.10481E+02
        -0.10011E+02
        -0.13036E+01
        -0.12996E+02
        -0.81398E+01
        -0.58500E+00
        -0.12135E+02
        -0.27703E+00
         0.12756E+01
        -0.10455E+02
         0.57072E+00
         0.26817E+01
         0.27086E+01
         0.78049E+01
        -0.25238E+01
         0.43914E+01
        -0.17906E+01
         0.94611E+00
         0.10216E+02
         0.32822E+00
        -0.29270E+01
        -0.61253E+01
        -0.41671E+01
         0.96260E+01
        -0.87844E+01
        -0.50135E+01
         0.18551E+02
         0.40319E+01
         0.95904E+00
         0.17155E+02
        -0.12616E+02
         0.91158E+01
         0.26916E+01
        -0.10783E+02
         0.44160E+01
         0.11605E+02
         0.15047E+02
         0.96121E+01
        -0.39395E+01
         0.71024E+01
        -0.36752E+01
         0.75403E+01
         0.11345E+02
         0.86375E+01
         0.25613E+02
        -0.22004E+02
        -0.10521E+02
        -0.65582E+01
         0.25293E+02
         0.53747E+01
        -0.70369E+00
        -0.81291E+01
         0.23282E+02
        -0.98010E+00
        -0.65341E+01
        -0.61084E+01
        -0.66921E+01
         0.45495E+01
         0.13126E+01
        -0.40269E+01
         0.27711E+01
        -0.41563E+01
        -0.13299E+02
        -0.23030E+01
         0.10833E+02
         0.11367E+01
         0.78589E+00
         0.75118E+01
         0.23573E+01
         0.21302E+01
        -0.78418E+00
         0.15656E+01
        -0.49201E+01
        -0.37002E+01
         0.16989E+02
        -0.10670E+02
         0.52921E+01
         0.13698E+02
        -0.75047E+01
        -0.13830E+01
         0.13596E+02
         0.11866E+02
         0.79597E+01
         0.55401E+01
         0.25252E+00
         0.56336E+01
        -0.47848E+01
        -0.13840E+02
        -0.47720E+01
        -0.10997E+01
         0.17816E+01
         0.16591E+01
        -0.46977E+01
         0.44643E+01
        -0.96376E+01
        -0.14462E+02
         0.71819E+01
        -0.12082E+02
        -0.78491E+01
         0.93685E+00
         0.95092E+01
         0.10605E+02
         0.10313E+01
         0.74194E+01
         0.17536E+02
        -0.48614E+01
         0.10402E+02
         0.87402E+01
        -0.36877E+01
         0.12358E+02
         0.62742E+01
         0.27465E+01
         0.82730E+01
         0.74451E+01
        -0.64278E+01
         0.64301E+01
         0.69802E+01
         0.12812E+02
         0.56194E+01
         0.49884E+01
         0.40882E+00
        -0.67467E+01
         0.16714E+02
        -0.83168E+01
         0.35353E+00
         0.10741E+01
         0.24343E+02
        -0.10666E+02
        -0.21231E+02
        -0.25824E+02
         0.97742E+01
        -0.10677E+02
        -0.17898E+02
        -0.13811E+02
        -0.87326E+01
        -0.67205E+01
        -0.28096E+01
        -0.28574E+01
         0.57812E+01
         0.52853E+01
        -0.60301E+01
        -0.80684E+01
        -0.24745E+01
        -0.12363E+02
        -0.75462E+01
         0.82507E+01
         0.37218E+01
         0.37514E+01
        -0.30972E+01
        -0.12189E+01
         0.61698E+01
         0.77994E+01
         0.10681E+02
         0.41959E+01
         0.11429E+02
         0.10431E+02
        -0.57681E+01
         0.72459E+01
         0.24626E+01
        -0.20739E+01
        -0.11130E+02
        -0.83129E+01
        -0.80263E+00
         0.38952E+01
         0.41733E+01
        -0.47040E-01
        -0.60330E+00
        -0.11677E+01
         0.20332E+01
         0.95819E+01
         0.76123E+01
        -0.11297E+02
        -0.47591E+01
         0.35288E+01
         0.10781E+02
         0.73541E+01
         0.92003E+01
         0.66260E-01
        -0.32111E+01
        -0.24709E+02
        -0.18317E+02
         0.24750E+01
         0.73163E+01
        -0.46715E+01
         0.77275E+00
        -0.91280E+01
        -0.15131E+02
        -0.16171E+02
        -0.12317E+02
         0.36468E+01
        -0.75374E+00
        -0.33442E+00
        -0.70875E+01
         0.31483E+00
         0.11088E+02
        -0.12435E+01
         0.58566E+01
         0.44923E+01
         0.15355E+02
        -0.27947E+01
         0.47416E+01
        -0.81289E+01
        -0.38961E+01
         0.64595E+01
         0.36944E+02
         0.31085E+01
        -0.39368E+01
        -0.14640E+02
         0.99998E+01
         0.18841E+02
        -0.92730E+00
        -0.17511E+02
        -0.11884E+02
        -0.38910E+01
        -0.42529E+01
        -0.59331E+01
        -0.13061E+00
        -0.36906E+01
        -0.51870E+01
         0.75127E+01
         0.13278E+02
        -0.98658E+01
        -0.63128E+00
         0.11334E+02
         0.13029E+01
         0.11479E+02
         0.61700E+00
        -0.99145E+01
        -0.76025E+01
        -0.47339E+01
        -0.11298E+02
        -0.59699E+01
        -0.58576E+00
         0.26039E+01
        -0.17794E+01
         0.11778E+01
        -0.12224E+02
         0.22800E+01
        -0.10693E+01
        -0.45133E+00
         0.52828E+01
         0.10608E+02
         0.69611E+01
        -0.51496E+01
         0.37093E+01
         0.94436E+01
        -0.35124E+00
         0.57863E+01
         0.47996E+01
        -0.83615E+00
         0.78348E+01
         0.16109E+02
         0.72545E+01
         0.95569E+01
         0.55064E+01
         0.30511E+01
         0.43085E+01
        -0.10370E+02
        -0.44439E+01
        -0.12092E+02
        -0.16900E+01
         0.47128E+01
        -0.84172E+01
        -0.19202E+02
         0.25963E+01
        -0.20985E+01
        -0.59297E+01
         0.33511E+01
         0.20702E+01
         0.24068E+01
         0.13360E+02
         0.11770E-01
         0.92660E+01
         0.75328E+01
         0.15231E+02
         0.72894E+01
         0.20020E+02
        -0.66100E+01
         0.10030E+02
         0.27894E+01
         0.75171E+01
         0.54135E+01
         0.19962E+02
         0.81179E+01
         0.16613E+02
         0.10204E+02
         0.14864E+02
         0.23431E+02
        -0.31839E+01
        -0.22393E+02
        -0.17813E+02
         0.96778E+01
         0.33367E+00
        -0.17815E+01
        -0.14969E+01
        -0.19495E+01
         0.92039E+00
         0.60885E+01
         0.70159E+01
        -0.90199E+01
        -0.26962E+01
        -0.55989E+01
        -0.61415E+01
         0.38002E+01
         0.68160E+01
         0.17287E+01
         0.59527E+00
         0.11590E+02
         0.94842E+01
         0.19003E+00
         0.70728E+01
         0.18984E+02
         0.76793E+01
        -0.37365E+01
        -0.79789E+01
         0.57965E+01
         0.13724E+01
         0.44860E+01
         0.79054E+01
         0.96139E+01
         0.36052E+01
         0.22178E+01
         0.95208E+01
         0.65075E+01
        -0.39758E+01
         0.47419E+01
         0.64341E+01
         0.11116E+02
        -0.11943E+01
        -0.18294E+01
        -0.17895E+01
         0.20787E+01
        -0.26465E+01
         0.67886E+01
         0.18806E+02
         0.26924E+02
         0.21627E+02
        -0.18351E+01
         0.18011E+02
         0.11978E+02
        -0.67503E+01
        -0.56040E+01
         0.15675E+02
         0.28118E+02
         0.10007E+02
        -0.11226E+01
        -0.66322E+01
         0.96485E+01
         0.87584E+01
         0.10511E+02
         0.66017E+01
         0.20967E+02
         0.12343E+02
        -0.65343E+01
         0.28473E+01
        -0.79820E+01
         0.17544E+01
         0.35082E+01
         0.65236E+01
         0.47700E+01
         0.87854E+01
         0.98278E+01
         0.55374E+01
         0.69407E+00
         0.52273E+01
         0.63572E+01
        -0.68322E+01
        -0.18188E+02
        -0.10273E+02
         0.37283E+01
         0.43341E+01
        -0.27251E+01
        -0.71141E+00
         0.26073E+01
         0.68708E+01
         0.81427E+01
         0.65670E+01
        -0.45830E+01
        -0.42858E+01
         0.97857E+00
        -0.54851E+01
        -0.21490E+01
        -0.81803E+00
         0.78976E+01
         0.61309E+01
        -0.16475E+01
        -0.93708E+01
        -0.10943E+01
         0.47243E+01
         0.23337E+01
        -0.30699E+01
        -0.15783E+02
        -0.41310E+01
        -0.69726E+01
        -0.81297E+01
        -0.25374E+01
        -0.41763E+01
         0.27470E+01
        -0.42954E+01
        -0.17509E+01
         0.63355E+01
         0.22755E+01
        -0.33994E+01
         0.64037E+01
         0.44650E+01
        -0.66882E+01
        -0.23047E+02
        -0.14120E+02
        -0.34546E+01
         0.38484E+01
         0.65432E+01
        -0.14810E+02
        -0.30926E+01
         0.15536E+02
         0.22653E+01
        -0.67766E+01
         0.10785E+02
        -0.97759E+01
        -0.14309E+02
         0.39019E+01
         0.12803E+01
         0.19880E+02
         0.16411E+01
        -0.11487E+01
        -0.88552E+01
        -0.10668E+01
        -0.83546E+01
         0.81513E+01
         0.33271E+01
         0.65123E+01
         0.60196E+01
        -0.24754E+02
        -0.17936E+02
        -0.15055E+02
        -0.13492E+02
        -0.18850E+02
        -0.11870E+01
        -0.15371E+02
         0.43450E+01
         0.34133E+01
        -0.10125E+02
        -0.22388E+02
        -0.28639E+01
        -0.11809E+02
        -0.11776E+02
        -0.91497E+01
        -0.51098E+01
        -0.94598E+01
         0.69246E+01
         0.35894E+01
         0.75716E+01
         0.12143E+01
        -0.78004E+01
        -0.90200E+01
        -0.34292E+01
        -0.87620E+01
        -0.30268E+01
         0.72376E+01
        -0.18126E+01
         0.78894E+01
         0.64290E+01
        -0.44856E+01
        -0.11054E+02
         0.22235E+01
        -0.75024E+00
        -0.60231E+00
        -0.11253E+02
        -0.61751E+01
         0.26495E+01
         0.27742E+01
         0.87824E+01
        -0.69729E-01
         0.72826E+01
         0.32521E+01
        -0.23955E+01
         0.46392E+01
        -0.70268E+01
        -0.17535E+01
         0.91014E+01
         0.44349E+01
        -0.12617E+01
         0.42397E+01
         0.16682E+01
         0.55112E+01
        -0.44414E+01
         0.47177E+01
         0.11869E+02
         0.11260E+02
         0.55926E+01
        -0.27581E+01
         0.65554E+01
         0.94158E+01
         0.53082E+00
         0.45680E+01
         0.10500E+02
        -0.37692E+01
         0.68403E+01
         0.84349E+01
         0.83301E+01
         0.92728E+01
         0.10641E+02
         0.91078E+01
         0.48159E+01
        -0.62640E+01
        -0.12904E+02
         0.64631E+00
         0.80637E+01
         0.26659E+01
         0.15089E+02
        -0.36118E+01
        -0.66543E+01
        -0.40827E+01
        -0.52048E+01
         0.91075E+00
         0.12133E+02
         0.30732E+01
         0.13663E+02
         0.62063E+01
         0.19303E+01
        -0.84522E+01
         0.35742E+01
        -0.93132E+01
        -0.17004E+01
         0.44376E+01
         0.42196E+01
        -0.11221E+02
         0.61852E+01
         0.10552E+02
         0.13066E+02
         0.81016E+01
         0.91592E+00
        -0.19155E+01
         0.59300E+00
        -0.60411E+01
        -0.85843E+01
        -0.11607E+01
         0.69373E+01
        -0.58117E+00
         0.11153E+02
         0.10127E+02
         0.25329E+01
         0.52531E+01
         0.68672E+01
         0.53702E+01
        -0.70527E+01
        -0.13830E+01
        -0.56596E+00
        -0.12458E+01
        -0.76136E+01
        -0.69047E+01
        -0.12855E+01
        -0.10429E+02
        -0.91569E+01
        -0.45862E+00
        -0.43108E+01
         0.44046E+01
         0.55098E+01
         0.68525E+01
         0.13331E+02
         0.62164E+01
         0.51522E+01
        -0.59978E+01
        -0.12893E+01
         0.33943E+01
        -0.42459E+01
         0.60757E+01
        -0.26397E+01
         0.42773E+01
         0.92747E+01
        -0.18639E+02
        -0.41327E+01
         0.72467E+00
        -0.47300E+01
        -0.51601E+01
         0.28043E+01
        -0.19499E+02
        -0.20044E+02
        -0.20748E+02
        -0.16412E+02
        -0.83602E+01
        -0.80650E+01
        -0.21206E+02
        -0.17529E+02
        -0.14774E+02
        -0.55499E+01
        -0.28472E+01
        -0.10382E+02
         0.19837E+01
         0.75230E+01
         0.35329E+01
         0.20654E+01
        -0.10629E+02
        -0.95743E+01
        -0.45179E+00
         0.98067E+01
         0.60463E+01
         0.40580E+01
        -0.42058E+01
        -0.11602E+02
        -0.14977E+02
        -0.12212E+02
        -0.77101E+01
         0.83474E+01
         0.17354E+01
        -0.10365E+02
        -0.80909E+01
        -0.61935E+00
        -0.22708E+01
         0.45501E+01
         0.11166E+02
         0.93955E+01
        -0.17765E+01
        -0.10164E+02
        -0.48274E+01
        -0.68459E+00
        -0.11639E+02
        -0.90963E+01
        -0.41793E+01
        -0.39686E+01
        -0.12816E+02
        -0.13392E+02
        -0.10812E+01
         0.82037E+00
         0.33940E+01
         0.39225E+01
        -0.39306E+01
        -0.22957E+01
         0.28107E+01
         0.83355E+01
         0.30574E+01
        -0.41395E+01
         0.28068E+01
         0.42340E+01
         0.92290E+01
         0.28829E+01
         0.45136E+00
         0.76692E+01
        -0.35620E+01
        -0.62948E+01
         0.11673E+02
        -0.61359E+01
        -0.97965E+01
        -0.33273E+01
        -0.46979E+01
        -0.36398E+01
        -0.33710E+01
         0.13140E+02
         0.25594E+02
         0.18753E+02
        -0.13345E+02
        -0.87309E+01
        -0.67900E+01
        -0.11710E+02
        -0.21802E+02
         0.12685E+02
         0.13192E+02
         0.14019E+02
        -0.59964E+01
        -0.18615E+02
        -0.23378E+02
        -0.22988E+02
        -0.38611E+01
         0.67561E+01
         0.13255E+02
         0.92679E+01
         0.23809E+01
         0.15710E+02
        -0.68478E+01
        -0.49231E+01
        -0.57141E+01
         0.81880E+00
        -0.53700E+01
        -0.36195E+01
        -0.53542E+01
        -0.31665E+01
        -0.53799E+01
        -0.16462E+01
        -0.56012E+01
        -0.23562E+02
        -0.26966E+02
        -0.61051E+01
         0.12634E+01
         0.51529E+01
        -0.65469E+00
        -0.33772E+01
        -0.56143E+01
        -0.37035E+01
        -0.53029E+01
        -0.43899E+01
        -0.17486E+01
        -0.68882E+01
         0.38421E+00
         0.18105E+01
         0.87838E+01
         0.76919E+01
        -0.42069E+00
         0.42661E+01
         0.14840E+02
         0.17864E+02
         0.65376E+01
        -0.20713E+01
         0.50677E+01
         0.68637E+01
         0.88342E+01
        -0.17445E+01
        -0.12294E+02
        -0.29744E+01
         0.35822E+01
        -0.17157E+01
        -0.29135E+01
         0.19053E+01
         0.89871E+01
        -0.64305E+00
        -0.20083E+01
         0.12499E+02
         0.11370E+02
         0.96519E+01
         0.64558E+01
        -0.11565E+02
        -0.64047E+01
         0.23205E+01
         0.65780E+01
         0.36850E+01
        -0.11482E+02
        -0.24966E+00
         0.19496E+02
         0.75022E+01
        -0.87038E+01
        -0.24306E+00
        -0.78659E+01
        -0.12612E+02
        -0.11305E+02
        -0.45644E+01
         0.78410E+01
         0.94173E+01
        -0.10516E+02
        -0.12542E+02
         0.36202E+01
         0.12541E+01
        -0.24940E+01
        -0.59936E+01
         0.91263E+01
        -0.12708E+02
        -0.60485E+01
         0.14596E+02
         0.43709E+01
        -0.16507E+01
        -0.15967E+02
        -0.13165E+02
        -0.53322E+01
         0.16732E+01
         0.30577E+01
        -0.64229E+01
        -0.14199E+02
        -0.35177E+01
         0.90744E+01
         0.44489E+01
        -0.16171E+02
        -0.14203E+02
        -0.57916E+01
        -0.10782E+02
        -0.10278E+02
        -0.11199E+01
        -0.26893E+01
        -0.21917E+01
        -0.31978E+01
        -0.48748E+01
        -0.82970E+01
        -0.85352E+01
         0.85352E+00
         0.64791E+01
        -0.88302E+01
        -0.73030E+01
        -0.31406E+01
        -0.15305E+01
        -0.43815E+01
        -0.14829E+02
        -0.15091E+02
         0.12026E+01
        -0.56614E+01
        -0.12771E+02
         0.14849E+01
         0.24171E+01
         0.13945E+01
        -0.43694E+01
        -0.12827E+02
        -0.64352E+01
        -0.48729E+00
        -0.88150E+00
         0.24097E+01
        -0.34705E+01
        -0.71303E+01
        -0.41542E+01
        -0.63078E+01
         0.33341E+01
        -0.32674E+01
         0.36345E+01
         0.53937E+01
         0.29130E+01
         0.43943E+01
         0.66306E+01
         0.46424E+01
        -0.83926E+00
        -0.11457E+02
        -0.21159E+02
         0.50218E+01
         0.36212E+01
         0.13073E+01
         0.99090E+00
         0.36896E+01
        -0.90176E+00
        -0.74996E+01
        -0.67822E+01
         0.20031E+02
         0.16902E+02
         0.11852E+02
         0.85380E+01
        -0.30096E+01
         0.99337E+01
        -0.16579E+02
         0.43247E+01
        -0.10251E+02
        -0.41106E+01
        -0.43021E+01
        -0.47656E+01
         0.96300E+00
         0.23393E+01
         0.49678E+01
         0.81732E+01
        -0.11201E+01
         0.26083E+01
         0.17976E+01
         0.68728E+01
         0.85406E+01
         0.10102E+01
        -0.14647E+02
        -0.24043E+02
        -0.21861E+02
        -0.52045E+01
         0.17405E+00
         0.26474E+01
         0.39401E+01
         0.75858E+01
         0.69747E+01
         0.19684E+01
        -0.20010E+01
         0.20046E+01
        -0.34770E+01
        -0.78390E+01
         0.24222E+01
         0.11085E+02
         0.30775E+00
        -0.91585E+01
         0.75847E+01
        -0.24893E+01
        -0.21183E+02
        -0.14956E+02
        -0.55383E+01
         0.28242E+01
        -0.69113E+01
        -0.29225E+01
        -0.71101E+01
        -0.10276E+02
         0.22492E+00
         0.93839E+01
        -0.64321E+00
        -0.14757E+02
        -0.73564E+01
        -0.25083E+01
        -0.87255E+01
        -0.53390E+01
         0.67697E+01
         0.25608E+01
         0.26881E+01
        -0.14265E+01
         0.15085E+01
         0.10804E+01
         0.55919E+01
         0.22872E+01
        -0.27089E+01
         0.24368E+01
         0.55770E+01
         0.16724E+02
        -0.45386E+01
         0.24069E+01
        -0.27427E+01
        -0.94940E+01
        -0.63236E+00
        -0.62203E+01
         0.23444E+01
        -0.27508E+01
        -0.33467E+01
        -0.78791E+01
        -0.26769E+01
         0.40371E+01
         0.21686E+01
         0.74780E+01
         0.17360E+02
         0.31339E+01
         0.22387E+01
         0.59310E+01
        -0.64706E+01
        -0.16956E+01
        -0.16494E+01
        -0.10892E+00
         0.16184E+01
         0.58872E+01
         0.36858E+00
         0.18236E+01
        -0.19561E+01
         0.74549E+01
         0.86229E+01
         0.15087E+01
         0.12812E+01
         0.56273E+01
         0.89886E+01
         0.73294E+01
         0.12610E+01
        -0.52835E+01
        -0.33920E+00
         0.72801E+01
         0.76755E+01
         0.15151E+01
        -0.66589E+01
        -0.78314E+01
        -0.40389E+01
         0.49499E+01
        -0.41258E+01
        -0.39084E+01
        -0.70874E+01
         0.20109E+01
         0.71747E+01
        -0.20705E+01
         0.65811E+01
         0.71444E+01
         0.13599E+02
         0.17896E+01
        -0.65001E+01
         0.79846E+01
         0.37343E+01
        -0.26648E+01
        -0.13112E+01
        -0.15302E+01
        -0.13658E+01
         0.26431E+01
         0.39337E+01
        -0.30790E+01
        -0.82208E+01
        -0.52827E+01
        -0.55883E+01
         0.16283E+00
  
SCALARS        characteristic_distance  double 1
LOOKUP_TABLE default
         0.00000E+00
         0.00000E+00
         0.00000E+00
         0.00000E+00
         0.00000E+00
         0.00000E+00
         0.00000E+00
         0.00000E+00
         0.00000E+00
         0.00000E+00
         0.00000E+00
         0.00000E+00
         0.00000E+00
         0.00000E+00
         0.00000E+00
         0.00000E+00
         0.00000E+00
         0.00000E+00
         0.00000E+00
         0.00000E+00
         0.00000E+00
         0.00000E+00
         0.00000E+00
         0.00000E+00
         0.00000E+00
         0.00000E+00
         0.00000E+00
         0.00000E+00
         0.00000E+00
         0.00000E+00
         0.00000E+00
         0.00000E+00
         0.00000E+00
         0.00000E+00
         0.00000E+00
         0.00000E+00
         0.00000E+00
         0.00000E+00
         0.00000E+00
         0.00000E+00
         0.00000E+00
         0.00000E+00
         0.00000E+00
         0.00000E+00
         0.00000E+00
         0.00000E+00
         0.00000E+00
         0.00000E+00
         0.00000E+00
         0.00000E+00
         0.00000E+00
         0.00000E+00
         0.00000E+00
         0.00000E+00
         0.00000E+00
         0.00000E+00
         0.00000E+00
         0.00000E+00
         0.00000E+00
         0.00000E+00
         0.00000E+00
         0.00000E+00
         0.00000E+00
         0.00000E+00
         0.00000E+00
         0.00000E+00
         0.00000E+00
         0.00000E+00
         0.00000E+00
         0.00000E+00
         0.00000E+00
         0.00000E+00
         0.00000E+00
         0.00000E+00
         0.00000E+00
         0.00000E+00
         0.00000E+00
         0.00000E+00
         0.00000E+00
         0.00000E+00
         0.00000E+00
         0.00000E+00
         0.00000E+00
         0.00000E+00
         0.00000E+00
         0.00000E+00
         0.00000E+00
         0.00000E+00
         0.00000E+00
         0.00000E+00
         0.00000E+00
         0.00000E+00
         0.00000E+00
         0.00000E+00
         0.00000E+00
         0.00000E+00
         0.00000E+00
         0.00000E+00
         0.00000E+00
         0.00000E+00
         0.00000E+00
         0.00000E+00
         0.00000E+00
         0.00000E+00
         0.00000E+00
         0.00000E+00
         0.00000E+00
         0.00000E+00
         0.00000E+00
         0.00000E+00
         0.00000E+00
         0.00000E+00
         0.00000E+00
         0.00000E+00
         0.00000E+00
         0.00000E+00
         0.00000E+00
         0.00000E+00
         0.00000E+00
         0.00000E+00
         0.00000E+00
         0.00000E+00
         0.00000E+00
         0.00000E+00
         0.00000E+00
         0.00000E+00
         0.00000E+00
         0.00000E+00
         0.00000E+00
         0.00000E+00
         0.00000E+00
         0.00000E+00
         0.00000E+00
         0.00000E+00
         0.00000E+00
         0.00000E+00
         0.00000E+00
         0.00000E+00
         0.00000E+00
         0.00000E+00
         0.00000E+00
         0.00000E+00
         0.00000E+00
         0.00000E+00
         0.00000E+00
         0.00000E+00
         0.00000E+00
         0.00000E+00
         0.00000E+00
         0.00000E+00
         0.00000E+00
         0.00000E+00
         0.00000E+00
         0.00000E+00
         0.00000E+00
         0.00000E+00
         0.00000E+00
         0.00000E+00
         0.00000E+00
         0.00000E+00
         0.00000E+00
         0.00000E+00
         0.00000E+00
         0.00000E+00
         0.00000E+00
         0.00000E+00
         0.00000E+00
         0.00000E+00
         0.00000E+00
         0.00000E+00
         0.00000E+00
         0.00000E+00
         0.00000E+00
         0.00000E+00
         0.00000E+00
         0.00000E+00
         0.00000E+00
         0.00000E+00
         0.00000E+00
         0.00000E+00
         0.00000E+00
         0.00000E+00
         0.00000E+00
         0.00000E+00
         0.00000E+00
         0.00000E+00
         0.00000E+00
         0.00000E+00
         0.00000E+00
         0.00000E+00
         0.00000E+00
         0.00000E+00
         0.00000E+00
         0.00000E+00
         0.00000E+00
         0.00000E+00
         0.00000E+00
         0.00000E+00
         0.00000E+00
         0.00000E+00
         0.00000E+00
         0.00000E+00
         0.00000E+00
         0.00000E+00
         0.00000E+00
         0.00000E+00
         0.00000E+00
         0.00000E+00
         0.00000E+00
         0.00000E+00
         0.00000E+00
         0.00000E+00
         0.00000E+00
         0.00000E+00
         0.00000E+00
         0.00000E+00
         0.00000E+00
         0.00000E+00
         0.00000E+00
         0.00000E+00
         0.00000E+00
         0.00000E+00
         0.00000E+00
         0.00000E+00
         0.00000E+00
         0.00000E+00
         0.00000E+00
         0.00000E+00
         0.00000E+00
         0.00000E+00
         0.00000E+00
         0.00000E+00
         0.00000E+00
         0.00000E+00
         0.00000E+00
         0.00000E+00
         0.00000E+00
         0.00000E+00
         0.00000E+00
         0.00000E+00
         0.00000E+00
         0.00000E+00
         0.00000E+00
         0.00000E+00
         0.00000E+00
         0.00000E+00
         0.00000E+00
         0.00000E+00
         0.00000E+00
         0.00000E+00
         0.00000E+00
         0.00000E+00
         0.00000E+00
         0.00000E+00
         0.00000E+00
         0.00000E+00
         0.00000E+00
         0.00000E+00
         0.00000E+00
         0.00000E+00
         0.00000E+00
         0.00000E+00
         0.00000E+00
         0.00000E+00
         0.00000E+00
         0.00000E+00
         0.00000E+00
         0.00000E+00
         0.00000E+00
         0.00000E+00
         0.00000E+00
         0.00000E+00
         0.00000E+00
         0.00000E+00
         0.00000E+00
         0.00000E+00
         0.00000E+00
         0.00000E+00
         0.00000E+00
         0.00000E+00
         0.00000E+00
         0.00000E+00
         0.00000E+00
         0.00000E+00
         0.00000E+00
         0.00000E+00
         0.00000E+00
         0.00000E+00
         0.00000E+00
         0.00000E+00
         0.00000E+00
         0.00000E+00
         0.00000E+00
         0.00000E+00
         0.00000E+00
         0.00000E+00
         0.00000E+00
         0.00000E+00
         0.00000E+00
         0.00000E+00
         0.00000E+00
         0.00000E+00
         0.00000E+00
         0.00000E+00
         0.00000E+00
         0.00000E+00
         0.00000E+00
         0.00000E+00
         0.00000E+00
         0.00000E+00
         0.00000E+00
         0.00000E+00
         0.00000E+00
         0.00000E+00
         0.00000E+00
         0.00000E+00
         0.00000E+00
         0.00000E+00
         0.00000E+00
         0.00000E+00
         0.00000E+00
         0.00000E+00
         0.00000E+00
         0.00000E+00
         0.00000E+00
         0.00000E+00
         0.00000E+00
         0.00000E+00
         0.00000E+00
         0.00000E+00
         0.00000E+00
         0.00000E+00
         0.00000E+00
         0.00000E+00
         0.00000E+00
         0.00000E+00
         0.00000E+00
         0.00000E+00
         0.00000E+00
         0.00000E+00
         0.00000E+00
         0.00000E+00
         0.00000E+00
         0.00000E+00
         0.00000E+00
         0.00000E+00
         0.00000E+00
         0.00000E+00
         0.00000E+00
         0.00000E+00
         0.00000E+00
         0.00000E+00
         0.00000E+00
         0.00000E+00
         0.00000E+00
         0.00000E+00
         0.00000E+00
         0.00000E+00
         0.00000E+00
         0.00000E+00
         0.00000E+00
         0.00000E+00
         0.00000E+00
         0.00000E+00
         0.00000E+00
         0.00000E+00
         0.00000E+00
         0.00000E+00
         0.00000E+00
         0.00000E+00
         0.00000E+00
         0.00000E+00
         0.00000E+00
         0.00000E+00
         0.00000E+00
         0.00000E+00
         0.00000E+00
         0.00000E+00
         0.00000E+00
         0.00000E+00
         0.00000E+00
         0.00000E+00
         0.00000E+00
         0.00000E+00
         0.00000E+00
         0.00000E+00
         0.00000E+00
         0.00000E+00
         0.00000E+00
         0.00000E+00
         0.00000E+00
         0.00000E+00
         0.00000E+00
         0.00000E+00
         0.00000E+00
         0.00000E+00
         0.00000E+00
         0.00000E+00
         0.00000E+00
         0.00000E+00
         0.00000E+00
         0.00000E+00
         0.00000E+00
         0.00000E+00
         0.00000E+00
         0.00000E+00
         0.00000E+00
         0.00000E+00
         0.00000E+00
         0.00000E+00
         0.00000E+00
         0.00000E+00
         0.00000E+00
         0.00000E+00
         0.00000E+00
         0.00000E+00
         0.00000E+00
         0.00000E+00
         0.00000E+00
         0.00000E+00
         0.00000E+00
         0.00000E+00
         0.00000E+00
         0.00000E+00
         0.00000E+00
         0.00000E+00
         0.00000E+00
         0.00000E+00
         0.00000E+00
         0.00000E+00
         0.00000E+00
         0.00000E+00
         0.00000E+00
         0.00000E+00
         0.00000E+00
         0.00000E+00
         0.00000E+00
         0.00000E+00
         0.00000E+00
         0.00000E+00
         0.00000E+00
         0.00000E+00
         0.00000E+00
         0.00000E+00
         0.00000E+00
         0.00000E+00
         0.00000E+00
         0.00000E+00
         0.00000E+00
         0.00000E+00
         0.00000E+00
         0.00000E+00
         0.00000E+00
         0.00000E+00
         0.00000E+00
         0.00000E+00
         0.00000E+00
         0.00000E+00
         0.00000E+00
         0.00000E+00
         0.00000E+00
         0.00000E+00
         0.00000E+00
         0.00000E+00
         0.00000E+00
         0.00000E+00
         0.00000E+00
         0.00000E+00
         0.00000E+00
         0.00000E+00
         0.00000E+00
         0.00000E+00
         0.00000E+00
         0.00000E+00
         0.00000E+00
         0.00000E+00
         0.00000E+00
         0.00000E+00
         0.00000E+00
         0.00000E+00
         0.00000E+00
         0.00000E+00
         0.00000E+00
         0.00000E+00
         0.00000E+00
         0.00000E+00
         0.00000E+00
         0.00000E+00
         0.00000E+00
         0.00000E+00
         0.00000E+00
         0.00000E+00
         0.00000E+00
         0.00000E+00
         0.00000E+00
         0.00000E+00
         0.00000E+00
         0.00000E+00
         0.00000E+00
         0.00000E+00
         0.00000E+00
         0.00000E+00
         0.00000E+00
         0.00000E+00
         0.00000E+00
         0.00000E+00
         0.00000E+00
         0.00000E+00
         0.00000E+00
         0.00000E+00
         0.00000E+00
         0.00000E+00
         0.00000E+00
         0.00000E+00
         0.00000E+00
         0.00000E+00
         0.00000E+00
         0.00000E+00
         0.00000E+00
         0.00000E+00
         0.00000E+00
         0.00000E+00
         0.00000E+00
         0.00000E+00
         0.00000E+00
         0.00000E+00
         0.00000E+00
         0.00000E+00
         0.00000E+00
         0.00000E+00
         0.00000E+00
         0.00000E+00
         0.00000E+00
         0.00000E+00
         0.00000E+00
         0.00000E+00
         0.00000E+00
         0.00000E+00
         0.00000E+00
         0.00000E+00
         0.00000E+00
         0.00000E+00
         0.00000E+00
         0.00000E+00
         0.00000E+00
         0.00000E+00
         0.00000E+00
         0.00000E+00
         0.00000E+00
         0.00000E+00
         0.00000E+00
         0.00000E+00
         0.00000E+00
         0.00000E+00
         0.00000E+00
         0.00000E+00
         0.00000E+00
         0.00000E+00
         0.00000E+00
         0.00000E+00
         0.00000E+00
         0.00000E+00
         0.00000E+00
         0.00000E+00
         0.00000E+00
         0.00000E+00
         0.00000E+00
         0.00000E+00
         0.00000E+00
         0.00000E+00
         0.00000E+00
         0.00000E+00
         0.00000E+00
         0.00000E+00
         0.00000E+00
         0.00000E+00
         0.00000E+00
         0.00000E+00
         0.00000E+00
         0.00000E+00
         0.00000E+00
         0.00000E+00
         0.00000E+00
         0.00000E+00
         0.00000E+00
         0.00000E+00
         0.00000E+00
         0.00000E+00
         0.00000E+00
         0.00000E+00
         0.00000E+00
         0.00000E+00
         0.00000E+00
         0.00000E+00
         0.00000E+00
         0.00000E+00
         0.00000E+00
         0.00000E+00
         0.00000E+00
         0.00000E+00
         0.00000E+00
         0.00000E+00
         0.00000E+00
         0.00000E+00
         0.00000E+00
         0.00000E+00
         0.00000E+00
         0.00000E+00
         0.00000E+00
         0.00000E+00
         0.00000E+00
         0.00000E+00
         0.00000E+00
         0.00000E+00
         0.00000E+00
         0.00000E+00
         0.00000E+00
         0.00000E+00
         0.00000E+00
         0.00000E+00
         0.00000E+00
         0.00000E+00
         0.00000E+00
         0.00000E+00
         0.00000E+00
         0.00000E+00
         0.00000E+00
         0.00000E+00
         0.00000E+00
         0.00000E+00
         0.00000E+00
         0.00000E+00
         0.00000E+00
         0.00000E+00
         0.00000E+00
         0.00000E+00
         0.00000E+00
         0.00000E+00
         0.00000E+00
         0.00000E+00
         0.00000E+00
         0.00000E+00
         0.00000E+00
         0.00000E+00
         0.00000E+00
         0.00000E+00
         0.00000E+00
         0.00000E+00
         0.00000E+00
         0.00000E+00
         0.00000E+00
         0.00000E+00
         0.00000E+00
         0.00000E+00
         0.00000E+00
         0.00000E+00
         0.00000E+00
         0.00000E+00
         0.00000E+00
         0.00000E+00
         0.00000E+00
         0.00000E+00
         0.00000E+00
         0.00000E+00
         0.00000E+00
         0.00000E+00
         0.00000E+00
         0.00000E+00
         0.00000E+00
         0.00000E+00
         0.00000E+00
         0.00000E+00
         0.00000E+00
         0.00000E+00
         0.00000E+00
         0.00000E+00
         0.00000E+00
         0.00000E+00
         0.00000E+00
         0.00000E+00
         0.00000E+00
         0.00000E+00
         0.00000E+00
         0.00000E+00
         0.00000E+00
         0.00000E+00
         0.00000E+00
         0.00000E+00
         0.00000E+00
         0.00000E+00
         0.00000E+00
         0.00000E+00
         0.00000E+00
         0.00000E+00
         0.00000E+00
         0.00000E+00
         0.00000E+00
         0.00000E+00
         0.00000E+00
         0.00000E+00
         0.00000E+00
         0.00000E+00
         0.00000E+00
         0.00000E+00
         0.00000E+00
         0.00000E+00
         0.00000E+00
         0.00000E+00
         0.00000E+00
         0.00000E+00
         0.00000E+00
         0.00000E+00
         0.00000E+00
         0.00000E+00
         0.00000E+00
         0.00000E+00
         0.00000E+00
         0.00000E+00
         0.00000E+00
         0.00000E+00
         0.00000E+00
         0.00000E+00
         0.00000E+00
         0.00000E+00
         0.00000E+00
         0.00000E+00
         0.00000E+00
         0.00000E+00
         0.00000E+00
         0.00000E+00
         0.00000E+00
         0.00000E+00
         0.00000E+00
         0.00000E+00
         0.00000E+00
         0.00000E+00
         0.00000E+00
         0.00000E+00
         0.00000E+00
         0.00000E+00
         0.00000E+00
         0.00000E+00
         0.00000E+00
         0.00000E+00
         0.00000E+00
         0.00000E+00
         0.00000E+00
         0.00000E+00
         0.00000E+00
         0.00000E+00
         0.00000E+00
         0.00000E+00
         0.00000E+00
         0.00000E+00
         0.00000E+00
         0.00000E+00
         0.00000E+00
         0.00000E+00
         0.00000E+00
         0.00000E+00
         0.00000E+00
         0.00000E+00
         0.00000E+00
         0.00000E+00
         0.00000E+00
         0.00000E+00
         0.00000E+00
         0.00000E+00
         0.00000E+00
         0.00000E+00
         0.00000E+00
         0.00000E+00
         0.00000E+00
         0.00000E+00
         0.00000E+00
         0.00000E+00
         0.00000E+00
         0.00000E+00
         0.00000E+00
         0.00000E+00
         0.00000E+00
         0.00000E+00
         0.00000E+00
         0.00000E+00
         0.00000E+00
         0.00000E+00
         0.00000E+00
         0.00000E+00
         0.00000E+00
         0.00000E+00
         0.00000E+00
         0.00000E+00
         0.00000E+00
         0.00000E+00
         0.00000E+00
         0.00000E+00
         0.00000E+00
         0.00000E+00
         0.00000E+00
         0.00000E+00
         0.00000E+00
         0.00000E+00
         0.00000E+00
         0.00000E+00
         0.00000E+00
         0.00000E+00
         0.00000E+00
         0.00000E+00
         0.00000E+00
         0.00000E+00
         0.00000E+00
         0.00000E+00
         0.00000E+00
         0.00000E+00
         0.00000E+00
         0.00000E+00
         0.00000E+00
         0.00000E+00
         0.00000E+00
         0.00000E+00
         0.00000E+00
         0.00000E+00
         0.00000E+00
         0.00000E+00
         0.00000E+00
         0.00000E+00
         0.00000E+00
         0.00000E+00
         0.00000E+00
         0.00000E+00
         0.00000E+00
         0.00000E+00
         0.00000E+00
         0.00000E+00
         0.00000E+00
         0.00000E+00
         0.00000E+00
         0.00000E+00
         0.00000E+00
         0.00000E+00
         0.00000E+00
         0.00000E+00
         0.00000E+00
         0.00000E+00
         0.00000E+00
         0.00000E+00
         0.00000E+00
         0.00000E+00
         0.00000E+00
         0.00000E+00
         0.00000E+00
         0.00000E+00
         0.00000E+00
         0.00000E+00
         0.00000E+00
         0.00000E+00
         0.00000E+00
         0.00000E+00
         0.00000E+00
         0.00000E+00
         0.00000E+00
         0.00000E+00
         0.00000E+00
         0.00000E+00
         0.00000E+00
         0.00000E+00
         0.00000E+00
         0.00000E+00
         0.00000E+00
         0.00000E+00
         0.00000E+00
         0.00000E+00
         0.00000E+00
         0.00000E+00
         0.00000E+00
         0.00000E+00
         0.00000E+00
         0.00000E+00
         0.00000E+00
         0.00000E+00
         0.00000E+00
         0.00000E+00
         0.00000E+00
         0.00000E+00
         0.00000E+00
         0.00000E+00
         0.00000E+00
         0.00000E+00
         0.00000E+00
         0.00000E+00
         0.00000E+00
         0.00000E+00
         0.00000E+00
         0.00000E+00
         0.00000E+00
         0.00000E+00
         0.00000E+00
         0.00000E+00
         0.00000E+00
         0.00000E+00
         0.00000E+00
         0.00000E+00
         0.00000E+00
         0.00000E+00
         0.00000E+00
         0.00000E+00
         0.00000E+00
         0.00000E+00
         0.00000E+00
         0.00000E+00
         0.00000E+00
         0.00000E+00
         0.00000E+00
         0.00000E+00
         0.00000E+00
         0.00000E+00
         0.00000E+00
         0.00000E+00
         0.00000E+00
         0.00000E+00
         0.00000E+00
         0.00000E+00
         0.00000E+00
         0.00000E+00
         0.00000E+00
         0.00000E+00
         0.00000E+00
         0.00000E+00
         0.00000E+00
         0.00000E+00
         0.00000E+00
         0.00000E+00
         0.00000E+00
         0.00000E+00
         0.00000E+00
         0.00000E+00
         0.00000E+00
         0.00000E+00
         0.00000E+00
         0.00000E+00
         0.00000E+00
         0.00000E+00
         0.00000E+00
         0.00000E+00
         0.00000E+00
         0.00000E+00
         0.00000E+00
         0.00000E+00
         0.00000E+00
         0.00000E+00
         0.00000E+00
         0.00000E+00
         0.00000E+00
         0.00000E+00
         0.00000E+00
         0.00000E+00
         0.00000E+00
         0.00000E+00
         0.00000E+00
         0.00000E+00
         0.00000E+00
         0.00000E+00
         0.00000E+00
         0.00000E+00
         0.00000E+00
         0.00000E+00
         0.00000E+00
         0.00000E+00
         0.00000E+00
         0.00000E+00
         0.00000E+00
         0.00000E+00
         0.00000E+00
         0.00000E+00
         0.00000E+00
         0.00000E+00
         0.00000E+00
         0.00000E+00
         0.00000E+00
         0.00000E+00
         0.00000E+00
         0.00000E+00
         0.00000E+00
         0.00000E+00
         0.00000E+00
         0.00000E+00
         0.00000E+00
         0.00000E+00
         0.00000E+00
         0.00000E+00
         0.00000E+00
         0.00000E+00
         0.00000E+00
         0.00000E+00
         0.00000E+00
         0.00000E+00
         0.00000E+00
         0.00000E+00
         0.00000E+00
         0.00000E+00
         0.00000E+00
         0.00000E+00
         0.00000E+00
         0.00000E+00
         0.00000E+00
         0.00000E+00
         0.00000E+00
         0.00000E+00
         0.00000E+00
         0.00000E+00
         0.00000E+00
         0.00000E+00
         0.00000E+00
         0.00000E+00
         0.00000E+00
         0.00000E+00
         0.00000E+00
         0.00000E+00
         0.00000E+00
         0.00000E+00
         0.00000E+00
         0.00000E+00
         0.00000E+00
         0.00000E+00
         0.00000E+00
         0.00000E+00
         0.00000E+00
         0.00000E+00
         0.00000E+00
         0.00000E+00
         0.00000E+00
         0.00000E+00
         0.00000E+00
         0.00000E+00
         0.00000E+00
         0.00000E+00
         0.00000E+00
         0.00000E+00
         0.00000E+00
         0.00000E+00
         0.00000E+00
         0.00000E+00
         0.00000E+00
         0.00000E+00
         0.00000E+00
         0.00000E+00
         0.00000E+00
         0.00000E+00
         0.00000E+00
         0.00000E+00
         0.00000E+00
         0.00000E+00
         0.00000E+00
         0.00000E+00
         0.00000E+00
         0.00000E+00
         0.00000E+00
         0.00000E+00
         0.00000E+00
         0.00000E+00
         0.00000E+00
         0.00000E+00
         0.00000E+00
         0.00000E+00
         0.00000E+00
         0.00000E+00
         0.00000E+00
         0.00000E+00
         0.00000E+00
         0.00000E+00
         0.00000E+00
         0.00000E+00
         0.00000E+00
         0.00000E+00
         0.00000E+00
         0.00000E+00
         0.00000E+00
         0.00000E+00
         0.00000E+00
         0.00000E+00
         0.00000E+00
         0.00000E+00
         0.00000E+00
         0.00000E+00
         0.00000E+00
         0.00000E+00
         0.00000E+00
         0.00000E+00
         0.00000E+00
         0.00000E+00
         0.00000E+00
         0.00000E+00
         0.00000E+00
         0.00000E+00
         0.00000E+00
         0.00000E+00
         0.00000E+00
         0.00000E+00
         0.00000E+00
         0.00000E+00
         0.00000E+00
         0.00000E+00
         0.00000E+00
         0.00000E+00
         0.00000E+00
         0.00000E+00
         0.00000E+00
         0.00000E+00
         0.00000E+00
         0.00000E+00
         0.00000E+00
         0.00000E+00
         0.00000E+00
         0.00000E+00
         0.00000E+00
         0.00000E+00
         0.00000E+00
         0.00000E+00
         0.00000E+00
         0.00000E+00
         0.00000E+00
         0.00000E+00
         0.00000E+00
         0.00000E+00
         0.00000E+00
         0.00000E+00
         0.00000E+00
         0.00000E+00
         0.00000E+00
         0.00000E+00
         0.00000E+00
         0.00000E+00
         0.00000E+00
         0.00000E+00
         0.00000E+00
         0.00000E+00
         0.00000E+00
         0.00000E+00
         0.00000E+00
         0.00000E+00
         0.00000E+00
         0.00000E+00
         0.00000E+00
         0.00000E+00
         0.00000E+00
         0.00000E+00
         0.00000E+00
         0.00000E+00
         0.00000E+00
         0.00000E+00
         0.00000E+00
         0.00000E+00
         0.00000E+00
         0.00000E+00
         0.00000E+00
         0.00000E+00
         0.00000E+00
         0.00000E+00
         0.00000E+00
         0.00000E+00
         0.00000E+00
         0.00000E+00
         0.00000E+00
         0.00000E+00
         0.00000E+00
         0.00000E+00
         0.00000E+00
         0.00000E+00
         0.00000E+00
         0.00000E+00
         0.00000E+00
         0.00000E+00
         0.00000E+00
         0.00000E+00
         0.00000E+00
         0.00000E+00
         0.00000E+00
         0.00000E+00
         0.00000E+00
         0.00000E+00
         0.00000E+00
         0.00000E+00
         0.00000E+00
         0.00000E+00
         0.00000E+00
         0.00000E+00
         0.00000E+00
         0.00000E+00
         0.00000E+00
         0.00000E+00
         0.00000E+00
         0.00000E+00
         0.00000E+00
         0.00000E+00
         0.00000E+00
         0.00000E+00
         0.00000E+00
         0.00000E+00
         0.00000E+00
         0.00000E+00
         0.00000E+00
         0.00000E+00
         0.00000E+00
         0.00000E+00
         0.00000E+00
         0.00000E+00
         0.00000E+00
         0.00000E+00
         0.00000E+00
         0.00000E+00
         0.00000E+00
         0.00000E+00
         0.00000E+00
         0.00000E+00
         0.00000E+00
         0.00000E+00
         0.00000E+00
         0.00000E+00
         0.00000E+00
         0.00000E+00
         0.00000E+00
         0.00000E+00
         0.00000E+00
         0.00000E+00
         0.00000E+00
         0.00000E+00
         0.00000E+00
         0.00000E+00
         0.00000E+00
         0.00000E+00
         0.00000E+00
         0.00000E+00
         0.00000E+00
         0.00000E+00
         0.00000E+00
         0.00000E+00
         0.00000E+00
         0.00000E+00
         0.00000E+00
         0.00000E+00
         0.00000E+00
         0.00000E+00
         0.00000E+00
         0.00000E+00
         0.00000E+00
         0.00000E+00
         0.00000E+00
         0.00000E+00
         0.00000E+00
         0.00000E+00
         0.00000E+00
         0.00000E+00
         0.00000E+00
         0.00000E+00
         0.00000E+00
         0.00000E+00
         0.00000E+00
         0.00000E+00
         0.00000E+00
         0.00000E+00
         0.00000E+00
         0.00000E+00
         0.00000E+00
         0.00000E+00
         0.00000E+00
         0.00000E+00
         0.00000E+00
         0.00000E+00
         0.00000E+00
         0.00000E+00
         0.00000E+00
         0.00000E+00
         0.00000E+00
         0.00000E+00
         0.00000E+00
         0.00000E+00
         0.00000E+00
         0.00000E+00
         0.00000E+00
         0.00000E+00
         0.00000E+00
         0.00000E+00
         0.00000E+00
         0.00000E+00
         0.00000E+00
         0.00000E+00
         0.00000E+00
         0.00000E+00
         0.00000E+00
         0.00000E+00
         0.00000E+00
         0.00000E+00
         0.00000E+00
         0.00000E+00
         0.00000E+00
         0.00000E+00
         0.00000E+00
         0.00000E+00
         0.00000E+00
         0.00000E+00
         0.00000E+00
         0.00000E+00
         0.00000E+00
         0.00000E+00
         0.00000E+00
         0.00000E+00
         0.00000E+00
         0.00000E+00
         0.00000E+00
         0.00000E+00
         0.00000E+00
         0.00000E+00
         0.00000E+00
         0.00000E+00
         0.00000E+00
         0.00000E+00
         0.00000E+00
         0.00000E+00
         0.00000E+00
         0.00000E+00
         0.00000E+00
         0.00000E+00
         0.00000E+00
         0.00000E+00
         0.00000E+00
         0.00000E+00
         0.00000E+00
         0.00000E+00
         0.00000E+00
         0.00000E+00
         0.00000E+00
         0.00000E+00
         0.00000E+00
         0.00000E+00
         0.00000E+00
         0.00000E+00
         0.00000E+00
         0.00000E+00
         0.00000E+00
         0.00000E+00
         0.00000E+00
         0.00000E+00
         0.00000E+00
         0.00000E+00
         0.00000E+00
         0.00000E+00
         0.00000E+00
         0.00000E+00
         0.00000E+00
         0.00000E+00
         0.00000E+00
         0.00000E+00
         0.00000E+00
         0.00000E+00
         0.00000E+00
         0.00000E+00
         0.00000E+00
         0.00000E+00
         0.00000E+00
         0.00000E+00
         0.00000E+00
         0.00000E+00
         0.00000E+00
         0.00000E+00
         0.00000E+00
         0.00000E+00
         0.00000E+00
         0.00000E+00
         0.00000E+00
         0.00000E+00
         0.00000E+00
         0.00000E+00
         0.00000E+00
         0.00000E+00
         0.00000E+00
         0.00000E+00
         0.00000E+00
         0.00000E+00
         0.00000E+00
         0.00000E+00
         0.00000E+00
         0.00000E+00
         0.00000E+00
         0.00000E+00
         0.00000E+00
         0.00000E+00
         0.00000E+00
         0.00000E+00
         0.00000E+00
         0.00000E+00
         0.00000E+00
         0.00000E+00
         0.00000E+00
         0.00000E+00
         0.00000E+00
         0.00000E+00
         0.00000E+00
         0.00000E+00
         0.00000E+00
         0.00000E+00
         0.00000E+00
         0.00000E+00
         0.00000E+00
         0.00000E+00
         0.00000E+00
         0.00000E+00
         0.00000E+00
         0.00000E+00
         0.00000E+00
         0.00000E+00
         0.00000E+00
         0.00000E+00
         0.00000E+00
         0.00000E+00
         0.00000E+00
         0.00000E+00
         0.00000E+00
         0.00000E+00
         0.00000E+00
         0.00000E+00
         0.00000E+00
         0.00000E+00
         0.00000E+00
         0.00000E+00
         0.00000E+00
         0.00000E+00
         0.00000E+00
         0.00000E+00
         0.00000E+00
         0.00000E+00
         0.00000E+00
         0.00000E+00
         0.00000E+00
         0.00000E+00
         0.00000E+00
         0.00000E+00
         0.00000E+00
         0.00000E+00
         0.00000E+00
         0.00000E+00
         0.00000E+00
         0.00000E+00
         0.00000E+00
         0.00000E+00
         0.00000E+00
         0.00000E+00
         0.00000E+00
         0.00000E+00
         0.00000E+00
         0.00000E+00
         0.00000E+00
         0.00000E+00
         0.00000E+00
         0.00000E+00
         0.00000E+00
         0.00000E+00
         0.00000E+00
         0.00000E+00
         0.00000E+00
         0.00000E+00
         0.00000E+00
         0.00000E+00
         0.00000E+00
         0.00000E+00
         0.00000E+00
         0.00000E+00
         0.00000E+00
         0.00000E+00
         0.00000E+00
         0.00000E+00
         0.00000E+00
         0.00000E+00
         0.00000E+00
         0.00000E+00
         0.00000E+00
         0.00000E+00
         0.00000E+00
         0.00000E+00
         0.00000E+00
         0.00000E+00
         0.00000E+00
         0.00000E+00
         0.00000E+00
         0.00000E+00
         0.00000E+00
         0.00000E+00
         0.00000E+00
         0.00000E+00
         0.00000E+00
         0.00000E+00
         0.00000E+00
         0.00000E+00
         0.00000E+00
         0.00000E+00
         0.00000E+00
         0.00000E+00
         0.00000E+00
         0.00000E+00
         0.00000E+00
         0.00000E+00
         0.00000E+00
         0.00000E+00
         0.00000E+00
         0.00000E+00
         0.00000E+00
         0.00000E+00
         0.00000E+00
         0.00000E+00
         0.00000E+00
         0.00000E+00
         0.00000E+00
         0.00000E+00
         0.00000E+00
         0.00000E+00
         0.00000E+00
         0.00000E+00
         0.00000E+00
         0.00000E+00
         0.00000E+00
         0.00000E+00
         0.00000E+00
         0.00000E+00
         0.00000E+00
         0.00000E+00
         0.00000E+00
         0.00000E+00
         0.00000E+00
         0.00000E+00
         0.00000E+00
         0.00000E+00
         0.00000E+00
         0.00000E+00
         0.00000E+00
         0.00000E+00
         0.00000E+00
         0.00000E+00
         0.00000E+00
         0.00000E+00
         0.00000E+00
         0.00000E+00
         0.00000E+00
         0.00000E+00
         0.00000E+00
         0.00000E+00
         0.00000E+00
         0.00000E+00
         0.00000E+00
         0.00000E+00
         0.00000E+00
         0.00000E+00
         0.00000E+00
         0.00000E+00
         0.00000E+00
         0.00000E+00
         0.00000E+00
         0.00000E+00
         0.00000E+00
         0.00000E+00
         0.00000E+00
         0.00000E+00
         0.00000E+00
         0.00000E+00
         0.00000E+00
         0.00000E+00
         0.00000E+00
         0.00000E+00
         0.00000E+00
         0.00000E+00
         0.00000E+00
         0.00000E+00
         0.00000E+00
         0.00000E+00
         0.00000E+00
         0.00000E+00
         0.00000E+00
         0.00000E+00
         0.00000E+00
         0.00000E+00
         0.00000E+00
         0.00000E+00
         0.00000E+00
         0.00000E+00
         0.00000E+00
         0.00000E+00
         0.00000E+00
         0.00000E+00
         0.00000E+00
         0.00000E+00
         0.00000E+00
         0.00000E+00
         0.00000E+00
         0.00000E+00
         0.00000E+00
         0.00000E+00
         0.00000E+00
         0.00000E+00
         0.00000E+00
         0.00000E+00
         0.00000E+00
         0.00000E+00
         0.00000E+00
         0.00000E+00
         0.00000E+00
         0.00000E+00
         0.00000E+00
         0.00000E+00
         0.00000E+00
         0.00000E+00
         0.00000E+00
         0.00000E+00
         0.00000E+00
         0.00000E+00
         0.00000E+00
         0.00000E+00
         0.00000E+00
         0.00000E+00
         0.00000E+00
         0.00000E+00
         0.00000E+00
         0.00000E+00
         0.00000E+00
         0.00000E+00
         0.00000E+00
         0.00000E+00
         0.00000E+00
         0.00000E+00
         0.00000E+00
         0.00000E+00
         0.00000E+00
         0.00000E+00
         0.00000E+00
         0.00000E+00
         0.00000E+00
         0.00000E+00
         0.00000E+00
         0.00000E+00
         0.00000E+00
         0.00000E+00
         0.00000E+00
         0.00000E+00
         0.00000E+00
         0.00000E+00
         0.00000E+00
         0.00000E+00
         0.00000E+00
         0.00000E+00
         0.00000E+00
         0.00000E+00
         0.00000E+00
         0.00000E+00
         0.00000E+00
         0.00000E+00
         0.00000E+00
         0.00000E+00
         0.00000E+00
         0.00000E+00
         0.00000E+00
         0.00000E+00
         0.00000E+00
         0.00000E+00
         0.00000E+00
         0.00000E+00
         0.00000E+00
         0.00000E+00
         0.00000E+00
         0.00000E+00
         0.00000E+00
         0.00000E+00
         0.00000E+00
         0.00000E+00
         0.00000E+00
         0.00000E+00
         0.00000E+00
         0.00000E+00
         0.00000E+00
         0.00000E+00
         0.00000E+00
         0.00000E+00
         0.00000E+00
         0.00000E+00
         0.00000E+00
         0.00000E+00
         0.00000E+00
         0.00000E+00
         0.00000E+00
         0.00000E+00
         0.00000E+00
         0.00000E+00
         0.00000E+00
         0.00000E+00
         0.00000E+00
         0.00000E+00
         0.00000E+00
         0.00000E+00
         0.00000E+00
         0.00000E+00
         0.00000E+00
         0.00000E+00
         0.00000E+00
         0.00000E+00
         0.00000E+00
         0.00000E+00
         0.00000E+00
         0.00000E+00
         0.00000E+00
         0.00000E+00
         0.00000E+00
         0.00000E+00
         0.00000E+00
         0.00000E+00
         0.00000E+00
         0.00000E+00
         0.00000E+00
         0.00000E+00
         0.00000E+00
         0.00000E+00
         0.00000E+00
         0.00000E+00
         0.00000E+00
         0.00000E+00
         0.00000E+00
         0.00000E+00
         0.00000E+00
         0.00000E+00
         0.00000E+00
         0.00000E+00
         0.00000E+00
         0.00000E+00
         0.00000E+00
         0.00000E+00
         0.00000E+00
         0.00000E+00
         0.00000E+00
         0.00000E+00
         0.00000E+00
         0.00000E+00
         0.00000E+00
         0.00000E+00
         0.00000E+00
         0.00000E+00
         0.00000E+00
         0.00000E+00
         0.00000E+00
         0.00000E+00
         0.00000E+00
         0.00000E+00
         0.00000E+00
         0.00000E+00
         0.00000E+00
         0.00000E+00
         0.00000E+00
         0.00000E+00
         0.00000E+00
         0.00000E+00
         0.00000E+00
         0.00000E+00
         0.00000E+00
         0.00000E+00
         0.00000E+00
         0.00000E+00
         0.00000E+00
         0.00000E+00
         0.00000E+00
         0.00000E+00
         0.00000E+00
         0.00000E+00
         0.00000E+00
         0.00000E+00
         0.00000E+00
         0.00000E+00
         0.00000E+00
         0.00000E+00
         0.00000E+00
         0.00000E+00
         0.00000E+00
         0.00000E+00
         0.00000E+00
         0.00000E+00
         0.00000E+00
         0.00000E+00
         0.00000E+00
         0.00000E+00
         0.00000E+00
         0.00000E+00
         0.00000E+00
         0.00000E+00
         0.00000E+00
         0.00000E+00
         0.00000E+00
         0.00000E+00
         0.00000E+00
         0.00000E+00
         0.00000E+00
         0.00000E+00
         0.00000E+00
         0.00000E+00
         0.00000E+00
         0.00000E+00
         0.00000E+00
         0.00000E+00
         0.00000E+00
         0.00000E+00
         0.00000E+00
         0.00000E+00
         0.00000E+00
         0.00000E+00
         0.00000E+00
         0.00000E+00
         0.00000E+00
         0.00000E+00
         0.00000E+00
         0.00000E+00
         0.00000E+00
         0.00000E+00
         0.00000E+00
         0.00000E+00
         0.00000E+00
         0.00000E+00
         0.00000E+00
         0.00000E+00
         0.00000E+00
         0.00000E+00
         0.00000E+00
         0.00000E+00
         0.00000E+00
         0.00000E+00
         0.00000E+00
         0.00000E+00
         0.00000E+00
         0.00000E+00
         0.00000E+00
         0.00000E+00
         0.00000E+00
         0.00000E+00
         0.00000E+00
         0.00000E+00
         0.00000E+00
         0.00000E+00
         0.00000E+00
         0.00000E+00
         0.00000E+00
         0.00000E+00
         0.00000E+00
         0.00000E+00
         0.00000E+00
         0.00000E+00
         0.00000E+00
         0.00000E+00
         0.00000E+00
         0.00000E+00
         0.00000E+00
         0.00000E+00
         0.00000E+00
         0.00000E+00
         0.00000E+00
         0.00000E+00
         0.00000E+00
         0.00000E+00
         0.00000E+00
         0.00000E+00
         0.00000E+00
         0.00000E+00
         0.00000E+00
         0.00000E+00
         0.00000E+00
         0.00000E+00
         0.00000E+00
         0.00000E+00
         0.00000E+00
         0.00000E+00
         0.00000E+00
         0.00000E+00
         0.00000E+00
         0.00000E+00
         0.00000E+00
         0.00000E+00
         0.00000E+00
         0.00000E+00
         0.00000E+00
         0.00000E+00
         0.00000E+00
         0.00000E+00
         0.00000E+00
         0.00000E+00
         0.00000E+00
         0.00000E+00
         0.00000E+00
         0.00000E+00
         0.00000E+00
         0.00000E+00
         0.00000E+00
         0.00000E+00
         0.00000E+00
         0.00000E+00
         0.00000E+00
         0.00000E+00
         0.00000E+00
         0.00000E+00
         0.00000E+00
         0.00000E+00
         0.00000E+00
         0.00000E+00
         0.00000E+00
         0.00000E+00
         0.00000E+00
         0.00000E+00
         0.00000E+00
         0.00000E+00
         0.00000E+00
         0.00000E+00
         0.00000E+00
         0.00000E+00
         0.00000E+00
         0.00000E+00
         0.00000E+00
         0.00000E+00
         0.00000E+00
         0.00000E+00
         0.00000E+00
         0.00000E+00
         0.00000E+00
         0.00000E+00
         0.00000E+00
         0.00000E+00
         0.00000E+00
         0.00000E+00
         0.00000E+00
         0.00000E+00
         0.00000E+00
         0.00000E+00
         0.00000E+00
         0.00000E+00
         0.00000E+00
         0.00000E+00
         0.00000E+00
         0.00000E+00
         0.00000E+00
         0.00000E+00
         0.00000E+00
         0.00000E+00
         0.00000E+00
         0.00000E+00
         0.00000E+00
         0.00000E+00
         0.00000E+00
         0.00000E+00
         0.00000E+00
         0.00000E+00
         0.00000E+00
         0.00000E+00
  
SCALARS                   max_wave_vel  double 1
LOOKUP_TABLE default
         0.00000E+00
         0.00000E+00
         0.00000E+00
         0.00000E+00
         0.00000E+00
         0.00000E+00
         0.00000E+00
         0.00000E+00
         0.00000E+00
         0.00000E+00
         0.00000E+00
         0.00000E+00
         0.00000E+00
         0.00000E+00
         0.00000E+00
         0.00000E+00
         0.00000E+00
         0.00000E+00
         0.00000E+00
         0.00000E+00
         0.00000E+00
         0.00000E+00
         0.00000E+00
         0.00000E+00
         0.00000E+00
         0.00000E+00
         0.00000E+00
         0.00000E+00
         0.00000E+00
         0.00000E+00
         0.00000E+00
         0.00000E+00
         0.00000E+00
         0.00000E+00
         0.00000E+00
         0.00000E+00
         0.00000E+00
         0.00000E+00
         0.00000E+00
         0.00000E+00
         0.00000E+00
         0.00000E+00
         0.00000E+00
         0.00000E+00
         0.00000E+00
         0.00000E+00
         0.00000E+00
         0.00000E+00
         0.00000E+00
         0.00000E+00
         0.00000E+00
         0.00000E+00
         0.00000E+00
         0.00000E+00
         0.00000E+00
         0.00000E+00
         0.00000E+00
         0.00000E+00
         0.00000E+00
         0.00000E+00
         0.00000E+00
         0.00000E+00
         0.00000E+00
         0.00000E+00
         0.00000E+00
         0.00000E+00
         0.00000E+00
         0.00000E+00
         0.00000E+00
         0.00000E+00
         0.00000E+00
         0.00000E+00
         0.00000E+00
         0.00000E+00
         0.00000E+00
         0.00000E+00
         0.00000E+00
         0.00000E+00
         0.00000E+00
         0.00000E+00
         0.00000E+00
         0.00000E+00
         0.00000E+00
         0.00000E+00
         0.00000E+00
         0.00000E+00
         0.00000E+00
         0.00000E+00
         0.00000E+00
         0.00000E+00
         0.00000E+00
         0.00000E+00
         0.00000E+00
         0.00000E+00
         0.00000E+00
         0.00000E+00
         0.00000E+00
         0.00000E+00
         0.00000E+00
         0.00000E+00
         0.00000E+00
         0.00000E+00
         0.00000E+00
         0.00000E+00
         0.00000E+00
         0.00000E+00
         0.00000E+00
         0.00000E+00
         0.00000E+00
         0.00000E+00
         0.00000E+00
         0.00000E+00
         0.00000E+00
         0.00000E+00
         0.00000E+00
         0.00000E+00
         0.00000E+00
         0.00000E+00
         0.00000E+00
         0.00000E+00
         0.00000E+00
         0.00000E+00
         0.00000E+00
         0.00000E+00
         0.00000E+00
         0.00000E+00
         0.00000E+00
         0.00000E+00
         0.00000E+00
         0.00000E+00
         0.00000E+00
         0.00000E+00
         0.00000E+00
         0.00000E+00
         0.00000E+00
         0.00000E+00
         0.00000E+00
         0.00000E+00
         0.00000E+00
         0.00000E+00
         0.00000E+00
         0.00000E+00
         0.00000E+00
         0.00000E+00
         0.00000E+00
         0.00000E+00
         0.00000E+00
         0.00000E+00
         0.00000E+00
         0.00000E+00
         0.00000E+00
         0.00000E+00
         0.00000E+00
         0.00000E+00
         0.00000E+00
         0.00000E+00
         0.00000E+00
         0.00000E+00
         0.00000E+00
         0.00000E+00
         0.00000E+00
         0.00000E+00
         0.00000E+00
         0.00000E+00
         0.00000E+00
         0.00000E+00
         0.00000E+00
         0.00000E+00
         0.00000E+00
         0.00000E+00
         0.00000E+00
         0.00000E+00
         0.00000E+00
         0.00000E+00
         0.00000E+00
         0.00000E+00
         0.00000E+00
         0.00000E+00
         0.00000E+00
         0.00000E+00
         0.00000E+00
         0.00000E+00
         0.00000E+00
         0.00000E+00
         0.00000E+00
         0.00000E+00
         0.00000E+00
         0.00000E+00
         0.00000E+00
         0.00000E+00
         0.00000E+00
         0.00000E+00
         0.00000E+00
         0.00000E+00
         0.00000E+00
         0.00000E+00
         0.00000E+00
         0.00000E+00
         0.00000E+00
         0.00000E+00
         0.00000E+00
         0.00000E+00
         0.00000E+00
         0.00000E+00
         0.00000E+00
         0.00000E+00
         0.00000E+00
         0.00000E+00
         0.00000E+00
         0.00000E+00
         0.00000E+00
         0.00000E+00
         0.00000E+00
         0.00000E+00
         0.00000E+00
         0.00000E+00
         0.00000E+00
         0.00000E+00
         0.00000E+00
         0.00000E+00
         0.00000E+00
         0.00000E+00
         0.00000E+00
         0.00000E+00
         0.00000E+00
         0.00000E+00
         0.00000E+00
         0.00000E+00
         0.00000E+00
         0.00000E+00
         0.00000E+00
         0.00000E+00
         0.00000E+00
         0.00000E+00
         0.00000E+00
         0.00000E+00
         0.00000E+00
         0.00000E+00
         0.00000E+00
         0.00000E+00
         0.00000E+00
         0.00000E+00
         0.00000E+00
         0.00000E+00
         0.00000E+00
         0.00000E+00
         0.00000E+00
         0.00000E+00
         0.00000E+00
         0.00000E+00
         0.00000E+00
         0.00000E+00
         0.00000E+00
         0.00000E+00
         0.00000E+00
         0.00000E+00
         0.00000E+00
         0.00000E+00
         0.00000E+00
         0.00000E+00
         0.00000E+00
         0.00000E+00
         0.00000E+00
         0.00000E+00
         0.00000E+00
         0.00000E+00
         0.00000E+00
         0.00000E+00
         0.00000E+00
         0.00000E+00
         0.00000E+00
         0.00000E+00
         0.00000E+00
         0.00000E+00
         0.00000E+00
         0.00000E+00
         0.00000E+00
         0.00000E+00
         0.00000E+00
         0.00000E+00
         0.00000E+00
         0.00000E+00
         0.00000E+00
         0.00000E+00
         0.00000E+00
         0.00000E+00
         0.00000E+00
         0.00000E+00
         0.00000E+00
         0.00000E+00
         0.00000E+00
         0.00000E+00
         0.00000E+00
         0.00000E+00
         0.00000E+00
         0.00000E+00
         0.00000E+00
         0.00000E+00
         0.00000E+00
         0.00000E+00
         0.00000E+00
         0.00000E+00
         0.00000E+00
         0.00000E+00
         0.00000E+00
         0.00000E+00
         0.00000E+00
         0.00000E+00
         0.00000E+00
         0.00000E+00
         0.00000E+00
         0.00000E+00
         0.00000E+00
         0.00000E+00
         0.00000E+00
         0.00000E+00
         0.00000E+00
         0.00000E+00
         0.00000E+00
         0.00000E+00
         0.00000E+00
         0.00000E+00
         0.00000E+00
         0.00000E+00
         0.00000E+00
         0.00000E+00
         0.00000E+00
         0.00000E+00
         0.00000E+00
         0.00000E+00
         0.00000E+00
         0.00000E+00
         0.00000E+00
         0.00000E+00
         0.00000E+00
         0.00000E+00
         0.00000E+00
         0.00000E+00
         0.00000E+00
         0.00000E+00
         0.00000E+00
         0.00000E+00
         0.00000E+00
         0.00000E+00
         0.00000E+00
         0.00000E+00
         0.00000E+00
         0.00000E+00
         0.00000E+00
         0.00000E+00
         0.00000E+00
         0.00000E+00
         0.00000E+00
         0.00000E+00
         0.00000E+00
         0.00000E+00
         0.00000E+00
         0.00000E+00
         0.00000E+00
         0.00000E+00
         0.00000E+00
         0.00000E+00
         0.00000E+00
         0.00000E+00
         0.00000E+00
         0.00000E+00
         0.00000E+00
         0.00000E+00
         0.00000E+00
         0.00000E+00
         0.00000E+00
         0.00000E+00
         0.00000E+00
         0.00000E+00
         0.00000E+00
         0.00000E+00
         0.00000E+00
         0.00000E+00
         0.00000E+00
         0.00000E+00
         0.00000E+00
         0.00000E+00
         0.00000E+00
         0.00000E+00
         0.00000E+00
         0.00000E+00
         0.00000E+00
         0.00000E+00
         0.00000E+00
         0.00000E+00
         0.00000E+00
         0.00000E+00
         0.00000E+00
         0.00000E+00
         0.00000E+00
         0.00000E+00
         0.00000E+00
         0.00000E+00
         0.00000E+00
         0.00000E+00
         0.00000E+00
         0.00000E+00
         0.00000E+00
         0.00000E+00
         0.00000E+00
         0.00000E+00
         0.00000E+00
         0.00000E+00
         0.00000E+00
         0.00000E+00
         0.00000E+00
         0.00000E+00
         0.00000E+00
         0.00000E+00
         0.00000E+00
         0.00000E+00
         0.00000E+00
         0.00000E+00
         0.00000E+00
         0.00000E+00
         0.00000E+00
         0.00000E+00
         0.00000E+00
         0.00000E+00
         0.00000E+00
         0.00000E+00
         0.00000E+00
         0.00000E+00
         0.00000E+00
         0.00000E+00
         0.00000E+00
         0.00000E+00
         0.00000E+00
         0.00000E+00
         0.00000E+00
         0.00000E+00
         0.00000E+00
         0.00000E+00
         0.00000E+00
         0.00000E+00
         0.00000E+00
         0.00000E+00
         0.00000E+00
         0.00000E+00
         0.00000E+00
         0.00000E+00
         0.00000E+00
         0.00000E+00
         0.00000E+00
         0.00000E+00
         0.00000E+00
         0.00000E+00
         0.00000E+00
         0.00000E+00
         0.00000E+00
         0.00000E+00
         0.00000E+00
         0.00000E+00
         0.00000E+00
         0.00000E+00
         0.00000E+00
         0.00000E+00
         0.00000E+00
         0.00000E+00
         0.00000E+00
         0.00000E+00
         0.00000E+00
         0.00000E+00
         0.00000E+00
         0.00000E+00
         0.00000E+00
         0.00000E+00
         0.00000E+00
         0.00000E+00
         0.00000E+00
         0.00000E+00
         0.00000E+00
         0.00000E+00
         0.00000E+00
         0.00000E+00
         0.00000E+00
         0.00000E+00
         0.00000E+00
         0.00000E+00
         0.00000E+00
         0.00000E+00
         0.00000E+00
         0.00000E+00
         0.00000E+00
         0.00000E+00
         0.00000E+00
         0.00000E+00
         0.00000E+00
         0.00000E+00
         0.00000E+00
         0.00000E+00
         0.00000E+00
         0.00000E+00
         0.00000E+00
         0.00000E+00
         0.00000E+00
         0.00000E+00
         0.00000E+00
         0.00000E+00
         0.00000E+00
         0.00000E+00
         0.00000E+00
         0.00000E+00
         0.00000E+00
         0.00000E+00
         0.00000E+00
         0.00000E+00
         0.00000E+00
         0.00000E+00
         0.00000E+00
         0.00000E+00
         0.00000E+00
         0.00000E+00
         0.00000E+00
         0.00000E+00
         0.00000E+00
         0.00000E+00
         0.00000E+00
         0.00000E+00
         0.00000E+00
         0.00000E+00
         0.00000E+00
         0.00000E+00
         0.00000E+00
         0.00000E+00
         0.00000E+00
         0.00000E+00
         0.00000E+00
         0.00000E+00
         0.00000E+00
         0.00000E+00
         0.00000E+00
         0.00000E+00
         0.00000E+00
         0.00000E+00
         0.00000E+00
         0.00000E+00
         0.00000E+00
         0.00000E+00
         0.00000E+00
         0.00000E+00
         0.00000E+00
         0.00000E+00
         0.00000E+00
         0.00000E+00
         0.00000E+00
         0.00000E+00
         0.00000E+00
         0.00000E+00
         0.00000E+00
         0.00000E+00
         0.00000E+00
         0.00000E+00
         0.00000E+00
         0.00000E+00
         0.00000E+00
         0.00000E+00
         0.00000E+00
         0.00000E+00
         0.00000E+00
         0.00000E+00
         0.00000E+00
         0.00000E+00
         0.00000E+00
         0.00000E+00
         0.00000E+00
         0.00000E+00
         0.00000E+00
         0.00000E+00
         0.00000E+00
         0.00000E+00
         0.00000E+00
         0.00000E+00
         0.00000E+00
         0.00000E+00
         0.00000E+00
         0.00000E+00
         0.00000E+00
         0.00000E+00
         0.00000E+00
         0.00000E+00
         0.00000E+00
         0.00000E+00
         0.00000E+00
         0.00000E+00
         0.00000E+00
         0.00000E+00
         0.00000E+00
         0.00000E+00
         0.00000E+00
         0.00000E+00
         0.00000E+00
         0.00000E+00
         0.00000E+00
         0.00000E+00
         0.00000E+00
         0.00000E+00
         0.00000E+00
         0.00000E+00
         0.00000E+00
         0.00000E+00
         0.00000E+00
         0.00000E+00
         0.00000E+00
         0.00000E+00
         0.00000E+00
         0.00000E+00
         0.00000E+00
         0.00000E+00
         0.00000E+00
         0.00000E+00
         0.00000E+00
         0.00000E+00
         0.00000E+00
         0.00000E+00
         0.00000E+00
         0.00000E+00
         0.00000E+00
         0.00000E+00
         0.00000E+00
         0.00000E+00
         0.00000E+00
         0.00000E+00
         0.00000E+00
         0.00000E+00
         0.00000E+00
         0.00000E+00
         0.00000E+00
         0.00000E+00
         0.00000E+00
         0.00000E+00
         0.00000E+00
         0.00000E+00
         0.00000E+00
         0.00000E+00
         0.00000E+00
         0.00000E+00
         0.00000E+00
         0.00000E+00
         0.00000E+00
         0.00000E+00
         0.00000E+00
         0.00000E+00
         0.00000E+00
         0.00000E+00
         0.00000E+00
         0.00000E+00
         0.00000E+00
         0.00000E+00
         0.00000E+00
         0.00000E+00
         0.00000E+00
         0.00000E+00
         0.00000E+00
         0.00000E+00
         0.00000E+00
         0.00000E+00
         0.00000E+00
         0.00000E+00
         0.00000E+00
         0.00000E+00
         0.00000E+00
         0.00000E+00
         0.00000E+00
         0.00000E+00
         0.00000E+00
         0.00000E+00
         0.00000E+00
         0.00000E+00
         0.00000E+00
         0.00000E+00
         0.00000E+00
         0.00000E+00
         0.00000E+00
         0.00000E+00
         0.00000E+00
         0.00000E+00
         0.00000E+00
         0.00000E+00
         0.00000E+00
         0.00000E+00
         0.00000E+00
         0.00000E+00
         0.00000E+00
         0.00000E+00
         0.00000E+00
         0.00000E+00
         0.00000E+00
         0.00000E+00
         0.00000E+00
         0.00000E+00
         0.00000E+00
         0.00000E+00
         0.00000E+00
         0.00000E+00
         0.00000E+00
         0.00000E+00
         0.00000E+00
         0.00000E+00
         0.00000E+00
         0.00000E+00
         0.00000E+00
         0.00000E+00
         0.00000E+00
         0.00000E+00
         0.00000E+00
         0.00000E+00
         0.00000E+00
         0.00000E+00
         0.00000E+00
         0.00000E+00
         0.00000E+00
         0.00000E+00
         0.00000E+00
         0.00000E+00
         0.00000E+00
         0.00000E+00
         0.00000E+00
         0.00000E+00
         0.00000E+00
         0.00000E+00
         0.00000E+00
         0.00000E+00
         0.00000E+00
         0.00000E+00
         0.00000E+00
         0.00000E+00
         0.00000E+00
         0.00000E+00
         0.00000E+00
         0.00000E+00
         0.00000E+00
         0.00000E+00
         0.00000E+00
         0.00000E+00
         0.00000E+00
         0.00000E+00
         0.00000E+00
         0.00000E+00
         0.00000E+00
         0.00000E+00
         0.00000E+00
         0.00000E+00
         0.00000E+00
         0.00000E+00
         0.00000E+00
         0.00000E+00
         0.00000E+00
         0.00000E+00
         0.00000E+00
         0.00000E+00
         0.00000E+00
         0.00000E+00
         0.00000E+00
         0.00000E+00
         0.00000E+00
         0.00000E+00
         0.00000E+00
         0.00000E+00
         0.00000E+00
         0.00000E+00
         0.00000E+00
         0.00000E+00
         0.00000E+00
         0.00000E+00
         0.00000E+00
         0.00000E+00
         0.00000E+00
         0.00000E+00
         0.00000E+00
         0.00000E+00
         0.00000E+00
         0.00000E+00
         0.00000E+00
         0.00000E+00
         0.00000E+00
         0.00000E+00
         0.00000E+00
         0.00000E+00
         0.00000E+00
         0.00000E+00
         0.00000E+00
         0.00000E+00
         0.00000E+00
         0.00000E+00
         0.00000E+00
         0.00000E+00
         0.00000E+00
         0.00000E+00
         0.00000E+00
         0.00000E+00
         0.00000E+00
         0.00000E+00
         0.00000E+00
         0.00000E+00
         0.00000E+00
         0.00000E+00
         0.00000E+00
         0.00000E+00
         0.00000E+00
         0.00000E+00
         0.00000E+00
         0.00000E+00
         0.00000E+00
         0.00000E+00
         0.00000E+00
         0.00000E+00
         0.00000E+00
         0.00000E+00
         0.00000E+00
         0.00000E+00
         0.00000E+00
         0.00000E+00
         0.00000E+00
         0.00000E+00
         0.00000E+00
         0.00000E+00
         0.00000E+00
         0.00000E+00
         0.00000E+00
         0.00000E+00
         0.00000E+00
         0.00000E+00
         0.00000E+00
         0.00000E+00
         0.00000E+00
         0.00000E+00
         0.00000E+00
         0.00000E+00
         0.00000E+00
         0.00000E+00
         0.00000E+00
         0.00000E+00
         0.00000E+00
         0.00000E+00
         0.00000E+00
         0.00000E+00
         0.00000E+00
         0.00000E+00
         0.00000E+00
         0.00000E+00
         0.00000E+00
         0.00000E+00
         0.00000E+00
         0.00000E+00
         0.00000E+00
         0.00000E+00
         0.00000E+00
         0.00000E+00
         0.00000E+00
         0.00000E+00
         0.00000E+00
         0.00000E+00
         0.00000E+00
         0.00000E+00
         0.00000E+00
         0.00000E+00
         0.00000E+00
         0.00000E+00
         0.00000E+00
         0.00000E+00
         0.00000E+00
         0.00000E+00
         0.00000E+00
         0.00000E+00
         0.00000E+00
         0.00000E+00
         0.00000E+00
         0.00000E+00
         0.00000E+00
         0.00000E+00
         0.00000E+00
         0.00000E+00
         0.00000E+00
         0.00000E+00
         0.00000E+00
         0.00000E+00
         0.00000E+00
         0.00000E+00
         0.00000E+00
         0.00000E+00
         0.00000E+00
         0.00000E+00
         0.00000E+00
         0.00000E+00
         0.00000E+00
         0.00000E+00
         0.00000E+00
         0.00000E+00
         0.00000E+00
         0.00000E+00
         0.00000E+00
         0.00000E+00
         0.00000E+00
         0.00000E+00
         0.00000E+00
         0.00000E+00
         0.00000E+00
         0.00000E+00
         0.00000E+00
         0.00000E+00
         0.00000E+00
         0.00000E+00
         0.00000E+00
         0.00000E+00
         0.00000E+00
         0.00000E+00
         0.00000E+00
         0.00000E+00
         0.00000E+00
         0.00000E+00
         0.00000E+00
         0.00000E+00
         0.00000E+00
         0.00000E+00
         0.00000E+00
         0.00000E+00
         0.00000E+00
         0.00000E+00
         0.00000E+00
         0.00000E+00
         0.00000E+00
         0.00000E+00
         0.00000E+00
         0.00000E+00
         0.00000E+00
         0.00000E+00
         0.00000E+00
         0.00000E+00
         0.00000E+00
         0.00000E+00
         0.00000E+00
         0.00000E+00
         0.00000E+00
         0.00000E+00
         0.00000E+00
         0.00000E+00
         0.00000E+00
         0.00000E+00
         0.00000E+00
         0.00000E+00
         0.00000E+00
         0.00000E+00
         0.00000E+00
         0.00000E+00
         0.00000E+00
         0.00000E+00
         0.00000E+00
         0.00000E+00
         0.00000E+00
         0.00000E+00
         0.00000E+00
         0.00000E+00
         0.00000E+00
         0.00000E+00
         0.00000E+00
         0.00000E+00
         0.00000E+00
         0.00000E+00
         0.00000E+00
         0.00000E+00
         0.00000E+00
         0.00000E+00
         0.00000E+00
         0.00000E+00
         0.00000E+00
         0.00000E+00
         0.00000E+00
         0.00000E+00
         0.00000E+00
         0.00000E+00
         0.00000E+00
         0.00000E+00
         0.00000E+00
         0.00000E+00
         0.00000E+00
         0.00000E+00
         0.00000E+00
         0.00000E+00
         0.00000E+00
         0.00000E+00
         0.00000E+00
         0.00000E+00
         0.00000E+00
         0.00000E+00
         0.00000E+00
         0.00000E+00
         0.00000E+00
         0.00000E+00
         0.00000E+00
         0.00000E+00
         0.00000E+00
         0.00000E+00
         0.00000E+00
         0.00000E+00
         0.00000E+00
         0.00000E+00
         0.00000E+00
         0.00000E+00
         0.00000E+00
         0.00000E+00
         0.00000E+00
         0.00000E+00
         0.00000E+00
         0.00000E+00
         0.00000E+00
         0.00000E+00
         0.00000E+00
         0.00000E+00
         0.00000E+00
         0.00000E+00
         0.00000E+00
         0.00000E+00
         0.00000E+00
         0.00000E+00
         0.00000E+00
         0.00000E+00
         0.00000E+00
         0.00000E+00
         0.00000E+00
         0.00000E+00
         0.00000E+00
         0.00000E+00
         0.00000E+00
         0.00000E+00
         0.00000E+00
         0.00000E+00
         0.00000E+00
         0.00000E+00
         0.00000E+00
         0.00000E+00
         0.00000E+00
         0.00000E+00
         0.00000E+00
         0.00000E+00
         0.00000E+00
         0.00000E+00
         0.00000E+00
         0.00000E+00
         0.00000E+00
         0.00000E+00
         0.00000E+00
         0.00000E+00
         0.00000E+00
         0.00000E+00
         0.00000E+00
         0.00000E+00
         0.00000E+00
         0.00000E+00
         0.00000E+00
         0.00000E+00
         0.00000E+00
         0.00000E+00
         0.00000E+00
         0.00000E+00
         0.00000E+00
         0.00000E+00
         0.00000E+00
         0.00000E+00
         0.00000E+00
         0.00000E+00
         0.00000E+00
         0.00000E+00
         0.00000E+00
         0.00000E+00
         0.00000E+00
         0.00000E+00
         0.00000E+00
         0.00000E+00
         0.00000E+00
         0.00000E+00
         0.00000E+00
         0.00000E+00
         0.00000E+00
         0.00000E+00
         0.00000E+00
         0.00000E+00
         0.00000E+00
         0.00000E+00
         0.00000E+00
         0.00000E+00
         0.00000E+00
         0.00000E+00
         0.00000E+00
         0.00000E+00
         0.00000E+00
         0.00000E+00
         0.00000E+00
         0.00000E+00
         0.00000E+00
         0.00000E+00
         0.00000E+00
         0.00000E+00
         0.00000E+00
         0.00000E+00
         0.00000E+00
         0.00000E+00
         0.00000E+00
         0.00000E+00
         0.00000E+00
         0.00000E+00
         0.00000E+00
         0.00000E+00
         0.00000E+00
         0.00000E+00
         0.00000E+00
         0.00000E+00
         0.00000E+00
         0.00000E+00
         0.00000E+00
         0.00000E+00
         0.00000E+00
         0.00000E+00
         0.00000E+00
         0.00000E+00
         0.00000E+00
         0.00000E+00
         0.00000E+00
         0.00000E+00
         0.00000E+00
         0.00000E+00
         0.00000E+00
         0.00000E+00
         0.00000E+00
         0.00000E+00
         0.00000E+00
         0.00000E+00
         0.00000E+00
         0.00000E+00
         0.00000E+00
         0.00000E+00
         0.00000E+00
         0.00000E+00
         0.00000E+00
         0.00000E+00
         0.00000E+00
         0.00000E+00
         0.00000E+00
         0.00000E+00
         0.00000E+00
         0.00000E+00
         0.00000E+00
         0.00000E+00
         0.00000E+00
         0.00000E+00
         0.00000E+00
         0.00000E+00
         0.00000E+00
         0.00000E+00
         0.00000E+00
         0.00000E+00
         0.00000E+00
         0.00000E+00
         0.00000E+00
         0.00000E+00
         0.00000E+00
         0.00000E+00
         0.00000E+00
         0.00000E+00
         0.00000E+00
         0.00000E+00
         0.00000E+00
         0.00000E+00
         0.00000E+00
         0.00000E+00
         0.00000E+00
         0.00000E+00
         0.00000E+00
         0.00000E+00
         0.00000E+00
         0.00000E+00
         0.00000E+00
         0.00000E+00
         0.00000E+00
         0.00000E+00
         0.00000E+00
         0.00000E+00
         0.00000E+00
         0.00000E+00
         0.00000E+00
         0.00000E+00
         0.00000E+00
         0.00000E+00
         0.00000E+00
         0.00000E+00
         0.00000E+00
         0.00000E+00
         0.00000E+00
         0.00000E+00
         0.00000E+00
         0.00000E+00
         0.00000E+00
         0.00000E+00
         0.00000E+00
         0.00000E+00
         0.00000E+00
         0.00000E+00
         0.00000E+00
         0.00000E+00
         0.00000E+00
         0.00000E+00
         0.00000E+00
         0.00000E+00
         0.00000E+00
         0.00000E+00
         0.00000E+00
         0.00000E+00
         0.00000E+00
         0.00000E+00
         0.00000E+00
         0.00000E+00
         0.00000E+00
         0.00000E+00
         0.00000E+00
         0.00000E+00
         0.00000E+00
         0.00000E+00
         0.00000E+00
         0.00000E+00
         0.00000E+00
         0.00000E+00
         0.00000E+00
         0.00000E+00
         0.00000E+00
         0.00000E+00
         0.00000E+00
         0.00000E+00
         0.00000E+00
         0.00000E+00
         0.00000E+00
         0.00000E+00
         0.00000E+00
         0.00000E+00
         0.00000E+00
         0.00000E+00
         0.00000E+00
         0.00000E+00
         0.00000E+00
         0.00000E+00
         0.00000E+00
         0.00000E+00
         0.00000E+00
         0.00000E+00
         0.00000E+00
         0.00000E+00
         0.00000E+00
         0.00000E+00
         0.00000E+00
         0.00000E+00
         0.00000E+00
         0.00000E+00
         0.00000E+00
         0.00000E+00
         0.00000E+00
         0.00000E+00
         0.00000E+00
         0.00000E+00
         0.00000E+00
         0.00000E+00
         0.00000E+00
         0.00000E+00
         0.00000E+00
         0.00000E+00
         0.00000E+00
         0.00000E+00
         0.00000E+00
         0.00000E+00
         0.00000E+00
         0.00000E+00
         0.00000E+00
         0.00000E+00
         0.00000E+00
         0.00000E+00
         0.00000E+00
         0.00000E+00
         0.00000E+00
         0.00000E+00
         0.00000E+00
         0.00000E+00
         0.00000E+00
         0.00000E+00
         0.00000E+00
         0.00000E+00
         0.00000E+00
         0.00000E+00
         0.00000E+00
         0.00000E+00
         0.00000E+00
         0.00000E+00
         0.00000E+00
         0.00000E+00
         0.00000E+00
         0.00000E+00
         0.00000E+00
         0.00000E+00
         0.00000E+00
         0.00000E+00
         0.00000E+00
         0.00000E+00
         0.00000E+00
         0.00000E+00
         0.00000E+00
         0.00000E+00
         0.00000E+00
         0.00000E+00
         0.00000E+00
         0.00000E+00
         0.00000E+00
         0.00000E+00
         0.00000E+00
         0.00000E+00
         0.00000E+00
         0.00000E+00
         0.00000E+00
         0.00000E+00
         0.00000E+00
         0.00000E+00
         0.00000E+00
         0.00000E+00
         0.00000E+00
         0.00000E+00
         0.00000E+00
         0.00000E+00
         0.00000E+00
         0.00000E+00
         0.00000E+00
         0.00000E+00
         0.00000E+00
         0.00000E+00
         0.00000E+00
         0.00000E+00
         0.00000E+00
         0.00000E+00
         0.00000E+00
         0.00000E+00
         0.00000E+00
         0.00000E+00
         0.00000E+00
         0.00000E+00
         0.00000E+00
         0.00000E+00
         0.00000E+00
         0.00000E+00
         0.00000E+00
         0.00000E+00
         0.00000E+00
         0.00000E+00
         0.00000E+00
         0.00000E+00
         0.00000E+00
         0.00000E+00
         0.00000E+00
         0.00000E+00
         0.00000E+00
         0.00000E+00
         0.00000E+00
         0.00000E+00
         0.00000E+00
         0.00000E+00
         0.00000E+00
         0.00000E+00
         0.00000E+00
         0.00000E+00
         0.00000E+00
         0.00000E+00
         0.00000E+00
         0.00000E+00
         0.00000E+00
         0.00000E+00
         0.00000E+00
         0.00000E+00
         0.00000E+00
         0.00000E+00
         0.00000E+00
         0.00000E+00
         0.00000E+00
         0.00000E+00
         0.00000E+00
         0.00000E+00
         0.00000E+00
         0.00000E+00
         0.00000E+00
         0.00000E+00
         0.00000E+00
         0.00000E+00
         0.00000E+00
         0.00000E+00
         0.00000E+00
         0.00000E+00
         0.00000E+00
         0.00000E+00
         0.00000E+00
         0.00000E+00
         0.00000E+00
         0.00000E+00
         0.00000E+00
         0.00000E+00
         0.00000E+00
         0.00000E+00
         0.00000E+00
         0.00000E+00
         0.00000E+00
         0.00000E+00
         0.00000E+00
         0.00000E+00
         0.00000E+00
         0.00000E+00
         0.00000E+00
         0.00000E+00
         0.00000E+00
         0.00000E+00
         0.00000E+00
         0.00000E+00
         0.00000E+00
         0.00000E+00
         0.00000E+00
         0.00000E+00
         0.00000E+00
         0.00000E+00
         0.00000E+00
         0.00000E+00
         0.00000E+00
         0.00000E+00
         0.00000E+00
         0.00000E+00
         0.00000E+00
         0.00000E+00
         0.00000E+00
         0.00000E+00
         0.00000E+00
         0.00000E+00
         0.00000E+00
         0.00000E+00
         0.00000E+00
         0.00000E+00
         0.00000E+00
         0.00000E+00
         0.00000E+00
         0.00000E+00
         0.00000E+00
         0.00000E+00
         0.00000E+00
         0.00000E+00
         0.00000E+00
         0.00000E+00
         0.00000E+00
         0.00000E+00
         0.00000E+00
         0.00000E+00
         0.00000E+00
         0.00000E+00
         0.00000E+00
         0.00000E+00
         0.00000E+00
         0.00000E+00
         0.00000E+00
         0.00000E+00
         0.00000E+00
         0.00000E+00
         0.00000E+00
         0.00000E+00
         0.00000E+00
         0.00000E+00
         0.00000E+00
         0.00000E+00
         0.00000E+00
         0.00000E+00
         0.00000E+00
         0.00000E+00
         0.00000E+00
         0.00000E+00
         0.00000E+00
         0.00000E+00
         0.00000E+00
         0.00000E+00
         0.00000E+00
         0.00000E+00
         0.00000E+00
         0.00000E+00
         0.00000E+00
         0.00000E+00
         0.00000E+00
         0.00000E+00
         0.00000E+00
         0.00000E+00
         0.00000E+00
         0.00000E+00
         0.00000E+00
         0.00000E+00
         0.00000E+00
         0.00000E+00
         0.00000E+00
         0.00000E+00
         0.00000E+00
         0.00000E+00
         0.00000E+00
         0.00000E+00
         0.00000E+00
         0.00000E+00
         0.00000E+00
         0.00000E+00
         0.00000E+00
         0.00000E+00
         0.00000E+00
         0.00000E+00
         0.00000E+00
         0.00000E+00
         0.00000E+00
         0.00000E+00
         0.00000E+00
         0.00000E+00
         0.00000E+00
         0.00000E+00
         0.00000E+00
         0.00000E+00
         0.00000E+00
         0.00000E+00
         0.00000E+00
         0.00000E+00
         0.00000E+00
         0.00000E+00
         0.00000E+00
         0.00000E+00
         0.00000E+00
         0.00000E+00
         0.00000E+00
         0.00000E+00
         0.00000E+00
         0.00000E+00
         0.00000E+00
         0.00000E+00
         0.00000E+00
         0.00000E+00
         0.00000E+00
         0.00000E+00
         0.00000E+00
         0.00000E+00
         0.00000E+00
         0.00000E+00
         0.00000E+00
         0.00000E+00
         0.00000E+00
         0.00000E+00
         0.00000E+00
         0.00000E+00
         0.00000E+00
         0.00000E+00
         0.00000E+00
         0.00000E+00
         0.00000E+00
         0.00000E+00
         0.00000E+00
         0.00000E+00
         0.00000E+00
         0.00000E+00
         0.00000E+00
         0.00000E+00
         0.00000E+00
         0.00000E+00
         0.00000E+00
         0.00000E+00
         0.00000E+00
         0.00000E+00
         0.00000E+00
         0.00000E+00
         0.00000E+00
         0.00000E+00
         0.00000E+00
         0.00000E+00
         0.00000E+00
         0.00000E+00
         0.00000E+00
         0.00000E+00
         0.00000E+00
         0.00000E+00
         0.00000E+00
         0.00000E+00
         0.00000E+00
         0.00000E+00
         0.00000E+00
         0.00000E+00
         0.00000E+00
         0.00000E+00
         0.00000E+00
         0.00000E+00
         0.00000E+00
         0.00000E+00
         0.00000E+00
         0.00000E+00
         0.00000E+00
         0.00000E+00
         0.00000E+00
         0.00000E+00
         0.00000E+00
         0.00000E+00
         0.00000E+00
         0.00000E+00
         0.00000E+00
         0.00000E+00
         0.00000E+00
         0.00000E+00
         0.00000E+00
         0.00000E+00
         0.00000E+00
         0.00000E+00
         0.00000E+00
         0.00000E+00
         0.00000E+00
         0.00000E+00
         0.00000E+00
         0.00000E+00
         0.00000E+00
         0.00000E+00
         0.00000E+00
         0.00000E+00
         0.00000E+00
         0.00000E+00
         0.00000E+00
         0.00000E+00
         0.00000E+00
         0.00000E+00
         0.00000E+00
         0.00000E+00
         0.00000E+00
         0.00000E+00
         0.00000E+00
         0.00000E+00
         0.00000E+00
         0.00000E+00
         0.00000E+00
         0.00000E+00
         0.00000E+00
         0.00000E+00
         0.00000E+00
         0.00000E+00
         0.00000E+00
         0.00000E+00
         0.00000E+00
         0.00000E+00
         0.00000E+00
         0.00000E+00
         0.00000E+00
         0.00000E+00
         0.00000E+00
         0.00000E+00
         0.00000E+00
         0.00000E+00
         0.00000E+00
         0.00000E+00
         0.00000E+00
         0.00000E+00
         0.00000E+00
         0.00000E+00
         0.00000E+00
         0.00000E+00
         0.00000E+00
         0.00000E+00
         0.00000E+00
         0.00000E+00
         0.00000E+00
         0.00000E+00
         0.00000E+00
         0.00000E+00
         0.00000E+00
         0.00000E+00
         0.00000E+00
         0.00000E+00
         0.00000E+00
         0.00000E+00
         0.00000E+00
         0.00000E+00
         0.00000E+00
         0.00000E+00
         0.00000E+00
         0.00000E+00
         0.00000E+00
         0.00000E+00
         0.00000E+00
         0.00000E+00
         0.00000E+00
         0.00000E+00
         0.00000E+00
         0.00000E+00
         0.00000E+00
         0.00000E+00
         0.00000E+00
         0.00000E+00
         0.00000E+00
         0.00000E+00
         0.00000E+00
         0.00000E+00
         0.00000E+00
         0.00000E+00
         0.00000E+00
         0.00000E+00
         0.00000E+00
         0.00000E+00
         0.00000E+00
         0.00000E+00
         0.00000E+00
         0.00000E+00
         0.00000E+00
         0.00000E+00
         0.00000E+00
         0.00000E+00
         0.00000E+00
         0.00000E+00
         0.00000E+00
         0.00000E+00
         0.00000E+00
         0.00000E+00
         0.00000E+00
         0.00000E+00
         0.00000E+00
         0.00000E+00
         0.00000E+00
         0.00000E+00
         0.00000E+00
         0.00000E+00
         0.00000E+00
         0.00000E+00
         0.00000E+00
         0.00000E+00
         0.00000E+00
         0.00000E+00
         0.00000E+00
         0.00000E+00
         0.00000E+00
         0.00000E+00
         0.00000E+00
         0.00000E+00
         0.00000E+00
         0.00000E+00
         0.00000E+00
         0.00000E+00
         0.00000E+00
         0.00000E+00
         0.00000E+00
         0.00000E+00
         0.00000E+00
         0.00000E+00
         0.00000E+00
         0.00000E+00
         0.00000E+00
         0.00000E+00
         0.00000E+00
         0.00000E+00
         0.00000E+00
         0.00000E+00
         0.00000E+00
         0.00000E+00
         0.00000E+00
         0.00000E+00
         0.00000E+00
         0.00000E+00
         0.00000E+00
         0.00000E+00
         0.00000E+00
         0.00000E+00
         0.00000E+00
         0.00000E+00
         0.00000E+00
         0.00000E+00
         0.00000E+00
         0.00000E+00
         0.00000E+00
         0.00000E+00
         0.00000E+00
         0.00000E+00
         0.00000E+00
         0.00000E+00
         0.00000E+00
         0.00000E+00
         0.00000E+00
         0.00000E+00
         0.00000E+00
         0.00000E+00
         0.00000E+00
         0.00000E+00
         0.00000E+00
         0.00000E+00
         0.00000E+00
         0.00000E+00
         0.00000E+00
         0.00000E+00
         0.00000E+00
         0.00000E+00
         0.00000E+00
         0.00000E+00
         0.00000E+00
         0.00000E+00
         0.00000E+00
         0.00000E+00
         0.00000E+00
         0.00000E+00
         0.00000E+00
         0.00000E+00
         0.00000E+00
         0.00000E+00
         0.00000E+00
         0.00000E+00
         0.00000E+00
         0.00000E+00
         0.00000E+00
         0.00000E+00
         0.00000E+00
         0.00000E+00
         0.00000E+00
         0.00000E+00
         0.00000E+00
         0.00000E+00
         0.00000E+00
         0.00000E+00
         0.00000E+00
         0.00000E+00
         0.00000E+00
         0.00000E+00
         0.00000E+00
         0.00000E+00
         0.00000E+00
         0.00000E+00
         0.00000E+00
         0.00000E+00
         0.00000E+00
         0.00000E+00
         0.00000E+00
         0.00000E+00
         0.00000E+00
         0.00000E+00
         0.00000E+00
         0.00000E+00
         0.00000E+00
         0.00000E+00
         0.00000E+00
         0.00000E+00
         0.00000E+00
         0.00000E+00
         0.00000E+00
         0.00000E+00
         0.00000E+00
         0.00000E+00
         0.00000E+00
         0.00000E+00
         0.00000E+00
         0.00000E+00
         0.00000E+00
         0.00000E+00
         0.00000E+00
         0.00000E+00
         0.00000E+00
         0.00000E+00
         0.00000E+00
         0.00000E+00
         0.00000E+00
         0.00000E+00
         0.00000E+00
         0.00000E+00
         0.00000E+00
         0.00000E+00
         0.00000E+00
         0.00000E+00
         0.00000E+00
         0.00000E+00
         0.00000E+00
         0.00000E+00
         0.00000E+00
         0.00000E+00
         0.00000E+00
         0.00000E+00
         0.00000E+00
         0.00000E+00
         0.00000E+00
         0.00000E+00
         0.00000E+00
         0.00000E+00
         0.00000E+00
         0.00000E+00
         0.00000E+00
         0.00000E+00
         0.00000E+00
         0.00000E+00
         0.00000E+00
         0.00000E+00
         0.00000E+00
         0.00000E+00
         0.00000E+00
         0.00000E+00
         0.00000E+00
         0.00000E+00
         0.00000E+00
         0.00000E+00
         0.00000E+00
         0.00000E+00
         0.00000E+00
         0.00000E+00
         0.00000E+00
         0.00000E+00
         0.00000E+00
         0.00000E+00
         0.00000E+00
         0.00000E+00
         0.00000E+00
         0.00000E+00
         0.00000E+00
         0.00000E+00
         0.00000E+00
         0.00000E+00
         0.00000E+00
         0.00000E+00
         0.00000E+00
         0.00000E+00
         0.00000E+00
         0.00000E+00
         0.00000E+00
         0.00000E+00
         0.00000E+00
         0.00000E+00
         0.00000E+00
         0.00000E+00
         0.00000E+00
         0.00000E+00
         0.00000E+00
         0.00000E+00
         0.00000E+00
         0.00000E+00
         0.00000E+00
         0.00000E+00
         0.00000E+00
         0.00000E+00
         0.00000E+00
         0.00000E+00
         0.00000E+00
         0.00000E+00
         0.00000E+00
         0.00000E+00
         0.00000E+00
         0.00000E+00
         0.00000E+00
         0.00000E+00
         0.00000E+00
         0.00000E+00
         0.00000E+00
         0.00000E+00
         0.00000E+00
         0.00000E+00
  
SCALARS                      eps_shear  double 1
LOOKUP_TABLE default
         0.00000E+00
         0.00000E+00
         0.00000E+00
         0.00000E+00
         0.00000E+00
         0.00000E+00
         0.00000E+00
         0.00000E+00
         0.00000E+00
         0.00000E+00
         0.00000E+00
         0.00000E+00
         0.00000E+00
         0.00000E+00
         0.00000E+00
         0.00000E+00
         0.00000E+00
         0.00000E+00
         0.00000E+00
         0.00000E+00
         0.00000E+00
         0.00000E+00
         0.00000E+00
         0.00000E+00
         0.00000E+00
         0.00000E+00
         0.00000E+00
         0.00000E+00
         0.00000E+00
         0.00000E+00
         0.00000E+00
         0.00000E+00
         0.00000E+00
         0.00000E+00
         0.00000E+00
         0.00000E+00
         0.00000E+00
         0.00000E+00
         0.00000E+00
         0.00000E+00
         0.00000E+00
         0.00000E+00
         0.00000E+00
         0.00000E+00
         0.00000E+00
         0.00000E+00
         0.00000E+00
         0.00000E+00
         0.00000E+00
         0.00000E+00
         0.00000E+00
         0.00000E+00
         0.00000E+00
         0.00000E+00
         0.00000E+00
         0.00000E+00
         0.00000E+00
         0.00000E+00
         0.00000E+00
         0.00000E+00
         0.00000E+00
         0.00000E+00
         0.00000E+00
         0.00000E+00
         0.00000E+00
         0.00000E+00
         0.00000E+00
         0.00000E+00
         0.00000E+00
         0.00000E+00
         0.00000E+00
         0.00000E+00
         0.00000E+00
         0.00000E+00
         0.00000E+00
         0.00000E+00
         0.00000E+00
         0.00000E+00
         0.00000E+00
         0.00000E+00
         0.00000E+00
         0.00000E+00
         0.00000E+00
         0.00000E+00
         0.00000E+00
         0.00000E+00
         0.00000E+00
         0.00000E+00
         0.00000E+00
         0.00000E+00
         0.00000E+00
         0.00000E+00
         0.00000E+00
         0.00000E+00
         0.00000E+00
         0.00000E+00
         0.00000E+00
         0.00000E+00
         0.00000E+00
         0.00000E+00
         0.00000E+00
         0.00000E+00
         0.00000E+00
         0.00000E+00
         0.00000E+00
         0.00000E+00
         0.00000E+00
         0.00000E+00
         0.00000E+00
         0.00000E+00
         0.00000E+00
         0.00000E+00
         0.00000E+00
         0.00000E+00
         0.00000E+00
         0.00000E+00
         0.00000E+00
         0.00000E+00
         0.00000E+00
         0.00000E+00
         0.00000E+00
         0.00000E+00
         0.00000E+00
         0.00000E+00
         0.00000E+00
         0.00000E+00
         0.00000E+00
         0.00000E+00
         0.00000E+00
         0.00000E+00
         0.00000E+00
         0.00000E+00
         0.00000E+00
         0.00000E+00
         0.00000E+00
         0.00000E+00
         0.00000E+00
         0.00000E+00
         0.00000E+00
         0.00000E+00
         0.00000E+00
         0.00000E+00
         0.00000E+00
         0.00000E+00
         0.00000E+00
         0.00000E+00
         0.00000E+00
         0.00000E+00
         0.00000E+00
         0.00000E+00
         0.00000E+00
         0.00000E+00
         0.00000E+00
         0.00000E+00
         0.00000E+00
         0.00000E+00
         0.00000E+00
         0.00000E+00
         0.00000E+00
         0.00000E+00
         0.00000E+00
         0.00000E+00
         0.00000E+00
         0.00000E+00
         0.00000E+00
         0.00000E+00
         0.00000E+00
         0.00000E+00
         0.00000E+00
         0.00000E+00
         0.00000E+00
         0.00000E+00
         0.00000E+00
         0.00000E+00
         0.00000E+00
         0.00000E+00
         0.00000E+00
         0.00000E+00
         0.00000E+00
         0.00000E+00
         0.00000E+00
         0.00000E+00
         0.00000E+00
         0.00000E+00
         0.00000E+00
         0.00000E+00
         0.00000E+00
         0.00000E+00
         0.00000E+00
         0.00000E+00
         0.00000E+00
         0.00000E+00
         0.00000E+00
         0.00000E+00
         0.00000E+00
         0.00000E+00
         0.00000E+00
         0.00000E+00
         0.00000E+00
         0.00000E+00
         0.00000E+00
         0.00000E+00
         0.00000E+00
         0.00000E+00
         0.00000E+00
         0.00000E+00
         0.00000E+00
         0.00000E+00
         0.00000E+00
         0.00000E+00
         0.00000E+00
         0.00000E+00
         0.00000E+00
         0.00000E+00
         0.00000E+00
         0.00000E+00
         0.00000E+00
         0.00000E+00
         0.00000E+00
         0.00000E+00
         0.00000E+00
         0.00000E+00
         0.00000E+00
         0.00000E+00
         0.00000E+00
         0.00000E+00
         0.00000E+00
         0.00000E+00
         0.00000E+00
         0.00000E+00
         0.00000E+00
         0.00000E+00
         0.00000E+00
         0.00000E+00
         0.00000E+00
         0.00000E+00
         0.00000E+00
         0.00000E+00
         0.00000E+00
         0.00000E+00
         0.00000E+00
         0.00000E+00
         0.00000E+00
         0.00000E+00
         0.00000E+00
         0.00000E+00
         0.00000E+00
         0.00000E+00
         0.00000E+00
         0.00000E+00
         0.00000E+00
         0.00000E+00
         0.00000E+00
         0.00000E+00
         0.00000E+00
         0.00000E+00
         0.00000E+00
         0.00000E+00
         0.00000E+00
         0.00000E+00
         0.00000E+00
         0.00000E+00
         0.00000E+00
         0.00000E+00
         0.00000E+00
         0.00000E+00
         0.00000E+00
         0.00000E+00
         0.00000E+00
         0.00000E+00
         0.00000E+00
         0.00000E+00
         0.00000E+00
         0.00000E+00
         0.00000E+00
         0.00000E+00
         0.00000E+00
         0.00000E+00
         0.00000E+00
         0.00000E+00
         0.00000E+00
         0.00000E+00
         0.00000E+00
         0.00000E+00
         0.00000E+00
         0.00000E+00
         0.00000E+00
         0.00000E+00
         0.00000E+00
         0.00000E+00
         0.00000E+00
         0.00000E+00
         0.00000E+00
         0.00000E+00
         0.00000E+00
         0.00000E+00
         0.00000E+00
         0.00000E+00
         0.00000E+00
         0.00000E+00
         0.00000E+00
         0.00000E+00
         0.00000E+00
         0.00000E+00
         0.00000E+00
         0.00000E+00
         0.00000E+00
         0.00000E+00
         0.00000E+00
         0.00000E+00
         0.00000E+00
         0.00000E+00
         0.00000E+00
         0.00000E+00
         0.00000E+00
         0.00000E+00
         0.00000E+00
         0.00000E+00
         0.00000E+00
         0.00000E+00
         0.00000E+00
         0.00000E+00
         0.00000E+00
         0.00000E+00
         0.00000E+00
         0.00000E+00
         0.00000E+00
         0.00000E+00
         0.00000E+00
         0.00000E+00
         0.00000E+00
         0.00000E+00
         0.00000E+00
         0.00000E+00
         0.00000E+00
         0.00000E+00
         0.00000E+00
         0.00000E+00
         0.00000E+00
         0.00000E+00
         0.00000E+00
         0.00000E+00
         0.00000E+00
         0.00000E+00
         0.00000E+00
         0.00000E+00
         0.00000E+00
         0.00000E+00
         0.00000E+00
         0.00000E+00
         0.00000E+00
         0.00000E+00
         0.00000E+00
         0.00000E+00
         0.00000E+00
         0.00000E+00
         0.00000E+00
         0.00000E+00
         0.00000E+00
         0.00000E+00
         0.00000E+00
         0.00000E+00
         0.00000E+00
         0.00000E+00
         0.00000E+00
         0.00000E+00
         0.00000E+00
         0.00000E+00
         0.00000E+00
         0.00000E+00
         0.00000E+00
         0.00000E+00
         0.00000E+00
         0.00000E+00
         0.00000E+00
         0.00000E+00
         0.00000E+00
         0.00000E+00
         0.00000E+00
         0.00000E+00
         0.00000E+00
         0.00000E+00
         0.00000E+00
         0.00000E+00
         0.00000E+00
         0.00000E+00
         0.00000E+00
         0.00000E+00
         0.00000E+00
         0.00000E+00
         0.00000E+00
         0.00000E+00
         0.00000E+00
         0.00000E+00
         0.00000E+00
         0.00000E+00
         0.00000E+00
         0.00000E+00
         0.00000E+00
         0.00000E+00
         0.00000E+00
         0.00000E+00
         0.00000E+00
         0.00000E+00
         0.00000E+00
         0.00000E+00
         0.00000E+00
         0.00000E+00
         0.00000E+00
         0.00000E+00
         0.00000E+00
         0.00000E+00
         0.00000E+00
         0.00000E+00
         0.00000E+00
         0.00000E+00
         0.00000E+00
         0.00000E+00
         0.00000E+00
         0.00000E+00
         0.00000E+00
         0.00000E+00
         0.00000E+00
         0.00000E+00
         0.00000E+00
         0.00000E+00
         0.00000E+00
         0.00000E+00
         0.00000E+00
         0.00000E+00
         0.00000E+00
         0.00000E+00
         0.00000E+00
         0.00000E+00
         0.00000E+00
         0.00000E+00
         0.00000E+00
         0.00000E+00
         0.00000E+00
         0.00000E+00
         0.00000E+00
         0.00000E+00
         0.00000E+00
         0.00000E+00
         0.00000E+00
         0.00000E+00
         0.00000E+00
         0.00000E+00
         0.00000E+00
         0.00000E+00
         0.00000E+00
         0.00000E+00
         0.00000E+00
         0.00000E+00
         0.00000E+00
         0.00000E+00
         0.00000E+00
         0.00000E+00
         0.00000E+00
         0.00000E+00
         0.00000E+00
         0.00000E+00
         0.00000E+00
         0.00000E+00
         0.00000E+00
         0.00000E+00
         0.00000E+00
         0.00000E+00
         0.00000E+00
         0.00000E+00
         0.00000E+00
         0.00000E+00
         0.00000E+00
         0.00000E+00
         0.00000E+00
         0.00000E+00
         0.00000E+00
         0.00000E+00
         0.00000E+00
         0.00000E+00
         0.00000E+00
         0.00000E+00
         0.00000E+00
         0.00000E+00
         0.00000E+00
         0.00000E+00
         0.00000E+00
         0.00000E+00
         0.00000E+00
         0.00000E+00
         0.00000E+00
         0.00000E+00
         0.00000E+00
         0.00000E+00
         0.00000E+00
         0.00000E+00
         0.00000E+00
         0.00000E+00
         0.00000E+00
         0.00000E+00
         0.00000E+00
         0.00000E+00
         0.00000E+00
         0.00000E+00
         0.00000E+00
         0.00000E+00
         0.00000E+00
         0.00000E+00
         0.00000E+00
         0.00000E+00
         0.00000E+00
         0.00000E+00
         0.00000E+00
         0.00000E+00
         0.00000E+00
         0.00000E+00
         0.00000E+00
         0.00000E+00
         0.00000E+00
         0.00000E+00
         0.00000E+00
         0.00000E+00
         0.00000E+00
         0.00000E+00
         0.00000E+00
         0.00000E+00
         0.00000E+00
         0.00000E+00
         0.00000E+00
         0.00000E+00
         0.00000E+00
         0.00000E+00
         0.00000E+00
         0.00000E+00
         0.00000E+00
         0.00000E+00
         0.00000E+00
         0.00000E+00
         0.00000E+00
         0.00000E+00
         0.00000E+00
         0.00000E+00
         0.00000E+00
         0.00000E+00
         0.00000E+00
         0.00000E+00
         0.00000E+00
         0.00000E+00
         0.00000E+00
         0.00000E+00
         0.00000E+00
         0.00000E+00
         0.00000E+00
         0.00000E+00
         0.00000E+00
         0.00000E+00
         0.00000E+00
         0.00000E+00
         0.00000E+00
         0.00000E+00
         0.00000E+00
         0.00000E+00
         0.00000E+00
         0.00000E+00
         0.00000E+00
         0.00000E+00
         0.00000E+00
         0.00000E+00
         0.00000E+00
         0.00000E+00
         0.00000E+00
         0.00000E+00
         0.00000E+00
         0.00000E+00
         0.00000E+00
         0.00000E+00
         0.00000E+00
         0.00000E+00
         0.00000E+00
         0.00000E+00
         0.00000E+00
         0.00000E+00
         0.00000E+00
         0.00000E+00
         0.00000E+00
         0.00000E+00
         0.00000E+00
         0.00000E+00
         0.00000E+00
         0.00000E+00
         0.00000E+00
         0.00000E+00
         0.00000E+00
         0.00000E+00
         0.00000E+00
         0.00000E+00
         0.00000E+00
         0.00000E+00
         0.00000E+00
         0.00000E+00
         0.00000E+00
         0.00000E+00
         0.00000E+00
         0.00000E+00
         0.00000E+00
         0.00000E+00
         0.00000E+00
         0.00000E+00
         0.00000E+00
         0.00000E+00
         0.00000E+00
         0.00000E+00
         0.00000E+00
         0.00000E+00
         0.00000E+00
         0.00000E+00
         0.00000E+00
         0.00000E+00
         0.00000E+00
         0.00000E+00
         0.00000E+00
         0.00000E+00
         0.00000E+00
         0.00000E+00
         0.00000E+00
         0.00000E+00
         0.00000E+00
         0.00000E+00
         0.00000E+00
         0.00000E+00
         0.00000E+00
         0.00000E+00
         0.00000E+00
         0.00000E+00
         0.00000E+00
         0.00000E+00
         0.00000E+00
         0.00000E+00
         0.00000E+00
         0.00000E+00
         0.00000E+00
         0.00000E+00
         0.00000E+00
         0.00000E+00
         0.00000E+00
         0.00000E+00
         0.00000E+00
         0.00000E+00
         0.00000E+00
         0.00000E+00
         0.00000E+00
         0.00000E+00
         0.00000E+00
         0.00000E+00
         0.00000E+00
         0.00000E+00
         0.00000E+00
         0.00000E+00
         0.00000E+00
         0.00000E+00
         0.00000E+00
         0.00000E+00
         0.00000E+00
         0.00000E+00
         0.00000E+00
         0.00000E+00
         0.00000E+00
         0.00000E+00
         0.00000E+00
         0.00000E+00
         0.00000E+00
         0.00000E+00
         0.00000E+00
         0.00000E+00
         0.00000E+00
         0.00000E+00
         0.00000E+00
         0.00000E+00
         0.00000E+00
         0.00000E+00
         0.00000E+00
         0.00000E+00
         0.00000E+00
         0.00000E+00
         0.00000E+00
         0.00000E+00
         0.00000E+00
         0.00000E+00
         0.00000E+00
         0.00000E+00
         0.00000E+00
         0.00000E+00
         0.00000E+00
         0.00000E+00
         0.00000E+00
         0.00000E+00
         0.00000E+00
         0.00000E+00
         0.00000E+00
         0.00000E+00
         0.00000E+00
         0.00000E+00
         0.00000E+00
         0.00000E+00
         0.00000E+00
         0.00000E+00
         0.00000E+00
         0.00000E+00
         0.00000E+00
         0.00000E+00
         0.00000E+00
         0.00000E+00
         0.00000E+00
         0.00000E+00
         0.00000E+00
         0.00000E+00
         0.00000E+00
         0.00000E+00
         0.00000E+00
         0.00000E+00
         0.00000E+00
         0.00000E+00
         0.00000E+00
         0.00000E+00
         0.00000E+00
         0.00000E+00
         0.00000E+00
         0.00000E+00
         0.00000E+00
         0.00000E+00
         0.00000E+00
         0.00000E+00
         0.00000E+00
         0.00000E+00
         0.00000E+00
         0.00000E+00
         0.00000E+00
         0.00000E+00
         0.00000E+00
         0.00000E+00
         0.00000E+00
         0.00000E+00
         0.00000E+00
         0.00000E+00
         0.00000E+00
         0.00000E+00
         0.00000E+00
         0.00000E+00
         0.00000E+00
         0.00000E+00
         0.00000E+00
         0.00000E+00
         0.00000E+00
         0.00000E+00
         0.00000E+00
         0.00000E+00
         0.00000E+00
         0.00000E+00
         0.00000E+00
         0.00000E+00
         0.00000E+00
         0.00000E+00
         0.00000E+00
         0.00000E+00
         0.00000E+00
         0.00000E+00
         0.00000E+00
         0.00000E+00
         0.00000E+00
         0.00000E+00
         0.00000E+00
         0.00000E+00
         0.00000E+00
         0.00000E+00
         0.00000E+00
         0.00000E+00
         0.00000E+00
         0.00000E+00
         0.00000E+00
         0.00000E+00
         0.00000E+00
         0.00000E+00
         0.00000E+00
         0.00000E+00
         0.00000E+00
         0.00000E+00
         0.00000E+00
         0.00000E+00
         0.00000E+00
         0.00000E+00
         0.00000E+00
         0.00000E+00
         0.00000E+00
         0.00000E+00
         0.00000E+00
         0.00000E+00
         0.00000E+00
         0.00000E+00
         0.00000E+00
         0.00000E+00
         0.00000E+00
         0.00000E+00
         0.00000E+00
         0.00000E+00
         0.00000E+00
         0.00000E+00
         0.00000E+00
         0.00000E+00
         0.00000E+00
         0.00000E+00
         0.00000E+00
         0.00000E+00
         0.00000E+00
         0.00000E+00
         0.00000E+00
         0.00000E+00
         0.00000E+00
         0.00000E+00
         0.00000E+00
         0.00000E+00
         0.00000E+00
         0.00000E+00
         0.00000E+00
         0.00000E+00
         0.00000E+00
         0.00000E+00
         0.00000E+00
         0.00000E+00
         0.00000E+00
         0.00000E+00
         0.00000E+00
         0.00000E+00
         0.00000E+00
         0.00000E+00
         0.00000E+00
         0.00000E+00
         0.00000E+00
         0.00000E+00
         0.00000E+00
         0.00000E+00
         0.00000E+00
         0.00000E+00
         0.00000E+00
         0.00000E+00
         0.00000E+00
         0.00000E+00
         0.00000E+00
         0.00000E+00
         0.00000E+00
         0.00000E+00
         0.00000E+00
         0.00000E+00
         0.00000E+00
         0.00000E+00
         0.00000E+00
         0.00000E+00
         0.00000E+00
         0.00000E+00
         0.00000E+00
         0.00000E+00
         0.00000E+00
         0.00000E+00
         0.00000E+00
         0.00000E+00
         0.00000E+00
         0.00000E+00
         0.00000E+00
         0.00000E+00
         0.00000E+00
         0.00000E+00
         0.00000E+00
         0.00000E+00
         0.00000E+00
         0.00000E+00
         0.00000E+00
         0.00000E+00
         0.00000E+00
         0.00000E+00
         0.00000E+00
         0.00000E+00
         0.00000E+00
         0.00000E+00
         0.00000E+00
         0.00000E+00
         0.00000E+00
         0.00000E+00
         0.00000E+00
         0.00000E+00
         0.00000E+00
         0.00000E+00
         0.00000E+00
         0.00000E+00
         0.00000E+00
         0.00000E+00
         0.00000E+00
         0.00000E+00
         0.00000E+00
         0.00000E+00
         0.00000E+00
         0.00000E+00
         0.00000E+00
         0.00000E+00
         0.00000E+00
         0.00000E+00
         0.00000E+00
         0.00000E+00
         0.00000E+00
         0.00000E+00
         0.00000E+00
         0.00000E+00
         0.00000E+00
         0.00000E+00
         0.00000E+00
         0.00000E+00
         0.00000E+00
         0.00000E+00
         0.00000E+00
         0.00000E+00
         0.00000E+00
         0.00000E+00
         0.00000E+00
         0.00000E+00
         0.00000E+00
         0.00000E+00
         0.00000E+00
         0.00000E+00
         0.00000E+00
         0.00000E+00
         0.00000E+00
         0.00000E+00
         0.00000E+00
         0.00000E+00
         0.00000E+00
         0.00000E+00
         0.00000E+00
         0.00000E+00
         0.00000E+00
         0.00000E+00
         0.00000E+00
         0.00000E+00
         0.00000E+00
         0.00000E+00
         0.00000E+00
         0.00000E+00
         0.00000E+00
         0.00000E+00
         0.00000E+00
         0.00000E+00
         0.00000E+00
         0.00000E+00
         0.00000E+00
         0.00000E+00
         0.00000E+00
         0.00000E+00
         0.00000E+00
         0.00000E+00
         0.00000E+00
         0.00000E+00
         0.00000E+00
         0.00000E+00
         0.00000E+00
         0.00000E+00
         0.00000E+00
         0.00000E+00
         0.00000E+00
         0.00000E+00
         0.00000E+00
         0.00000E+00
         0.00000E+00
         0.00000E+00
         0.00000E+00
         0.00000E+00
         0.00000E+00
         0.00000E+00
         0.00000E+00
         0.00000E+00
         0.00000E+00
         0.00000E+00
         0.00000E+00
         0.00000E+00
         0.00000E+00
         0.00000E+00
         0.00000E+00
         0.00000E+00
         0.00000E+00
         0.00000E+00
         0.00000E+00
         0.00000E+00
         0.00000E+00
         0.00000E+00
         0.00000E+00
         0.00000E+00
         0.00000E+00
         0.00000E+00
         0.00000E+00
         0.00000E+00
         0.00000E+00
         0.00000E+00
         0.00000E+00
         0.00000E+00
         0.00000E+00
         0.00000E+00
         0.00000E+00
         0.00000E+00
         0.00000E+00
         0.00000E+00
         0.00000E+00
         0.00000E+00
         0.00000E+00
         0.00000E+00
         0.00000E+00
         0.00000E+00
         0.00000E+00
         0.00000E+00
         0.00000E+00
         0.00000E+00
         0.00000E+00
         0.00000E+00
         0.00000E+00
         0.00000E+00
         0.00000E+00
         0.00000E+00
         0.00000E+00
         0.00000E+00
         0.00000E+00
         0.00000E+00
         0.00000E+00
         0.00000E+00
         0.00000E+00
         0.00000E+00
         0.00000E+00
         0.00000E+00
         0.00000E+00
         0.00000E+00
         0.00000E+00
         0.00000E+00
         0.00000E+00
         0.00000E+00
         0.00000E+00
         0.00000E+00
         0.00000E+00
         0.00000E+00
         0.00000E+00
         0.00000E+00
         0.00000E+00
         0.00000E+00
         0.00000E+00
         0.00000E+00
         0.00000E+00
         0.00000E+00
         0.00000E+00
         0.00000E+00
         0.00000E+00
         0.00000E+00
         0.00000E+00
         0.00000E+00
         0.00000E+00
         0.00000E+00
         0.00000E+00
         0.00000E+00
         0.00000E+00
         0.00000E+00
         0.00000E+00
         0.00000E+00
         0.00000E+00
         0.00000E+00
         0.00000E+00
         0.00000E+00
         0.00000E+00
         0.00000E+00
         0.00000E+00
         0.00000E+00
         0.00000E+00
         0.00000E+00
         0.00000E+00
         0.00000E+00
         0.00000E+00
         0.00000E+00
         0.00000E+00
         0.00000E+00
         0.00000E+00
         0.00000E+00
         0.00000E+00
         0.00000E+00
         0.00000E+00
         0.00000E+00
         0.00000E+00
         0.00000E+00
         0.00000E+00
         0.00000E+00
         0.00000E+00
         0.00000E+00
         0.00000E+00
         0.00000E+00
         0.00000E+00
         0.00000E+00
         0.00000E+00
         0.00000E+00
         0.00000E+00
         0.00000E+00
         0.00000E+00
         0.00000E+00
         0.00000E+00
         0.00000E+00
         0.00000E+00
         0.00000E+00
         0.00000E+00
         0.00000E+00
         0.00000E+00
         0.00000E+00
         0.00000E+00
         0.00000E+00
         0.00000E+00
         0.00000E+00
         0.00000E+00
         0.00000E+00
         0.00000E+00
         0.00000E+00
         0.00000E+00
         0.00000E+00
         0.00000E+00
         0.00000E+00
         0.00000E+00
         0.00000E+00
         0.00000E+00
         0.00000E+00
         0.00000E+00
         0.00000E+00
         0.00000E+00
         0.00000E+00
         0.00000E+00
         0.00000E+00
         0.00000E+00
         0.00000E+00
         0.00000E+00
         0.00000E+00
         0.00000E+00
         0.00000E+00
         0.00000E+00
         0.00000E+00
         0.00000E+00
         0.00000E+00
         0.00000E+00
         0.00000E+00
         0.00000E+00
         0.00000E+00
         0.00000E+00
         0.00000E+00
         0.00000E+00
         0.00000E+00
         0.00000E+00
         0.00000E+00
         0.00000E+00
         0.00000E+00
         0.00000E+00
         0.00000E+00
         0.00000E+00
         0.00000E+00
         0.00000E+00
         0.00000E+00
         0.00000E+00
         0.00000E+00
         0.00000E+00
         0.00000E+00
         0.00000E+00
         0.00000E+00
         0.00000E+00
         0.00000E+00
         0.00000E+00
         0.00000E+00
         0.00000E+00
         0.00000E+00
         0.00000E+00
         0.00000E+00
         0.00000E+00
         0.00000E+00
         0.00000E+00
         0.00000E+00
         0.00000E+00
         0.00000E+00
         0.00000E+00
         0.00000E+00
         0.00000E+00
         0.00000E+00
         0.00000E+00
         0.00000E+00
         0.00000E+00
         0.00000E+00
         0.00000E+00
         0.00000E+00
         0.00000E+00
         0.00000E+00
         0.00000E+00
         0.00000E+00
         0.00000E+00
         0.00000E+00
         0.00000E+00
         0.00000E+00
         0.00000E+00
         0.00000E+00
         0.00000E+00
         0.00000E+00
         0.00000E+00
         0.00000E+00
         0.00000E+00
         0.00000E+00
         0.00000E+00
         0.00000E+00
         0.00000E+00
         0.00000E+00
         0.00000E+00
         0.00000E+00
         0.00000E+00
         0.00000E+00
         0.00000E+00
         0.00000E+00
         0.00000E+00
         0.00000E+00
         0.00000E+00
         0.00000E+00
         0.00000E+00
         0.00000E+00
         0.00000E+00
         0.00000E+00
         0.00000E+00
         0.00000E+00
         0.00000E+00
         0.00000E+00
         0.00000E+00
         0.00000E+00
         0.00000E+00
         0.00000E+00
         0.00000E+00
         0.00000E+00
         0.00000E+00
         0.00000E+00
         0.00000E+00
         0.00000E+00
         0.00000E+00
         0.00000E+00
         0.00000E+00
         0.00000E+00
         0.00000E+00
         0.00000E+00
         0.00000E+00
         0.00000E+00
         0.00000E+00
         0.00000E+00
         0.00000E+00
         0.00000E+00
         0.00000E+00
         0.00000E+00
         0.00000E+00
         0.00000E+00
         0.00000E+00
         0.00000E+00
         0.00000E+00
         0.00000E+00
         0.00000E+00
         0.00000E+00
         0.00000E+00
         0.00000E+00
         0.00000E+00
         0.00000E+00
         0.00000E+00
         0.00000E+00
         0.00000E+00
         0.00000E+00
         0.00000E+00
         0.00000E+00
         0.00000E+00
         0.00000E+00
         0.00000E+00
         0.00000E+00
         0.00000E+00
         0.00000E+00
         0.00000E+00
         0.00000E+00
         0.00000E+00
         0.00000E+00
         0.00000E+00
         0.00000E+00
         0.00000E+00
         0.00000E+00
         0.00000E+00
         0.00000E+00
         0.00000E+00
         0.00000E+00
         0.00000E+00
         0.00000E+00
         0.00000E+00
         0.00000E+00
         0.00000E+00
         0.00000E+00
         0.00000E+00
         0.00000E+00
         0.00000E+00
         0.00000E+00
         0.00000E+00
         0.00000E+00
         0.00000E+00
         0.00000E+00
         0.00000E+00
         0.00000E+00
         0.00000E+00
         0.00000E+00
         0.00000E+00
         0.00000E+00
         0.00000E+00
         0.00000E+00
         0.00000E+00
         0.00000E+00
         0.00000E+00
         0.00000E+00
         0.00000E+00
         0.00000E+00
         0.00000E+00
         0.00000E+00
         0.00000E+00
         0.00000E+00
         0.00000E+00
         0.00000E+00
         0.00000E+00
         0.00000E+00
         0.00000E+00
         0.00000E+00
         0.00000E+00
         0.00000E+00
         0.00000E+00
         0.00000E+00
         0.00000E+00
         0.00000E+00
         0.00000E+00
         0.00000E+00
         0.00000E+00
         0.00000E+00
         0.00000E+00
         0.00000E+00
         0.00000E+00
         0.00000E+00
         0.00000E+00
         0.00000E+00
         0.00000E+00
         0.00000E+00
         0.00000E+00
         0.00000E+00
         0.00000E+00
         0.00000E+00
         0.00000E+00
         0.00000E+00
         0.00000E+00
         0.00000E+00
         0.00000E+00
         0.00000E+00
         0.00000E+00
         0.00000E+00
         0.00000E+00
         0.00000E+00
         0.00000E+00
         0.00000E+00
         0.00000E+00
         0.00000E+00
         0.00000E+00
         0.00000E+00
         0.00000E+00
         0.00000E+00
         0.00000E+00
         0.00000E+00
         0.00000E+00
         0.00000E+00
         0.00000E+00
         0.00000E+00
         0.00000E+00
         0.00000E+00
         0.00000E+00
         0.00000E+00
         0.00000E+00
         0.00000E+00
         0.00000E+00
         0.00000E+00
         0.00000E+00
         0.00000E+00
         0.00000E+00
         0.00000E+00
         0.00000E+00
         0.00000E+00
         0.00000E+00
         0.00000E+00
         0.00000E+00
         0.00000E+00
         0.00000E+00
         0.00000E+00
         0.00000E+00
         0.00000E+00
         0.00000E+00
         0.00000E+00
         0.00000E+00
         0.00000E+00
         0.00000E+00
         0.00000E+00
         0.00000E+00
         0.00000E+00
         0.00000E+00
         0.00000E+00
         0.00000E+00
         0.00000E+00
         0.00000E+00
         0.00000E+00
         0.00000E+00
         0.00000E+00
         0.00000E+00
         0.00000E+00
         0.00000E+00
         0.00000E+00
         0.00000E+00
         0.00000E+00
         0.00000E+00
         0.00000E+00
         0.00000E+00
         0.00000E+00
         0.00000E+00
         0.00000E+00
         0.00000E+00
         0.00000E+00
         0.00000E+00
         0.00000E+00
         0.00000E+00
         0.00000E+00
         0.00000E+00
         0.00000E+00
         0.00000E+00
         0.00000E+00
         0.00000E+00
         0.00000E+00
         0.00000E+00
         0.00000E+00
         0.00000E+00
         0.00000E+00
         0.00000E+00
         0.00000E+00
         0.00000E+00
         0.00000E+00
         0.00000E+00
         0.00000E+00
         0.00000E+00
         0.00000E+00
         0.00000E+00
         0.00000E+00
         0.00000E+00
         0.00000E+00
         0.00000E+00
         0.00000E+00
         0.00000E+00
         0.00000E+00
         0.00000E+00
         0.00000E+00
         0.00000E+00
         0.00000E+00
         0.00000E+00
         0.00000E+00
         0.00000E+00
         0.00000E+00
         0.00000E+00
         0.00000E+00
         0.00000E+00
         0.00000E+00
         0.00000E+00
         0.00000E+00
         0.00000E+00
         0.00000E+00
         0.00000E+00
         0.00000E+00
         0.00000E+00
         0.00000E+00
         0.00000E+00
         0.00000E+00
         0.00000E+00
         0.00000E+00
         0.00000E+00
         0.00000E+00
         0.00000E+00
         0.00000E+00
         0.00000E+00
         0.00000E+00
         0.00000E+00
         0.00000E+00
         0.00000E+00
         0.00000E+00
         0.00000E+00
         0.00000E+00
         0.00000E+00
         0.00000E+00
         0.00000E+00
         0.00000E+00
         0.00000E+00
         0.00000E+00
         0.00000E+00
         0.00000E+00
         0.00000E+00
         0.00000E+00
         0.00000E+00
         0.00000E+00
         0.00000E+00
         0.00000E+00
         0.00000E+00
         0.00000E+00
         0.00000E+00
         0.00000E+00
         0.00000E+00
         0.00000E+00
         0.00000E+00
         0.00000E+00
         0.00000E+00
         0.00000E+00
         0.00000E+00
         0.00000E+00
         0.00000E+00
         0.00000E+00
         0.00000E+00
         0.00000E+00
         0.00000E+00
         0.00000E+00
         0.00000E+00
         0.00000E+00
         0.00000E+00
         0.00000E+00
         0.00000E+00
         0.00000E+00
         0.00000E+00
         0.00000E+00
         0.00000E+00
         0.00000E+00
         0.00000E+00
         0.00000E+00
         0.00000E+00
         0.00000E+00
         0.00000E+00
         0.00000E+00
         0.00000E+00
         0.00000E+00
         0.00000E+00
         0.00000E+00
         0.00000E+00
         0.00000E+00
         0.00000E+00
         0.00000E+00
         0.00000E+00
         0.00000E+00
         0.00000E+00
         0.00000E+00
         0.00000E+00
         0.00000E+00
         0.00000E+00
         0.00000E+00
         0.00000E+00
         0.00000E+00
         0.00000E+00
         0.00000E+00
         0.00000E+00
         0.00000E+00
         0.00000E+00
         0.00000E+00
         0.00000E+00
         0.00000E+00
         0.00000E+00
         0.00000E+00
         0.00000E+00
         0.00000E+00
         0.00000E+00
         0.00000E+00
         0.00000E+00
         0.00000E+00
         0.00000E+00
         0.00000E+00
         0.00000E+00
         0.00000E+00
         0.00000E+00
         0.00000E+00
         0.00000E+00
         0.00000E+00
         0.00000E+00
         0.00000E+00
         0.00000E+00
         0.00000E+00
         0.00000E+00
         0.00000E+00
         0.00000E+00
         0.00000E+00
         0.00000E+00
         0.00000E+00
         0.00000E+00
         0.00000E+00
         0.00000E+00
         0.00000E+00
         0.00000E+00
         0.00000E+00
         0.00000E+00
         0.00000E+00
         0.00000E+00
         0.00000E+00
         0.00000E+00
         0.00000E+00
         0.00000E+00
         0.00000E+00
         0.00000E+00
         0.00000E+00
         0.00000E+00
         0.00000E+00
         0.00000E+00
         0.00000E+00
         0.00000E+00
         0.00000E+00
         0.00000E+00
         0.00000E+00
         0.00000E+00
         0.00000E+00
         0.00000E+00
         0.00000E+00
         0.00000E+00
         0.00000E+00
         0.00000E+00
         0.00000E+00
         0.00000E+00
         0.00000E+00
         0.00000E+00
         0.00000E+00
         0.00000E+00
         0.00000E+00
         0.00000E+00
         0.00000E+00
         0.00000E+00
         0.00000E+00
         0.00000E+00
         0.00000E+00
         0.00000E+00
         0.00000E+00
         0.00000E+00
         0.00000E+00
         0.00000E+00
         0.00000E+00
         0.00000E+00
         0.00000E+00
         0.00000E+00
         0.00000E+00
         0.00000E+00
         0.00000E+00
         0.00000E+00
         0.00000E+00
         0.00000E+00
         0.00000E+00
         0.00000E+00
         0.00000E+00
         0.00000E+00
         0.00000E+00
         0.00000E+00
         0.00000E+00
         0.00000E+00
         0.00000E+00
         0.00000E+00
         0.00000E+00
         0.00000E+00
         0.00000E+00
         0.00000E+00
         0.00000E+00
         0.00000E+00
         0.00000E+00
         0.00000E+00
         0.00000E+00
         0.00000E+00
         0.00000E+00
         0.00000E+00
         0.00000E+00
         0.00000E+00
         0.00000E+00
         0.00000E+00
         0.00000E+00
         0.00000E+00
         0.00000E+00
         0.00000E+00
         0.00000E+00
         0.00000E+00
         0.00000E+00
         0.00000E+00
         0.00000E+00
         0.00000E+00
         0.00000E+00
         0.00000E+00
         0.00000E+00
         0.00000E+00
         0.00000E+00
         0.00000E+00
         0.00000E+00
         0.00000E+00
         0.00000E+00
         0.00000E+00
         0.00000E+00
         0.00000E+00
         0.00000E+00
         0.00000E+00
         0.00000E+00
         0.00000E+00
         0.00000E+00
         0.00000E+00
         0.00000E+00
         0.00000E+00
         0.00000E+00
         0.00000E+00
         0.00000E+00
         0.00000E+00
         0.00000E+00
         0.00000E+00
         0.00000E+00
         0.00000E+00
         0.00000E+00
         0.00000E+00
         0.00000E+00
         0.00000E+00
         0.00000E+00
         0.00000E+00
         0.00000E+00
         0.00000E+00
         0.00000E+00
         0.00000E+00
         0.00000E+00
         0.00000E+00
         0.00000E+00
         0.00000E+00
         0.00000E+00
         0.00000E+00
         0.00000E+00
         0.00000E+00
         0.00000E+00
         0.00000E+00
         0.00000E+00
         0.00000E+00
         0.00000E+00
         0.00000E+00
         0.00000E+00
         0.00000E+00
         0.00000E+00
         0.00000E+00
         0.00000E+00
         0.00000E+00
         0.00000E+00
         0.00000E+00
         0.00000E+00
         0.00000E+00
         0.00000E+00
         0.00000E+00
         0.00000E+00
         0.00000E+00
         0.00000E+00
         0.00000E+00
         0.00000E+00
         0.00000E+00
         0.00000E+00
         0.00000E+00
         0.00000E+00
         0.00000E+00
         0.00000E+00
         0.00000E+00
         0.00000E+00
         0.00000E+00
         0.00000E+00
         0.00000E+00
         0.00000E+00
         0.00000E+00
         0.00000E+00
         0.00000E+00
         0.00000E+00
         0.00000E+00
         0.00000E+00
         0.00000E+00
         0.00000E+00
         0.00000E+00
         0.00000E+00
         0.00000E+00
         0.00000E+00
         0.00000E+00
         0.00000E+00
         0.00000E+00
         0.00000E+00
         0.00000E+00
         0.00000E+00
         0.00000E+00
         0.00000E+00
         0.00000E+00
         0.00000E+00
         0.00000E+00
         0.00000E+00
         0.00000E+00
         0.00000E+00
         0.00000E+00
         0.00000E+00
         0.00000E+00
         0.00000E+00
         0.00000E+00
         0.00000E+00
         0.00000E+00
         0.00000E+00
         0.00000E+00
         0.00000E+00
         0.00000E+00
         0.00000E+00
         0.00000E+00
         0.00000E+00
         0.00000E+00
         0.00000E+00
         0.00000E+00
         0.00000E+00
         0.00000E+00
         0.00000E+00
         0.00000E+00
         0.00000E+00
         0.00000E+00
         0.00000E+00
         0.00000E+00
         0.00000E+00
         0.00000E+00
         0.00000E+00
         0.00000E+00
         0.00000E+00
         0.00000E+00
         0.00000E+00
         0.00000E+00
         0.00000E+00
         0.00000E+00
         0.00000E+00
         0.00000E+00
         0.00000E+00
         0.00000E+00
         0.00000E+00
         0.00000E+00
         0.00000E+00
         0.00000E+00
         0.00000E+00
         0.00000E+00
         0.00000E+00
         0.00000E+00
         0.00000E+00
         0.00000E+00
         0.00000E+00
         0.00000E+00
         0.00000E+00
         0.00000E+00
         0.00000E+00
         0.00000E+00
         0.00000E+00
         0.00000E+00
         0.00000E+00
         0.00000E+00
         0.00000E+00
         0.00000E+00
         0.00000E+00
         0.00000E+00
         0.00000E+00
         0.00000E+00
         0.00000E+00
         0.00000E+00
         0.00000E+00
         0.00000E+00
         0.00000E+00
         0.00000E+00
         0.00000E+00
         0.00000E+00
         0.00000E+00
         0.00000E+00
         0.00000E+00
         0.00000E+00
         0.00000E+00
         0.00000E+00
         0.00000E+00
         0.00000E+00
         0.00000E+00
         0.00000E+00
         0.00000E+00
         0.00000E+00
         0.00000E+00
         0.00000E+00
         0.00000E+00
         0.00000E+00
         0.00000E+00
         0.00000E+00
         0.00000E+00
         0.00000E+00
         0.00000E+00
         0.00000E+00
         0.00000E+00
         0.00000E+00
         0.00000E+00
         0.00000E+00
         0.00000E+00
         0.00000E+00
         0.00000E+00
         0.00000E+00
         0.00000E+00
         0.00000E+00
         0.00000E+00
         0.00000E+00
         0.00000E+00
         0.00000E+00
         0.00000E+00
         0.00000E+00
         0.00000E+00
         0.00000E+00
         0.00000E+00
         0.00000E+00
         0.00000E+00
         0.00000E+00
         0.00000E+00
         0.00000E+00
         0.00000E+00
         0.00000E+00
         0.00000E+00
         0.00000E+00
         0.00000E+00
         0.00000E+00
         0.00000E+00
         0.00000E+00
         0.00000E+00
         0.00000E+00
         0.00000E+00
         0.00000E+00
         0.00000E+00
         0.00000E+00
         0.00000E+00
         0.00000E+00
         0.00000E+00
         0.00000E+00
         0.00000E+00
         0.00000E+00
         0.00000E+00
         0.00000E+00
         0.00000E+00
         0.00000E+00
         0.00000E+00
         0.00000E+00
         0.00000E+00
         0.00000E+00
         0.00000E+00
         0.00000E+00
         0.00000E+00
         0.00000E+00
         0.00000E+00
         0.00000E+00
         0.00000E+00
         0.00000E+00
         0.00000E+00
         0.00000E+00
         0.00000E+00
  
SCALARS                        eps_vol  double 1
LOOKUP_TABLE default
         0.00000E+00
         0.00000E+00
         0.00000E+00
         0.00000E+00
         0.00000E+00
         0.00000E+00
         0.00000E+00
         0.00000E+00
         0.00000E+00
         0.00000E+00
         0.00000E+00
         0.00000E+00
         0.00000E+00
         0.00000E+00
         0.00000E+00
         0.00000E+00
         0.00000E+00
         0.00000E+00
         0.00000E+00
         0.00000E+00
         0.00000E+00
         0.00000E+00
         0.00000E+00
         0.00000E+00
         0.00000E+00
         0.00000E+00
         0.00000E+00
         0.00000E+00
         0.00000E+00
         0.00000E+00
         0.00000E+00
         0.00000E+00
         0.00000E+00
         0.00000E+00
         0.00000E+00
         0.00000E+00
         0.00000E+00
         0.00000E+00
         0.00000E+00
         0.00000E+00
         0.00000E+00
         0.00000E+00
         0.00000E+00
         0.00000E+00
         0.00000E+00
         0.00000E+00
         0.00000E+00
         0.00000E+00
         0.00000E+00
         0.00000E+00
         0.00000E+00
         0.00000E+00
         0.00000E+00
         0.00000E+00
         0.00000E+00
         0.00000E+00
         0.00000E+00
         0.00000E+00
         0.00000E+00
         0.00000E+00
         0.00000E+00
         0.00000E+00
         0.00000E+00
         0.00000E+00
         0.00000E+00
         0.00000E+00
         0.00000E+00
         0.00000E+00
         0.00000E+00
         0.00000E+00
         0.00000E+00
         0.00000E+00
         0.00000E+00
         0.00000E+00
         0.00000E+00
         0.00000E+00
         0.00000E+00
         0.00000E+00
         0.00000E+00
         0.00000E+00
         0.00000E+00
         0.00000E+00
         0.00000E+00
         0.00000E+00
         0.00000E+00
         0.00000E+00
         0.00000E+00
         0.00000E+00
         0.00000E+00
         0.00000E+00
         0.00000E+00
         0.00000E+00
         0.00000E+00
         0.00000E+00
         0.00000E+00
         0.00000E+00
         0.00000E+00
         0.00000E+00
         0.00000E+00
         0.00000E+00
         0.00000E+00
         0.00000E+00
         0.00000E+00
         0.00000E+00
         0.00000E+00
         0.00000E+00
         0.00000E+00
         0.00000E+00
         0.00000E+00
         0.00000E+00
         0.00000E+00
         0.00000E+00
         0.00000E+00
         0.00000E+00
         0.00000E+00
         0.00000E+00
         0.00000E+00
         0.00000E+00
         0.00000E+00
         0.00000E+00
         0.00000E+00
         0.00000E+00
         0.00000E+00
         0.00000E+00
         0.00000E+00
         0.00000E+00
         0.00000E+00
         0.00000E+00
         0.00000E+00
         0.00000E+00
         0.00000E+00
         0.00000E+00
         0.00000E+00
         0.00000E+00
         0.00000E+00
         0.00000E+00
         0.00000E+00
         0.00000E+00
         0.00000E+00
         0.00000E+00
         0.00000E+00
         0.00000E+00
         0.00000E+00
         0.00000E+00
         0.00000E+00
         0.00000E+00
         0.00000E+00
         0.00000E+00
         0.00000E+00
         0.00000E+00
         0.00000E+00
         0.00000E+00
         0.00000E+00
         0.00000E+00
         0.00000E+00
         0.00000E+00
         0.00000E+00
         0.00000E+00
         0.00000E+00
         0.00000E+00
         0.00000E+00
         0.00000E+00
         0.00000E+00
         0.00000E+00
         0.00000E+00
         0.00000E+00
         0.00000E+00
         0.00000E+00
         0.00000E+00
         0.00000E+00
         0.00000E+00
         0.00000E+00
         0.00000E+00
         0.00000E+00
         0.00000E+00
         0.00000E+00
         0.00000E+00
         0.00000E+00
         0.00000E+00
         0.00000E+00
         0.00000E+00
         0.00000E+00
         0.00000E+00
         0.00000E+00
         0.00000E+00
         0.00000E+00
         0.00000E+00
         0.00000E+00
         0.00000E+00
         0.00000E+00
         0.00000E+00
         0.00000E+00
         0.00000E+00
         0.00000E+00
         0.00000E+00
         0.00000E+00
         0.00000E+00
         0.00000E+00
         0.00000E+00
         0.00000E+00
         0.00000E+00
         0.00000E+00
         0.00000E+00
         0.00000E+00
         0.00000E+00
         0.00000E+00
         0.00000E+00
         0.00000E+00
         0.00000E+00
         0.00000E+00
         0.00000E+00
         0.00000E+00
         0.00000E+00
         0.00000E+00
         0.00000E+00
         0.00000E+00
         0.00000E+00
         0.00000E+00
         0.00000E+00
         0.00000E+00
         0.00000E+00
         0.00000E+00
         0.00000E+00
         0.00000E+00
         0.00000E+00
         0.00000E+00
         0.00000E+00
         0.00000E+00
         0.00000E+00
         0.00000E+00
         0.00000E+00
         0.00000E+00
         0.00000E+00
         0.00000E+00
         0.00000E+00
         0.00000E+00
         0.00000E+00
         0.00000E+00
         0.00000E+00
         0.00000E+00
         0.00000E+00
         0.00000E+00
         0.00000E+00
         0.00000E+00
         0.00000E+00
         0.00000E+00
         0.00000E+00
         0.00000E+00
         0.00000E+00
         0.00000E+00
         0.00000E+00
         0.00000E+00
         0.00000E+00
         0.00000E+00
         0.00000E+00
         0.00000E+00
         0.00000E+00
         0.00000E+00
         0.00000E+00
         0.00000E+00
         0.00000E+00
         0.00000E+00
         0.00000E+00
         0.00000E+00
         0.00000E+00
         0.00000E+00
         0.00000E+00
         0.00000E+00
         0.00000E+00
         0.00000E+00
         0.00000E+00
         0.00000E+00
         0.00000E+00
         0.00000E+00
         0.00000E+00
         0.00000E+00
         0.00000E+00
         0.00000E+00
         0.00000E+00
         0.00000E+00
         0.00000E+00
         0.00000E+00
         0.00000E+00
         0.00000E+00
         0.00000E+00
         0.00000E+00
         0.00000E+00
         0.00000E+00
         0.00000E+00
         0.00000E+00
         0.00000E+00
         0.00000E+00
         0.00000E+00
         0.00000E+00
         0.00000E+00
         0.00000E+00
         0.00000E+00
         0.00000E+00
         0.00000E+00
         0.00000E+00
         0.00000E+00
         0.00000E+00
         0.00000E+00
         0.00000E+00
         0.00000E+00
         0.00000E+00
         0.00000E+00
         0.00000E+00
         0.00000E+00
         0.00000E+00
         0.00000E+00
         0.00000E+00
         0.00000E+00
         0.00000E+00
         0.00000E+00
         0.00000E+00
         0.00000E+00
         0.00000E+00
         0.00000E+00
         0.00000E+00
         0.00000E+00
         0.00000E+00
         0.00000E+00
         0.00000E+00
         0.00000E+00
         0.00000E+00
         0.00000E+00
         0.00000E+00
         0.00000E+00
         0.00000E+00
         0.00000E+00
         0.00000E+00
         0.00000E+00
         0.00000E+00
         0.00000E+00
         0.00000E+00
         0.00000E+00
         0.00000E+00
         0.00000E+00
         0.00000E+00
         0.00000E+00
         0.00000E+00
         0.00000E+00
         0.00000E+00
         0.00000E+00
         0.00000E+00
         0.00000E+00
         0.00000E+00
         0.00000E+00
         0.00000E+00
         0.00000E+00
         0.00000E+00
         0.00000E+00
         0.00000E+00
         0.00000E+00
         0.00000E+00
         0.00000E+00
         0.00000E+00
         0.00000E+00
         0.00000E+00
         0.00000E+00
         0.00000E+00
         0.00000E+00
         0.00000E+00
         0.00000E+00
         0.00000E+00
         0.00000E+00
         0.00000E+00
         0.00000E+00
         0.00000E+00
         0.00000E+00
         0.00000E+00
         0.00000E+00
         0.00000E+00
         0.00000E+00
         0.00000E+00
         0.00000E+00
         0.00000E+00
         0.00000E+00
         0.00000E+00
         0.00000E+00
         0.00000E+00
         0.00000E+00
         0.00000E+00
         0.00000E+00
         0.00000E+00
         0.00000E+00
         0.00000E+00
         0.00000E+00
         0.00000E+00
         0.00000E+00
         0.00000E+00
         0.00000E+00
         0.00000E+00
         0.00000E+00
         0.00000E+00
         0.00000E+00
         0.00000E+00
         0.00000E+00
         0.00000E+00
         0.00000E+00
         0.00000E+00
         0.00000E+00
         0.00000E+00
         0.00000E+00
         0.00000E+00
         0.00000E+00
         0.00000E+00
         0.00000E+00
         0.00000E+00
         0.00000E+00
         0.00000E+00
         0.00000E+00
         0.00000E+00
         0.00000E+00
         0.00000E+00
         0.00000E+00
         0.00000E+00
         0.00000E+00
         0.00000E+00
         0.00000E+00
         0.00000E+00
         0.00000E+00
         0.00000E+00
         0.00000E+00
         0.00000E+00
         0.00000E+00
         0.00000E+00
         0.00000E+00
         0.00000E+00
         0.00000E+00
         0.00000E+00
         0.00000E+00
         0.00000E+00
         0.00000E+00
         0.00000E+00
         0.00000E+00
         0.00000E+00
         0.00000E+00
         0.00000E+00
         0.00000E+00
         0.00000E+00
         0.00000E+00
         0.00000E+00
         0.00000E+00
         0.00000E+00
         0.00000E+00
         0.00000E+00
         0.00000E+00
         0.00000E+00
         0.00000E+00
         0.00000E+00
         0.00000E+00
         0.00000E+00
         0.00000E+00
         0.00000E+00
         0.00000E+00
         0.00000E+00
         0.00000E+00
         0.00000E+00
         0.00000E+00
         0.00000E+00
         0.00000E+00
         0.00000E+00
         0.00000E+00
         0.00000E+00
         0.00000E+00
         0.00000E+00
         0.00000E+00
         0.00000E+00
         0.00000E+00
         0.00000E+00
         0.00000E+00
         0.00000E+00
         0.00000E+00
         0.00000E+00
         0.00000E+00
         0.00000E+00
         0.00000E+00
         0.00000E+00
         0.00000E+00
         0.00000E+00
         0.00000E+00
         0.00000E+00
         0.00000E+00
         0.00000E+00
         0.00000E+00
         0.00000E+00
         0.00000E+00
         0.00000E+00
         0.00000E+00
         0.00000E+00
         0.00000E+00
         0.00000E+00
         0.00000E+00
         0.00000E+00
         0.00000E+00
         0.00000E+00
         0.00000E+00
         0.00000E+00
         0.00000E+00
         0.00000E+00
         0.00000E+00
         0.00000E+00
         0.00000E+00
         0.00000E+00
         0.00000E+00
         0.00000E+00
         0.00000E+00
         0.00000E+00
         0.00000E+00
         0.00000E+00
         0.00000E+00
         0.00000E+00
         0.00000E+00
         0.00000E+00
         0.00000E+00
         0.00000E+00
         0.00000E+00
         0.00000E+00
         0.00000E+00
         0.00000E+00
         0.00000E+00
         0.00000E+00
         0.00000E+00
         0.00000E+00
         0.00000E+00
         0.00000E+00
         0.00000E+00
         0.00000E+00
         0.00000E+00
         0.00000E+00
         0.00000E+00
         0.00000E+00
         0.00000E+00
         0.00000E+00
         0.00000E+00
         0.00000E+00
         0.00000E+00
         0.00000E+00
         0.00000E+00
         0.00000E+00
         0.00000E+00
         0.00000E+00
         0.00000E+00
         0.00000E+00
         0.00000E+00
         0.00000E+00
         0.00000E+00
         0.00000E+00
         0.00000E+00
         0.00000E+00
         0.00000E+00
         0.00000E+00
         0.00000E+00
         0.00000E+00
         0.00000E+00
         0.00000E+00
         0.00000E+00
         0.00000E+00
         0.00000E+00
         0.00000E+00
         0.00000E+00
         0.00000E+00
         0.00000E+00
         0.00000E+00
         0.00000E+00
         0.00000E+00
         0.00000E+00
         0.00000E+00
         0.00000E+00
         0.00000E+00
         0.00000E+00
         0.00000E+00
         0.00000E+00
         0.00000E+00
         0.00000E+00
         0.00000E+00
         0.00000E+00
         0.00000E+00
         0.00000E+00
         0.00000E+00
         0.00000E+00
         0.00000E+00
         0.00000E+00
         0.00000E+00
         0.00000E+00
         0.00000E+00
         0.00000E+00
         0.00000E+00
         0.00000E+00
         0.00000E+00
         0.00000E+00
         0.00000E+00
         0.00000E+00
         0.00000E+00
         0.00000E+00
         0.00000E+00
         0.00000E+00
         0.00000E+00
         0.00000E+00
         0.00000E+00
         0.00000E+00
         0.00000E+00
         0.00000E+00
         0.00000E+00
         0.00000E+00
         0.00000E+00
         0.00000E+00
         0.00000E+00
         0.00000E+00
         0.00000E+00
         0.00000E+00
         0.00000E+00
         0.00000E+00
         0.00000E+00
         0.00000E+00
         0.00000E+00
         0.00000E+00
         0.00000E+00
         0.00000E+00
         0.00000E+00
         0.00000E+00
         0.00000E+00
         0.00000E+00
         0.00000E+00
         0.00000E+00
         0.00000E+00
         0.00000E+00
         0.00000E+00
         0.00000E+00
         0.00000E+00
         0.00000E+00
         0.00000E+00
         0.00000E+00
         0.00000E+00
         0.00000E+00
         0.00000E+00
         0.00000E+00
         0.00000E+00
         0.00000E+00
         0.00000E+00
         0.00000E+00
         0.00000E+00
         0.00000E+00
         0.00000E+00
         0.00000E+00
         0.00000E+00
         0.00000E+00
         0.00000E+00
         0.00000E+00
         0.00000E+00
         0.00000E+00
         0.00000E+00
         0.00000E+00
         0.00000E+00
         0.00000E+00
         0.00000E+00
         0.00000E+00
         0.00000E+00
         0.00000E+00
         0.00000E+00
         0.00000E+00
         0.00000E+00
         0.00000E+00
         0.00000E+00
         0.00000E+00
         0.00000E+00
         0.00000E+00
         0.00000E+00
         0.00000E+00
         0.00000E+00
         0.00000E+00
         0.00000E+00
         0.00000E+00
         0.00000E+00
         0.00000E+00
         0.00000E+00
         0.00000E+00
         0.00000E+00
         0.00000E+00
         0.00000E+00
         0.00000E+00
         0.00000E+00
         0.00000E+00
         0.00000E+00
         0.00000E+00
         0.00000E+00
         0.00000E+00
         0.00000E+00
         0.00000E+00
         0.00000E+00
         0.00000E+00
         0.00000E+00
         0.00000E+00
         0.00000E+00
         0.00000E+00
         0.00000E+00
         0.00000E+00
         0.00000E+00
         0.00000E+00
         0.00000E+00
         0.00000E+00
         0.00000E+00
         0.00000E+00
         0.00000E+00
         0.00000E+00
         0.00000E+00
         0.00000E+00
         0.00000E+00
         0.00000E+00
         0.00000E+00
         0.00000E+00
         0.00000E+00
         0.00000E+00
         0.00000E+00
         0.00000E+00
         0.00000E+00
         0.00000E+00
         0.00000E+00
         0.00000E+00
         0.00000E+00
         0.00000E+00
         0.00000E+00
         0.00000E+00
         0.00000E+00
         0.00000E+00
         0.00000E+00
         0.00000E+00
         0.00000E+00
         0.00000E+00
         0.00000E+00
         0.00000E+00
         0.00000E+00
         0.00000E+00
         0.00000E+00
         0.00000E+00
         0.00000E+00
         0.00000E+00
         0.00000E+00
         0.00000E+00
         0.00000E+00
         0.00000E+00
         0.00000E+00
         0.00000E+00
         0.00000E+00
         0.00000E+00
         0.00000E+00
         0.00000E+00
         0.00000E+00
         0.00000E+00
         0.00000E+00
         0.00000E+00
         0.00000E+00
         0.00000E+00
         0.00000E+00
         0.00000E+00
         0.00000E+00
         0.00000E+00
         0.00000E+00
         0.00000E+00
         0.00000E+00
         0.00000E+00
         0.00000E+00
         0.00000E+00
         0.00000E+00
         0.00000E+00
         0.00000E+00
         0.00000E+00
         0.00000E+00
         0.00000E+00
         0.00000E+00
         0.00000E+00
         0.00000E+00
         0.00000E+00
         0.00000E+00
         0.00000E+00
         0.00000E+00
         0.00000E+00
         0.00000E+00
         0.00000E+00
         0.00000E+00
         0.00000E+00
         0.00000E+00
         0.00000E+00
         0.00000E+00
         0.00000E+00
         0.00000E+00
         0.00000E+00
         0.00000E+00
         0.00000E+00
         0.00000E+00
         0.00000E+00
         0.00000E+00
         0.00000E+00
         0.00000E+00
         0.00000E+00
         0.00000E+00
         0.00000E+00
         0.00000E+00
         0.00000E+00
         0.00000E+00
         0.00000E+00
         0.00000E+00
         0.00000E+00
         0.00000E+00
         0.00000E+00
         0.00000E+00
         0.00000E+00
         0.00000E+00
         0.00000E+00
         0.00000E+00
         0.00000E+00
         0.00000E+00
         0.00000E+00
         0.00000E+00
         0.00000E+00
         0.00000E+00
         0.00000E+00
         0.00000E+00
         0.00000E+00
         0.00000E+00
         0.00000E+00
         0.00000E+00
         0.00000E+00
         0.00000E+00
         0.00000E+00
         0.00000E+00
         0.00000E+00
         0.00000E+00
         0.00000E+00
         0.00000E+00
         0.00000E+00
         0.00000E+00
         0.00000E+00
         0.00000E+00
         0.00000E+00
         0.00000E+00
         0.00000E+00
         0.00000E+00
         0.00000E+00
         0.00000E+00
         0.00000E+00
         0.00000E+00
         0.00000E+00
         0.00000E+00
         0.00000E+00
         0.00000E+00
         0.00000E+00
         0.00000E+00
         0.00000E+00
         0.00000E+00
         0.00000E+00
         0.00000E+00
         0.00000E+00
         0.00000E+00
         0.00000E+00
         0.00000E+00
         0.00000E+00
         0.00000E+00
         0.00000E+00
         0.00000E+00
         0.00000E+00
         0.00000E+00
         0.00000E+00
         0.00000E+00
         0.00000E+00
         0.00000E+00
         0.00000E+00
         0.00000E+00
         0.00000E+00
         0.00000E+00
         0.00000E+00
         0.00000E+00
         0.00000E+00
         0.00000E+00
         0.00000E+00
         0.00000E+00
         0.00000E+00
         0.00000E+00
         0.00000E+00
         0.00000E+00
         0.00000E+00
         0.00000E+00
         0.00000E+00
         0.00000E+00
         0.00000E+00
         0.00000E+00
         0.00000E+00
         0.00000E+00
         0.00000E+00
         0.00000E+00
         0.00000E+00
         0.00000E+00
         0.00000E+00
         0.00000E+00
         0.00000E+00
         0.00000E+00
         0.00000E+00
         0.00000E+00
         0.00000E+00
         0.00000E+00
         0.00000E+00
         0.00000E+00
         0.00000E+00
         0.00000E+00
         0.00000E+00
         0.00000E+00
         0.00000E+00
         0.00000E+00
         0.00000E+00
         0.00000E+00
         0.00000E+00
         0.00000E+00
         0.00000E+00
         0.00000E+00
         0.00000E+00
         0.00000E+00
         0.00000E+00
         0.00000E+00
         0.00000E+00
         0.00000E+00
         0.00000E+00
         0.00000E+00
         0.00000E+00
         0.00000E+00
         0.00000E+00
         0.00000E+00
         0.00000E+00
         0.00000E+00
         0.00000E+00
         0.00000E+00
         0.00000E+00
         0.00000E+00
         0.00000E+00
         0.00000E+00
         0.00000E+00
         0.00000E+00
         0.00000E+00
         0.00000E+00
         0.00000E+00
         0.00000E+00
         0.00000E+00
         0.00000E+00
         0.00000E+00
         0.00000E+00
         0.00000E+00
         0.00000E+00
         0.00000E+00
         0.00000E+00
         0.00000E+00
         0.00000E+00
         0.00000E+00
         0.00000E+00
         0.00000E+00
         0.00000E+00
         0.00000E+00
         0.00000E+00
         0.00000E+00
         0.00000E+00
         0.00000E+00
         0.00000E+00
         0.00000E+00
         0.00000E+00
         0.00000E+00
         0.00000E+00
         0.00000E+00
         0.00000E+00
         0.00000E+00
         0.00000E+00
         0.00000E+00
         0.00000E+00
         0.00000E+00
         0.00000E+00
         0.00000E+00
         0.00000E+00
         0.00000E+00
         0.00000E+00
         0.00000E+00
         0.00000E+00
         0.00000E+00
         0.00000E+00
         0.00000E+00
         0.00000E+00
         0.00000E+00
         0.00000E+00
         0.00000E+00
         0.00000E+00
         0.00000E+00
         0.00000E+00
         0.00000E+00
         0.00000E+00
         0.00000E+00
         0.00000E+00
         0.00000E+00
         0.00000E+00
         0.00000E+00
         0.00000E+00
         0.00000E+00
         0.00000E+00
         0.00000E+00
         0.00000E+00
         0.00000E+00
         0.00000E+00
         0.00000E+00
         0.00000E+00
         0.00000E+00
         0.00000E+00
         0.00000E+00
         0.00000E+00
         0.00000E+00
         0.00000E+00
         0.00000E+00
         0.00000E+00
         0.00000E+00
         0.00000E+00
         0.00000E+00
         0.00000E+00
         0.00000E+00
         0.00000E+00
         0.00000E+00
         0.00000E+00
         0.00000E+00
         0.00000E+00
         0.00000E+00
         0.00000E+00
         0.00000E+00
         0.00000E+00
         0.00000E+00
         0.00000E+00
         0.00000E+00
         0.00000E+00
         0.00000E+00
         0.00000E+00
         0.00000E+00
         0.00000E+00
         0.00000E+00
         0.00000E+00
         0.00000E+00
         0.00000E+00
         0.00000E+00
         0.00000E+00
         0.00000E+00
         0.00000E+00
         0.00000E+00
         0.00000E+00
         0.00000E+00
         0.00000E+00
         0.00000E+00
         0.00000E+00
         0.00000E+00
         0.00000E+00
         0.00000E+00
         0.00000E+00
         0.00000E+00
         0.00000E+00
         0.00000E+00
         0.00000E+00
         0.00000E+00
         0.00000E+00
         0.00000E+00
         0.00000E+00
         0.00000E+00
         0.00000E+00
         0.00000E+00
         0.00000E+00
         0.00000E+00
         0.00000E+00
         0.00000E+00
         0.00000E+00
         0.00000E+00
         0.00000E+00
         0.00000E+00
         0.00000E+00
         0.00000E+00
         0.00000E+00
         0.00000E+00
         0.00000E+00
         0.00000E+00
         0.00000E+00
         0.00000E+00
         0.00000E+00
         0.00000E+00
         0.00000E+00
         0.00000E+00
         0.00000E+00
         0.00000E+00
         0.00000E+00
         0.00000E+00
         0.00000E+00
         0.00000E+00
         0.00000E+00
         0.00000E+00
         0.00000E+00
         0.00000E+00
         0.00000E+00
         0.00000E+00
         0.00000E+00
         0.00000E+00
         0.00000E+00
         0.00000E+00
         0.00000E+00
         0.00000E+00
         0.00000E+00
         0.00000E+00
         0.00000E+00
         0.00000E+00
         0.00000E+00
         0.00000E+00
         0.00000E+00
         0.00000E+00
         0.00000E+00
         0.00000E+00
         0.00000E+00
         0.00000E+00
         0.00000E+00
         0.00000E+00
         0.00000E+00
         0.00000E+00
         0.00000E+00
         0.00000E+00
         0.00000E+00
         0.00000E+00
         0.00000E+00
         0.00000E+00
         0.00000E+00
         0.00000E+00
         0.00000E+00
         0.00000E+00
         0.00000E+00
         0.00000E+00
         0.00000E+00
         0.00000E+00
         0.00000E+00
         0.00000E+00
         0.00000E+00
         0.00000E+00
         0.00000E+00
         0.00000E+00
         0.00000E+00
         0.00000E+00
         0.00000E+00
         0.00000E+00
         0.00000E+00
         0.00000E+00
         0.00000E+00
         0.00000E+00
         0.00000E+00
         0.00000E+00
         0.00000E+00
         0.00000E+00
         0.00000E+00
         0.00000E+00
         0.00000E+00
         0.00000E+00
         0.00000E+00
         0.00000E+00
         0.00000E+00
         0.00000E+00
         0.00000E+00
         0.00000E+00
         0.00000E+00
         0.00000E+00
         0.00000E+00
         0.00000E+00
         0.00000E+00
         0.00000E+00
         0.00000E+00
         0.00000E+00
         0.00000E+00
         0.00000E+00
         0.00000E+00
         0.00000E+00
         0.00000E+00
         0.00000E+00
         0.00000E+00
         0.00000E+00
         0.00000E+00
         0.00000E+00
         0.00000E+00
         0.00000E+00
         0.00000E+00
         0.00000E+00
         0.00000E+00
         0.00000E+00
         0.00000E+00
         0.00000E+00
         0.00000E+00
         0.00000E+00
         0.00000E+00
         0.00000E+00
         0.00000E+00
         0.00000E+00
         0.00000E+00
         0.00000E+00
         0.00000E+00
         0.00000E+00
         0.00000E+00
         0.00000E+00
         0.00000E+00
         0.00000E+00
         0.00000E+00
         0.00000E+00
         0.00000E+00
         0.00000E+00
         0.00000E+00
         0.00000E+00
         0.00000E+00
         0.00000E+00
         0.00000E+00
         0.00000E+00
         0.00000E+00
         0.00000E+00
         0.00000E+00
         0.00000E+00
         0.00000E+00
         0.00000E+00
         0.00000E+00
         0.00000E+00
         0.00000E+00
         0.00000E+00
         0.00000E+00
         0.00000E+00
         0.00000E+00
         0.00000E+00
         0.00000E+00
         0.00000E+00
         0.00000E+00
         0.00000E+00
         0.00000E+00
         0.00000E+00
         0.00000E+00
         0.00000E+00
         0.00000E+00
         0.00000E+00
         0.00000E+00
         0.00000E+00
         0.00000E+00
         0.00000E+00
         0.00000E+00
         0.00000E+00
         0.00000E+00
         0.00000E+00
         0.00000E+00
         0.00000E+00
         0.00000E+00
         0.00000E+00
         0.00000E+00
         0.00000E+00
         0.00000E+00
         0.00000E+00
         0.00000E+00
         0.00000E+00
         0.00000E+00
         0.00000E+00
         0.00000E+00
         0.00000E+00
         0.00000E+00
         0.00000E+00
         0.00000E+00
         0.00000E+00
         0.00000E+00
         0.00000E+00
         0.00000E+00
         0.00000E+00
         0.00000E+00
         0.00000E+00
         0.00000E+00
         0.00000E+00
         0.00000E+00
         0.00000E+00
         0.00000E+00
         0.00000E+00
         0.00000E+00
         0.00000E+00
         0.00000E+00
         0.00000E+00
         0.00000E+00
         0.00000E+00
         0.00000E+00
         0.00000E+00
         0.00000E+00
         0.00000E+00
         0.00000E+00
         0.00000E+00
         0.00000E+00
         0.00000E+00
         0.00000E+00
         0.00000E+00
         0.00000E+00
         0.00000E+00
         0.00000E+00
         0.00000E+00
         0.00000E+00
         0.00000E+00
         0.00000E+00
         0.00000E+00
         0.00000E+00
         0.00000E+00
         0.00000E+00
         0.00000E+00
         0.00000E+00
         0.00000E+00
         0.00000E+00
         0.00000E+00
         0.00000E+00
         0.00000E+00
         0.00000E+00
         0.00000E+00
         0.00000E+00
         0.00000E+00
         0.00000E+00
         0.00000E+00
         0.00000E+00
         0.00000E+00
         0.00000E+00
         0.00000E+00
         0.00000E+00
         0.00000E+00
         0.00000E+00
         0.00000E+00
         0.00000E+00
         0.00000E+00
         0.00000E+00
         0.00000E+00
         0.00000E+00
         0.00000E+00
         0.00000E+00
         0.00000E+00
         0.00000E+00
         0.00000E+00
         0.00000E+00
         0.00000E+00
         0.00000E+00
         0.00000E+00
         0.00000E+00
         0.00000E+00
         0.00000E+00
         0.00000E+00
         0.00000E+00
         0.00000E+00
         0.00000E+00
         0.00000E+00
         0.00000E+00
         0.00000E+00
         0.00000E+00
         0.00000E+00
         0.00000E+00
         0.00000E+00
         0.00000E+00
         0.00000E+00
         0.00000E+00
         0.00000E+00
         0.00000E+00
         0.00000E+00
         0.00000E+00
         0.00000E+00
         0.00000E+00
         0.00000E+00
         0.00000E+00
         0.00000E+00
         0.00000E+00
         0.00000E+00
         0.00000E+00
         0.00000E+00
         0.00000E+00
         0.00000E+00
         0.00000E+00
         0.00000E+00
         0.00000E+00
         0.00000E+00
         0.00000E+00
         0.00000E+00
         0.00000E+00
         0.00000E+00
         0.00000E+00
         0.00000E+00
         0.00000E+00
         0.00000E+00
         0.00000E+00
         0.00000E+00
         0.00000E+00
         0.00000E+00
         0.00000E+00
         0.00000E+00
         0.00000E+00
         0.00000E+00
         0.00000E+00
         0.00000E+00
         0.00000E+00
         0.00000E+00
         0.00000E+00
         0.00000E+00
         0.00000E+00
         0.00000E+00
         0.00000E+00
         0.00000E+00
         0.00000E+00
         0.00000E+00
         0.00000E+00
         0.00000E+00
         0.00000E+00
         0.00000E+00
         0.00000E+00
         0.00000E+00
         0.00000E+00
         0.00000E+00
         0.00000E+00
         0.00000E+00
         0.00000E+00
         0.00000E+00
         0.00000E+00
         0.00000E+00
         0.00000E+00
         0.00000E+00
         0.00000E+00
         0.00000E+00
         0.00000E+00
         0.00000E+00
         0.00000E+00
         0.00000E+00
         0.00000E+00
         0.00000E+00
         0.00000E+00
         0.00000E+00
         0.00000E+00
         0.00000E+00
         0.00000E+00
         0.00000E+00
         0.00000E+00
         0.00000E+00
         0.00000E+00
         0.00000E+00
         0.00000E+00
         0.00000E+00
         0.00000E+00
         0.00000E+00
         0.00000E+00
         0.00000E+00
         0.00000E+00
         0.00000E+00
         0.00000E+00
         0.00000E+00
         0.00000E+00
         0.00000E+00
         0.00000E+00
         0.00000E+00
         0.00000E+00
         0.00000E+00
         0.00000E+00
         0.00000E+00
         0.00000E+00
         0.00000E+00
         0.00000E+00
         0.00000E+00
         0.00000E+00
         0.00000E+00
         0.00000E+00
         0.00000E+00
         0.00000E+00
         0.00000E+00
         0.00000E+00
         0.00000E+00
         0.00000E+00
         0.00000E+00
         0.00000E+00
         0.00000E+00
         0.00000E+00
         0.00000E+00
         0.00000E+00
         0.00000E+00
         0.00000E+00
         0.00000E+00
         0.00000E+00
         0.00000E+00
         0.00000E+00
         0.00000E+00
         0.00000E+00
         0.00000E+00
         0.00000E+00
         0.00000E+00
         0.00000E+00
         0.00000E+00
         0.00000E+00
         0.00000E+00
         0.00000E+00
         0.00000E+00
         0.00000E+00
         0.00000E+00
         0.00000E+00
         0.00000E+00
         0.00000E+00
         0.00000E+00
         0.00000E+00
         0.00000E+00
         0.00000E+00
         0.00000E+00
         0.00000E+00
         0.00000E+00
         0.00000E+00
         0.00000E+00
         0.00000E+00
         0.00000E+00
         0.00000E+00
         0.00000E+00
         0.00000E+00
         0.00000E+00
         0.00000E+00
         0.00000E+00
         0.00000E+00
         0.00000E+00
         0.00000E+00
         0.00000E+00
         0.00000E+00
         0.00000E+00
         0.00000E+00
         0.00000E+00
         0.00000E+00
         0.00000E+00
         0.00000E+00
         0.00000E+00
         0.00000E+00
         0.00000E+00
         0.00000E+00
         0.00000E+00
         0.00000E+00
         0.00000E+00
         0.00000E+00
         0.00000E+00
         0.00000E+00
         0.00000E+00
         0.00000E+00
         0.00000E+00
         0.00000E+00
         0.00000E+00
         0.00000E+00
         0.00000E+00
         0.00000E+00
         0.00000E+00
         0.00000E+00
         0.00000E+00
         0.00000E+00
         0.00000E+00
         0.00000E+00
         0.00000E+00
         0.00000E+00
         0.00000E+00
         0.00000E+00
         0.00000E+00
         0.00000E+00
         0.00000E+00
         0.00000E+00
         0.00000E+00
         0.00000E+00
         0.00000E+00
         0.00000E+00
         0.00000E+00
         0.00000E+00
         0.00000E+00
         0.00000E+00
         0.00000E+00
         0.00000E+00
         0.00000E+00
         0.00000E+00
         0.00000E+00
         0.00000E+00
         0.00000E+00
         0.00000E+00
         0.00000E+00
         0.00000E+00
         0.00000E+00
         0.00000E+00
         0.00000E+00
         0.00000E+00
         0.00000E+00
         0.00000E+00
         0.00000E+00
         0.00000E+00
         0.00000E+00
         0.00000E+00
         0.00000E+00
         0.00000E+00
         0.00000E+00
         0.00000E+00
         0.00000E+00
         0.00000E+00
         0.00000E+00
         0.00000E+00
         0.00000E+00
         0.00000E+00
         0.00000E+00
         0.00000E+00
         0.00000E+00
         0.00000E+00
         0.00000E+00
         0.00000E+00
         0.00000E+00
         0.00000E+00
         0.00000E+00
         0.00000E+00
         0.00000E+00
         0.00000E+00
         0.00000E+00
         0.00000E+00
         0.00000E+00
         0.00000E+00
         0.00000E+00
         0.00000E+00
         0.00000E+00
         0.00000E+00
         0.00000E+00
         0.00000E+00
         0.00000E+00
         0.00000E+00
         0.00000E+00
         0.00000E+00
         0.00000E+00
         0.00000E+00
         0.00000E+00
         0.00000E+00
         0.00000E+00
         0.00000E+00
         0.00000E+00
         0.00000E+00
         0.00000E+00
         0.00000E+00
         0.00000E+00
         0.00000E+00
         0.00000E+00
         0.00000E+00
         0.00000E+00
         0.00000E+00
         0.00000E+00
         0.00000E+00
         0.00000E+00
         0.00000E+00
         0.00000E+00
         0.00000E+00
         0.00000E+00
         0.00000E+00
         0.00000E+00
         0.00000E+00
         0.00000E+00
         0.00000E+00
         0.00000E+00
         0.00000E+00
         0.00000E+00
         0.00000E+00
         0.00000E+00
         0.00000E+00
         0.00000E+00
         0.00000E+00
         0.00000E+00
         0.00000E+00
         0.00000E+00
         0.00000E+00
         0.00000E+00
         0.00000E+00
         0.00000E+00
         0.00000E+00
         0.00000E+00
         0.00000E+00
         0.00000E+00
         0.00000E+00
         0.00000E+00
         0.00000E+00
         0.00000E+00
         0.00000E+00
         0.00000E+00
         0.00000E+00
         0.00000E+00
         0.00000E+00
         0.00000E+00
         0.00000E+00
         0.00000E+00
         0.00000E+00
         0.00000E+00
         0.00000E+00
         0.00000E+00
         0.00000E+00
         0.00000E+00
         0.00000E+00
         0.00000E+00
         0.00000E+00
         0.00000E+00
         0.00000E+00
         0.00000E+00
         0.00000E+00
         0.00000E+00
         0.00000E+00
         0.00000E+00
         0.00000E+00
         0.00000E+00
         0.00000E+00
         0.00000E+00
         0.00000E+00
         0.00000E+00
         0.00000E+00
         0.00000E+00
         0.00000E+00
         0.00000E+00
         0.00000E+00
         0.00000E+00
         0.00000E+00
         0.00000E+00
         0.00000E+00
         0.00000E+00
         0.00000E+00
         0.00000E+00
         0.00000E+00
         0.00000E+00
         0.00000E+00
         0.00000E+00
         0.00000E+00
         0.00000E+00
         0.00000E+00
         0.00000E+00
         0.00000E+00
         0.00000E+00
         0.00000E+00
         0.00000E+00
         0.00000E+00
         0.00000E+00
         0.00000E+00
         0.00000E+00
         0.00000E+00
         0.00000E+00
         0.00000E+00
         0.00000E+00
         0.00000E+00
         0.00000E+00
         0.00000E+00
         0.00000E+00
         0.00000E+00
         0.00000E+00
         0.00000E+00
         0.00000E+00
         0.00000E+00
         0.00000E+00
         0.00000E+00
         0.00000E+00
         0.00000E+00
         0.00000E+00
         0.00000E+00
         0.00000E+00
         0.00000E+00
         0.00000E+00
         0.00000E+00
         0.00000E+00
         0.00000E+00
         0.00000E+00
         0.00000E+00
         0.00000E+00
         0.00000E+00
         0.00000E+00
         0.00000E+00
         0.00000E+00
         0.00000E+00
         0.00000E+00
         0.00000E+00
         0.00000E+00
         0.00000E+00
         0.00000E+00
         0.00000E+00
         0.00000E+00
         0.00000E+00
         0.00000E+00
         0.00000E+00
         0.00000E+00
         0.00000E+00
         0.00000E+00
         0.00000E+00
         0.00000E+00
         0.00000E+00
         0.00000E+00
         0.00000E+00
         0.00000E+00
         0.00000E+00
         0.00000E+00
         0.00000E+00
         0.00000E+00
         0.00000E+00
         0.00000E+00
         0.00000E+00
         0.00000E+00
         0.00000E+00
         0.00000E+00
         0.00000E+00
         0.00000E+00
         0.00000E+00
         0.00000E+00
         0.00000E+00
         0.00000E+00
         0.00000E+00
         0.00000E+00
         0.00000E+00
         0.00000E+00
         0.00000E+00
         0.00000E+00
         0.00000E+00
         0.00000E+00
         0.00000E+00
         0.00000E+00
         0.00000E+00
         0.00000E+00
         0.00000E+00
         0.00000E+00
         0.00000E+00
         0.00000E+00
         0.00000E+00
         0.00000E+00
         0.00000E+00
         0.00000E+00
         0.00000E+00
         0.00000E+00
         0.00000E+00
         0.00000E+00
         0.00000E+00
         0.00000E+00
         0.00000E+00
         0.00000E+00
         0.00000E+00
         0.00000E+00
         0.00000E+00
         0.00000E+00
         0.00000E+00
         0.00000E+00
         0.00000E+00
         0.00000E+00
         0.00000E+00
         0.00000E+00
         0.00000E+00
         0.00000E+00
         0.00000E+00
         0.00000E+00
         0.00000E+00
         0.00000E+00
         0.00000E+00
         0.00000E+00
         0.00000E+00
         0.00000E+00
         0.00000E+00
         0.00000E+00
         0.00000E+00
         0.00000E+00
         0.00000E+00
         0.00000E+00
         0.00000E+00
         0.00000E+00
         0.00000E+00
         0.00000E+00
         0.00000E+00
         0.00000E+00
         0.00000E+00
         0.00000E+00
         0.00000E+00
         0.00000E+00
         0.00000E+00
         0.00000E+00
         0.00000E+00
         0.00000E+00
         0.00000E+00
         0.00000E+00
         0.00000E+00
         0.00000E+00
         0.00000E+00
         0.00000E+00
         0.00000E+00
         0.00000E+00
         0.00000E+00
         0.00000E+00
         0.00000E+00
         0.00000E+00
         0.00000E+00
         0.00000E+00
         0.00000E+00
         0.00000E+00
         0.00000E+00
         0.00000E+00
         0.00000E+00
         0.00000E+00
         0.00000E+00
         0.00000E+00
         0.00000E+00
         0.00000E+00
         0.00000E+00
         0.00000E+00
         0.00000E+00
         0.00000E+00
         0.00000E+00
         0.00000E+00
         0.00000E+00
         0.00000E+00
         0.00000E+00
         0.00000E+00
         0.00000E+00
         0.00000E+00
         0.00000E+00
         0.00000E+00
         0.00000E+00
         0.00000E+00
         0.00000E+00
         0.00000E+00
         0.00000E+00
         0.00000E+00
         0.00000E+00
         0.00000E+00
         0.00000E+00
         0.00000E+00
         0.00000E+00
         0.00000E+00
         0.00000E+00
         0.00000E+00
         0.00000E+00
         0.00000E+00
         0.00000E+00
         0.00000E+00
         0.00000E+00
         0.00000E+00
         0.00000E+00
         0.00000E+00
         0.00000E+00
         0.00000E+00
         0.00000E+00
         0.00000E+00
         0.00000E+00
         0.00000E+00
         0.00000E+00
         0.00000E+00
         0.00000E+00
         0.00000E+00
         0.00000E+00
         0.00000E+00
         0.00000E+00
         0.00000E+00
         0.00000E+00
         0.00000E+00
         0.00000E+00
         0.00000E+00
         0.00000E+00
         0.00000E+00
         0.00000E+00
         0.00000E+00
         0.00000E+00
         0.00000E+00
         0.00000E+00
         0.00000E+00
         0.00000E+00
         0.00000E+00
         0.00000E+00
  
SCALARS                            eps  double 1
LOOKUP_TABLE default
         0.11941E+01
         0.11719E+01
         0.11814E+01
         0.12029E+01
         0.14562E+01
         0.14194E+01
         0.14315E+01
         0.14665E+01
         0.12447E+01
         0.12311E+01
         0.15397E+01
         0.15110E+01
         0.11855E+01
         0.11882E+01
         0.14792E+01
         0.14562E+01
         0.11815E+01
         0.11697E+01
         0.13975E+01
         0.13782E+01
         0.11948E+01
         0.12023E+01
         0.12063E+01
         0.16436E+01
         0.16373E+01
         0.15163E+01
         0.11818E+01
         0.11821E+01
         0.15398E+01
         0.15491E+01
         0.12387E+01
         0.11997E+01
         0.12275E+01
         0.15423E+01
         0.14913E+01
         0.15332E+01
         0.12133E+01
         0.11957E+01
         0.15335E+01
         0.15047E+01
         0.12430E+01
         0.12209E+01
         0.15468E+01
         0.15278E+01
         0.12695E+01
         0.12325E+01
         0.16545E+01
         0.16351E+01
         0.11884E+01
         0.14599E+01
         0.12287E+01
         0.15687E+01
         0.11565E+01
         0.14379E+01
         0.11612E+01
         0.14496E+01
         0.11643E+01
         0.11836E+01
         0.14943E+01
         0.14951E+01
         0.12116E+01
         0.12292E+01
         0.15225E+01
         0.15723E+01
         0.12102E+01
         0.15159E+01
         0.12145E+01
         0.15050E+01
         0.12650E+01
         0.12182E+01
         0.16125E+01
         0.14740E+01
         0.12004E+01
         0.14693E+01
         0.11595E+01
         0.15381E+01
         0.11543E+01
         0.15279E+01
         0.11703E+01
         0.15900E+01
         0.12066E+01
         0.11951E+01
         0.16095E+01
         0.16215E+01
         0.11985E+01
         0.15392E+01
         0.12767E+01
         0.16318E+01
         0.12838E+01
         0.16106E+01
         0.13388E+01
         0.13053E+01
         0.17371E+01
         0.16729E+01
         0.12631E+01
         0.16105E+01
         0.12498E+01
         0.15861E+01
         0.12733E+01
         0.16014E+01
         0.13036E+01
         0.12680E+01
         0.17042E+01
         0.15719E+01
         0.13994E+01
         0.14045E+01
         0.16859E+01
         0.16137E+01
         0.13823E+01
         0.15760E+01
         0.13322E+01
         0.15726E+01
         0.13172E+01
         0.16070E+01
         0.13094E+01
         0.16838E+01
         0.13029E+01
         0.16973E+01
         0.12791E+01
         0.16864E+01
         0.12862E+01
         0.16703E+01
         0.13130E+01
         0.17100E+01
         0.13577E+01
         0.19154E+01
         0.13680E+01
         0.17150E+01
         0.13519E+01
         0.16802E+01
         0.13540E+01
         0.16689E+01
         0.13770E+01
         0.16247E+01
         0.14125E+01
         0.16689E+01
         0.14745E+01
         0.16941E+01
         0.15370E+01
         0.17470E+01
         0.15683E+01
         0.19069E+01
         0.15143E+01
         0.17442E+01
         0.14775E+01
         0.17075E+01
         0.14674E+01
         0.16783E+01
         0.14910E+01
         0.16962E+01
         0.14753E+01
         0.18211E+01
         0.14505E+01
         0.16747E+01
         0.13952E+01
         0.16433E+01
         0.10589E+01
         0.10304E+01
         0.10114E+01
         0.10492E+01
         0.99863E+00
         0.10002E+01
         0.10390E+01
         0.10694E+01
         0.10779E+01
         0.10760E+01
         0.10294E+01
         0.10004E+01
         0.10010E+01
         0.10489E+01
         0.10024E+01
         0.10706E+01
         0.10905E+01
         0.10888E+01
         0.10523E+01
         0.10564E+01
         0.10071E+01
         0.10083E+01
         0.10071E+01
         0.10261E+01
         0.10685E+01
         0.10205E+01
         0.10457E+01
         0.10336E+01
         0.10141E+01
         0.10297E+01
         0.10237E+01
         0.99275E+00
         0.10306E+01
         0.10197E+01
         0.99600E+00
         0.98683E+00
         0.99638E+00
         0.99531E+00
         0.99744E+00
         0.10063E+01
         0.10055E+01
         0.10039E+01
         0.10074E+01
         0.10035E+01
         0.98986E+00
         0.10049E+01
         0.98008E+00
         0.97550E+00
         0.97104E+00
         0.98009E+00
         0.99819E+00
         0.99889E+00
         0.10980E+01
         0.11196E+01
         0.10861E+01
         0.10782E+01
         0.10689E+01
         0.10807E+01
         0.10795E+01
         0.10699E+01
         0.10787E+01
         0.10946E+01
         0.10972E+01
         0.11457E+01
         0.11157E+01
         0.10943E+01
         0.11086E+01
         0.11253E+01
         0.11450E+01
         0.11696E+01
         0.11973E+01
         0.11677E+01
         0.11587E+01
         0.11512E+01
         0.11551E+01
         0.11456E+01
         0.11222E+01
         0.11093E+01
         0.97586E+00
         0.94823E+00
         0.91798E+00
         0.93492E+00
         0.90103E+00
         0.89421E+00
         0.97324E+00
         0.10023E+01
         0.96937E+00
         0.10030E+01
         0.97920E+00
         0.95627E+00
         0.94018E+00
         0.99875E+00
         0.97455E+00
         0.94937E+00
         0.98531E+00
         0.94287E+00
         0.94549E+00
         0.97142E+00
         0.90343E+00
         0.92184E+00
         0.88090E+00
         0.90133E+00
         0.98774E+00
         0.88761E+00
         0.99717E+00
         0.97891E+00
         0.95270E+00
         0.96532E+00
         0.88391E+00
         0.85791E+00
         0.89435E+00
         0.89127E+00
         0.90276E+00
         0.90456E+00
         0.92531E+00
         0.97118E+00
         0.96817E+00
         0.96611E+00
         0.97083E+00
         0.95248E+00
         0.93322E+00
         0.86912E+00
         0.85936E+00
         0.85290E+00
         0.84232E+00
         0.84387E+00
         0.84504E+00
         0.85447E+00
         0.86745E+00
         0.88493E+00
         0.95090E+00
         0.96297E+00
         0.95511E+00
         0.96629E+00
         0.97364E+00
         0.99116E+00
         0.10118E+01
         0.10102E+01
         0.10066E+01
         0.10340E+01
         0.10409E+01
         0.10345E+01
         0.97542E+00
         0.95988E+00
         0.96285E+00
         0.95340E+00
         0.95459E+00
         0.96061E+00
         0.96788E+00
         0.93200E+00
         0.92355E+00
         0.93514E+00
         0.95379E+00
         0.95054E+00
         0.93297E+00
         0.93498E+00
         0.87810E+00
         0.85368E+00
         0.82251E+00
         0.83570E+00
         0.80243E+00
         0.80650E+00
         0.87232E+00
         0.90295E+00
         0.86066E+00
         0.89115E+00
         0.87577E+00
         0.84686E+00
         0.84008E+00
         0.90407E+00
         0.86539E+00
         0.84326E+00
         0.86569E+00
         0.84228E+00
         0.84591E+00
         0.86956E+00
         0.80782E+00
         0.82794E+00
         0.78019E+00
         0.80888E+00
         0.88310E+00
         0.80170E+00
         0.90157E+00
         0.88166E+00
         0.85769E+00
         0.86933E+00
         0.80565E+00
         0.78217E+00
         0.81008E+00
         0.80524E+00
         0.80433E+00
         0.81235E+00
         0.83293E+00
         0.86213E+00
         0.84747E+00
         0.83664E+00
         0.82381E+00
         0.82136E+00
         0.82361E+00
         0.77849E+00
         0.76967E+00
         0.76496E+00
         0.76125E+00
         0.77445E+00
         0.77704E+00
         0.77035E+00
         0.77471E+00
         0.79210E+00
         0.87831E+00
         0.87296E+00
         0.87594E+00
         0.88185E+00
         0.88543E+00
         0.90557E+00
         0.91669E+00
         0.90475E+00
         0.89714E+00
         0.90544E+00
         0.90588E+00
         0.90992E+00
         0.88380E+00
         0.86674E+00
         0.85309E+00
         0.83473E+00
         0.83461E+00
         0.83995E+00
         0.85358E+00
         0.82663E+00
         0.81347E+00
         0.82209E+00
         0.83834E+00
         0.85000E+00
         0.83396E+00
         0.84596E+00
         0.78765E+00
         0.76104E+00
         0.73788E+00
         0.75348E+00
         0.72273E+00
         0.72725E+00
         0.77908E+00
         0.80563E+00
         0.78188E+00
         0.80070E+00
         0.79156E+00
         0.77079E+00
         0.75795E+00
         0.81278E+00
         0.78669E+00
         0.76466E+00
         0.78202E+00
         0.77378E+00
         0.75996E+00
         0.77753E+00
         0.72304E+00
         0.75166E+00
         0.69953E+00
         0.72446E+00
         0.79823E+00
         0.72215E+00
         0.81141E+00
         0.79471E+00
         0.77057E+00
         0.77943E+00
         0.73302E+00
         0.70865E+00
         0.74234E+00
         0.72733E+00
         0.72251E+00
         0.72862E+00
         0.74504E+00
         0.78639E+00
         0.77608E+00
         0.76833E+00
         0.75974E+00
         0.74803E+00
         0.75072E+00
         0.70311E+00
         0.69686E+00
         0.69348E+00
         0.69571E+00
         0.71238E+00
         0.71696E+00
         0.70592E+00
         0.70481E+00
         0.71539E+00
         0.78951E+00
         0.78189E+00
         0.78085E+00
         0.77885E+00
         0.78760E+00
         0.80717E+00
         0.82097E+00
         0.81817E+00
         0.81332E+00
         0.80084E+00
         0.78983E+00
         0.79563E+00
         0.79194E+00
         0.77775E+00
         0.76823E+00
         0.74605E+00
         0.74618E+00
         0.74507E+00
         0.76576E+00
         0.74431E+00
         0.73283E+00
         0.74854E+00
         0.76475E+00
         0.77053E+00
         0.75770E+00
         0.76603E+00
         0.73306E+00
         0.71011E+00
         0.69168E+00
         0.70821E+00
         0.66923E+00
         0.67704E+00
         0.71686E+00
         0.74071E+00
         0.75121E+00
         0.75193E+00
         0.71898E+00
         0.69923E+00
         0.69525E+00
         0.73946E+00
         0.71255E+00
         0.71578E+00
         0.73999E+00
         0.72209E+00
         0.70608E+00
         0.72356E+00
         0.67529E+00
         0.68834E+00
         0.65796E+00
         0.68602E+00
         0.75109E+00
         0.68529E+00
         0.74824E+00
         0.73369E+00
         0.70986E+00
         0.72568E+00
         0.70532E+00
         0.67520E+00
         0.70828E+00
         0.68970E+00
         0.66419E+00
         0.67563E+00
         0.68954E+00
         0.71951E+00
         0.70849E+00
         0.69184E+00
         0.68762E+00
         0.68653E+00
         0.69107E+00
         0.65954E+00
         0.65290E+00
         0.64656E+00
         0.65346E+00
         0.66854E+00
         0.67206E+00
         0.66092E+00
         0.65779E+00
         0.66964E+00
         0.71017E+00
         0.70568E+00
         0.70499E+00
         0.70697E+00
         0.71345E+00
         0.72970E+00
         0.73835E+00
         0.75054E+00
         0.74148E+00
         0.73745E+00
         0.74305E+00
         0.73418E+00
         0.71878E+00
         0.71042E+00
         0.70888E+00
         0.69441E+00
         0.69224E+00
         0.68786E+00
         0.68926E+00
         0.68016E+00
         0.67634E+00
         0.68824E+00
         0.69440E+00
         0.69858E+00
         0.69457E+00
         0.69625E+00
         0.67969E+00
         0.66140E+00
         0.65010E+00
         0.66632E+00
         0.62393E+00
         0.62971E+00
         0.66057E+00
         0.67848E+00
         0.67586E+00
         0.68587E+00
         0.65905E+00
         0.64749E+00
         0.64356E+00
         0.67455E+00
         0.65855E+00
         0.67573E+00
         0.68151E+00
         0.67955E+00
         0.66989E+00
         0.67389E+00
         0.63835E+00
         0.64732E+00
         0.61750E+00
         0.65211E+00
         0.68709E+00
         0.65310E+00
         0.68154E+00
         0.66706E+00
         0.64788E+00
         0.66944E+00
         0.67020E+00
         0.64331E+00
         0.67680E+00
         0.65545E+00
         0.61390E+00
         0.62755E+00
         0.63790E+00
         0.66441E+00
         0.65316E+00
         0.63312E+00
         0.62095E+00
         0.62786E+00
         0.64068E+00
         0.61545E+00
         0.60432E+00
         0.59096E+00
         0.61138E+00
         0.63007E+00
         0.63376E+00
         0.62276E+00
         0.60873E+00
         0.62328E+00
         0.62901E+00
         0.62786E+00
         0.62952E+00
         0.63144E+00
         0.63893E+00
         0.65258E+00
         0.67073E+00
         0.66894E+00
         0.65732E+00
         0.63951E+00
         0.63566E+00
         0.64504E+00
         0.64535E+00
         0.63249E+00
         0.62890E+00
         0.61440E+00
         0.60780E+00
         0.60144E+00
         0.60350E+00
         0.59454E+00
         0.59064E+00
         0.60275E+00
         0.61400E+00
         0.61791E+00
         0.61426E+00
         0.61962E+00
         0.61588E+00
         0.60780E+00
         0.60704E+00
         0.61695E+00
         0.58846E+00
         0.59841E+00
         0.59904E+00
         0.60795E+00
         0.61753E+00
         0.62182E+00
         0.59164E+00
         0.58138E+00
         0.58573E+00
         0.59911E+00
         0.58725E+00
         0.61102E+00
         0.61693E+00
         0.61263E+00
         0.61674E+00
         0.62145E+00
         0.60459E+00
         0.61399E+00
         0.59060E+00
         0.61402E+00
         0.62762E+00
         0.61557E+00
         0.61227E+00
         0.60985E+00
         0.59695E+00
         0.61643E+00
         0.62294E+00
         0.60877E+00
         0.62558E+00
         0.61901E+00
         0.57494E+00
         0.58254E+00
         0.58691E+00
         0.59524E+00
         0.59078E+00
         0.57659E+00
         0.57114E+00
         0.58580E+00
         0.60523E+00
         0.58825E+00
         0.57837E+00
         0.56463E+00
         0.58314E+00
         0.59780E+00
         0.60084E+00
         0.59410E+00
         0.58081E+00
         0.59461E+00
         0.58036E+00
         0.58315E+00
         0.57393E+00
         0.57318E+00
         0.58551E+00
         0.59459E+00
         0.59392E+00
         0.59473E+00
         0.60532E+00
         0.59317E+00
         0.59412E+00
         0.60527E+00
         0.59520E+00
         0.59581E+00
         0.59408E+00
         0.57985E+00
         0.56773E+00
         0.55514E+00
         0.56208E+00
         0.55847E+00
         0.55335E+00
         0.56599E+00
         0.57449E+00
         0.57608E+00
         0.57826E+00
         0.57741E+00
         0.56109E+00
         0.56510E+00
         0.56755E+00
         0.56499E+00
         0.54705E+00
         0.54966E+00
         0.55474E+00
         0.55368E+00
         0.56047E+00
         0.56551E+00
         0.55186E+00
         0.54600E+00
         0.54555E+00
         0.55591E+00
         0.55500E+00
         0.54568E+00
         0.56127E+00
         0.55425E+00
         0.55202E+00
         0.56133E+00
         0.54759E+00
         0.55641E+00
         0.53826E+00
         0.55213E+00
         0.57421E+00
         0.55174E+00
         0.56609E+00
         0.56461E+00
         0.55493E+00
         0.56546E+00
         0.56110E+00
         0.54868E+00
         0.56565E+00
         0.56458E+00
         0.53950E+00
         0.54826E+00
         0.54706E+00
         0.56376E+00
         0.55596E+00
         0.53772E+00
         0.53207E+00
         0.54606E+00
         0.55884E+00
         0.53366E+00
         0.53070E+00
         0.53123E+00
         0.53898E+00
         0.54415E+00
         0.54774E+00
         0.54531E+00
         0.53801E+00
         0.54547E+00
         0.53675E+00
         0.53559E+00
         0.53249E+00
         0.52605E+00
         0.53394E+00
         0.54440E+00
         0.54670E+00
         0.54915E+00
         0.54569E+00
         0.52518E+00
         0.52759E+00
         0.54676E+00
         0.55516E+00
         0.55107E+00
         0.54473E+00
         0.53643E+00
         0.52769E+00
         0.52645E+00
         0.53830E+00
         0.53303E+00
         0.51881E+00
         0.52371E+00
         0.53482E+00
         0.53882E+00
         0.53455E+00
         0.53344E+00
         0.50939E+00
         0.51126E+00
         0.51356E+00
         0.51215E+00
         0.49541E+00
         0.49168E+00
         0.50558E+00
         0.50218E+00
         0.51402E+00
         0.50882E+00
         0.50305E+00
         0.49762E+00
         0.49940E+00
         0.50219E+00
         0.50097E+00
         0.49906E+00
         0.51076E+00
         0.50962E+00
         0.50083E+00
         0.50458E+00
         0.49146E+00
         0.49774E+00
         0.48477E+00
         0.50075E+00
         0.51826E+00
         0.49692E+00
         0.50911E+00
         0.51451E+00
         0.51081E+00
         0.51112E+00
         0.50109E+00
         0.49423E+00
         0.51083E+00
         0.51031E+00
         0.49269E+00
         0.50153E+00
         0.49993E+00
         0.50801E+00
         0.50995E+00
         0.50433E+00
         0.49799E+00
         0.50117E+00
         0.50101E+00
         0.48162E+00
         0.48018E+00
         0.48097E+00
         0.48605E+00
         0.48724E+00
         0.49221E+00
         0.49350E+00
         0.48407E+00
         0.48899E+00
         0.48902E+00
         0.47967E+00
         0.48637E+00
         0.48211E+00
         0.48943E+00
         0.50033E+00
         0.50602E+00
         0.51062E+00
         0.51311E+00
         0.50684E+00
         0.50692E+00
         0.50861E+00
         0.49438E+00
         0.48700E+00
         0.48322E+00
         0.47798E+00
         0.47363E+00
         0.47604E+00
         0.48892E+00
         0.48120E+00
         0.46409E+00
         0.46629E+00
         0.47722E+00
         0.48044E+00
         0.47356E+00
         0.47156E+00
         0.43918E+00
         0.44939E+00
         0.45699E+00
         0.45278E+00
         0.44363E+00
         0.44278E+00
         0.44171E+00
         0.43133E+00
         0.43113E+00
         0.43017E+00
         0.43608E+00
         0.43111E+00
         0.43792E+00
         0.42953E+00
         0.42626E+00
         0.44102E+00
         0.43570E+00
         0.44259E+00
         0.44501E+00
         0.44244E+00
         0.43930E+00
         0.43994E+00
         0.43780E+00
         0.45147E+00
         0.43992E+00
         0.44993E+00
         0.43441E+00
         0.44001E+00
         0.43884E+00
         0.44300E+00
         0.45138E+00
         0.44664E+00
         0.45651E+00
         0.45768E+00
         0.43876E+00
         0.44396E+00
         0.44013E+00
         0.43140E+00
         0.43579E+00
         0.43039E+00
         0.42302E+00
         0.43168E+00
         0.43961E+00
         0.43567E+00
         0.43283E+00
         0.43268E+00
         0.43781E+00
         0.44017E+00
         0.44456E+00
         0.44617E+00
         0.43680E+00
         0.44107E+00
         0.43299E+00
         0.42233E+00
         0.43384E+00
         0.42374E+00
         0.42651E+00
         0.42950E+00
         0.42462E+00
         0.41966E+00
         0.42315E+00
         0.42394E+00
         0.42268E+00
         0.41914E+00
         0.41513E+00
         0.41850E+00
         0.41289E+00
         0.41019E+00
         0.41592E+00
         0.42514E+00
         0.44308E+00
         0.43140E+00
         0.41412E+00
         0.41405E+00
         0.42743E+00
         0.43353E+00
         0.42088E+00
         0.41393E+00
         0.36760E+00
         0.38420E+00
         0.39076E+00
         0.37873E+00
         0.38947E+00
         0.38679E+00
         0.38385E+00
         0.37001E+00
         0.35475E+00
         0.36387E+00
         0.38467E+00
         0.38691E+00
         0.38681E+00
         0.37793E+00
         0.38248E+00
         0.36343E+00
         0.36141E+00
         0.36071E+00
         0.37930E+00
         0.37384E+00
         0.38582E+00
         0.38444E+00
         0.38644E+00
         0.38883E+00
         0.37241E+00
         0.38223E+00
         0.37588E+00
         0.37886E+00
         0.38083E+00
         0.37746E+00
         0.37488E+00
         0.38126E+00
         0.37855E+00
         0.38955E+00
         0.39009E+00
         0.38970E+00
         0.38488E+00
         0.38267E+00
         0.38405E+00
         0.38396E+00
         0.38799E+00
         0.38764E+00
         0.38687E+00
         0.38160E+00
         0.38236E+00
         0.38785E+00
         0.38689E+00
         0.38338E+00
         0.38524E+00
         0.39109E+00
         0.38868E+00
         0.38804E+00
         0.39640E+00
         0.39310E+00
         0.39093E+00
         0.37595E+00
         0.38437E+00
         0.39275E+00
         0.38711E+00
         0.38944E+00
         0.39725E+00
         0.40200E+00
         0.40879E+00
         0.40778E+00
         0.40091E+00
         0.39232E+00
         0.39185E+00
         0.38864E+00
         0.38188E+00
         0.38974E+00
         0.40739E+00
         0.39762E+00
         0.38194E+00
         0.37707E+00
         0.38728E+00
         0.38883E+00
         0.38069E+00
         0.38109E+00
         0.29711E+00
         0.30774E+00
         0.31323E+00
         0.30214E+00
         0.31858E+00
         0.31306E+00
         0.30994E+00
         0.29873E+00
         0.28937E+00
         0.29084E+00
         0.31171E+00
         0.31449E+00
         0.31455E+00
         0.30165E+00
         0.30660E+00
         0.29834E+00
         0.29296E+00
         0.29469E+00
         0.30238E+00
         0.29387E+00
         0.30747E+00
         0.29997E+00
         0.31425E+00
         0.31435E+00
         0.29568E+00
         0.31232E+00
         0.29483E+00
         0.29931E+00
         0.30319E+00
         0.29738E+00
         0.30490E+00
         0.31437E+00
         0.30398E+00
         0.31216E+00
         0.32432E+00
         0.31932E+00
         0.31264E+00
         0.29944E+00
         0.30054E+00
         0.30403E+00
         0.30624E+00
         0.30401E+00
         0.30048E+00
         0.31512E+00
         0.32053E+00
         0.32769E+00
         0.32297E+00
         0.31550E+00
         0.31515E+00
         0.32163E+00
         0.32268E+00
         0.31750E+00
         0.34000E+00
         0.33088E+00
         0.34154E+00
         0.32503E+00
         0.32301E+00
         0.32404E+00
         0.31753E+00
         0.32057E+00
         0.31648E+00
         0.32456E+00
         0.33347E+00
         0.32404E+00
         0.32378E+00
         0.32222E+00
         0.31619E+00
         0.31826E+00
         0.32517E+00
         0.33738E+00
         0.35225E+00
         0.34239E+00
         0.32630E+00
         0.32363E+00
         0.33381E+00
         0.33674E+00
         0.32748E+00
         0.32265E+00
         0.21880E+00
         0.23416E+00
         0.24037E+00
         0.22492E+00
         0.25521E+00
         0.24872E+00
         0.23648E+00
         0.22120E+00
         0.20799E+00
         0.20900E+00
         0.23783E+00
         0.24581E+00
         0.24784E+00
         0.22684E+00
         0.23582E+00
         0.22002E+00
         0.20780E+00
         0.21419E+00
         0.22676E+00
         0.21759E+00
         0.24482E+00
         0.23634E+00
         0.25638E+00
         0.24384E+00
         0.21436E+00
         0.24342E+00
         0.22055E+00
         0.22543E+00
         0.23504E+00
         0.22397E+00
         0.23468E+00
         0.25079E+00
         0.22894E+00
         0.23706E+00
         0.26226E+00
         0.25367E+00
         0.24679E+00
         0.23385E+00
         0.24003E+00
         0.24751E+00
         0.25320E+00
         0.24697E+00
         0.23983E+00
         0.25968E+00
         0.26703E+00
         0.27776E+00
         0.26817E+00
         0.25690E+00
         0.25312E+00
         0.25854E+00
         0.26544E+00
         0.25522E+00
         0.28907E+00
         0.28966E+00
         0.29216E+00
         0.27663E+00
         0.27799E+00
         0.27645E+00
         0.26950E+00
         0.27346E+00
         0.28101E+00
         0.28417E+00
         0.28695E+00
         0.28169E+00
         0.27534E+00
         0.27727E+00
         0.28101E+00
         0.28956E+00
         0.29207E+00
         0.30010E+00
         0.31286E+00
         0.30073E+00
         0.29043E+00
         0.28501E+00
         0.29092E+00
         0.28924E+00
         0.28143E+00
         0.28362E+00
         0.15073E+00
         0.16362E+00
         0.17056E+00
         0.15560E+00
         0.18892E+00
         0.18227E+00
         0.16918E+00
         0.15498E+00
         0.14231E+00
         0.14765E+00
         0.17182E+00
         0.18127E+00
         0.18081E+00
         0.16137E+00
         0.17267E+00
         0.15348E+00
         0.14619E+00
         0.14592E+00
         0.16348E+00
         0.15388E+00
         0.18196E+00
         0.17375E+00
         0.19025E+00
         0.17928E+00
         0.15021E+00
         0.17858E+00
         0.15413E+00
         0.15658E+00
         0.16605E+00
         0.15670E+00
         0.16830E+00
         0.18718E+00
         0.16093E+00
         0.16837E+00
         0.19934E+00
         0.18837E+00
         0.17900E+00
         0.16740E+00
         0.17157E+00
         0.17989E+00
         0.18927E+00
         0.18065E+00
         0.17418E+00
         0.19604E+00
         0.20709E+00
         0.21990E+00
         0.20701E+00
         0.19507E+00
         0.18991E+00
         0.19395E+00
         0.20025E+00
         0.18738E+00
         0.23175E+00
         0.23227E+00
         0.23533E+00
         0.21996E+00
         0.21694E+00
         0.21424E+00
         0.20660E+00
         0.20390E+00
         0.21151E+00
         0.22420E+00
         0.23516E+00
         0.23205E+00
         0.21699E+00
         0.21679E+00
         0.22014E+00
         0.22813E+00
         0.23504E+00
         0.25163E+00
         0.26119E+00
         0.24472E+00
         0.24026E+00
         0.23643E+00
         0.23642E+00
         0.23238E+00
         0.22788E+00
         0.22937E+00
         0.86265E-01
         0.98258E-01
         0.10958E+00
         0.91027E-01
         0.13264E+00
         0.12407E+00
         0.10360E+00
         0.90147E-01
         0.88402E-01
         0.86290E-01
         0.11013E+00
         0.12496E+00
         0.12308E+00
         0.98327E-01
         0.11745E+00
         0.92162E-01
         0.90538E-01
         0.85199E-01
         0.10461E+00
         0.95873E-01
         0.12887E+00
         0.11977E+00
         0.13793E+00
         0.11894E+00
         0.88187E-01
         0.11618E+00
         0.90353E-01
         0.91883E-01
         0.10380E+00
         0.95930E-01
         0.10510E+00
         0.12592E+00
         0.98771E-01
         0.10801E+00
         0.14320E+00
         0.13035E+00
         0.12055E+00
         0.11087E+00
         0.11400E+00
         0.12403E+00
         0.13958E+00
         0.12676E+00
         0.11961E+00
         0.14192E+00
         0.14964E+00
         0.15926E+00
         0.14807E+00
         0.13729E+00
         0.13479E+00
         0.14013E+00
         0.14874E+00
         0.13244E+00
         0.18261E+00
         0.18340E+00
         0.18585E+00
         0.17194E+00
         0.17459E+00
         0.16865E+00
         0.15738E+00
         0.16418E+00
         0.17395E+00
         0.18657E+00
         0.20483E+00
         0.19296E+00
         0.18112E+00
         0.17029E+00
         0.17629E+00
         0.18619E+00
         0.18679E+00
         0.19077E+00
         0.19387E+00
         0.18731E+00
         0.19056E+00
         0.19059E+00
         0.19774E+00
         0.19664E+00
         0.18141E+00
         0.18123E+00
         0.42739E-01
         0.54110E-01
         0.61917E-01
         0.48772E-01
         0.80232E-01
         0.77446E-01
         0.60666E-01
         0.46047E-01
         0.40798E-01
         0.40509E-01
         0.67218E-01
         0.77892E-01
         0.75604E-01
         0.56975E-01
         0.71668E-01
         0.51130E-01
         0.45110E-01
         0.42649E-01
         0.63166E-01
         0.51983E-01
         0.84975E-01
         0.74759E-01
         0.95174E-01
         0.78038E-01
         0.42531E-01
         0.74231E-01
         0.47109E-01
         0.50717E-01
         0.63202E-01
         0.54718E-01
         0.62025E-01
         0.80815E-01
         0.56885E-01
         0.66157E-01
         0.86806E-01
         0.77481E-01
         0.71258E-01
         0.67319E-01
         0.69913E-01
         0.77345E-01
         0.86943E-01
         0.81261E-01
         0.75176E-01
         0.98152E-01
         0.10356E+00
         0.11132E+00
         0.98517E-01
         0.87686E-01
         0.87244E-01
         0.93883E-01
         0.10108E+00
         0.87241E-01
         0.11627E+00
         0.11963E+00
         0.12464E+00
         0.11373E+00
         0.11058E+00
         0.10538E+00
         0.97777E-01
         0.10793E+00
         0.10955E+00
         0.11503E+00
         0.12273E+00
         0.12811E+00
         0.12141E+00
         0.12063E+00
         0.12584E+00
         0.13568E+00
         0.13995E+00
         0.14392E+00
         0.14780E+00
         0.13451E+00
         0.13174E+00
         0.13000E+00
         0.13283E+00
         0.13244E+00
         0.12667E+00
         0.12383E+00
         0.18104E-01
         0.26299E-01
         0.33870E-01
         0.20758E-01
         0.47283E-01
         0.42779E-01
         0.31572E-01
         0.22733E-01
         0.16748E-01
         0.18198E-01
         0.37517E-01
         0.45131E-01
         0.43031E-01
         0.31881E-01
         0.44031E-01
         0.19967E-01
         0.19645E-01
         0.15840E-01
         0.31519E-01
         0.24414E-01
         0.50959E-01
         0.43490E-01
         0.56119E-01
         0.43081E-01
         0.19345E-01
         0.39841E-01
         0.24105E-01
         0.24503E-01
         0.32884E-01
         0.27211E-01
         0.31000E-01
         0.45743E-01
         0.26232E-01
         0.33698E-01
         0.55430E-01
         0.47736E-01
         0.40533E-01
         0.40730E-01
         0.41899E-01
         0.47295E-01
         0.55823E-01
         0.47953E-01
         0.42858E-01
         0.56346E-01
         0.60358E-01
         0.66544E-01
         0.58445E-01
         0.49476E-01
         0.48191E-01
         0.53696E-01
         0.60512E-01
         0.49784E-01
         0.81349E-01
         0.87410E-01
         0.91774E-01
         0.81293E-01
         0.85681E-01
         0.86447E-01
         0.75883E-01
         0.83960E-01
         0.86293E-01
         0.96884E-01
         0.10164E+00
         0.95460E-01
         0.84143E-01
         0.82781E-01
         0.88186E-01
         0.94507E-01
         0.90862E-01
         0.93677E-01
         0.98549E-01
         0.88115E-01
         0.91589E-01
         0.86942E-01
         0.92329E-01
         0.94296E-01
         0.86406E-01
         0.88082E-01
         0.76553E-02
         0.12047E-01
         0.16860E-01
         0.96038E-02
         0.23471E-01
         0.22029E-01
         0.15005E-01
         0.93015E-02
         0.80676E-02
         0.83664E-02
         0.16612E-01
         0.20867E-01
         0.22143E-01
         0.13312E-01
         0.17016E-01
         0.83162E-02
         0.91294E-02
         0.68324E-02
         0.15844E-01
         0.11791E-01
         0.27711E-01
         0.23039E-01
         0.31944E-01
         0.24770E-01
         0.99919E-02
         0.22200E-01
         0.10858E-01
         0.13350E-01
         0.21005E-01
         0.16179E-01
         0.16016E-01
         0.25770E-01
         0.13232E-01
         0.19332E-01
         0.27788E-01
         0.25575E-01
         0.21231E-01
         0.17538E-01
         0.20938E-01
         0.28428E-01
         0.37708E-01
         0.30725E-01
         0.25202E-01
         0.32419E-01
         0.35309E-01
         0.37078E-01
         0.31422E-01
         0.25638E-01
         0.25466E-01
         0.30037E-01
         0.33091E-01
         0.27342E-01
         0.43346E-01
         0.49717E-01
         0.56293E-01
         0.46859E-01
         0.48903E-01
         0.46338E-01
         0.35880E-01
         0.48298E-01
         0.52194E-01
         0.64802E-01
         0.77877E-01
         0.69821E-01
         0.50825E-01
         0.45104E-01
         0.49545E-01
         0.56083E-01
         0.53046E-01
         0.55744E-01
         0.58430E-01
         0.50197E-01
         0.55145E-01
         0.46384E-01
         0.49202E-01
         0.51482E-01
         0.44240E-01
         0.50495E-01
         0.19969E-02
         0.36177E-02
         0.63264E-02
         0.26373E-02
         0.10351E-01
         0.96945E-02
         0.58437E-02
         0.56644E-02
         0.29252E-02
         0.18667E-02
         0.61216E-02
         0.98787E-02
         0.10787E-01
         0.61570E-02
         0.74352E-02
         0.12359E-02
         0.32614E-02
         0.16372E-02
         0.52410E-02
         0.18406E-02
         0.10209E-01
         0.85918E-02
         0.12621E-01
         0.10406E-01
         0.37972E-02
         0.78053E-02
         0.45475E-02
         0.34629E-02
         0.69949E-02
         0.49722E-02
         0.47060E-02
         0.10059E-01
         0.50058E-02
         0.94303E-02
         0.12862E-01
         0.12578E-01
         0.10177E-01
         0.93654E-02
         0.97276E-02
         0.12602E-01
         0.17607E-01
         0.14084E-01
         0.11242E-01
         0.13031E-01
         0.15141E-01
         0.17871E-01
         0.14435E-01
         0.10751E-01
         0.11951E-01
         0.14722E-01
         0.15969E-01
         0.12646E-01
         0.34055E-01
         0.35409E-01
         0.47649E-01
         0.35433E-01
         0.35085E-01
         0.33691E-01
         0.24078E-01
         0.37989E-01
         0.40720E-01
         0.49019E-01
         0.57331E-01
         0.54020E-01
         0.37323E-01
         0.28388E-01
         0.28127E-01
         0.36499E-01
         0.36182E-01
         0.40645E-01
         0.38903E-01
         0.31413E-01
         0.36626E-01
         0.31284E-01
         0.32121E-01
         0.31728E-01
         0.28554E-01
         0.35575E-01
         0.21454E-02
         0.46004E-03
         0.17371E-02
         0.20313E-02
         0.40018E-02
         0.41098E-02
         0.40149E-02
         0.51471E-02
         0.36204E-02
         0.19651E-02
         0.30314E-02
         0.49852E-02
         0.63800E-02
         0.48623E-02
         0.26600E-02
         0.92686E-03
         0.32132E-02
         0.20970E-02
         0.39631E-02
         0.92404E-03
         0.57555E-02
         0.52661E-02
         0.71972E-02
         0.84676E-02
         0.33927E-02
         0.52139E-02
         0.31145E-02
         0.15173E-02
         0.44361E-02
         0.41299E-02
         0.15222E-02
         0.50643E-02
         0.20202E-02
         0.55434E-02
         0.63850E-02
         0.78955E-02
         0.65441E-02
         0.45173E-02
         0.41980E-02
         0.82912E-02
         0.12144E-01
         0.93927E-02
         0.66592E-02
         0.63626E-02
         0.70672E-02
         0.63081E-02
         0.56395E-02
         0.49010E-02
         0.60554E-02
         0.89606E-02
         0.93017E-02
         0.62532E-02
         0.25490E-01
         0.24802E-01
         0.44184E-01
         0.34879E-01
         0.29936E-01
         0.26284E-01
         0.17550E-01
         0.31513E-01
         0.34834E-01
         0.44553E-01
         0.51981E-01
         0.48484E-01
         0.29810E-01
         0.15809E-01
         0.13814E-01
         0.22993E-01
         0.21351E-01
         0.27527E-01
         0.26689E-01
         0.15929E-01
         0.22796E-01
         0.17272E-01
         0.19598E-01
         0.22138E-01
         0.17664E-01
         0.25458E-01
         0.31864E-03
         0.55969E-03
         0.99890E-03
         0.11268E-02
         0.14541E-02
         0.20333E-02
         0.32360E-02
         0.41874E-02
         0.13352E-02
         0.46014E-03
         0.21467E-02
         0.22908E-02
         0.34295E-02
         0.28616E-02
         0.12923E-02
         0.15962E-03
         0.24296E-02
         0.41123E-03
         0.17769E-02
         0.00000E+00
         0.16861E-02
         0.29595E-02
         0.14506E-02
         0.54291E-02
         0.19033E-02
         0.30963E-02
         0.38470E-02
         0.30827E-03
         0.15550E-02
         0.20728E-02
         0.39979E-03
         0.23784E-02
         0.11628E-02
         0.25517E-02
         0.32023E-02
         0.52296E-02
         0.37571E-02
         0.30509E-02
         0.15302E-02
         0.30901E-02
         0.47909E-02
         0.46933E-02
         0.41747E-02
         0.24071E-02
         0.37203E-02
         0.36563E-02
         0.24879E-02
         0.15122E-02
         0.17679E-02
         0.28435E-02
         0.35206E-02
         0.25039E-02
         0.18030E-01
         0.23522E-01
         0.35006E-01
         0.25696E-01
         0.28046E-01
         0.28192E-01
         0.20410E-01
         0.30996E-01
         0.32563E-01
         0.38683E-01
         0.49999E-01
         0.43713E-01
         0.25410E-01
         0.15637E-01
         0.13303E-01
         0.20089E-01
         0.17924E-01
         0.20331E-01
         0.20275E-01
         0.12532E-01
         0.20778E-01
         0.12773E-01
         0.15715E-01
         0.18695E-01
         0.15500E-01
         0.22937E-01
         0.18111E-02
         0.14185E-02
         0.15411E-02
         0.13672E-02
         0.23412E-03
         0.80137E-03
         0.32769E-02
         0.47853E-02
         0.28592E-02
         0.26530E-02
         0.30316E-02
         0.11148E-02
         0.23267E-02
         0.31791E-02
         0.13223E-04
         0.00000E+00
         0.24324E-02
         0.14882E-02
         0.24389E-02
         0.11660E-03
         0.98254E-03
         0.27776E-02
         0.13183E-02
         0.57786E-02
         0.41147E-02
         0.37851E-02
         0.28764E-02
         0.31801E-02
         0.70703E-02
         0.50971E-02
         0.77373E-03
         0.28539E-02
         0.89117E-03
         0.25560E-02
         0.37026E-02
         0.22575E-02
         0.12178E-02
         0.12297E-02
         0.27123E-02
         0.90230E-02
         0.16181E-01
         0.96608E-02
         0.46396E-02
         0.96844E-03
         0.22337E-02
         0.80416E-03
         0.83823E-03
         0.11477E-02
         0.14465E-02
         0.30746E-02
         0.28430E-02
         0.69561E-03
         0.19112E-01
         0.25293E-01
         0.36369E-01
         0.29555E-01
         0.30250E-01
         0.31346E-01
         0.24477E-01
         0.32081E-01
         0.35955E-01
         0.50495E-01
         0.66227E-01
         0.51080E-01
         0.23306E-01
         0.15225E-01
         0.13268E-01
         0.17708E-01
         0.15638E-01
         0.19147E-01
         0.18574E-01
         0.75931E-02
         0.11980E-01
         0.60456E-02
         0.99162E-02
         0.13019E-01
         0.11558E-01
         0.23004E-01
         0.95014E-02
         0.11942E-01
         0.96194E-02
         0.45638E-02
         0.92819E-02
         0.34523E-02
         0.14531E-01
         0.13743E-01
         0.15046E-01
         0.12540E-01
         0.14459E-01
         0.22362E-01
         0.16736E-01
         0.15103E-01
         0.22706E-01
         0.97692E-02
         0.15401E-01
         0.76468E-02
         0.11995E-01
         0.74616E-02
         0.90413E-02
         0.90583E-02
         0.81295E-02
         0.12102E-01
         0.14509E-01
         0.10852E-01
         0.11213E-01
         0.12557E-01
         0.19520E-01
         0.11307E-01
         0.47544E-02
         0.86023E-02
         0.29745E-02
         0.47177E-02
         0.26141E-01
         0.20555E-01
         0.15051E-01
         0.22623E-01
         0.31415E-01
         0.46622E-01
         0.73092E-01
         0.41621E-01
         0.21088E-01
         0.72301E-02
         0.88375E-02
         0.89326E-02
         0.61363E-02
         0.75087E-02
         0.71539E-02
         0.52280E-02
         0.84496E-02
         0.24454E-02
         0.90362E-01
         0.71138E-01
         0.11100E+00
         0.93871E-01
         0.87304E-01
         0.83944E-01
         0.87858E-01
         0.11195E+00
         0.14203E+00
         0.18550E+00
         0.20500E+00
         0.17161E+00
         0.11768E+00
         0.68200E-01
         0.44557E-01
         0.39707E-01
         0.47211E-01
         0.46773E-01
         0.44121E-01
         0.32232E-01
         0.23675E-01
         0.11583E-01
         0.24379E-01
         0.34095E-01
         0.30225E-01
         0.49408E-01
  
SCALARS                            dam  double 1
LOOKUP_TABLE default
         0.00000E+00
         0.00000E+00
         0.00000E+00
         0.00000E+00
         0.00000E+00
         0.00000E+00
         0.00000E+00
         0.00000E+00
         0.00000E+00
         0.00000E+00
         0.00000E+00
         0.00000E+00
         0.00000E+00
         0.00000E+00
         0.00000E+00
         0.00000E+00
         0.00000E+00
         0.00000E+00
         0.00000E+00
         0.00000E+00
         0.00000E+00
         0.00000E+00
         0.00000E+00
         0.00000E+00
         0.00000E+00
         0.00000E+00
         0.00000E+00
         0.00000E+00
         0.00000E+00
         0.00000E+00
         0.00000E+00
         0.00000E+00
         0.00000E+00
         0.00000E+00
         0.00000E+00
         0.00000E+00
         0.00000E+00
         0.00000E+00
         0.00000E+00
         0.00000E+00
         0.00000E+00
         0.00000E+00
         0.00000E+00
         0.00000E+00
         0.00000E+00
         0.00000E+00
         0.00000E+00
         0.00000E+00
         0.00000E+00
         0.00000E+00
         0.00000E+00
         0.00000E+00
         0.00000E+00
         0.00000E+00
         0.00000E+00
         0.00000E+00
         0.00000E+00
         0.00000E+00
         0.00000E+00
         0.00000E+00
         0.00000E+00
         0.00000E+00
         0.00000E+00
         0.00000E+00
         0.00000E+00
         0.00000E+00
         0.00000E+00
         0.00000E+00
         0.00000E+00
         0.00000E+00
         0.00000E+00
         0.00000E+00
         0.00000E+00
         0.00000E+00
         0.00000E+00
         0.00000E+00
         0.00000E+00
         0.00000E+00
         0.00000E+00
         0.00000E+00
         0.00000E+00
         0.00000E+00
         0.00000E+00
         0.00000E+00
         0.00000E+00
         0.00000E+00
         0.00000E+00
         0.00000E+00
         0.00000E+00
         0.00000E+00
         0.00000E+00
         0.00000E+00
         0.00000E+00
         0.00000E+00
         0.00000E+00
         0.00000E+00
         0.00000E+00
         0.00000E+00
         0.00000E+00
         0.00000E+00
         0.00000E+00
         0.00000E+00
         0.00000E+00
         0.00000E+00
         0.00000E+00
         0.00000E+00
         0.00000E+00
         0.00000E+00
         0.00000E+00
         0.00000E+00
         0.00000E+00
         0.00000E+00
         0.00000E+00
         0.00000E+00
         0.00000E+00
         0.00000E+00
         0.00000E+00
         0.00000E+00
         0.00000E+00
         0.00000E+00
         0.00000E+00
         0.00000E+00
         0.00000E+00
         0.00000E+00
         0.00000E+00
         0.00000E+00
         0.00000E+00
         0.00000E+00
         0.00000E+00
         0.00000E+00
         0.00000E+00
         0.00000E+00
         0.00000E+00
         0.00000E+00
         0.00000E+00
         0.00000E+00
         0.00000E+00
         0.00000E+00
         0.00000E+00
         0.00000E+00
         0.00000E+00
         0.00000E+00
         0.00000E+00
         0.00000E+00
         0.00000E+00
         0.00000E+00
         0.00000E+00
         0.00000E+00
         0.00000E+00
         0.00000E+00
         0.00000E+00
         0.00000E+00
         0.00000E+00
         0.00000E+00
         0.00000E+00
         0.00000E+00
         0.00000E+00
         0.00000E+00
         0.00000E+00
         0.00000E+00
         0.00000E+00
         0.00000E+00
         0.00000E+00
         0.00000E+00
         0.00000E+00
         0.00000E+00
         0.00000E+00
         0.00000E+00
         0.00000E+00
         0.00000E+00
         0.00000E+00
         0.00000E+00
         0.00000E+00
         0.00000E+00
         0.00000E+00
         0.00000E+00
         0.00000E+00
         0.00000E+00
         0.00000E+00
         0.00000E+00
         0.00000E+00
         0.00000E+00
         0.00000E+00
         0.00000E+00
         0.00000E+00
         0.00000E+00
         0.00000E+00
         0.00000E+00
         0.00000E+00
         0.00000E+00
         0.00000E+00
         0.00000E+00
         0.00000E+00
         0.00000E+00
         0.00000E+00
         0.00000E+00
         0.00000E+00
         0.00000E+00
         0.00000E+00
         0.00000E+00
         0.00000E+00
         0.00000E+00
         0.00000E+00
         0.00000E+00
         0.00000E+00
         0.00000E+00
         0.00000E+00
         0.00000E+00
         0.00000E+00
         0.00000E+00
         0.00000E+00
         0.00000E+00
         0.00000E+00
         0.00000E+00
         0.00000E+00
         0.00000E+00
         0.00000E+00
         0.00000E+00
         0.00000E+00
         0.00000E+00
         0.00000E+00
         0.00000E+00
         0.00000E+00
         0.00000E+00
         0.00000E+00
         0.00000E+00
         0.00000E+00
         0.00000E+00
         0.00000E+00
         0.00000E+00
         0.00000E+00
         0.00000E+00
         0.00000E+00
         0.00000E+00
         0.00000E+00
         0.00000E+00
         0.00000E+00
         0.00000E+00
         0.00000E+00
         0.00000E+00
         0.00000E+00
         0.00000E+00
         0.00000E+00
         0.00000E+00
         0.00000E+00
         0.00000E+00
         0.00000E+00
         0.00000E+00
         0.00000E+00
         0.00000E+00
         0.00000E+00
         0.00000E+00
         0.00000E+00
         0.00000E+00
         0.00000E+00
         0.00000E+00
         0.00000E+00
         0.00000E+00
         0.00000E+00
         0.00000E+00
         0.00000E+00
         0.00000E+00
         0.00000E+00
         0.00000E+00
         0.00000E+00
         0.00000E+00
         0.00000E+00
         0.00000E+00
         0.00000E+00
         0.00000E+00
         0.00000E+00
         0.00000E+00
         0.00000E+00
         0.00000E+00
         0.00000E+00
         0.00000E+00
         0.00000E+00
         0.00000E+00
         0.00000E+00
         0.00000E+00
         0.00000E+00
         0.00000E+00
         0.00000E+00
         0.00000E+00
         0.00000E+00
         0.00000E+00
         0.00000E+00
         0.00000E+00
         0.00000E+00
         0.00000E+00
         0.00000E+00
         0.00000E+00
         0.00000E+00
         0.00000E+00
         0.00000E+00
         0.00000E+00
         0.00000E+00
         0.00000E+00
         0.00000E+00
         0.00000E+00
         0.00000E+00
         0.00000E+00
         0.00000E+00
         0.00000E+00
         0.00000E+00
         0.00000E+00
         0.00000E+00
         0.00000E+00
         0.00000E+00
         0.00000E+00
         0.00000E+00
         0.00000E+00
         0.00000E+00
         0.00000E+00
         0.00000E+00
         0.00000E+00
         0.00000E+00
         0.00000E+00
         0.00000E+00
         0.00000E+00
         0.00000E+00
         0.00000E+00
         0.00000E+00
         0.00000E+00
         0.00000E+00
         0.00000E+00
         0.00000E+00
         0.00000E+00
         0.00000E+00
         0.00000E+00
         0.00000E+00
         0.00000E+00
         0.00000E+00
         0.00000E+00
         0.00000E+00
         0.00000E+00
         0.00000E+00
         0.00000E+00
         0.00000E+00
         0.00000E+00
         0.00000E+00
         0.00000E+00
         0.00000E+00
         0.00000E+00
         0.00000E+00
         0.00000E+00
         0.00000E+00
         0.00000E+00
         0.00000E+00
         0.00000E+00
         0.00000E+00
         0.00000E+00
         0.00000E+00
         0.00000E+00
         0.00000E+00
         0.00000E+00
         0.00000E+00
         0.00000E+00
         0.00000E+00
         0.00000E+00
         0.00000E+00
         0.00000E+00
         0.00000E+00
         0.00000E+00
         0.00000E+00
         0.00000E+00
         0.00000E+00
         0.00000E+00
         0.00000E+00
         0.00000E+00
         0.00000E+00
         0.00000E+00
         0.00000E+00
         0.00000E+00
         0.00000E+00
         0.00000E+00
         0.00000E+00
         0.00000E+00
         0.00000E+00
         0.00000E+00
         0.00000E+00
         0.00000E+00
         0.00000E+00
         0.00000E+00
         0.00000E+00
         0.00000E+00
         0.00000E+00
         0.00000E+00
         0.00000E+00
         0.00000E+00
         0.00000E+00
         0.00000E+00
         0.00000E+00
         0.00000E+00
         0.00000E+00
         0.00000E+00
         0.00000E+00
         0.00000E+00
         0.00000E+00
         0.00000E+00
         0.00000E+00
         0.00000E+00
         0.00000E+00
         0.00000E+00
         0.00000E+00
         0.00000E+00
         0.00000E+00
         0.00000E+00
         0.00000E+00
         0.00000E+00
         0.00000E+00
         0.00000E+00
         0.00000E+00
         0.00000E+00
         0.00000E+00
         0.00000E+00
         0.00000E+00
         0.00000E+00
         0.00000E+00
         0.00000E+00
         0.00000E+00
         0.00000E+00
         0.00000E+00
         0.00000E+00
         0.00000E+00
         0.00000E+00
         0.00000E+00
         0.00000E+00
         0.00000E+00
         0.00000E+00
         0.00000E+00
         0.00000E+00
         0.00000E+00
         0.00000E+00
         0.00000E+00
         0.00000E+00
         0.00000E+00
         0.00000E+00
         0.00000E+00
         0.00000E+00
         0.00000E+00
         0.00000E+00
         0.00000E+00
         0.00000E+00
         0.00000E+00
         0.00000E+00
         0.00000E+00
         0.00000E+00
         0.00000E+00
         0.00000E+00
         0.00000E+00
         0.00000E+00
         0.00000E+00
         0.00000E+00
         0.00000E+00
         0.00000E+00
         0.00000E+00
         0.00000E+00
         0.00000E+00
         0.00000E+00
         0.00000E+00
         0.00000E+00
         0.00000E+00
         0.00000E+00
         0.00000E+00
         0.00000E+00
         0.00000E+00
         0.00000E+00
         0.00000E+00
         0.00000E+00
         0.00000E+00
         0.00000E+00
         0.00000E+00
         0.00000E+00
         0.00000E+00
         0.00000E+00
         0.00000E+00
         0.00000E+00
         0.00000E+00
         0.00000E+00
         0.00000E+00
         0.00000E+00
         0.00000E+00
         0.00000E+00
         0.00000E+00
         0.00000E+00
         0.00000E+00
         0.00000E+00
         0.00000E+00
         0.00000E+00
         0.00000E+00
         0.00000E+00
         0.00000E+00
         0.00000E+00
         0.00000E+00
         0.00000E+00
         0.00000E+00
         0.00000E+00
         0.00000E+00
         0.00000E+00
         0.00000E+00
         0.00000E+00
         0.00000E+00
         0.00000E+00
         0.00000E+00
         0.00000E+00
         0.00000E+00
         0.00000E+00
         0.00000E+00
         0.00000E+00
         0.00000E+00
         0.00000E+00
         0.00000E+00
         0.00000E+00
         0.00000E+00
         0.00000E+00
         0.00000E+00
         0.00000E+00
         0.00000E+00
         0.00000E+00
         0.00000E+00
         0.00000E+00
         0.00000E+00
         0.00000E+00
         0.00000E+00
         0.00000E+00
         0.00000E+00
         0.00000E+00
         0.00000E+00
         0.00000E+00
         0.00000E+00
         0.00000E+00
         0.00000E+00
         0.00000E+00
         0.00000E+00
         0.00000E+00
         0.00000E+00
         0.00000E+00
         0.00000E+00
         0.00000E+00
         0.00000E+00
         0.00000E+00
         0.00000E+00
         0.00000E+00
         0.00000E+00
         0.00000E+00
         0.00000E+00
         0.00000E+00
         0.00000E+00
         0.00000E+00
         0.00000E+00
         0.00000E+00
         0.00000E+00
         0.00000E+00
         0.00000E+00
         0.00000E+00
         0.00000E+00
         0.00000E+00
         0.00000E+00
         0.00000E+00
         0.00000E+00
         0.00000E+00
         0.00000E+00
         0.00000E+00
         0.00000E+00
         0.00000E+00
         0.00000E+00
         0.00000E+00
         0.00000E+00
         0.00000E+00
         0.00000E+00
         0.00000E+00
         0.00000E+00
         0.00000E+00
         0.00000E+00
         0.00000E+00
         0.00000E+00
         0.00000E+00
         0.00000E+00
         0.00000E+00
         0.00000E+00
         0.00000E+00
         0.00000E+00
         0.00000E+00
         0.00000E+00
         0.00000E+00
         0.00000E+00
         0.00000E+00
         0.00000E+00
         0.00000E+00
         0.00000E+00
         0.00000E+00
         0.00000E+00
         0.00000E+00
         0.00000E+00
         0.00000E+00
         0.00000E+00
         0.00000E+00
         0.00000E+00
         0.00000E+00
         0.00000E+00
         0.00000E+00
         0.00000E+00
         0.00000E+00
         0.00000E+00
         0.00000E+00
         0.00000E+00
         0.00000E+00
         0.00000E+00
         0.00000E+00
         0.00000E+00
         0.00000E+00
         0.00000E+00
         0.00000E+00
         0.00000E+00
         0.00000E+00
         0.00000E+00
         0.00000E+00
         0.00000E+00
         0.00000E+00
         0.00000E+00
         0.00000E+00
         0.00000E+00
         0.00000E+00
         0.00000E+00
         0.00000E+00
         0.00000E+00
         0.00000E+00
         0.00000E+00
         0.00000E+00
         0.00000E+00
         0.00000E+00
         0.00000E+00
         0.00000E+00
         0.00000E+00
         0.00000E+00
         0.00000E+00
         0.00000E+00
         0.00000E+00
         0.00000E+00
         0.00000E+00
         0.00000E+00
         0.00000E+00
         0.00000E+00
         0.00000E+00
         0.00000E+00
         0.00000E+00
         0.00000E+00
         0.00000E+00
         0.00000E+00
         0.00000E+00
         0.00000E+00
         0.00000E+00
         0.00000E+00
         0.00000E+00
         0.00000E+00
         0.00000E+00
         0.00000E+00
         0.00000E+00
         0.00000E+00
         0.00000E+00
         0.00000E+00
         0.00000E+00
         0.00000E+00
         0.00000E+00
         0.00000E+00
         0.00000E+00
         0.00000E+00
         0.00000E+00
         0.00000E+00
         0.00000E+00
         0.00000E+00
         0.00000E+00
         0.00000E+00
         0.00000E+00
         0.00000E+00
         0.00000E+00
         0.00000E+00
         0.00000E+00
         0.00000E+00
         0.00000E+00
         0.00000E+00
         0.00000E+00
         0.00000E+00
         0.00000E+00
         0.00000E+00
         0.00000E+00
         0.00000E+00
         0.00000E+00
         0.00000E+00
         0.00000E+00
         0.00000E+00
         0.00000E+00
         0.00000E+00
         0.00000E+00
         0.00000E+00
         0.00000E+00
         0.00000E+00
         0.00000E+00
         0.00000E+00
         0.00000E+00
         0.00000E+00
         0.00000E+00
         0.00000E+00
         0.00000E+00
         0.00000E+00
         0.00000E+00
         0.00000E+00
         0.00000E+00
         0.00000E+00
         0.00000E+00
         0.00000E+00
         0.00000E+00
         0.00000E+00
         0.00000E+00
         0.00000E+00
         0.00000E+00
         0.00000E+00
         0.00000E+00
         0.00000E+00
         0.00000E+00
         0.00000E+00
         0.00000E+00
         0.00000E+00
         0.00000E+00
         0.00000E+00
         0.00000E+00
         0.00000E+00
         0.00000E+00
         0.00000E+00
         0.00000E+00
         0.00000E+00
         0.00000E+00
         0.00000E+00
         0.00000E+00
         0.00000E+00
         0.00000E+00
         0.00000E+00
         0.00000E+00
         0.00000E+00
         0.00000E+00
         0.00000E+00
         0.00000E+00
         0.00000E+00
         0.00000E+00
         0.00000E+00
         0.00000E+00
         0.00000E+00
         0.00000E+00
         0.00000E+00
         0.00000E+00
         0.00000E+00
         0.00000E+00
         0.00000E+00
         0.00000E+00
         0.00000E+00
         0.00000E+00
         0.00000E+00
         0.00000E+00
         0.00000E+00
         0.00000E+00
         0.00000E+00
         0.00000E+00
         0.00000E+00
         0.00000E+00
         0.00000E+00
         0.00000E+00
         0.00000E+00
         0.00000E+00
         0.00000E+00
         0.00000E+00
         0.00000E+00
         0.00000E+00
         0.00000E+00
         0.00000E+00
         0.00000E+00
         0.00000E+00
         0.00000E+00
         0.00000E+00
         0.00000E+00
         0.00000E+00
         0.00000E+00
         0.00000E+00
         0.00000E+00
         0.00000E+00
         0.00000E+00
         0.00000E+00
         0.00000E+00
         0.00000E+00
         0.00000E+00
         0.00000E+00
         0.00000E+00
         0.00000E+00
         0.00000E+00
         0.00000E+00
         0.00000E+00
         0.00000E+00
         0.00000E+00
         0.00000E+00
         0.00000E+00
         0.00000E+00
         0.00000E+00
         0.00000E+00
         0.00000E+00
         0.00000E+00
         0.00000E+00
         0.00000E+00
         0.00000E+00
         0.00000E+00
         0.00000E+00
         0.00000E+00
         0.00000E+00
         0.00000E+00
         0.00000E+00
         0.00000E+00
         0.00000E+00
         0.00000E+00
         0.00000E+00
         0.00000E+00
         0.00000E+00
         0.00000E+00
         0.00000E+00
         0.00000E+00
         0.00000E+00
         0.00000E+00
         0.00000E+00
         0.00000E+00
         0.00000E+00
         0.00000E+00
         0.00000E+00
         0.00000E+00
         0.00000E+00
         0.00000E+00
         0.00000E+00
         0.00000E+00
         0.00000E+00
         0.00000E+00
         0.00000E+00
         0.00000E+00
         0.00000E+00
         0.00000E+00
         0.00000E+00
         0.00000E+00
         0.00000E+00
         0.00000E+00
         0.00000E+00
         0.00000E+00
         0.00000E+00
         0.00000E+00
         0.00000E+00
         0.00000E+00
         0.00000E+00
         0.00000E+00
         0.00000E+00
         0.00000E+00
         0.00000E+00
         0.00000E+00
         0.00000E+00
         0.00000E+00
         0.00000E+00
         0.00000E+00
         0.00000E+00
         0.00000E+00
         0.00000E+00
         0.00000E+00
         0.00000E+00
         0.00000E+00
         0.00000E+00
         0.00000E+00
         0.00000E+00
         0.00000E+00
         0.00000E+00
         0.00000E+00
         0.00000E+00
         0.00000E+00
         0.00000E+00
         0.00000E+00
         0.00000E+00
         0.00000E+00
         0.00000E+00
         0.00000E+00
         0.00000E+00
         0.00000E+00
         0.00000E+00
         0.00000E+00
         0.00000E+00
         0.00000E+00
         0.00000E+00
         0.00000E+00
         0.00000E+00
         0.00000E+00
         0.00000E+00
         0.00000E+00
         0.00000E+00
         0.00000E+00
         0.00000E+00
         0.00000E+00
         0.00000E+00
         0.00000E+00
         0.00000E+00
         0.00000E+00
         0.00000E+00
         0.00000E+00
         0.00000E+00
         0.00000E+00
         0.00000E+00
         0.00000E+00
         0.00000E+00
         0.00000E+00
         0.00000E+00
         0.00000E+00
         0.00000E+00
         0.00000E+00
         0.00000E+00
         0.00000E+00
         0.00000E+00
         0.00000E+00
         0.00000E+00
         0.00000E+00
         0.00000E+00
         0.00000E+00
         0.00000E+00
         0.00000E+00
         0.00000E+00
         0.00000E+00
         0.00000E+00
         0.00000E+00
         0.00000E+00
         0.00000E+00
         0.00000E+00
         0.00000E+00
         0.00000E+00
         0.00000E+00
         0.00000E+00
         0.00000E+00
         0.00000E+00
         0.00000E+00
         0.00000E+00
         0.00000E+00
         0.00000E+00
         0.00000E+00
         0.00000E+00
         0.00000E+00
         0.00000E+00
         0.00000E+00
         0.00000E+00
         0.00000E+00
         0.00000E+00
         0.00000E+00
         0.00000E+00
         0.00000E+00
         0.00000E+00
         0.00000E+00
         0.00000E+00
         0.00000E+00
         0.00000E+00
         0.00000E+00
         0.00000E+00
         0.00000E+00
         0.00000E+00
         0.00000E+00
         0.00000E+00
         0.00000E+00
         0.00000E+00
         0.00000E+00
         0.00000E+00
         0.00000E+00
         0.00000E+00
         0.00000E+00
         0.00000E+00
         0.00000E+00
         0.00000E+00
         0.00000E+00
         0.00000E+00
         0.00000E+00
         0.00000E+00
         0.00000E+00
         0.00000E+00
         0.00000E+00
         0.00000E+00
         0.00000E+00
         0.00000E+00
         0.00000E+00
         0.00000E+00
         0.00000E+00
         0.00000E+00
         0.00000E+00
         0.00000E+00
         0.00000E+00
         0.00000E+00
         0.00000E+00
         0.00000E+00
         0.00000E+00
         0.00000E+00
         0.00000E+00
         0.00000E+00
         0.00000E+00
         0.00000E+00
         0.00000E+00
         0.00000E+00
         0.00000E+00
         0.00000E+00
         0.00000E+00
         0.00000E+00
         0.00000E+00
         0.00000E+00
         0.00000E+00
         0.00000E+00
         0.00000E+00
         0.00000E+00
         0.00000E+00
         0.00000E+00
         0.00000E+00
         0.00000E+00
         0.00000E+00
         0.00000E+00
         0.00000E+00
         0.00000E+00
         0.00000E+00
         0.00000E+00
         0.00000E+00
         0.00000E+00
         0.00000E+00
         0.00000E+00
         0.00000E+00
         0.00000E+00
         0.00000E+00
         0.00000E+00
         0.00000E+00
         0.00000E+00
         0.00000E+00
         0.00000E+00
         0.00000E+00
         0.00000E+00
         0.00000E+00
         0.00000E+00
         0.00000E+00
         0.00000E+00
         0.00000E+00
         0.00000E+00
         0.00000E+00
         0.00000E+00
         0.00000E+00
         0.00000E+00
         0.00000E+00
         0.00000E+00
         0.00000E+00
         0.00000E+00
         0.00000E+00
         0.00000E+00
         0.00000E+00
         0.00000E+00
         0.00000E+00
         0.00000E+00
         0.00000E+00
         0.00000E+00
         0.00000E+00
         0.00000E+00
         0.00000E+00
         0.00000E+00
         0.00000E+00
         0.00000E+00
         0.00000E+00
         0.00000E+00
         0.00000E+00
         0.00000E+00
         0.00000E+00
         0.00000E+00
         0.00000E+00
         0.00000E+00
         0.00000E+00
         0.00000E+00
         0.00000E+00
         0.00000E+00
         0.00000E+00
         0.00000E+00
         0.00000E+00
         0.00000E+00
         0.00000E+00
         0.00000E+00
         0.00000E+00
         0.00000E+00
         0.00000E+00
         0.00000E+00
         0.00000E+00
         0.00000E+00
         0.00000E+00
         0.00000E+00
         0.00000E+00
         0.00000E+00
         0.00000E+00
         0.00000E+00
         0.00000E+00
         0.00000E+00
         0.00000E+00
         0.00000E+00
         0.00000E+00
         0.00000E+00
         0.00000E+00
         0.00000E+00
         0.00000E+00
         0.00000E+00
         0.00000E+00
         0.00000E+00
         0.00000E+00
         0.00000E+00
         0.00000E+00
         0.00000E+00
         0.00000E+00
         0.00000E+00
         0.00000E+00
         0.00000E+00
         0.00000E+00
         0.00000E+00
         0.00000E+00
         0.00000E+00
         0.00000E+00
         0.00000E+00
         0.00000E+00
         0.00000E+00
         0.00000E+00
         0.00000E+00
         0.00000E+00
         0.00000E+00
         0.00000E+00
         0.00000E+00
         0.00000E+00
         0.00000E+00
         0.00000E+00
         0.00000E+00
         0.00000E+00
         0.00000E+00
         0.00000E+00
         0.00000E+00
         0.00000E+00
         0.00000E+00
         0.00000E+00
         0.00000E+00
         0.00000E+00
         0.00000E+00
         0.00000E+00
         0.00000E+00
         0.00000E+00
         0.00000E+00
         0.00000E+00
         0.00000E+00
         0.00000E+00
         0.00000E+00
         0.00000E+00
         0.00000E+00
         0.00000E+00
         0.00000E+00
         0.00000E+00
         0.00000E+00
         0.00000E+00
         0.00000E+00
         0.00000E+00
         0.00000E+00
         0.00000E+00
         0.00000E+00
         0.00000E+00
         0.00000E+00
         0.00000E+00
         0.00000E+00
         0.00000E+00
         0.00000E+00
         0.00000E+00
         0.00000E+00
         0.00000E+00
         0.00000E+00
         0.00000E+00
         0.00000E+00
         0.00000E+00
         0.00000E+00
         0.00000E+00
         0.00000E+00
         0.00000E+00
         0.00000E+00
         0.00000E+00
         0.00000E+00
         0.00000E+00
         0.00000E+00
         0.00000E+00
         0.00000E+00
         0.00000E+00
         0.00000E+00
         0.00000E+00
         0.00000E+00
         0.00000E+00
         0.00000E+00
         0.00000E+00
         0.00000E+00
         0.00000E+00
         0.00000E+00
         0.00000E+00
         0.00000E+00
         0.00000E+00
         0.00000E+00
         0.00000E+00
         0.00000E+00
         0.00000E+00
         0.00000E+00
         0.00000E+00
         0.00000E+00
         0.00000E+00
         0.00000E+00
         0.00000E+00
         0.00000E+00
         0.00000E+00
         0.00000E+00
         0.00000E+00
         0.00000E+00
         0.00000E+00
         0.00000E+00
         0.00000E+00
         0.00000E+00
         0.00000E+00
         0.00000E+00
         0.00000E+00
         0.00000E+00
         0.00000E+00
         0.00000E+00
         0.00000E+00
         0.00000E+00
         0.00000E+00
         0.00000E+00
         0.00000E+00
         0.00000E+00
         0.00000E+00
         0.00000E+00
         0.00000E+00
         0.00000E+00
         0.00000E+00
         0.00000E+00
         0.00000E+00
         0.00000E+00
         0.00000E+00
         0.00000E+00
         0.00000E+00
         0.00000E+00
         0.00000E+00
         0.00000E+00
         0.00000E+00
         0.00000E+00
         0.00000E+00
         0.00000E+00
         0.00000E+00
         0.00000E+00
         0.00000E+00
         0.00000E+00
         0.00000E+00
         0.00000E+00
         0.00000E+00
         0.00000E+00
         0.00000E+00
         0.00000E+00
         0.00000E+00
         0.00000E+00
         0.00000E+00
         0.00000E+00
         0.00000E+00
         0.00000E+00
         0.00000E+00
         0.00000E+00
         0.00000E+00
         0.00000E+00
         0.00000E+00
         0.00000E+00
         0.00000E+00
         0.00000E+00
         0.00000E+00
         0.00000E+00
         0.00000E+00
         0.00000E+00
         0.00000E+00
         0.00000E+00
         0.00000E+00
         0.00000E+00
         0.00000E+00
         0.00000E+00
         0.00000E+00
         0.00000E+00
         0.00000E+00
         0.00000E+00
         0.00000E+00
         0.00000E+00
         0.00000E+00
         0.00000E+00
         0.00000E+00
         0.00000E+00
         0.00000E+00
         0.00000E+00
         0.00000E+00
         0.00000E+00
         0.00000E+00
         0.00000E+00
         0.00000E+00
         0.00000E+00
         0.00000E+00
         0.00000E+00
         0.00000E+00
         0.00000E+00
         0.00000E+00
         0.00000E+00
         0.00000E+00
         0.00000E+00
         0.00000E+00
         0.00000E+00
         0.00000E+00
         0.00000E+00
         0.00000E+00
         0.00000E+00
         0.00000E+00
         0.00000E+00
         0.00000E+00
         0.00000E+00
         0.00000E+00
         0.00000E+00
         0.00000E+00
         0.00000E+00
         0.00000E+00
         0.00000E+00
         0.00000E+00
         0.00000E+00
         0.00000E+00
         0.00000E+00
         0.00000E+00
         0.00000E+00
         0.00000E+00
         0.00000E+00
         0.00000E+00
         0.00000E+00
         0.00000E+00
         0.00000E+00
         0.00000E+00
         0.00000E+00
         0.00000E+00
         0.00000E+00
         0.00000E+00
         0.00000E+00
         0.00000E+00
         0.00000E+00
         0.00000E+00
         0.00000E+00
         0.00000E+00
         0.00000E+00
         0.00000E+00
         0.00000E+00
         0.00000E+00
         0.00000E+00
         0.00000E+00
         0.00000E+00
         0.00000E+00
         0.00000E+00
         0.00000E+00
         0.00000E+00
         0.00000E+00
         0.00000E+00
         0.00000E+00
         0.00000E+00
         0.00000E+00
         0.00000E+00
         0.00000E+00
         0.00000E+00
         0.00000E+00
         0.00000E+00
         0.00000E+00
         0.00000E+00
         0.00000E+00
         0.00000E+00
         0.00000E+00
         0.00000E+00
         0.00000E+00
         0.00000E+00
         0.00000E+00
         0.00000E+00
         0.00000E+00
         0.00000E+00
         0.00000E+00
         0.00000E+00
         0.00000E+00
         0.00000E+00
         0.00000E+00
         0.00000E+00
         0.00000E+00
         0.00000E+00
         0.00000E+00
         0.00000E+00
         0.00000E+00
         0.00000E+00
         0.00000E+00
         0.00000E+00
         0.00000E+00
         0.00000E+00
         0.00000E+00
         0.00000E+00
         0.00000E+00
         0.00000E+00
         0.00000E+00
         0.00000E+00
         0.00000E+00
         0.00000E+00
         0.00000E+00
         0.00000E+00
         0.00000E+00
         0.00000E+00
         0.00000E+00
         0.00000E+00
         0.00000E+00
         0.00000E+00
         0.00000E+00
         0.00000E+00
         0.00000E+00
         0.00000E+00
         0.00000E+00
         0.00000E+00
         0.00000E+00
         0.00000E+00
         0.00000E+00
         0.00000E+00
         0.00000E+00
         0.00000E+00
         0.00000E+00
         0.00000E+00
         0.00000E+00
         0.00000E+00
         0.00000E+00
         0.00000E+00
         0.00000E+00
         0.00000E+00
         0.00000E+00
         0.00000E+00
         0.00000E+00
         0.00000E+00
         0.00000E+00
         0.00000E+00
         0.00000E+00
         0.00000E+00
         0.00000E+00
         0.00000E+00
         0.00000E+00
         0.00000E+00
         0.00000E+00
         0.00000E+00
         0.00000E+00
         0.00000E+00
         0.00000E+00
         0.00000E+00
         0.00000E+00
         0.00000E+00
         0.00000E+00
         0.00000E+00
         0.00000E+00
         0.00000E+00
         0.00000E+00
         0.00000E+00
         0.00000E+00
         0.00000E+00
         0.00000E+00
         0.00000E+00
         0.00000E+00
         0.00000E+00
         0.00000E+00
         0.00000E+00
         0.00000E+00
         0.00000E+00
         0.00000E+00
         0.00000E+00
         0.00000E+00
         0.00000E+00
         0.00000E+00
         0.00000E+00
         0.00000E+00
         0.00000E+00
         0.00000E+00
         0.00000E+00
         0.00000E+00
         0.00000E+00
         0.00000E+00
         0.00000E+00
         0.00000E+00
         0.00000E+00
         0.00000E+00
         0.00000E+00
         0.00000E+00
         0.00000E+00
         0.00000E+00
         0.00000E+00
         0.00000E+00
         0.00000E+00
         0.00000E+00
         0.00000E+00
         0.00000E+00
         0.00000E+00
         0.00000E+00
         0.00000E+00
         0.00000E+00
         0.00000E+00
         0.00000E+00
         0.00000E+00
         0.00000E+00
         0.00000E+00
         0.00000E+00
         0.00000E+00
         0.00000E+00
         0.00000E+00
         0.00000E+00
         0.00000E+00
         0.00000E+00
         0.00000E+00
         0.00000E+00
         0.00000E+00
         0.00000E+00
         0.00000E+00
         0.00000E+00
         0.00000E+00
         0.00000E+00
         0.00000E+00
         0.00000E+00
         0.00000E+00
         0.00000E+00
         0.00000E+00
         0.00000E+00
         0.00000E+00
         0.00000E+00
         0.00000E+00
         0.00000E+00
         0.00000E+00
         0.00000E+00
         0.00000E+00
         0.00000E+00
         0.00000E+00
         0.00000E+00
         0.00000E+00
         0.00000E+00
         0.00000E+00
         0.00000E+00
         0.00000E+00
         0.00000E+00
         0.00000E+00
         0.00000E+00
         0.00000E+00
         0.00000E+00
         0.00000E+00
         0.00000E+00
         0.00000E+00
         0.00000E+00
         0.00000E+00
         0.00000E+00
         0.00000E+00
         0.00000E+00
         0.00000E+00
         0.00000E+00
         0.00000E+00
         0.00000E+00
         0.00000E+00
         0.00000E+00
         0.00000E+00
         0.00000E+00
         0.00000E+00
         0.00000E+00
         0.00000E+00
         0.00000E+00
         0.00000E+00
         0.00000E+00
         0.00000E+00
         0.00000E+00
         0.00000E+00
         0.00000E+00
         0.00000E+00
         0.00000E+00
         0.00000E+00
         0.00000E+00
         0.00000E+00
         0.00000E+00
         0.00000E+00
         0.00000E+00
         0.00000E+00
         0.00000E+00
         0.00000E+00
         0.00000E+00
         0.00000E+00
         0.00000E+00
         0.00000E+00
         0.00000E+00
         0.00000E+00
         0.00000E+00
         0.00000E+00
         0.00000E+00
         0.00000E+00
         0.00000E+00
         0.00000E+00
         0.00000E+00
         0.00000E+00
         0.00000E+00
         0.00000E+00
         0.00000E+00
         0.00000E+00
         0.00000E+00
         0.00000E+00
         0.00000E+00
         0.00000E+00
         0.00000E+00
         0.00000E+00
         0.00000E+00
         0.00000E+00
         0.00000E+00
         0.00000E+00
         0.00000E+00
         0.00000E+00
         0.00000E+00
         0.00000E+00
         0.00000E+00
         0.00000E+00
         0.00000E+00
         0.00000E+00
         0.00000E+00
         0.00000E+00
         0.00000E+00
         0.00000E+00
         0.00000E+00
         0.00000E+00
         0.00000E+00
         0.00000E+00
         0.00000E+00
         0.00000E+00
         0.00000E+00
         0.00000E+00
         0.00000E+00
         0.00000E+00
         0.00000E+00
         0.00000E+00
         0.00000E+00
         0.00000E+00
         0.00000E+00
         0.00000E+00
         0.00000E+00
         0.00000E+00
         0.00000E+00
         0.00000E+00
         0.00000E+00
         0.00000E+00
         0.00000E+00
         0.00000E+00
         0.00000E+00
         0.00000E+00
         0.00000E+00
         0.00000E+00
         0.00000E+00
         0.00000E+00
         0.00000E+00
         0.00000E+00
         0.00000E+00
         0.00000E+00
         0.00000E+00
         0.00000E+00
         0.00000E+00
         0.00000E+00
         0.00000E+00
         0.00000E+00
         0.00000E+00
         0.00000E+00
         0.00000E+00
         0.00000E+00
         0.00000E+00
         0.00000E+00
         0.00000E+00
         0.00000E+00
         0.00000E+00
         0.00000E+00
         0.00000E+00
         0.00000E+00
         0.00000E+00
         0.00000E+00
         0.00000E+00
         0.00000E+00
         0.00000E+00
         0.00000E+00
         0.00000E+00
         0.00000E+00
         0.00000E+00
         0.00000E+00
         0.00000E+00
         0.00000E+00
         0.00000E+00
         0.00000E+00
         0.00000E+00
         0.00000E+00
         0.00000E+00
         0.00000E+00
         0.00000E+00
         0.00000E+00
         0.00000E+00
         0.00000E+00
         0.00000E+00
         0.00000E+00
         0.00000E+00
         0.00000E+00
         0.00000E+00
         0.00000E+00
         0.00000E+00
         0.00000E+00
         0.00000E+00
         0.00000E+00
         0.00000E+00
         0.00000E+00
         0.00000E+00
         0.00000E+00
         0.00000E+00
         0.00000E+00
         0.00000E+00
         0.00000E+00
         0.00000E+00
         0.00000E+00
         0.00000E+00
         0.00000E+00
         0.00000E+00
         0.00000E+00
         0.00000E+00
         0.00000E+00
         0.00000E+00
         0.00000E+00
         0.00000E+00
         0.00000E+00
         0.00000E+00
         0.00000E+00
         0.00000E+00
         0.00000E+00
         0.00000E+00
         0.00000E+00
         0.00000E+00
         0.00000E+00
         0.00000E+00
         0.00000E+00
         0.00000E+00
         0.00000E+00
         0.00000E+00
         0.00000E+00
         0.00000E+00
         0.00000E+00
         0.00000E+00
         0.00000E+00
         0.00000E+00
         0.00000E+00
         0.00000E+00
         0.00000E+00
         0.00000E+00
         0.00000E+00
         0.00000E+00
         0.00000E+00
         0.00000E+00
         0.00000E+00
         0.00000E+00
         0.00000E+00
         0.00000E+00
         0.00000E+00
         0.00000E+00
         0.00000E+00
         0.00000E+00
         0.00000E+00
         0.00000E+00
         0.00000E+00
         0.00000E+00
         0.00000E+00
         0.00000E+00
         0.00000E+00
         0.00000E+00
         0.00000E+00
         0.00000E+00
         0.00000E+00
         0.00000E+00
         0.00000E+00
         0.00000E+00
         0.00000E+00
         0.00000E+00
         0.00000E+00
         0.00000E+00
         0.00000E+00
         0.00000E+00
         0.00000E+00
         0.00000E+00
         0.00000E+00
         0.00000E+00
         0.00000E+00
         0.00000E+00
         0.00000E+00
         0.00000E+00
         0.00000E+00
         0.00000E+00
         0.00000E+00
         0.00000E+00
         0.00000E+00
         0.00000E+00
         0.00000E+00
         0.00000E+00
         0.00000E+00
         0.00000E+00
         0.00000E+00
         0.00000E+00
         0.00000E+00
         0.00000E+00
         0.00000E+00
         0.00000E+00
         0.00000E+00
         0.00000E+00
         0.00000E+00
         0.00000E+00
         0.00000E+00
         0.00000E+00
         0.00000E+00
         0.00000E+00
         0.00000E+00
         0.00000E+00
         0.00000E+00
         0.00000E+00
         0.00000E+00
         0.00000E+00
         0.00000E+00
         0.00000E+00
         0.00000E+00
         0.00000E+00
         0.00000E+00
         0.00000E+00
         0.00000E+00
         0.00000E+00
         0.00000E+00
         0.00000E+00
         0.00000E+00
         0.00000E+00
         0.00000E+00
         0.00000E+00
         0.00000E+00
         0.00000E+00
         0.00000E+00
         0.00000E+00
         0.00000E+00
         0.00000E+00
         0.00000E+00
         0.00000E+00
         0.00000E+00
         0.00000E+00
         0.00000E+00
         0.00000E+00
         0.00000E+00
         0.00000E+00
         0.00000E+00
         0.00000E+00
         0.00000E+00
         0.00000E+00
         0.00000E+00
         0.00000E+00
         0.00000E+00
         0.00000E+00
         0.00000E+00
         0.00000E+00
         0.00000E+00
         0.00000E+00
         0.00000E+00
         0.00000E+00
         0.00000E+00
         0.00000E+00
         0.00000E+00
         0.00000E+00
         0.00000E+00
         0.00000E+00
         0.00000E+00
         0.00000E+00
         0.00000E+00
         0.00000E+00
         0.00000E+00
         0.00000E+00
         0.00000E+00
         0.00000E+00
         0.00000E+00
         0.00000E+00
         0.00000E+00
         0.00000E+00
         0.00000E+00
         0.00000E+00
         0.00000E+00
         0.00000E+00
         0.00000E+00
         0.00000E+00
         0.00000E+00
         0.00000E+00
         0.00000E+00
         0.00000E+00
         0.00000E+00
         0.00000E+00
         0.00000E+00
         0.00000E+00
         0.00000E+00
         0.00000E+00
         0.00000E+00
         0.00000E+00
         0.00000E+00
         0.00000E+00
         0.00000E+00
         0.00000E+00
         0.00000E+00
         0.00000E+00
         0.00000E+00
         0.00000E+00
         0.00000E+00
         0.00000E+00
         0.00000E+00
         0.00000E+00
         0.00000E+00
         0.00000E+00
         0.00000E+00
         0.00000E+00
         0.00000E+00
         0.00000E+00
         0.00000E+00
         0.00000E+00
         0.00000E+00
         0.00000E+00
         0.00000E+00
         0.00000E+00
         0.00000E+00
         0.00000E+00
         0.00000E+00
         0.00000E+00
         0.00000E+00
         0.00000E+00
         0.00000E+00
         0.00000E+00
         0.00000E+00
         0.00000E+00
         0.00000E+00
         0.00000E+00
         0.00000E+00
         0.00000E+00
         0.00000E+00
         0.00000E+00
         0.00000E+00
         0.00000E+00
         0.00000E+00
         0.00000E+00
         0.00000E+00
         0.00000E+00
         0.00000E+00
         0.00000E+00
         0.00000E+00
         0.00000E+00
         0.00000E+00
         0.00000E+00
         0.00000E+00
         0.00000E+00
         0.00000E+00
  
SCALARS           initial_coordinate_x  double 1
LOOKUP_TABLE default
         0.10378E-02
         0.17452E-02
         0.23177E-02
         0.16698E-02
         0.10379E-02
         0.17453E-02
         0.23178E-02
         0.16700E-02
         0.30377E-02
         0.27791E-02
         0.30377E-02
         0.27788E-02
         0.12850E-02
         0.65139E-03
         0.12851E-02
         0.65164E-03
         0.12757E-03
        -0.12822E-03
         0.12783E-03
        -0.12804E-03
         0.94500E-03
         0.11327E-02
         0.17490E-02
         0.94533E-03
         0.11330E-02
         0.17494E-02
         0.40588E-03
         0.39779E-03
         0.40594E-03
         0.39781E-03
        -0.76303E-03
        -0.86604E-03
         0.46119E-03
        -0.76268E-03
        -0.86593E-03
         0.46164E-03
        -0.18300E-02
        -0.18440E-02
        -0.18297E-02
        -0.18441E-02
        -0.27238E-02
        -0.28028E-02
        -0.27238E-02
        -0.28031E-02
        -0.25365E-02
        -0.19287E-02
        -0.25363E-02
        -0.19283E-02
        -0.99363E-03
        -0.99377E-03
        -0.14380E-02
        -0.14377E-02
        -0.31574E-03
        -0.31594E-03
        -0.11068E-02
        -0.11071E-02
        -0.18845E-02
        -0.18713E-02
        -0.18846E-02
        -0.18714E-02
        -0.15871E-03
        -0.94089E-03
        -0.15844E-03
        -0.94029E-03
         0.78856E-03
         0.78922E-03
         0.17211E-02
         0.17211E-02
         0.32050E-02
         0.28046E-02
         0.32047E-02
         0.28047E-02
         0.23059E-02
         0.23060E-02
        -0.40614E-03
        -0.40627E-03
        -0.12092E-02
        -0.12092E-02
        -0.19448E-02
        -0.19448E-02
        -0.25029E-02
        -0.26371E-02
        -0.25029E-02
        -0.26372E-02
        -0.27671E-02
        -0.27674E-02
        -0.21123E-02
        -0.21122E-02
        -0.16087E-02
        -0.16087E-02
        -0.11939E-02
        -0.58641E-03
        -0.11937E-02
        -0.58606E-03
         0.20912E-03
         0.20952E-03
         0.10586E-02
         0.10589E-02
         0.18413E-02
         0.18413E-02
         0.24544E-02
         0.26022E-02
         0.24543E-02
         0.26021E-02
         0.37964E-02
         0.39100E-02
         0.37964E-02
         0.39100E-02
         0.34621E-02
         0.34621E-02
         0.29267E-02
         0.29267E-02
         0.22211E-02
         0.22211E-02
         0.13865E-02
         0.13865E-02
         0.47130E-03
         0.47130E-03
        -0.47130E-03
        -0.47130E-03
        -0.13865E-02
        -0.13865E-02
        -0.22211E-02
        -0.22211E-02
        -0.29267E-02
        -0.29267E-02
        -0.34621E-02
        -0.34621E-02
        -0.37964E-02
        -0.37964E-02
        -0.39100E-02
        -0.39100E-02
        -0.37964E-02
        -0.37964E-02
        -0.34621E-02
        -0.34621E-02
        -0.29267E-02
        -0.29267E-02
        -0.22211E-02
        -0.22211E-02
        -0.13865E-02
        -0.13865E-02
        -0.47130E-03
        -0.47130E-03
         0.47130E-03
         0.47130E-03
         0.13865E-02
         0.13865E-02
         0.22211E-02
         0.22211E-02
         0.29267E-02
         0.29267E-02
         0.34621E-02
         0.34621E-02
         0.37964E-02
         0.37964E-02
         0.10376E-02
         0.17450E-02
         0.23175E-02
         0.16696E-02
         0.30377E-02
         0.27795E-02
         0.12849E-02
         0.65115E-03
         0.12731E-03
        -0.12841E-03
         0.94467E-03
         0.11323E-02
         0.17487E-02
         0.40583E-03
         0.39777E-03
        -0.76338E-03
        -0.86615E-03
         0.46074E-03
        -0.18303E-02
        -0.18439E-02
        -0.27238E-02
        -0.28025E-02
        -0.25366E-02
        -0.19292E-02
        -0.99349E-03
        -0.14384E-02
        -0.31554E-03
        -0.11064E-02
        -0.18845E-02
        -0.18712E-02
        -0.15899E-03
        -0.94149E-03
         0.78790E-03
         0.17210E-02
         0.32053E-02
         0.28046E-02
         0.23058E-02
        -0.40600E-03
        -0.12092E-02
        -0.19447E-02
        -0.25028E-02
        -0.26370E-02
        -0.27668E-02
        -0.21125E-02
        -0.16088E-02
        -0.11940E-02
        -0.58676E-03
         0.20871E-03
         0.10583E-02
         0.18413E-02
         0.24545E-02
         0.26022E-02
         0.37964E-02
         0.39100E-02
         0.34621E-02
         0.29267E-02
         0.22211E-02
         0.13865E-02
         0.47130E-03
        -0.47130E-03
        -0.13865E-02
        -0.22211E-02
        -0.29267E-02
        -0.34621E-02
        -0.37964E-02
        -0.39100E-02
        -0.37964E-02
        -0.34621E-02
        -0.29267E-02
        -0.22211E-02
        -0.13865E-02
        -0.47130E-03
         0.47130E-03
         0.13865E-02
         0.22211E-02
         0.29267E-02
         0.34621E-02
         0.37964E-02
         0.10375E-02
         0.17448E-02
         0.23174E-02
         0.16694E-02
         0.30377E-02
         0.27798E-02
         0.12848E-02
         0.65090E-03
         0.12705E-03
        -0.12859E-03
         0.94434E-03
         0.11320E-02
         0.17483E-02
         0.40577E-03
         0.39776E-03
        -0.76374E-03
        -0.86626E-03
         0.46029E-03
        -0.18306E-02
        -0.18438E-02
        -0.27238E-02
        -0.28022E-02
        -0.25368E-02
        -0.19296E-02
        -0.99334E-03
        -0.14387E-02
        -0.31534E-03
        -0.11061E-02
        -0.18844E-02
        -0.18710E-02
        -0.15926E-03
        -0.94209E-03
         0.78724E-03
         0.17210E-02
         0.32056E-02
         0.28046E-02
         0.23057E-02
        -0.40586E-03
        -0.12092E-02
        -0.19447E-02
        -0.25028E-02
        -0.26369E-02
        -0.27665E-02
        -0.21126E-02
        -0.16088E-02
        -0.11941E-02
        -0.58711E-03
         0.20830E-03
         0.10580E-02
         0.18414E-02
         0.24546E-02
         0.26023E-02
         0.37964E-02
         0.39100E-02
         0.34621E-02
         0.29267E-02
         0.22211E-02
         0.13865E-02
         0.47130E-03
        -0.47130E-03
        -0.13865E-02
        -0.22211E-02
        -0.29267E-02
        -0.34621E-02
        -0.37964E-02
        -0.39100E-02
        -0.37964E-02
        -0.34621E-02
        -0.29267E-02
        -0.22211E-02
        -0.13865E-02
        -0.47130E-03
         0.47130E-03
         0.13865E-02
         0.22211E-02
         0.29267E-02
         0.34621E-02
         0.37964E-02
         0.10374E-02
         0.17446E-02
         0.23173E-02
         0.16692E-02
         0.30376E-02
         0.27801E-02
         0.12847E-02
         0.65065E-03
         0.12678E-03
        -0.12878E-03
         0.94401E-03
         0.11316E-02
         0.17479E-02
         0.40572E-03
         0.39774E-03
        -0.76409E-03
        -0.86637E-03
         0.45985E-03
        -0.18309E-02
        -0.18437E-02
        -0.27237E-02
        -0.28020E-02
        -0.25369E-02
        -0.19300E-02
        -0.99320E-03
        -0.14391E-02
        -0.31514E-03
        -0.11057E-02
        -0.18844E-02
        -0.18709E-02
        -0.15954E-03
        -0.94269E-03
         0.78658E-03
         0.17209E-02
         0.32060E-02
         0.28046E-02
         0.23056E-02
        -0.40572E-03
        -0.12092E-02
        -0.19446E-02
        -0.25028E-02
        -0.26368E-02
        -0.27662E-02
        -0.21128E-02
        -0.16088E-02
        -0.11942E-02
        -0.58746E-03
         0.20790E-03
         0.10577E-02
         0.18414E-02
         0.24548E-02
         0.26024E-02
         0.37964E-02
         0.39100E-02
         0.34621E-02
         0.29267E-02
         0.22211E-02
         0.13865E-02
         0.47130E-03
        -0.47130E-03
        -0.13865E-02
        -0.22211E-02
        -0.29267E-02
        -0.34621E-02
        -0.37964E-02
        -0.39100E-02
        -0.37964E-02
        -0.34621E-02
        -0.29267E-02
        -0.22211E-02
        -0.13865E-02
        -0.47130E-03
         0.47130E-03
         0.13865E-02
         0.22211E-02
         0.29267E-02
         0.34621E-02
         0.37964E-02
         0.10373E-02
         0.17445E-02
         0.23172E-02
         0.16689E-02
         0.30376E-02
         0.27805E-02
         0.12846E-02
         0.65041E-03
         0.12652E-03
        -0.12896E-03
         0.94367E-03
         0.11313E-02
         0.17475E-02
         0.40566E-03
         0.39772E-03
        -0.76444E-03
        -0.86648E-03
         0.45940E-03
        -0.18312E-02
        -0.18436E-02
        -0.27237E-02
        -0.28017E-02
        -0.25371E-02
        -0.19305E-02
        -0.99305E-03
        -0.14394E-02
        -0.31494E-03
        -0.11054E-02
        -0.18843E-02
        -0.18708E-02
        -0.15981E-03
        -0.94328E-03
         0.78592E-03
         0.17209E-02
         0.32063E-02
         0.28045E-02
         0.23055E-02
        -0.40558E-03
        -0.12092E-02
        -0.19446E-02
        -0.25027E-02
        -0.26367E-02
        -0.27658E-02
        -0.21129E-02
        -0.16089E-02
        -0.11943E-02
        -0.58781E-03
         0.20749E-03
         0.10574E-02
         0.18415E-02
         0.24549E-02
         0.26025E-02
         0.37964E-02
         0.39100E-02
         0.34621E-02
         0.29267E-02
         0.22211E-02
         0.13865E-02
         0.47130E-03
        -0.47130E-03
        -0.13865E-02
        -0.22211E-02
        -0.29267E-02
        -0.34621E-02
        -0.37964E-02
        -0.39100E-02
        -0.37964E-02
        -0.34621E-02
        -0.29267E-02
        -0.22211E-02
        -0.13865E-02
        -0.47130E-03
         0.47130E-03
         0.13865E-02
         0.22211E-02
         0.29267E-02
         0.34621E-02
         0.37964E-02
         0.10372E-02
         0.17443E-02
         0.23171E-02
         0.16687E-02
         0.30376E-02
         0.27808E-02
         0.12845E-02
         0.65016E-03
         0.12626E-03
        -0.12915E-03
         0.94334E-03
         0.11310E-02
         0.17471E-02
         0.40561E-03
         0.39770E-03
        -0.76480E-03
        -0.86659E-03
         0.45895E-03
        -0.18315E-02
        -0.18435E-02
        -0.27237E-02
        -0.28014E-02
        -0.25372E-02
        -0.19309E-02
        -0.99291E-03
        -0.14398E-02
        -0.31474E-03
        -0.11051E-02
        -0.18843E-02
        -0.18706E-02
        -0.16009E-03
        -0.94388E-03
         0.78526E-03
         0.17208E-02
         0.32066E-02
         0.28045E-02
         0.23053E-02
        -0.40545E-03
        -0.12092E-02
        -0.19446E-02
        -0.25027E-02
        -0.26366E-02
        -0.27655E-02
        -0.21130E-02
        -0.16089E-02
        -0.11944E-02
        -0.58816E-03
         0.20709E-03
         0.10571E-02
         0.18415E-02
         0.24550E-02
         0.26025E-02
         0.37964E-02
         0.39100E-02
         0.34621E-02
         0.29267E-02
         0.22211E-02
         0.13865E-02
         0.47130E-03
        -0.47130E-03
        -0.13865E-02
        -0.22211E-02
        -0.29267E-02
        -0.34621E-02
        -0.37964E-02
        -0.39100E-02
        -0.37964E-02
        -0.34621E-02
        -0.29267E-02
        -0.22211E-02
        -0.13865E-02
        -0.47130E-03
         0.47130E-03
         0.13865E-02
         0.22211E-02
         0.29267E-02
         0.34621E-02
         0.37964E-02
         0.10371E-02
         0.17441E-02
         0.23169E-02
         0.16685E-02
         0.30376E-02
         0.27812E-02
         0.12844E-02
         0.64992E-03
         0.12600E-03
        -0.12933E-03
         0.94301E-03
         0.11306E-02
         0.17467E-02
         0.40556E-03
         0.39769E-03
        -0.76515E-03
        -0.86670E-03
         0.45850E-03
        -0.18318E-02
        -0.18434E-02
        -0.27236E-02
        -0.28011E-02
        -0.25374E-02
        -0.19313E-02
        -0.99277E-03
        -0.14401E-02
        -0.31454E-03
        -0.11047E-02
        -0.18842E-02
        -0.18705E-02
        -0.16036E-03
        -0.94448E-03
         0.78460E-03
         0.17208E-02
         0.32070E-02
         0.28045E-02
         0.23052E-02
        -0.40531E-03
        -0.12092E-02
        -0.19445E-02
        -0.25027E-02
        -0.26366E-02
        -0.27652E-02
        -0.21132E-02
        -0.16090E-02
        -0.11946E-02
        -0.58851E-03
         0.20668E-03
         0.10567E-02
         0.18416E-02
         0.24551E-02
         0.26026E-02
         0.37964E-02
         0.39100E-02
         0.34621E-02
         0.29267E-02
         0.22211E-02
         0.13865E-02
         0.47130E-03
        -0.47130E-03
        -0.13865E-02
        -0.22211E-02
        -0.29267E-02
        -0.34621E-02
        -0.37964E-02
        -0.39100E-02
        -0.37964E-02
        -0.34621E-02
        -0.29267E-02
        -0.22211E-02
        -0.13865E-02
        -0.47130E-03
         0.47130E-03
         0.13865E-02
         0.22211E-02
         0.29267E-02
         0.34621E-02
         0.37964E-02
         0.10370E-02
         0.17439E-02
         0.23168E-02
         0.16683E-02
         0.30375E-02
         0.27815E-02
         0.12843E-02
         0.64967E-03
         0.12573E-03
        -0.12952E-03
         0.94268E-03
         0.11303E-02
         0.17463E-02
         0.40550E-03
         0.39767E-03
        -0.76551E-03
        -0.86680E-03
         0.45806E-03
        -0.18321E-02
        -0.18433E-02
        -0.27236E-02
        -0.28009E-02
        -0.25375E-02
        -0.19317E-02
        -0.99262E-03
        -0.14405E-02
        -0.31434E-03
        -0.11044E-02
        -0.18842E-02
        -0.18704E-02
        -0.16064E-03
        -0.94508E-03
         0.78394E-03
         0.17208E-02
         0.32073E-02
         0.28045E-02
         0.23051E-02
        -0.40517E-03
        -0.12092E-02
        -0.19445E-02
        -0.25026E-02
        -0.26365E-02
        -0.27649E-02
        -0.21133E-02
        -0.16090E-02
        -0.11947E-02
        -0.58886E-03
         0.20627E-03
         0.10564E-02
         0.18416E-02
         0.24553E-02
         0.26027E-02
         0.37964E-02
         0.39100E-02
         0.34621E-02
         0.29267E-02
         0.22211E-02
         0.13865E-02
         0.47130E-03
        -0.47130E-03
        -0.13865E-02
        -0.22211E-02
        -0.29267E-02
        -0.34621E-02
        -0.37964E-02
        -0.39100E-02
        -0.37964E-02
        -0.34621E-02
        -0.29267E-02
        -0.22211E-02
        -0.13865E-02
        -0.47130E-03
         0.47130E-03
         0.13865E-02
         0.22211E-02
         0.29267E-02
         0.34621E-02
         0.37964E-02
         0.10368E-02
         0.17438E-02
         0.23167E-02
         0.16681E-02
         0.30375E-02
         0.27819E-02
         0.12842E-02
         0.64943E-03
         0.12547E-03
        -0.12970E-03
         0.94235E-03
         0.11300E-02
         0.17459E-02
         0.40545E-03
         0.39766E-03
        -0.76586E-03
        -0.86691E-03
         0.45761E-03
        -0.18324E-02
        -0.18432E-02
        -0.27236E-02
        -0.28006E-02
        -0.25377E-02
        -0.19322E-02
        -0.99248E-03
        -0.14408E-02
        -0.31414E-03
        -0.11040E-02
        -0.18841E-02
        -0.18703E-02
        -0.16091E-03
        -0.94568E-03
         0.78328E-03
         0.17207E-02
         0.32076E-02
         0.28044E-02
         0.23050E-02
        -0.40503E-03
        -0.12092E-02
        -0.19445E-02
        -0.25026E-02
        -0.26364E-02
        -0.27646E-02
        -0.21134E-02
        -0.16091E-02
        -0.11948E-02
        -0.58921E-03
         0.20587E-03
         0.10561E-02
         0.18416E-02
         0.24554E-02
         0.26027E-02
         0.37964E-02
         0.39100E-02
         0.34621E-02
         0.29267E-02
         0.22211E-02
         0.13865E-02
         0.47130E-03
        -0.47130E-03
        -0.13865E-02
        -0.22211E-02
        -0.29267E-02
        -0.34621E-02
        -0.37964E-02
        -0.39100E-02
        -0.37964E-02
        -0.34621E-02
        -0.29267E-02
        -0.22211E-02
        -0.13865E-02
        -0.47130E-03
         0.47130E-03
         0.13865E-02
         0.22211E-02
         0.29267E-02
         0.34621E-02
         0.37964E-02
         0.10367E-02
         0.17436E-02
         0.23166E-02
         0.16679E-02
         0.30375E-02
         0.27822E-02
         0.12841E-02
         0.64918E-03
         0.12521E-03
        -0.12989E-03
         0.94202E-03
         0.11296E-02
         0.17455E-02
         0.40539E-03
         0.39764E-03
        -0.76621E-03
        -0.86702E-03
         0.45716E-03
        -0.18326E-02
        -0.18431E-02
        -0.27235E-02
        -0.28003E-02
        -0.25379E-02
        -0.19326E-02
        -0.99233E-03
        -0.14412E-02
        -0.31394E-03
        -0.11037E-02
        -0.18841E-02
        -0.18701E-02
        -0.16119E-03
        -0.94628E-03
         0.78262E-03
         0.17207E-02
         0.32079E-02
         0.28044E-02
         0.23049E-02
        -0.40490E-03
        -0.12093E-02
        -0.19444E-02
        -0.25026E-02
        -0.26363E-02
        -0.27643E-02
        -0.21136E-02
        -0.16091E-02
        -0.11949E-02
        -0.58956E-03
         0.20546E-03
         0.10558E-02
         0.18417E-02
         0.24555E-02
         0.26028E-02
         0.37964E-02
         0.39100E-02
         0.34621E-02
         0.29267E-02
         0.22211E-02
         0.13865E-02
         0.47130E-03
        -0.47130E-03
        -0.13865E-02
        -0.22211E-02
        -0.29267E-02
        -0.34621E-02
        -0.37964E-02
        -0.39100E-02
        -0.37964E-02
        -0.34621E-02
        -0.29267E-02
        -0.22211E-02
        -0.13865E-02
        -0.47130E-03
         0.47130E-03
         0.13865E-02
         0.22211E-02
         0.29267E-02
         0.34621E-02
         0.37964E-02
         0.10366E-02
         0.17434E-02
         0.23164E-02
         0.16677E-02
         0.30375E-02
         0.27825E-02
         0.12840E-02
         0.64894E-03
         0.12495E-03
        -0.13007E-03
         0.94169E-03
         0.11293E-02
         0.17451E-02
         0.40534E-03
         0.39762E-03
        -0.76657E-03
        -0.86713E-03
         0.45671E-03
        -0.18329E-02
        -0.18430E-02
        -0.27235E-02
        -0.28001E-02
        -0.25380E-02
        -0.19330E-02
        -0.99219E-03
        -0.14415E-02
        -0.31374E-03
        -0.11033E-02
        -0.18840E-02
        -0.18700E-02
        -0.16146E-03
        -0.94687E-03
         0.78195E-03
         0.17207E-02
         0.32083E-02
         0.28044E-02
         0.23048E-02
        -0.40476E-03
        -0.12093E-02
        -0.19444E-02
        -0.25026E-02
        -0.26362E-02
        -0.27640E-02
        -0.21137E-02
        -0.16091E-02
        -0.11950E-02
        -0.58991E-03
         0.20505E-03
         0.10555E-02
         0.18417E-02
         0.24556E-02
         0.26029E-02
         0.37964E-02
         0.39100E-02
         0.34621E-02
         0.29267E-02
         0.22211E-02
         0.13865E-02
         0.47130E-03
        -0.47130E-03
        -0.13865E-02
        -0.22211E-02
        -0.29267E-02
        -0.34621E-02
        -0.37964E-02
        -0.39100E-02
        -0.37964E-02
        -0.34621E-02
        -0.29267E-02
        -0.22211E-02
        -0.13865E-02
        -0.47130E-03
         0.47130E-03
         0.13865E-02
         0.22211E-02
         0.29267E-02
         0.34621E-02
         0.37964E-02
         0.10365E-02
         0.17432E-02
         0.23163E-02
         0.16675E-02
         0.30374E-02
         0.27829E-02
         0.12839E-02
         0.64869E-03
         0.12468E-03
        -0.13026E-03
         0.94135E-03
         0.11289E-02
         0.17447E-02
         0.40528E-03
         0.39760E-03
        -0.76692E-03
        -0.86724E-03
         0.45626E-03
        -0.18332E-02
        -0.18430E-02
        -0.27235E-02
        -0.27998E-02
        -0.25382E-02
        -0.19334E-02
        -0.99205E-03
        -0.14419E-02
        -0.31354E-03
        -0.11030E-02
        -0.18840E-02
        -0.18699E-02
        -0.16174E-03
        -0.94747E-03
         0.78129E-03
         0.17206E-02
         0.32086E-02
         0.28044E-02
         0.23047E-02
        -0.40462E-03
        -0.12093E-02
        -0.19444E-02
        -0.25025E-02
        -0.26361E-02
        -0.27637E-02
        -0.21139E-02
        -0.16092E-02
        -0.11951E-02
        -0.59025E-03
         0.20465E-03
         0.10552E-02
         0.18418E-02
         0.24558E-02
         0.26030E-02
         0.37964E-02
         0.39100E-02
         0.34621E-02
         0.29267E-02
         0.22211E-02
         0.13865E-02
         0.47130E-03
        -0.47130E-03
        -0.13865E-02
        -0.22211E-02
        -0.29267E-02
        -0.34621E-02
        -0.37964E-02
        -0.39100E-02
        -0.37964E-02
        -0.34621E-02
        -0.29267E-02
        -0.22211E-02
        -0.13865E-02
        -0.47130E-03
         0.47130E-03
         0.13865E-02
         0.22211E-02
         0.29267E-02
         0.34621E-02
         0.37964E-02
         0.10364E-02
         0.17430E-02
         0.23162E-02
         0.16672E-02
         0.30374E-02
         0.27832E-02
         0.12838E-02
         0.64845E-03
         0.12442E-03
        -0.13044E-03
         0.94102E-03
         0.11286E-02
         0.17443E-02
         0.40523E-03
         0.39759E-03
        -0.76727E-03
        -0.86735E-03
         0.45582E-03
        -0.18335E-02
        -0.18429E-02
        -0.27235E-02
        -0.27995E-02
        -0.25383E-02
        -0.19339E-02
        -0.99190E-03
        -0.14422E-02
        -0.31334E-03
        -0.11026E-02
        -0.18839E-02
        -0.18697E-02
        -0.16201E-03
        -0.94807E-03
         0.78063E-03
         0.17206E-02
         0.32089E-02
         0.28043E-02
         0.23046E-02
        -0.40448E-03
        -0.12093E-02
        -0.19443E-02
        -0.25025E-02
        -0.26360E-02
        -0.27633E-02
        -0.21140E-02
        -0.16092E-02
        -0.11953E-02
        -0.59060E-03
         0.20424E-03
         0.10549E-02
         0.18418E-02
         0.24559E-02
         0.26030E-02
         0.37964E-02
         0.39100E-02
         0.34621E-02
         0.29267E-02
         0.22211E-02
         0.13865E-02
         0.47130E-03
        -0.47130E-03
        -0.13865E-02
        -0.22211E-02
        -0.29267E-02
        -0.34621E-02
        -0.37964E-02
        -0.39100E-02
        -0.37964E-02
        -0.34621E-02
        -0.29267E-02
        -0.22211E-02
        -0.13865E-02
        -0.47130E-03
         0.47130E-03
         0.13865E-02
         0.22211E-02
         0.29267E-02
         0.34621E-02
         0.37964E-02
         0.10363E-02
         0.17429E-02
         0.23161E-02
         0.16670E-02
         0.30374E-02
         0.27836E-02
         0.12837E-02
         0.64820E-03
         0.12416E-03
        -0.13063E-03
         0.94069E-03
         0.11282E-02
         0.17439E-02
         0.40518E-03
         0.39757E-03
        -0.76763E-03
        -0.86746E-03
         0.45537E-03
        -0.18338E-02
        -0.18428E-02
        -0.27234E-02
        -0.27992E-02
        -0.25385E-02
        -0.19343E-02
        -0.99176E-03
        -0.14425E-02
        -0.31314E-03
        -0.11023E-02
        -0.18839E-02
        -0.18696E-02
        -0.16229E-03
        -0.94867E-03
         0.77997E-03
         0.17205E-02
         0.32092E-02
         0.28043E-02
         0.23044E-02
        -0.40434E-03
        -0.12093E-02
        -0.19443E-02
        -0.25025E-02
        -0.26359E-02
        -0.27630E-02
        -0.21141E-02
        -0.16093E-02
        -0.11954E-02
        -0.59095E-03
         0.20384E-03
         0.10546E-02
         0.18419E-02
         0.24560E-02
         0.26031E-02
         0.37964E-02
         0.39100E-02
         0.34621E-02
         0.29267E-02
         0.22211E-02
         0.13865E-02
         0.47130E-03
        -0.47130E-03
        -0.13865E-02
        -0.22211E-02
        -0.29267E-02
        -0.34621E-02
        -0.37964E-02
        -0.39100E-02
        -0.37964E-02
        -0.34621E-02
        -0.29267E-02
        -0.22211E-02
        -0.13865E-02
        -0.47130E-03
         0.47130E-03
         0.13865E-02
         0.22211E-02
         0.29267E-02
         0.34621E-02
         0.37964E-02
         0.10362E-02
         0.17427E-02
         0.23160E-02
         0.16668E-02
         0.30373E-02
         0.27839E-02
         0.12836E-02
         0.64796E-03
         0.12390E-03
        -0.13082E-03
         0.94036E-03
         0.11279E-02
         0.17435E-02
         0.40512E-03
         0.39755E-03
        -0.76798E-03
        -0.86756E-03
         0.45492E-03
        -0.18341E-02
        -0.18427E-02
        -0.27234E-02
        -0.27990E-02
        -0.25386E-02
        -0.19347E-02
        -0.99161E-03
        -0.14429E-02
        -0.31294E-03
        -0.11019E-02
        -0.18838E-02
        -0.18695E-02
        -0.16256E-03
        -0.94927E-03
         0.77931E-03
         0.17205E-02
         0.32096E-02
         0.28043E-02
         0.23043E-02
        -0.40420E-03
        -0.12093E-02
        -0.19443E-02
        -0.25024E-02
        -0.26358E-02
        -0.27627E-02
        -0.21143E-02
        -0.16093E-02
        -0.11955E-02
        -0.59130E-03
         0.20343E-03
         0.10543E-02
         0.18419E-02
         0.24561E-02
         0.26032E-02
         0.37964E-02
         0.39100E-02
         0.34621E-02
         0.29267E-02
         0.22211E-02
         0.13865E-02
         0.47130E-03
        -0.47130E-03
        -0.13865E-02
        -0.22211E-02
        -0.29267E-02
        -0.34621E-02
        -0.37964E-02
        -0.39100E-02
        -0.37964E-02
        -0.34621E-02
        -0.29267E-02
        -0.22211E-02
        -0.13865E-02
        -0.47130E-03
         0.47130E-03
         0.13865E-02
         0.22211E-02
         0.29267E-02
         0.34621E-02
         0.37964E-02
         0.10360E-02
         0.17425E-02
         0.23158E-02
         0.16666E-02
         0.30373E-02
         0.27842E-02
         0.12835E-02
         0.64771E-03
         0.12363E-03
        -0.13100E-03
         0.94003E-03
         0.11276E-02
         0.17432E-02
         0.40507E-03
         0.39754E-03
        -0.76834E-03
        -0.86767E-03
         0.45447E-03
        -0.18344E-02
        -0.18426E-02
        -0.27234E-02
        -0.27987E-02
        -0.25388E-02
        -0.19352E-02
        -0.99147E-03
        -0.14433E-02
        -0.31274E-03
        -0.11016E-02
        -0.18838E-02
        -0.18694E-02
        -0.16284E-03
        -0.94986E-03
         0.77865E-03
         0.17205E-02
         0.32099E-02
         0.28042E-02
         0.23042E-02
        -0.40407E-03
        -0.12093E-02
        -0.19442E-02
        -0.25024E-02
        -0.26358E-02
        -0.27624E-02
        -0.21144E-02
        -0.16094E-02
        -0.11956E-02
        -0.59165E-03
         0.20302E-03
         0.10540E-02
         0.18419E-02
         0.24563E-02
         0.26033E-02
         0.37964E-02
         0.39100E-02
         0.34621E-02
         0.29267E-02
         0.22211E-02
         0.13865E-02
         0.47130E-03
        -0.47130E-03
        -0.13865E-02
        -0.22211E-02
        -0.29267E-02
        -0.34621E-02
        -0.37964E-02
        -0.39100E-02
        -0.37964E-02
        -0.34621E-02
        -0.29267E-02
        -0.22211E-02
        -0.13865E-02
        -0.47130E-03
         0.47130E-03
         0.13865E-02
         0.22211E-02
         0.29267E-02
         0.34621E-02
         0.37964E-02
         0.10359E-02
         0.17423E-02
         0.23157E-02
         0.16664E-02
         0.30373E-02
         0.27846E-02
         0.12834E-02
         0.64747E-03
         0.12337E-03
        -0.13118E-03
         0.93970E-03
         0.11272E-02
         0.17428E-02
         0.40501E-03
         0.39752E-03
        -0.76869E-03
        -0.86778E-03
         0.45402E-03
        -0.18347E-02
        -0.18425E-02
        -0.27234E-02
        -0.27984E-02
        -0.25389E-02
        -0.19356E-02
        -0.99133E-03
        -0.14436E-02
        -0.31254E-03
        -0.11013E-02
        -0.18837E-02
        -0.18692E-02
        -0.16311E-03
        -0.95046E-03
         0.77799E-03
         0.17204E-02
         0.32102E-02
         0.28042E-02
         0.23041E-02
        -0.40393E-03
        -0.12093E-02
        -0.19442E-02
        -0.25024E-02
        -0.26357E-02
        -0.27621E-02
        -0.21146E-02
        -0.16094E-02
        -0.11957E-02
        -0.59200E-03
         0.20262E-03
         0.10536E-02
         0.18420E-02
         0.24564E-02
         0.26033E-02
         0.37964E-02
         0.39100E-02
         0.34621E-02
         0.29267E-02
         0.22211E-02
         0.13865E-02
         0.47130E-03
        -0.47130E-03
        -0.13865E-02
        -0.22211E-02
        -0.29267E-02
        -0.34621E-02
        -0.37964E-02
        -0.39100E-02
        -0.37964E-02
        -0.34621E-02
        -0.29267E-02
        -0.22211E-02
        -0.13865E-02
        -0.47130E-03
         0.47130E-03
         0.13865E-02
         0.22211E-02
         0.29267E-02
         0.34621E-02
         0.37964E-02
         0.10358E-02
         0.17422E-02
         0.23156E-02
         0.16662E-02
         0.30373E-02
         0.27849E-02
         0.12833E-02
         0.64722E-03
         0.12311E-03
        -0.13137E-03
         0.93937E-03
         0.11269E-02
         0.17424E-02
         0.40496E-03
         0.39750E-03
        -0.76904E-03
        -0.86789E-03
         0.45358E-03
        -0.18350E-02
        -0.18424E-02
        -0.27233E-02
        -0.27981E-02
        -0.25391E-02
        -0.19360E-02
        -0.99118E-03
        -0.14440E-02
        -0.31234E-03
        -0.11009E-02
        -0.18836E-02
        -0.18691E-02
        -0.16339E-03
        -0.95106E-03
         0.77733E-03
         0.17204E-02
         0.32105E-02
         0.28042E-02
         0.23040E-02
        -0.40379E-03
        -0.12093E-02
        -0.19441E-02
        -0.25023E-02
        -0.26356E-02
        -0.27618E-02
        -0.21147E-02
        -0.16094E-02
        -0.11958E-02
        -0.59235E-03
         0.20221E-03
         0.10533E-02
         0.18420E-02
         0.24565E-02
         0.26034E-02
         0.37964E-02
         0.39100E-02
         0.34621E-02
         0.29267E-02
         0.22211E-02
         0.13865E-02
         0.47130E-03
        -0.47130E-03
        -0.13865E-02
        -0.22211E-02
        -0.29267E-02
        -0.34621E-02
        -0.37964E-02
        -0.39100E-02
        -0.37964E-02
        -0.34621E-02
        -0.29267E-02
        -0.22211E-02
        -0.13865E-02
        -0.47130E-03
         0.47130E-03
         0.13865E-02
         0.22211E-02
         0.29267E-02
         0.34621E-02
         0.37964E-02
         0.10357E-02
         0.17420E-02
         0.23155E-02
         0.16660E-02
         0.30372E-02
         0.27853E-02
         0.12832E-02
         0.64698E-03
         0.12285E-03
        -0.13155E-03
         0.93903E-03
         0.11266E-02
         0.17420E-02
         0.40490E-03
         0.39749E-03
        -0.76940E-03
        -0.86800E-03
         0.45313E-03
        -0.18353E-02
        -0.18423E-02
        -0.27233E-02
        -0.27979E-02
        -0.25393E-02
        -0.19365E-02
        -0.99104E-03
        -0.14443E-02
        -0.31214E-03
        -0.11006E-02
        -0.18836E-02
        -0.18690E-02
        -0.16366E-03
        -0.95166E-03
         0.77667E-03
         0.17203E-02
         0.32109E-02
         0.28042E-02
         0.23039E-02
        -0.40365E-03
        -0.12093E-02
        -0.19441E-02
        -0.25023E-02
        -0.26355E-02
        -0.27615E-02
        -0.21148E-02
        -0.16095E-02
        -0.11960E-02
        -0.59270E-03
         0.20180E-03
         0.10530E-02
         0.18421E-02
         0.24566E-02
         0.26035E-02
         0.37964E-02
         0.39100E-02
         0.34621E-02
         0.29267E-02
         0.22211E-02
         0.13865E-02
         0.47130E-03
        -0.47130E-03
        -0.13865E-02
        -0.22211E-02
        -0.29267E-02
        -0.34621E-02
        -0.37964E-02
        -0.39100E-02
        -0.37964E-02
        -0.34621E-02
        -0.29267E-02
        -0.22211E-02
        -0.13865E-02
        -0.47130E-03
         0.47130E-03
         0.13865E-02
         0.22211E-02
         0.29267E-02
         0.34621E-02
         0.37964E-02
         0.10356E-02
         0.17418E-02
         0.23153E-02
         0.16657E-02
         0.30372E-02
         0.27856E-02
         0.12830E-02
         0.64673E-03
         0.12259E-03
        -0.13174E-03
         0.93870E-03
         0.11262E-02
         0.17416E-02
         0.40485E-03
         0.39747E-03
        -0.76975E-03
        -0.86811E-03
         0.45268E-03
        -0.18356E-02
        -0.18422E-02
        -0.27233E-02
        -0.27976E-02
        -0.25394E-02
        -0.19369E-02
        -0.99090E-03
        -0.14446E-02
        -0.31194E-03
        -0.11002E-02
        -0.18835E-02
        -0.18689E-02
        -0.16394E-03
        -0.95226E-03
         0.77601E-03
         0.17203E-02
         0.32112E-02
         0.28042E-02
         0.23038E-02
        -0.40352E-03
        -0.12093E-02
        -0.19441E-02
        -0.25023E-02
        -0.26354E-02
        -0.27612E-02
        -0.21150E-02
        -0.16095E-02
        -0.11961E-02
        -0.59305E-03
         0.20140E-03
         0.10527E-02
         0.18421E-02
         0.24568E-02
         0.26036E-02
         0.37964E-02
         0.39100E-02
         0.34621E-02
         0.29267E-02
         0.22211E-02
         0.13865E-02
         0.47130E-03
        -0.47130E-03
        -0.13865E-02
        -0.22211E-02
        -0.29267E-02
        -0.34621E-02
        -0.37964E-02
        -0.39100E-02
        -0.37964E-02
        -0.34621E-02
        -0.29267E-02
        -0.22211E-02
        -0.13865E-02
        -0.47130E-03
         0.47130E-03
         0.13865E-02
         0.22211E-02
         0.29267E-02
         0.34621E-02
         0.37964E-02
         0.10355E-02
         0.17416E-02
         0.23152E-02
         0.16655E-02
         0.30372E-02
         0.27860E-02
         0.12829E-02
         0.64649E-03
         0.12232E-03
        -0.13193E-03
         0.93837E-03
         0.11259E-02
         0.17412E-02
         0.40480E-03
         0.39745E-03
        -0.77011E-03
        -0.86822E-03
         0.45223E-03
        -0.18359E-02
        -0.18421E-02
        -0.27232E-02
        -0.27973E-02
        -0.25396E-02
        -0.19373E-02
        -0.99075E-03
        -0.14450E-02
        -0.31173E-03
        -0.10999E-02
        -0.18835E-02
        -0.18687E-02
        -0.16421E-03
        -0.95285E-03
         0.77535E-03
         0.17202E-02
         0.32115E-02
         0.28041E-02
         0.23037E-02
        -0.40338E-03
        -0.12093E-02
        -0.19440E-02
        -0.25023E-02
        -0.26353E-02
        -0.27609E-02
        -0.21151E-02
        -0.16096E-02
        -0.11962E-02
        -0.59340E-03
         0.20099E-03
         0.10524E-02
         0.18422E-02
         0.24569E-02
         0.26036E-02
         0.37964E-02
         0.39100E-02
         0.34621E-02
         0.29267E-02
         0.22211E-02
         0.13865E-02
         0.47130E-03
        -0.47130E-03
        -0.13865E-02
        -0.22211E-02
        -0.29267E-02
        -0.34621E-02
        -0.37964E-02
        -0.39100E-02
        -0.37964E-02
        -0.34621E-02
        -0.29267E-02
        -0.22211E-02
        -0.13865E-02
        -0.47130E-03
         0.47130E-03
         0.13865E-02
         0.22211E-02
         0.29267E-02
         0.34621E-02
         0.37964E-02
         0.10354E-02
         0.17414E-02
         0.23151E-02
         0.16653E-02
         0.30372E-02
         0.27863E-02
         0.12829E-02
         0.64624E-03
         0.12206E-03
        -0.13211E-03
         0.93804E-03
         0.11255E-02
         0.17408E-02
         0.40474E-03
         0.39744E-03
        -0.77046E-03
        -0.86832E-03
         0.45179E-03
        -0.18362E-02
        -0.18420E-02
        -0.27232E-02
        -0.27970E-02
        -0.25397E-02
        -0.19377E-02
        -0.99061E-03
        -0.14453E-02
        -0.31153E-03
        -0.10995E-02
        -0.18834E-02
        -0.18686E-02
        -0.16449E-03
        -0.95345E-03
         0.77469E-03
         0.17202E-02
         0.32119E-02
         0.28041E-02
         0.23036E-02
        -0.40324E-03
        -0.12093E-02
        -0.19440E-02
        -0.25022E-02
        -0.26352E-02
        -0.27606E-02
        -0.21152E-02
        -0.16096E-02
        -0.11963E-02
        -0.59375E-03
         0.20059E-03
         0.10521E-02
         0.18422E-02
         0.24570E-02
         0.26037E-02
         0.37964E-02
         0.39100E-02
         0.34621E-02
         0.29267E-02
         0.22211E-02
         0.13865E-02
         0.47130E-03
        -0.47130E-03
        -0.13865E-02
        -0.22211E-02
        -0.29267E-02
        -0.34621E-02
        -0.37964E-02
        -0.39100E-02
        -0.37964E-02
        -0.34621E-02
        -0.29267E-02
        -0.22211E-02
        -0.13865E-02
        -0.47130E-03
         0.47130E-03
         0.13865E-02
         0.22211E-02
         0.29267E-02
         0.34621E-02
         0.37964E-02
         0.10352E-02
         0.17413E-02
         0.23150E-02
         0.16651E-02
         0.30371E-02
         0.27866E-02
         0.12827E-02
         0.64600E-03
         0.12180E-03
        -0.13230E-03
         0.93771E-03
         0.11252E-02
         0.17404E-02
         0.40469E-03
         0.39742E-03
        -0.77081E-03
        -0.86843E-03
         0.45134E-03
        -0.18365E-02
        -0.18419E-02
        -0.27232E-02
        -0.27968E-02
        -0.25399E-02
        -0.19382E-02
        -0.99046E-03
        -0.14457E-02
        -0.31133E-03
        -0.10992E-02
        -0.18834E-02
        -0.18685E-02
        -0.16476E-03
        -0.95405E-03
         0.77402E-03
         0.17202E-02
         0.32122E-02
         0.28041E-02
         0.23034E-02
        -0.40310E-03
        -0.12093E-02
        -0.19440E-02
        -0.25022E-02
        -0.26351E-02
        -0.27602E-02
        -0.21154E-02
        -0.16097E-02
        -0.11964E-02
        -0.59409E-03
         0.20018E-03
         0.10518E-02
         0.18422E-02
         0.24571E-02
         0.26038E-02
         0.37964E-02
         0.39100E-02
         0.34621E-02
         0.29267E-02
         0.22211E-02
         0.13865E-02
         0.47130E-03
        -0.47130E-03
        -0.13865E-02
        -0.22211E-02
        -0.29267E-02
        -0.34621E-02
        -0.37964E-02
        -0.39100E-02
        -0.37964E-02
        -0.34621E-02
        -0.29267E-02
        -0.22211E-02
        -0.13865E-02
        -0.47130E-03
         0.47130E-03
         0.13865E-02
         0.22211E-02
         0.29267E-02
         0.34621E-02
         0.37964E-02
         0.10351E-02
         0.17411E-02
         0.23149E-02
         0.16649E-02
         0.30371E-02
         0.27870E-02
         0.12826E-02
         0.64575E-03
         0.12154E-03
        -0.13248E-03
         0.93738E-03
         0.11249E-02
         0.17400E-02
         0.40463E-03
         0.39740E-03
        -0.77117E-03
        -0.86854E-03
         0.45089E-03
        -0.18368E-02
        -0.18418E-02
        -0.27232E-02
        -0.27965E-02
        -0.25400E-02
        -0.19386E-02
        -0.99032E-03
        -0.14460E-02
        -0.31113E-03
        -0.10988E-02
        -0.18833E-02
        -0.18683E-02
        -0.16504E-03
        -0.95465E-03
         0.77336E-03
         0.17201E-02
         0.32125E-02
         0.28041E-02
         0.23033E-02
        -0.40296E-03
        -0.12093E-02
        -0.19439E-02
        -0.25022E-02
        -0.26350E-02
        -0.27599E-02
        -0.21155E-02
        -0.16097E-02
        -0.11965E-02
        -0.59444E-03
         0.19977E-03
         0.10515E-02
         0.18423E-02
         0.24573E-02
         0.26039E-02
         0.37964E-02
         0.39100E-02
         0.34621E-02
         0.29267E-02
         0.22211E-02
         0.13865E-02
         0.47130E-03
        -0.47130E-03
        -0.13865E-02
        -0.22211E-02
        -0.29267E-02
        -0.34621E-02
        -0.37964E-02
        -0.39100E-02
        -0.37964E-02
        -0.34621E-02
        -0.29267E-02
        -0.22211E-02
        -0.13865E-02
        -0.47130E-03
         0.47130E-03
         0.13865E-02
         0.22211E-02
         0.29267E-02
         0.34621E-02
         0.37964E-02
  
SCALARS           initial_coordinate_y  double 1
LOOKUP_TABLE default
         0.67292E-03
         0.12308E-02
         0.59151E-03
        -0.33775E-03
         0.67237E-03
         0.12301E-02
         0.59098E-03
        -0.33851E-03
         0.14882E-03
        -0.67643E-03
         0.14846E-03
        -0.67692E-03
         0.18412E-02
         0.14576E-02
         0.18410E-02
         0.14566E-02
         0.29933E-03
         0.11672E-02
         0.29819E-03
         0.11655E-02
         0.22748E-02
         0.28286E-02
         0.24238E-02
         0.22746E-02
         0.28291E-02
         0.24236E-02
         0.21685E-02
         0.29366E-02
         0.21684E-02
         0.29369E-02
        -0.10033E-02
         0.78969E-04
        -0.70318E-03
        -0.10032E-02
         0.78160E-04
        -0.70391E-03
        -0.71196E-03
         0.82749E-04
        -0.71210E-03
         0.82626E-04
        -0.77865E-03
         0.40713E-04
        -0.77882E-03
         0.40439E-04
        -0.15195E-02
        -0.13230E-02
        -0.15195E-02
        -0.13231E-02
         0.98847E-03
         0.98712E-03
        -0.17325E-02
        -0.17325E-02
         0.20220E-02
         0.20217E-02
         0.18615E-02
         0.18616E-02
         0.17175E-02
         0.90940E-03
         0.17175E-02
         0.90916E-03
        -0.19800E-02
        -0.23489E-02
        -0.19800E-02
        -0.23489E-02
        -0.17074E-02
        -0.17074E-02
        -0.14894E-02
        -0.14892E-02
         0.76036E-03
         0.12477E-02
         0.75936E-03
         0.12473E-02
         0.18665E-02
         0.18664E-02
         0.29038E-02
         0.29049E-02
         0.27207E-02
         0.27212E-02
         0.24642E-02
         0.24645E-02
         0.22359E-02
         0.16503E-02
         0.22359E-02
         0.16503E-02
         0.87493E-03
         0.87466E-03
        -0.21373E-02
        -0.21373E-02
        -0.26931E-02
        -0.26931E-02
        -0.31291E-02
        -0.30382E-02
        -0.31291E-02
        -0.30382E-02
        -0.28748E-02
        -0.28748E-02
        -0.26423E-02
        -0.26420E-02
        -0.23707E-02
        -0.23705E-02
        -0.21445E-02
        -0.15105E-02
        -0.21439E-02
        -0.15106E-02
         0.93572E-03
         0.00000E+00
         0.93572E-03
         0.00000E+00
         0.18171E-02
         0.18171E-02
         0.25928E-02
         0.25928E-02
         0.32179E-02
         0.32179E-02
         0.36559E-02
         0.36559E-02
         0.38815E-02
         0.38815E-02
         0.38815E-02
         0.38815E-02
         0.36559E-02
         0.36559E-02
         0.32179E-02
         0.32179E-02
         0.25928E-02
         0.25928E-02
         0.18171E-02
         0.18171E-02
         0.93572E-03
         0.93572E-03
         0.22152E-17
        -0.47884E-18
        -0.93572E-03
        -0.93572E-03
        -0.18171E-02
        -0.18171E-02
        -0.25928E-02
        -0.25928E-02
        -0.32179E-02
        -0.32179E-02
        -0.36559E-02
        -0.36559E-02
        -0.38815E-02
        -0.38815E-02
        -0.38815E-02
        -0.38815E-02
        -0.36559E-02
        -0.36559E-02
        -0.32179E-02
        -0.32179E-02
        -0.25928E-02
        -0.25928E-02
        -0.18171E-02
        -0.18171E-02
        -0.93572E-03
        -0.93572E-03
         0.67348E-03
         0.12314E-02
         0.59203E-03
        -0.33700E-03
         0.14918E-03
        -0.67594E-03
         0.18414E-02
         0.14586E-02
         0.30048E-03
         0.11690E-02
         0.22749E-02
         0.28282E-02
         0.24239E-02
         0.21685E-02
         0.29364E-02
        -0.10035E-02
         0.79778E-04
        -0.70245E-03
        -0.71182E-03
         0.82873E-04
        -0.77848E-03
         0.40986E-04
        -0.15194E-02
        -0.13228E-02
         0.98983E-03
        -0.17324E-02
         0.20223E-02
         0.18614E-02
         0.17175E-02
         0.90964E-03
        -0.19800E-02
        -0.23489E-02
        -0.17074E-02
        -0.14896E-02
         0.76137E-03
         0.12481E-02
         0.18665E-02
         0.29027E-02
         0.27202E-02
         0.24640E-02
         0.22359E-02
         0.16503E-02
         0.87519E-03
        -0.21373E-02
        -0.26932E-02
        -0.31291E-02
        -0.30382E-02
        -0.28748E-02
        -0.26426E-02
        -0.23709E-02
        -0.21450E-02
        -0.15104E-02
         0.93572E-03
         0.00000E+00
         0.18171E-02
         0.25928E-02
         0.32179E-02
         0.36559E-02
         0.38815E-02
         0.38815E-02
         0.36559E-02
         0.32179E-02
         0.25928E-02
         0.18171E-02
         0.93572E-03
        -0.47884E-18
        -0.93572E-03
        -0.18171E-02
        -0.25928E-02
        -0.32179E-02
        -0.36559E-02
        -0.38815E-02
        -0.38815E-02
        -0.36559E-02
        -0.32179E-02
        -0.25928E-02
        -0.18171E-02
        -0.93572E-03
         0.67403E-03
         0.12321E-02
         0.59255E-03
        -0.33624E-03
         0.14955E-03
        -0.67544E-03
         0.18415E-02
         0.14596E-02
         0.30163E-03
         0.11707E-02
         0.22750E-02
         0.28277E-02
         0.24241E-02
         0.21685E-02
         0.29361E-02
        -0.10036E-02
         0.80588E-04
        -0.70173E-03
        -0.71168E-03
         0.82996E-04
        -0.77831E-03
         0.41259E-04
        -0.15194E-02
        -0.13227E-02
         0.99119E-03
        -0.17324E-02
         0.20226E-02
         0.18613E-02
         0.17175E-02
         0.90988E-03
        -0.19801E-02
        -0.23490E-02
        -0.17074E-02
        -0.14899E-02
         0.76237E-03
         0.12485E-02
         0.18666E-02
         0.29017E-02
         0.27198E-02
         0.24638E-02
         0.22359E-02
         0.16503E-02
         0.87545E-03
        -0.21374E-02
        -0.26932E-02
        -0.31291E-02
        -0.30382E-02
        -0.28748E-02
        -0.26428E-02
        -0.23711E-02
        -0.21456E-02
        -0.15103E-02
         0.93572E-03
         0.00000E+00
         0.18171E-02
         0.25928E-02
         0.32179E-02
         0.36559E-02
         0.38815E-02
         0.38815E-02
         0.36559E-02
         0.32179E-02
         0.25928E-02
         0.18171E-02
         0.93572E-03
         0.39516E-17
        -0.93572E-03
        -0.18171E-02
        -0.25928E-02
        -0.32179E-02
        -0.36559E-02
        -0.38815E-02
        -0.38815E-02
        -0.36559E-02
        -0.32179E-02
        -0.25928E-02
        -0.18171E-02
        -0.93572E-03
         0.67459E-03
         0.12328E-02
         0.59308E-03
        -0.33549E-03
         0.14991E-03
        -0.67495E-03
         0.18417E-02
         0.14606E-02
         0.30278E-03
         0.11725E-02
         0.22752E-02
         0.28273E-02
         0.24242E-02
         0.21686E-02
         0.29359E-02
        -0.10038E-02
         0.81397E-04
        -0.70100E-03
        -0.71154E-03
         0.83120E-04
        -0.77814E-03
         0.41533E-04
        -0.15193E-02
        -0.13227E-02
         0.99254E-03
        -0.17324E-02
         0.20228E-02
         0.18611E-02
         0.17175E-02
         0.91012E-03
        -0.19801E-02
        -0.23490E-02
        -0.17074E-02
        -0.14901E-02
         0.76338E-03
         0.12490E-02
         0.18666E-02
         0.29006E-02
         0.27193E-02
         0.24636E-02
         0.22359E-02
         0.16503E-02
         0.87571E-03
        -0.21374E-02
        -0.26932E-02
        -0.31291E-02
        -0.30382E-02
        -0.28748E-02
        -0.26431E-02
        -0.23713E-02
        -0.21461E-02
        -0.15102E-02
         0.93572E-03
         0.00000E+00
         0.18171E-02
         0.25928E-02
         0.32179E-02
         0.36559E-02
         0.38815E-02
         0.38815E-02
         0.36559E-02
         0.32179E-02
         0.25928E-02
         0.18171E-02
         0.93572E-03
        -0.47884E-18
        -0.93572E-03
        -0.18171E-02
        -0.25928E-02
        -0.32179E-02
        -0.36559E-02
        -0.38815E-02
        -0.38815E-02
        -0.36559E-02
        -0.32179E-02
        -0.25928E-02
        -0.18171E-02
        -0.93572E-03
         0.67514E-03
         0.12334E-02
         0.59360E-03
        -0.33474E-03
         0.15027E-03
        -0.67446E-03
         0.18419E-02
         0.14616E-02
         0.30393E-03
         0.11742E-02
         0.22753E-02
         0.28269E-02
         0.24244E-02
         0.21686E-02
         0.29356E-02
        -0.10039E-02
         0.82206E-04
        -0.70028E-03
        -0.71140E-03
         0.83243E-04
        -0.77797E-03
         0.41806E-04
        -0.15193E-02
        -0.13226E-02
         0.99390E-03
        -0.17323E-02
         0.20231E-02
         0.18610E-02
         0.17175E-02
         0.91036E-03
        -0.19801E-02
        -0.23490E-02
        -0.17074E-02
        -0.14904E-02
         0.76439E-03
         0.12494E-02
         0.18666E-02
         0.28995E-02
         0.27188E-02
         0.24633E-02
         0.22359E-02
         0.16503E-02
         0.87597E-03
        -0.21374E-02
        -0.26932E-02
        -0.31291E-02
        -0.30382E-02
        -0.28748E-02
        -0.26434E-02
        -0.23715E-02
        -0.21467E-02
        -0.15101E-02
         0.93572E-03
         0.00000E+00
         0.18171E-02
         0.25928E-02
         0.32179E-02
         0.36559E-02
         0.38815E-02
         0.38815E-02
         0.36559E-02
         0.32179E-02
         0.25928E-02
         0.18171E-02
         0.93572E-03
        -0.47884E-18
        -0.93572E-03
        -0.18171E-02
        -0.25928E-02
        -0.32179E-02
        -0.36559E-02
        -0.38815E-02
        -0.38815E-02
        -0.36559E-02
        -0.32179E-02
        -0.25928E-02
        -0.18171E-02
        -0.93572E-03
         0.67570E-03
         0.12341E-02
         0.59412E-03
        -0.33398E-03
         0.15064E-03
        -0.67396E-03
         0.18421E-02
         0.14626E-02
         0.30507E-03
         0.11760E-02
         0.22754E-02
         0.28264E-02
         0.24245E-02
         0.21686E-02
         0.29353E-02
        -0.10040E-02
         0.83015E-04
        -0.69955E-03
        -0.71126E-03
         0.83367E-04
        -0.77780E-03
         0.42080E-04
        -0.15192E-02
        -0.13224E-02
         0.99526E-03
        -0.17323E-02
         0.20234E-02
         0.18609E-02
         0.17175E-02
         0.91060E-03
        -0.19801E-02
        -0.23490E-02
        -0.17074E-02
        -0.14906E-02
         0.76539E-03
         0.12498E-02
         0.18667E-02
         0.28984E-02
         0.27184E-02
         0.24631E-02
         0.22359E-02
         0.16503E-02
         0.87623E-03
        -0.21374E-02
        -0.26932E-02
        -0.31291E-02
        -0.30382E-02
        -0.28748E-02
        -0.26436E-02
        -0.23717E-02
        -0.21472E-02
        -0.15100E-02
         0.93572E-03
         0.00000E+00
         0.18171E-02
         0.25928E-02
         0.32179E-02
         0.36559E-02
         0.38815E-02
         0.38815E-02
         0.36559E-02
         0.32179E-02
         0.25928E-02
         0.18171E-02
         0.93572E-03
        -0.47884E-18
        -0.93572E-03
        -0.18171E-02
        -0.25928E-02
        -0.32179E-02
        -0.36559E-02
        -0.38815E-02
        -0.38815E-02
        -0.36559E-02
        -0.32179E-02
        -0.25928E-02
        -0.18171E-02
        -0.93572E-03
         0.67625E-03
         0.12348E-02
         0.59465E-03
        -0.33323E-03
         0.15100E-03
        -0.67347E-03
         0.18423E-02
         0.14636E-02
         0.30622E-03
         0.11777E-02
         0.22755E-02
         0.28260E-02
         0.24247E-02
         0.21687E-02
         0.29351E-02
        -0.10042E-02
         0.83825E-04
        -0.69882E-03
        -0.71112E-03
         0.83490E-04
        -0.77763E-03
         0.42353E-04
        -0.15192E-02
        -0.13223E-02
         0.99661E-03
        -0.17322E-02
         0.20237E-02
         0.18607E-02
         0.17175E-02
         0.91084E-03
        -0.19801E-02
        -0.23491E-02
        -0.17074E-02
        -0.14909E-02
         0.76640E-03
         0.12503E-02
         0.18667E-02
         0.28974E-02
         0.27179E-02
         0.24629E-02
         0.22359E-02
         0.16503E-02
         0.87650E-03
        -0.21374E-02
        -0.26933E-02
        -0.31291E-02
        -0.30382E-02
        -0.28749E-02
        -0.26439E-02
        -0.23719E-02
        -0.21478E-02
        -0.15099E-02
         0.93572E-03
         0.00000E+00
         0.18171E-02
         0.25928E-02
         0.32179E-02
         0.36559E-02
         0.38815E-02
         0.38815E-02
         0.36559E-02
         0.32179E-02
         0.25928E-02
         0.18171E-02
         0.93572E-03
        -0.47884E-18
        -0.93572E-03
        -0.18171E-02
        -0.25928E-02
        -0.32179E-02
        -0.36559E-02
        -0.38815E-02
        -0.38815E-02
        -0.36559E-02
        -0.32179E-02
        -0.25928E-02
        -0.18171E-02
        -0.93572E-03
         0.67680E-03
         0.12354E-02
         0.59517E-03
        -0.33247E-03
         0.15136E-03
        -0.67298E-03
         0.18425E-02
         0.14646E-02
         0.30737E-03
         0.11795E-02
         0.22757E-02
         0.28255E-02
         0.24248E-02
         0.21687E-02
         0.29348E-02
        -0.10043E-02
         0.84634E-04
        -0.69810E-03
        -0.71098E-03
         0.83614E-04
        -0.77746E-03
         0.42626E-04
        -0.15191E-02
        -0.13223E-02
         0.99797E-03
        -0.17322E-02
         0.20240E-02
         0.18606E-02
         0.17175E-02
         0.91108E-03
        -0.19802E-02
        -0.23491E-02
        -0.17074E-02
        -0.14911E-02
         0.76740E-03
         0.12507E-02
         0.18668E-02
         0.28963E-02
         0.27174E-02
         0.24627E-02
         0.22358E-02
         0.16503E-02
         0.87676E-03
        -0.21374E-02
        -0.26933E-02
        -0.31291E-02
        -0.30382E-02
        -0.28749E-02
        -0.26442E-02
        -0.23721E-02
        -0.21483E-02
        -0.15097E-02
         0.93572E-03
         0.00000E+00
         0.18171E-02
         0.25928E-02
         0.32179E-02
         0.36559E-02
         0.38815E-02
         0.38815E-02
         0.36559E-02
         0.32179E-02
         0.25928E-02
         0.18171E-02
         0.93572E-03
        -0.47884E-18
        -0.93572E-03
        -0.18171E-02
        -0.25928E-02
        -0.32179E-02
        -0.36559E-02
        -0.38815E-02
        -0.38815E-02
        -0.36559E-02
        -0.32179E-02
        -0.25928E-02
        -0.18171E-02
        -0.93572E-03
         0.67736E-03
         0.12361E-02
         0.59570E-03
        -0.33172E-03
         0.15173E-03
        -0.67248E-03
         0.18427E-02
         0.14656E-02
         0.30852E-03
         0.11812E-02
         0.22758E-02
         0.28251E-02
         0.24249E-02
         0.21688E-02
         0.29345E-02
        -0.10044E-02
         0.85443E-04
        -0.69737E-03
        -0.71084E-03
         0.83737E-04
        -0.77729E-03
         0.42899E-04
        -0.15191E-02
        -0.13222E-02
         0.99932E-03
        -0.17322E-02
         0.20243E-02
         0.18605E-02
         0.17175E-02
         0.91132E-03
        -0.19802E-02
        -0.23491E-02
        -0.17074E-02
        -0.14914E-02
         0.76841E-03
         0.12511E-02
         0.18668E-02
         0.28952E-02
         0.27170E-02
         0.24624E-02
         0.22358E-02
         0.16503E-02
         0.87702E-03
        -0.21374E-02
        -0.26933E-02
        -0.31291E-02
        -0.30382E-02
        -0.28749E-02
        -0.26444E-02
        -0.23723E-02
        -0.21489E-02
        -0.15096E-02
         0.93572E-03
         0.00000E+00
         0.18171E-02
         0.25928E-02
         0.32179E-02
         0.36559E-02
         0.38815E-02
         0.38815E-02
         0.36559E-02
         0.32179E-02
         0.25928E-02
         0.18171E-02
         0.93572E-03
        -0.47884E-18
        -0.93572E-03
        -0.18171E-02
        -0.25928E-02
        -0.32179E-02
        -0.36559E-02
        -0.38815E-02
        -0.38815E-02
        -0.36559E-02
        -0.32179E-02
        -0.25928E-02
        -0.18171E-02
        -0.93572E-03
         0.67791E-03
         0.12368E-02
         0.59622E-03
        -0.33096E-03
         0.15209E-03
        -0.67199E-03
         0.18429E-02
         0.14666E-02
         0.30967E-03
         0.11830E-02
         0.22759E-02
         0.28247E-02
         0.24251E-02
         0.21688E-02
         0.29343E-02
        -0.10046E-02
         0.86253E-04
        -0.69665E-03
        -0.71070E-03
         0.83861E-04
        -0.77712E-03
         0.43173E-04
        -0.15190E-02
        -0.13220E-02
         0.10007E-02
        -0.17321E-02
         0.20245E-02
         0.18603E-02
         0.17175E-02
         0.91156E-03
        -0.19802E-02
        -0.23491E-02
        -0.17074E-02
        -0.14916E-02
         0.76941E-03
         0.12515E-02
         0.18668E-02
         0.28942E-02
         0.27165E-02
         0.24622E-02
         0.22358E-02
         0.16503E-02
         0.87728E-03
        -0.21374E-02
        -0.26933E-02
        -0.31291E-02
        -0.30382E-02
        -0.28749E-02
        -0.26447E-02
        -0.23725E-02
        -0.21494E-02
        -0.15095E-02
         0.93572E-03
         0.00000E+00
         0.18171E-02
         0.25928E-02
         0.32179E-02
         0.36559E-02
         0.38815E-02
         0.38815E-02
         0.36559E-02
         0.32179E-02
         0.25928E-02
         0.18171E-02
         0.93572E-03
        -0.47884E-18
        -0.93572E-03
        -0.18171E-02
        -0.25928E-02
        -0.32179E-02
        -0.36559E-02
        -0.38815E-02
        -0.38815E-02
        -0.36559E-02
        -0.32179E-02
        -0.25928E-02
        -0.18171E-02
        -0.93572E-03
         0.67847E-03
         0.12374E-02
         0.59674E-03
        -0.33021E-03
         0.15245E-03
        -0.67150E-03
         0.18430E-02
         0.14676E-02
         0.31081E-03
         0.11847E-02
         0.22761E-02
         0.28242E-02
         0.24252E-02
         0.21688E-02
         0.29340E-02
        -0.10047E-02
         0.87062E-04
        -0.69592E-03
        -0.71056E-03
         0.83985E-04
        -0.77695E-03
         0.43446E-04
        -0.15190E-02
        -0.13219E-02
         0.10020E-02
        -0.17321E-02
         0.20248E-02
         0.18602E-02
         0.17175E-02
         0.91180E-03
        -0.19803E-02
        -0.23491E-02
        -0.17073E-02
        -0.14919E-02
         0.77042E-03
         0.12520E-02
         0.18669E-02
         0.28931E-02
         0.27160E-02
         0.24620E-02
         0.22358E-02
         0.16503E-02
         0.87754E-03
        -0.21374E-02
        -0.26933E-02
        -0.31291E-02
        -0.30382E-02
        -0.28749E-02
        -0.26450E-02
        -0.23727E-02
        -0.21500E-02
        -0.15094E-02
         0.93572E-03
         0.00000E+00
         0.18171E-02
         0.25928E-02
         0.32179E-02
         0.36559E-02
         0.38815E-02
         0.38815E-02
         0.36559E-02
         0.32179E-02
         0.25928E-02
         0.18171E-02
         0.93572E-03
         0.39516E-17
        -0.93572E-03
        -0.18171E-02
        -0.25928E-02
        -0.32179E-02
        -0.36559E-02
        -0.38815E-02
        -0.38815E-02
        -0.36559E-02
        -0.32179E-02
        -0.25928E-02
        -0.18171E-02
        -0.93572E-03
         0.67902E-03
         0.12381E-02
         0.59727E-03
        -0.32945E-03
         0.15282E-03
        -0.67100E-03
         0.18432E-02
         0.14686E-02
         0.31196E-03
         0.11865E-02
         0.22762E-02
         0.28238E-02
         0.24254E-02
         0.21688E-02
         0.29337E-02
        -0.10049E-02
         0.87871E-04
        -0.69519E-03
        -0.71042E-03
         0.84108E-04
        -0.77678E-03
         0.43720E-04
        -0.15189E-02
        -0.13219E-02
         0.10034E-02
        -0.17320E-02
         0.20251E-02
         0.18601E-02
         0.17175E-02
         0.91204E-03
        -0.19803E-02
        -0.23492E-02
        -0.17073E-02
        -0.14921E-02
         0.77142E-03
         0.12524E-02
         0.18669E-02
         0.28920E-02
         0.27155E-02
         0.24618E-02
         0.22358E-02
         0.16503E-02
         0.87781E-03
        -0.21374E-02
        -0.26934E-02
        -0.31291E-02
        -0.30382E-02
        -0.28749E-02
        -0.26452E-02
        -0.23729E-02
        -0.21505E-02
        -0.15093E-02
         0.93572E-03
         0.00000E+00
         0.18171E-02
         0.25928E-02
         0.32179E-02
         0.36559E-02
         0.38815E-02
         0.38815E-02
         0.36559E-02
         0.32179E-02
         0.25928E-02
         0.18171E-02
         0.93572E-03
        -0.47884E-18
        -0.93572E-03
        -0.18171E-02
        -0.25928E-02
        -0.32179E-02
        -0.36559E-02
        -0.38815E-02
        -0.38815E-02
        -0.36559E-02
        -0.32179E-02
        -0.25928E-02
        -0.18171E-02
        -0.93572E-03
         0.67958E-03
         0.12387E-02
         0.59779E-03
        -0.32870E-03
         0.15318E-03
        -0.67051E-03
         0.18434E-02
         0.14696E-02
         0.31311E-03
         0.11882E-02
         0.22763E-02
         0.28233E-02
         0.24255E-02
         0.21689E-02
         0.29335E-02
        -0.10050E-02
         0.88681E-04
        -0.69447E-03
        -0.71028E-03
         0.84232E-04
        -0.77661E-03
         0.43993E-04
        -0.15189E-02
        -0.13218E-02
         0.10048E-02
        -0.17320E-02
         0.20254E-02
         0.18599E-02
         0.17175E-02
         0.91228E-03
        -0.19803E-02
        -0.23492E-02
        -0.17073E-02
        -0.14923E-02
         0.77243E-03
         0.12528E-02
         0.18670E-02
         0.28910E-02
         0.27151E-02
         0.24615E-02
         0.22358E-02
         0.16503E-02
         0.87807E-03
        -0.21374E-02
        -0.26934E-02
        -0.31291E-02
        -0.30382E-02
        -0.28749E-02
        -0.26455E-02
        -0.23732E-02
        -0.21511E-02
        -0.15092E-02
         0.93572E-03
         0.00000E+00
         0.18171E-02
         0.25928E-02
         0.32179E-02
         0.36559E-02
         0.38815E-02
         0.38815E-02
         0.36559E-02
         0.32179E-02
         0.25928E-02
         0.18171E-02
         0.93572E-03
         0.22152E-17
        -0.93572E-03
        -0.18171E-02
        -0.25928E-02
        -0.32179E-02
        -0.36559E-02
        -0.38815E-02
        -0.38815E-02
        -0.36559E-02
        -0.32179E-02
        -0.25928E-02
        -0.18171E-02
        -0.93572E-03
         0.68013E-03
         0.12394E-02
         0.59831E-03
        -0.32794E-03
         0.15354E-03
        -0.67002E-03
         0.18436E-02
         0.14706E-02
         0.31426E-03
         0.11900E-02
         0.22765E-02
         0.28229E-02
         0.24257E-02
         0.21689E-02
         0.29332E-02
        -0.10051E-02
         0.89490E-04
        -0.69374E-03
        -0.71013E-03
         0.84355E-04
        -0.77644E-03
         0.44266E-04
        -0.15188E-02
        -0.13216E-02
         0.10061E-02
        -0.17320E-02
         0.20257E-02
         0.18598E-02
         0.17175E-02
         0.91252E-03
        -0.19803E-02
        -0.23492E-02
        -0.17073E-02
        -0.14926E-02
         0.77343E-03
         0.12533E-02
         0.18670E-02
         0.28899E-02
         0.27146E-02
         0.24613E-02
         0.22358E-02
         0.16503E-02
         0.87833E-03
        -0.21374E-02
        -0.26934E-02
        -0.31291E-02
        -0.30382E-02
        -0.28750E-02
        -0.26458E-02
        -0.23734E-02
        -0.21516E-02
        -0.15091E-02
         0.93572E-03
         0.00000E+00
         0.18171E-02
         0.25928E-02
         0.32179E-02
         0.36559E-02
         0.38815E-02
         0.38815E-02
         0.36559E-02
         0.32179E-02
         0.25928E-02
         0.18171E-02
         0.93572E-03
        -0.47884E-18
        -0.93572E-03
        -0.18171E-02
        -0.25928E-02
        -0.32179E-02
        -0.36559E-02
        -0.38815E-02
        -0.38815E-02
        -0.36559E-02
        -0.32179E-02
        -0.25928E-02
        -0.18171E-02
        -0.93572E-03
         0.68068E-03
         0.12401E-02
         0.59884E-03
        -0.32719E-03
         0.15391E-03
        -0.66953E-03
         0.18438E-02
         0.14716E-02
         0.31541E-03
         0.11917E-02
         0.22766E-02
         0.28225E-02
         0.24258E-02
         0.21690E-02
         0.29330E-02
        -0.10053E-02
         0.90299E-04
        -0.69302E-03
        -0.70999E-03
         0.84479E-04
        -0.77627E-03
         0.44540E-04
        -0.15188E-02
        -0.13215E-02
         0.10075E-02
        -0.17319E-02
         0.20260E-02
         0.18597E-02
         0.17175E-02
         0.91276E-03
        -0.19804E-02
        -0.23493E-02
        -0.17073E-02
        -0.14928E-02
         0.77444E-03
         0.12537E-02
         0.18670E-02
         0.28888E-02
         0.27141E-02
         0.24611E-02
         0.22358E-02
         0.16503E-02
         0.87859E-03
        -0.21374E-02
        -0.26934E-02
        -0.31291E-02
        -0.30382E-02
        -0.28750E-02
        -0.26460E-02
        -0.23736E-02
        -0.21521E-02
        -0.15090E-02
         0.93572E-03
         0.00000E+00
         0.18171E-02
         0.25928E-02
         0.32179E-02
         0.36559E-02
         0.38815E-02
         0.38815E-02
         0.36559E-02
         0.32179E-02
         0.25928E-02
         0.18171E-02
         0.93572E-03
         0.22152E-17
        -0.93572E-03
        -0.18171E-02
        -0.25928E-02
        -0.32179E-02
        -0.36559E-02
        -0.38815E-02
        -0.38815E-02
        -0.36559E-02
        -0.32179E-02
        -0.25928E-02
        -0.18171E-02
        -0.93572E-03
         0.68124E-03
         0.12407E-02
         0.59936E-03
        -0.32643E-03
         0.15427E-03
        -0.66903E-03
         0.18440E-02
         0.14727E-02
         0.31656E-03
         0.11935E-02
         0.22767E-02
         0.28220E-02
         0.24260E-02
         0.21690E-02
         0.29327E-02
        -0.10054E-02
         0.91108E-04
        -0.69229E-03
        -0.70985E-03
         0.84602E-04
        -0.77610E-03
         0.44813E-04
        -0.15187E-02
        -0.13215E-02
         0.10088E-02
        -0.17319E-02
         0.20262E-02
         0.18595E-02
         0.17175E-02
         0.91300E-03
        -0.19804E-02
        -0.23493E-02
        -0.17073E-02
        -0.14931E-02
         0.77544E-03
         0.12541E-02
         0.18671E-02
         0.28877E-02
         0.27137E-02
         0.24609E-02
         0.22358E-02
         0.16503E-02
         0.87885E-03
        -0.21374E-02
        -0.26934E-02
        -0.31291E-02
        -0.30382E-02
        -0.28750E-02
        -0.26463E-02
        -0.23738E-02
        -0.21527E-02
        -0.15088E-02
         0.93572E-03
         0.00000E+00
         0.18171E-02
         0.25928E-02
         0.32179E-02
         0.36559E-02
         0.38815E-02
         0.38815E-02
         0.36559E-02
         0.32179E-02
         0.25928E-02
         0.18171E-02
         0.93572E-03
        -0.47884E-18
        -0.93572E-03
        -0.18171E-02
        -0.25928E-02
        -0.32179E-02
        -0.36559E-02
        -0.38815E-02
        -0.38815E-02
        -0.36559E-02
        -0.32179E-02
        -0.25928E-02
        -0.18171E-02
        -0.93572E-03
         0.68179E-03
         0.12414E-02
         0.59988E-03
        -0.32568E-03
         0.15463E-03
        -0.66854E-03
         0.18442E-02
         0.14736E-02
         0.31770E-03
         0.11952E-02
         0.22768E-02
         0.28216E-02
         0.24261E-02
         0.21690E-02
         0.29324E-02
        -0.10056E-02
         0.91918E-04
        -0.69156E-03
        -0.70971E-03
         0.84726E-04
        -0.77593E-03
         0.45086E-04
        -0.15187E-02
        -0.13213E-02
         0.10102E-02
        -0.17318E-02
         0.20265E-02
         0.18594E-02
         0.17175E-02
         0.91324E-03
        -0.19804E-02
        -0.23493E-02
        -0.17073E-02
        -0.14933E-02
         0.77645E-03
         0.12545E-02
         0.18671E-02
         0.28867E-02
         0.27132E-02
         0.24606E-02
         0.22358E-02
         0.16503E-02
         0.87912E-03
        -0.21374E-02
        -0.26935E-02
        -0.31291E-02
        -0.30381E-02
        -0.28750E-02
        -0.26466E-02
        -0.23740E-02
        -0.21533E-02
        -0.15087E-02
         0.93572E-03
         0.00000E+00
         0.18171E-02
         0.25928E-02
         0.32179E-02
         0.36559E-02
         0.38815E-02
         0.38815E-02
         0.36559E-02
         0.32179E-02
         0.25928E-02
         0.18171E-02
         0.93572E-03
        -0.47884E-18
        -0.93572E-03
        -0.18171E-02
        -0.25928E-02
        -0.32179E-02
        -0.36559E-02
        -0.38815E-02
        -0.38815E-02
        -0.36559E-02
        -0.32179E-02
        -0.25928E-02
        -0.18171E-02
        -0.93572E-03
         0.68235E-03
         0.12421E-02
         0.60041E-03
        -0.32493E-03
         0.15500E-03
        -0.66805E-03
         0.18444E-02
         0.14747E-02
         0.31885E-03
         0.11970E-02
         0.22770E-02
         0.28211E-02
         0.24262E-02
         0.21691E-02
         0.29322E-02
        -0.10057E-02
         0.92727E-04
        -0.69084E-03
        -0.70957E-03
         0.84849E-04
        -0.77576E-03
         0.45359E-04
        -0.15186E-02
        -0.13212E-02
         0.10115E-02
        -0.17318E-02
         0.20268E-02
         0.18593E-02
         0.17175E-02
         0.91347E-03
        -0.19804E-02
        -0.23493E-02
        -0.17073E-02
        -0.14936E-02
         0.77745E-03
         0.12550E-02
         0.18671E-02
         0.28856E-02
         0.27127E-02
         0.24604E-02
         0.22358E-02
         0.16503E-02
         0.87938E-03
        -0.21374E-02
        -0.26935E-02
        -0.31291E-02
        -0.30381E-02
        -0.28750E-02
        -0.26468E-02
        -0.23742E-02
        -0.21538E-02
        -0.15086E-02
         0.93572E-03
         0.00000E+00
         0.18171E-02
         0.25928E-02
         0.32179E-02
         0.36559E-02
         0.38815E-02
         0.38815E-02
         0.36559E-02
         0.32179E-02
         0.25928E-02
         0.18171E-02
         0.93572E-03
        -0.47884E-18
        -0.93572E-03
        -0.18171E-02
        -0.25928E-02
        -0.32179E-02
        -0.36559E-02
        -0.38815E-02
        -0.38815E-02
        -0.36559E-02
        -0.32179E-02
        -0.25928E-02
        -0.18171E-02
        -0.93572E-03
         0.68290E-03
         0.12427E-02
         0.60093E-03
        -0.32417E-03
         0.15536E-03
        -0.66755E-03
         0.18445E-02
         0.14757E-02
         0.32000E-03
         0.11987E-02
         0.22771E-02
         0.28207E-02
         0.24264E-02
         0.21691E-02
         0.29319E-02
        -0.10058E-02
         0.93536E-04
        -0.69011E-03
        -0.70943E-03
         0.84973E-04
        -0.77559E-03
         0.45633E-04
        -0.15186E-02
        -0.13212E-02
         0.10129E-02
        -0.17318E-02
         0.20271E-02
         0.18592E-02
         0.17175E-02
         0.91371E-03
        -0.19805E-02
        -0.23493E-02
        -0.17073E-02
        -0.14938E-02
         0.77846E-03
         0.12554E-02
         0.18672E-02
         0.28845E-02
         0.27122E-02
         0.24602E-02
         0.22358E-02
         0.16502E-02
         0.87964E-03
        -0.21374E-02
        -0.26935E-02
        -0.31291E-02
        -0.30381E-02
        -0.28750E-02
        -0.26471E-02
        -0.23744E-02
        -0.21543E-02
        -0.15085E-02
         0.93572E-03
         0.00000E+00
         0.18171E-02
         0.25928E-02
         0.32179E-02
         0.36559E-02
         0.38815E-02
         0.38815E-02
         0.36559E-02
         0.32179E-02
         0.25928E-02
         0.18171E-02
         0.93572E-03
        -0.47884E-18
        -0.93572E-03
        -0.18171E-02
        -0.25928E-02
        -0.32179E-02
        -0.36559E-02
        -0.38815E-02
        -0.38815E-02
        -0.36559E-02
        -0.32179E-02
        -0.25928E-02
        -0.18171E-02
        -0.93572E-03
         0.68346E-03
         0.12434E-02
         0.60145E-03
        -0.32342E-03
         0.15572E-03
        -0.66706E-03
         0.18447E-02
         0.14767E-02
         0.32115E-03
         0.12005E-02
         0.22772E-02
         0.28203E-02
         0.24265E-02
         0.21691E-02
         0.29316E-02
        -0.10060E-02
         0.94345E-04
        -0.68939E-03
        -0.70929E-03
         0.85096E-04
        -0.77542E-03
         0.45906E-04
        -0.15185E-02
        -0.13211E-02
         0.10142E-02
        -0.17317E-02
         0.20274E-02
         0.18590E-02
         0.17175E-02
         0.91395E-03
        -0.19805E-02
        -0.23494E-02
        -0.17073E-02
        -0.14941E-02
         0.77946E-03
         0.12558E-02
         0.18672E-02
         0.28835E-02
         0.27118E-02
         0.24600E-02
         0.22358E-02
         0.16502E-02
         0.87990E-03
        -0.21374E-02
        -0.26935E-02
        -0.31291E-02
        -0.30381E-02
        -0.28750E-02
        -0.26474E-02
        -0.23746E-02
        -0.21549E-02
        -0.15084E-02
         0.93572E-03
         0.00000E+00
         0.18171E-02
         0.25928E-02
         0.32179E-02
         0.36559E-02
         0.38815E-02
         0.38815E-02
         0.36559E-02
         0.32179E-02
         0.25928E-02
         0.18171E-02
         0.93572E-03
         0.22152E-17
        -0.93572E-03
        -0.18171E-02
        -0.25928E-02
        -0.32179E-02
        -0.36559E-02
        -0.38815E-02
        -0.38815E-02
        -0.36559E-02
        -0.32179E-02
        -0.25928E-02
        -0.18171E-02
        -0.93572E-03
         0.68401E-03
         0.12440E-02
         0.60198E-03
        -0.32266E-03
         0.15609E-03
        -0.66657E-03
         0.18449E-02
         0.14777E-02
         0.32230E-03
         0.12022E-02
         0.22774E-02
         0.28198E-02
         0.24267E-02
         0.21692E-02
         0.29314E-02
        -0.10061E-02
         0.95155E-04
        -0.68866E-03
        -0.70915E-03
         0.85220E-04
        -0.77525E-03
         0.46180E-04
        -0.15185E-02
        -0.13210E-02
         0.10156E-02
        -0.17317E-02
         0.20277E-02
         0.18589E-02
         0.17175E-02
         0.91419E-03
        -0.19805E-02
        -0.23494E-02
        -0.17073E-02
        -0.14943E-02
         0.78047E-03
         0.12563E-02
         0.18672E-02
         0.28824E-02
         0.27113E-02
         0.24597E-02
         0.22358E-02
         0.16502E-02
         0.88016E-03
        -0.21374E-02
        -0.26935E-02
        -0.31291E-02
        -0.30381E-02
        -0.28751E-02
        -0.26476E-02
        -0.23748E-02
        -0.21554E-02
        -0.15083E-02
         0.93572E-03
         0.00000E+00
         0.18171E-02
         0.25928E-02
         0.32179E-02
         0.36559E-02
         0.38815E-02
         0.38815E-02
         0.36559E-02
         0.32179E-02
         0.25928E-02
         0.18171E-02
         0.93572E-03
        -0.47884E-18
        -0.93572E-03
        -0.18171E-02
        -0.25928E-02
        -0.32179E-02
        -0.36559E-02
        -0.38815E-02
        -0.38815E-02
        -0.36559E-02
        -0.32179E-02
        -0.25928E-02
        -0.18171E-02
        -0.93572E-03
         0.68457E-03
         0.12447E-02
         0.60250E-03
        -0.32191E-03
         0.15645E-03
        -0.66607E-03
         0.18451E-02
         0.14787E-02
         0.32345E-03
         0.12040E-02
         0.22775E-02
         0.28194E-02
         0.24268E-02
         0.21692E-02
         0.29311E-02
        -0.10062E-02
         0.95964E-04
        -0.68793E-03
        -0.70901E-03
         0.85343E-04
        -0.77507E-03
         0.46453E-04
        -0.15184E-02
        -0.13209E-02
         0.10169E-02
        -0.17316E-02
         0.20280E-02
         0.18588E-02
         0.17175E-02
         0.91443E-03
        -0.19806E-02
        -0.23494E-02
        -0.17073E-02
        -0.14945E-02
         0.78148E-03
         0.12567E-02
         0.18673E-02
         0.28813E-02
         0.27108E-02
         0.24595E-02
         0.22358E-02
         0.16502E-02
         0.88043E-03
        -0.21374E-02
        -0.26936E-02
        -0.31291E-02
        -0.30381E-02
        -0.28751E-02
        -0.26479E-02
        -0.23750E-02
        -0.21560E-02
        -0.15082E-02
         0.93572E-03
         0.00000E+00
         0.18171E-02
         0.25928E-02
         0.32179E-02
         0.36559E-02
         0.38815E-02
         0.38815E-02
         0.36559E-02
         0.32179E-02
         0.25928E-02
         0.18171E-02
         0.93572E-03
        -0.47884E-18
        -0.93572E-03
        -0.18171E-02
        -0.25928E-02
        -0.32179E-02
        -0.36559E-02
        -0.38815E-02
        -0.38815E-02
        -0.36559E-02
        -0.32179E-02
        -0.25928E-02
        -0.18171E-02
        -0.93572E-03
         0.68512E-03
         0.12454E-02
         0.60302E-03
        -0.32115E-03
         0.15681E-03
        -0.66558E-03
         0.18453E-02
         0.14797E-02
         0.32459E-03
         0.12058E-02
         0.22776E-02
         0.28189E-02
         0.24270E-02
         0.21693E-02
         0.29308E-02
        -0.10064E-02
         0.96773E-04
        -0.68721E-03
        -0.70887E-03
         0.85467E-04
        -0.77490E-03
         0.46726E-04
        -0.15184E-02
        -0.13208E-02
         0.10183E-02
        -0.17316E-02
         0.20283E-02
         0.18586E-02
         0.17175E-02
         0.91467E-03
        -0.19806E-02
        -0.23494E-02
        -0.17073E-02
        -0.14948E-02
         0.78248E-03
         0.12571E-02
         0.18673E-02
         0.28802E-02
         0.27103E-02
         0.24593E-02
         0.22358E-02
         0.16502E-02
         0.88069E-03
        -0.21374E-02
        -0.26936E-02
        -0.31291E-02
        -0.30381E-02
        -0.28751E-02
        -0.26482E-02
        -0.23752E-02
        -0.21565E-02
        -0.15081E-02
         0.93572E-03
         0.00000E+00
         0.18171E-02
         0.25928E-02
         0.32179E-02
         0.36559E-02
         0.38815E-02
         0.38815E-02
         0.36559E-02
         0.32179E-02
         0.25928E-02
         0.18171E-02
         0.93572E-03
        -0.47884E-18
        -0.93572E-03
        -0.18171E-02
        -0.25928E-02
        -0.32179E-02
        -0.36559E-02
        -0.38815E-02
        -0.38815E-02
        -0.36559E-02
        -0.32179E-02
        -0.25928E-02
        -0.18171E-02
        -0.93572E-03
         0.68567E-03
         0.12460E-02
         0.60355E-03
        -0.32040E-03
         0.15718E-03
        -0.66509E-03
         0.18455E-02
         0.14807E-02
         0.32574E-03
         0.12075E-02
         0.22777E-02
         0.28185E-02
         0.24271E-02
         0.21693E-02
         0.29306E-02
        -0.10065E-02
         0.97583E-04
        -0.68648E-03
        -0.70873E-03
         0.85591E-04
        -0.77474E-03
         0.47000E-04
        -0.15183E-02
        -0.13207E-02
         0.10197E-02
        -0.17316E-02
         0.20285E-02
         0.18585E-02
         0.17175E-02
         0.91491E-03
        -0.19806E-02
        -0.23495E-02
        -0.17073E-02
        -0.14950E-02
         0.78348E-03
         0.12576E-02
         0.18674E-02
         0.28792E-02
         0.27099E-02
         0.24591E-02
         0.22358E-02
         0.16502E-02
         0.88095E-03
        -0.21374E-02
        -0.26936E-02
        -0.31290E-02
        -0.30381E-02
        -0.28751E-02
        -0.26484E-02
        -0.23754E-02
        -0.21571E-02
        -0.15080E-02
         0.93572E-03
         0.00000E+00
         0.18171E-02
         0.25928E-02
         0.32179E-02
         0.36559E-02
         0.38815E-02
         0.38815E-02
         0.36559E-02
         0.32179E-02
         0.25928E-02
         0.18171E-02
         0.93572E-03
         0.47884E-18
        -0.93572E-03
        -0.18171E-02
        -0.25928E-02
        -0.32179E-02
        -0.36559E-02
        -0.38815E-02
        -0.38815E-02
        -0.36559E-02
        -0.32179E-02
        -0.25928E-02
        -0.18171E-02
        -0.93572E-03
  
SCALARS           initial_coordinate_z  double 1
LOOKUP_TABLE default
        -0.10771E-01
        -0.10771E-01
        -0.10771E-01
        -0.10771E-01
        -0.11750E-01
        -0.11750E-01
        -0.11750E-01
        -0.11750E-01
        -0.10771E-01
        -0.10771E-01
        -0.11750E-01
        -0.11750E-01
        -0.10771E-01
        -0.10771E-01
        -0.11750E-01
        -0.11750E-01
        -0.10771E-01
        -0.10771E-01
        -0.11750E-01
        -0.11750E-01
        -0.10771E-01
        -0.10771E-01
        -0.10771E-01
        -0.11750E-01
        -0.11750E-01
        -0.11750E-01
        -0.10771E-01
        -0.10771E-01
        -0.11750E-01
        -0.11750E-01
        -0.10771E-01
        -0.10771E-01
        -0.10771E-01
        -0.11750E-01
        -0.11750E-01
        -0.11750E-01
        -0.10771E-01
        -0.10771E-01
        -0.11750E-01
        -0.11750E-01
        -0.10771E-01
        -0.10771E-01
        -0.11750E-01
        -0.11750E-01
        -0.10771E-01
        -0.10771E-01
        -0.11750E-01
        -0.11750E-01
        -0.10771E-01
        -0.11750E-01
        -0.10771E-01
        -0.11750E-01
        -0.10771E-01
        -0.11750E-01
        -0.10771E-01
        -0.11750E-01
        -0.10771E-01
        -0.10771E-01
        -0.11750E-01
        -0.11750E-01
        -0.10771E-01
        -0.10771E-01
        -0.11750E-01
        -0.11750E-01
        -0.10771E-01
        -0.11750E-01
        -0.10771E-01
        -0.11750E-01
        -0.10771E-01
        -0.10771E-01
        -0.11750E-01
        -0.11750E-01
        -0.10771E-01
        -0.11750E-01
        -0.10771E-01
        -0.11750E-01
        -0.10771E-01
        -0.11750E-01
        -0.10771E-01
        -0.11750E-01
        -0.10771E-01
        -0.10771E-01
        -0.11750E-01
        -0.11750E-01
        -0.10771E-01
        -0.11750E-01
        -0.10771E-01
        -0.11750E-01
        -0.10771E-01
        -0.11750E-01
        -0.10771E-01
        -0.10771E-01
        -0.11750E-01
        -0.11750E-01
        -0.10771E-01
        -0.11750E-01
        -0.10771E-01
        -0.11750E-01
        -0.10771E-01
        -0.11750E-01
        -0.10771E-01
        -0.10771E-01
        -0.11750E-01
        -0.11750E-01
        -0.10771E-01
        -0.10771E-01
        -0.11750E-01
        -0.11750E-01
        -0.10771E-01
        -0.11750E-01
        -0.10771E-01
        -0.11750E-01
        -0.10771E-01
        -0.11750E-01
        -0.10771E-01
        -0.11750E-01
        -0.10771E-01
        -0.11750E-01
        -0.10771E-01
        -0.11750E-01
        -0.10771E-01
        -0.11750E-01
        -0.10771E-01
        -0.11750E-01
        -0.10771E-01
        -0.11750E-01
        -0.10771E-01
        -0.11750E-01
        -0.10771E-01
        -0.11750E-01
        -0.10771E-01
        -0.11750E-01
        -0.10771E-01
        -0.11750E-01
        -0.10771E-01
        -0.11750E-01
        -0.10771E-01
        -0.11750E-01
        -0.10771E-01
        -0.11750E-01
        -0.10771E-01
        -0.11750E-01
        -0.10771E-01
        -0.11750E-01
        -0.10771E-01
        -0.11750E-01
        -0.10771E-01
        -0.11750E-01
        -0.10771E-01
        -0.11750E-01
        -0.10771E-01
        -0.11750E-01
        -0.10771E-01
        -0.11750E-01
        -0.10771E-01
        -0.11750E-01
        -0.97917E-02
        -0.97917E-02
        -0.97917E-02
        -0.97917E-02
        -0.97917E-02
        -0.97917E-02
        -0.97917E-02
        -0.97917E-02
        -0.97917E-02
        -0.97917E-02
        -0.97917E-02
        -0.97917E-02
        -0.97917E-02
        -0.97917E-02
        -0.97917E-02
        -0.97917E-02
        -0.97917E-02
        -0.97917E-02
        -0.97917E-02
        -0.97917E-02
        -0.97917E-02
        -0.97917E-02
        -0.97917E-02
        -0.97917E-02
        -0.97917E-02
        -0.97917E-02
        -0.97917E-02
        -0.97917E-02
        -0.97917E-02
        -0.97917E-02
        -0.97917E-02
        -0.97917E-02
        -0.97917E-02
        -0.97917E-02
        -0.97917E-02
        -0.97917E-02
        -0.97917E-02
        -0.97917E-02
        -0.97917E-02
        -0.97917E-02
        -0.97917E-02
        -0.97917E-02
        -0.97917E-02
        -0.97917E-02
        -0.97917E-02
        -0.97917E-02
        -0.97917E-02
        -0.97917E-02
        -0.97917E-02
        -0.97917E-02
        -0.97917E-02
        -0.97917E-02
        -0.97917E-02
        -0.97917E-02
        -0.97917E-02
        -0.97917E-02
        -0.97917E-02
        -0.97917E-02
        -0.97917E-02
        -0.97917E-02
        -0.97917E-02
        -0.97917E-02
        -0.97917E-02
        -0.97917E-02
        -0.97917E-02
        -0.97917E-02
        -0.97917E-02
        -0.97917E-02
        -0.97917E-02
        -0.97917E-02
        -0.97917E-02
        -0.97917E-02
        -0.97917E-02
        -0.97917E-02
        -0.97917E-02
        -0.97917E-02
        -0.97917E-02
        -0.97917E-02
        -0.88125E-02
        -0.88125E-02
        -0.88125E-02
        -0.88125E-02
        -0.88125E-02
        -0.88125E-02
        -0.88125E-02
        -0.88125E-02
        -0.88125E-02
        -0.88125E-02
        -0.88125E-02
        -0.88125E-02
        -0.88125E-02
        -0.88125E-02
        -0.88125E-02
        -0.88125E-02
        -0.88125E-02
        -0.88125E-02
        -0.88125E-02
        -0.88125E-02
        -0.88125E-02
        -0.88125E-02
        -0.88125E-02
        -0.88125E-02
        -0.88125E-02
        -0.88125E-02
        -0.88125E-02
        -0.88125E-02
        -0.88125E-02
        -0.88125E-02
        -0.88125E-02
        -0.88125E-02
        -0.88125E-02
        -0.88125E-02
        -0.88125E-02
        -0.88125E-02
        -0.88125E-02
        -0.88125E-02
        -0.88125E-02
        -0.88125E-02
        -0.88125E-02
        -0.88125E-02
        -0.88125E-02
        -0.88125E-02
        -0.88125E-02
        -0.88125E-02
        -0.88125E-02
        -0.88125E-02
        -0.88125E-02
        -0.88125E-02
        -0.88125E-02
        -0.88125E-02
        -0.88125E-02
        -0.88125E-02
        -0.88125E-02
        -0.88125E-02
        -0.88125E-02
        -0.88125E-02
        -0.88125E-02
        -0.88125E-02
        -0.88125E-02
        -0.88125E-02
        -0.88125E-02
        -0.88125E-02
        -0.88125E-02
        -0.88125E-02
        -0.88125E-02
        -0.88125E-02
        -0.88125E-02
        -0.88125E-02
        -0.88125E-02
        -0.88125E-02
        -0.88125E-02
        -0.88125E-02
        -0.88125E-02
        -0.88125E-02
        -0.88125E-02
        -0.88125E-02
        -0.78333E-02
        -0.78333E-02
        -0.78333E-02
        -0.78333E-02
        -0.78333E-02
        -0.78333E-02
        -0.78333E-02
        -0.78333E-02
        -0.78333E-02
        -0.78333E-02
        -0.78333E-02
        -0.78333E-02
        -0.78333E-02
        -0.78333E-02
        -0.78333E-02
        -0.78333E-02
        -0.78333E-02
        -0.78333E-02
        -0.78333E-02
        -0.78333E-02
        -0.78333E-02
        -0.78333E-02
        -0.78333E-02
        -0.78333E-02
        -0.78333E-02
        -0.78333E-02
        -0.78333E-02
        -0.78333E-02
        -0.78333E-02
        -0.78333E-02
        -0.78333E-02
        -0.78333E-02
        -0.78333E-02
        -0.78333E-02
        -0.78333E-02
        -0.78333E-02
        -0.78333E-02
        -0.78333E-02
        -0.78333E-02
        -0.78333E-02
        -0.78333E-02
        -0.78333E-02
        -0.78333E-02
        -0.78333E-02
        -0.78333E-02
        -0.78333E-02
        -0.78333E-02
        -0.78333E-02
        -0.78333E-02
        -0.78333E-02
        -0.78333E-02
        -0.78333E-02
        -0.78333E-02
        -0.78333E-02
        -0.78333E-02
        -0.78333E-02
        -0.78333E-02
        -0.78333E-02
        -0.78333E-02
        -0.78333E-02
        -0.78333E-02
        -0.78333E-02
        -0.78333E-02
        -0.78333E-02
        -0.78333E-02
        -0.78333E-02
        -0.78333E-02
        -0.78333E-02
        -0.78333E-02
        -0.78333E-02
        -0.78333E-02
        -0.78333E-02
        -0.78333E-02
        -0.78333E-02
        -0.78333E-02
        -0.78333E-02
        -0.78333E-02
        -0.78333E-02
        -0.68542E-02
        -0.68542E-02
        -0.68542E-02
        -0.68542E-02
        -0.68542E-02
        -0.68542E-02
        -0.68542E-02
        -0.68542E-02
        -0.68542E-02
        -0.68542E-02
        -0.68542E-02
        -0.68542E-02
        -0.68542E-02
        -0.68542E-02
        -0.68542E-02
        -0.68542E-02
        -0.68542E-02
        -0.68542E-02
        -0.68542E-02
        -0.68542E-02
        -0.68542E-02
        -0.68542E-02
        -0.68542E-02
        -0.68542E-02
        -0.68542E-02
        -0.68542E-02
        -0.68542E-02
        -0.68542E-02
        -0.68542E-02
        -0.68542E-02
        -0.68542E-02
        -0.68542E-02
        -0.68542E-02
        -0.68542E-02
        -0.68542E-02
        -0.68542E-02
        -0.68542E-02
        -0.68542E-02
        -0.68542E-02
        -0.68542E-02
        -0.68542E-02
        -0.68542E-02
        -0.68542E-02
        -0.68542E-02
        -0.68542E-02
        -0.68542E-02
        -0.68542E-02
        -0.68542E-02
        -0.68542E-02
        -0.68542E-02
        -0.68542E-02
        -0.68542E-02
        -0.68542E-02
        -0.68542E-02
        -0.68542E-02
        -0.68542E-02
        -0.68542E-02
        -0.68542E-02
        -0.68542E-02
        -0.68542E-02
        -0.68542E-02
        -0.68542E-02
        -0.68542E-02
        -0.68542E-02
        -0.68542E-02
        -0.68542E-02
        -0.68542E-02
        -0.68542E-02
        -0.68542E-02
        -0.68542E-02
        -0.68542E-02
        -0.68542E-02
        -0.68542E-02
        -0.68542E-02
        -0.68542E-02
        -0.68542E-02
        -0.68542E-02
        -0.68542E-02
        -0.58750E-02
        -0.58750E-02
        -0.58750E-02
        -0.58750E-02
        -0.58750E-02
        -0.58750E-02
        -0.58750E-02
        -0.58750E-02
        -0.58750E-02
        -0.58750E-02
        -0.58750E-02
        -0.58750E-02
        -0.58750E-02
        -0.58750E-02
        -0.58750E-02
        -0.58750E-02
        -0.58750E-02
        -0.58750E-02
        -0.58750E-02
        -0.58750E-02
        -0.58750E-02
        -0.58750E-02
        -0.58750E-02
        -0.58750E-02
        -0.58750E-02
        -0.58750E-02
        -0.58750E-02
        -0.58750E-02
        -0.58750E-02
        -0.58750E-02
        -0.58750E-02
        -0.58750E-02
        -0.58750E-02
        -0.58750E-02
        -0.58750E-02
        -0.58750E-02
        -0.58750E-02
        -0.58750E-02
        -0.58750E-02
        -0.58750E-02
        -0.58750E-02
        -0.58750E-02
        -0.58750E-02
        -0.58750E-02
        -0.58750E-02
        -0.58750E-02
        -0.58750E-02
        -0.58750E-02
        -0.58750E-02
        -0.58750E-02
        -0.58750E-02
        -0.58750E-02
        -0.58750E-02
        -0.58750E-02
        -0.58750E-02
        -0.58750E-02
        -0.58750E-02
        -0.58750E-02
        -0.58750E-02
        -0.58750E-02
        -0.58750E-02
        -0.58750E-02
        -0.58750E-02
        -0.58750E-02
        -0.58750E-02
        -0.58750E-02
        -0.58750E-02
        -0.58750E-02
        -0.58750E-02
        -0.58750E-02
        -0.58750E-02
        -0.58750E-02
        -0.58750E-02
        -0.58750E-02
        -0.58750E-02
        -0.58750E-02
        -0.58750E-02
        -0.58750E-02
        -0.48958E-02
        -0.48958E-02
        -0.48958E-02
        -0.48958E-02
        -0.48958E-02
        -0.48958E-02
        -0.48958E-02
        -0.48958E-02
        -0.48958E-02
        -0.48958E-02
        -0.48958E-02
        -0.48958E-02
        -0.48958E-02
        -0.48958E-02
        -0.48958E-02
        -0.48958E-02
        -0.48958E-02
        -0.48958E-02
        -0.48958E-02
        -0.48958E-02
        -0.48958E-02
        -0.48958E-02
        -0.48958E-02
        -0.48958E-02
        -0.48958E-02
        -0.48958E-02
        -0.48958E-02
        -0.48958E-02
        -0.48958E-02
        -0.48958E-02
        -0.48958E-02
        -0.48958E-02
        -0.48958E-02
        -0.48958E-02
        -0.48958E-02
        -0.48958E-02
        -0.48958E-02
        -0.48958E-02
        -0.48958E-02
        -0.48958E-02
        -0.48958E-02
        -0.48958E-02
        -0.48958E-02
        -0.48958E-02
        -0.48958E-02
        -0.48958E-02
        -0.48958E-02
        -0.48958E-02
        -0.48958E-02
        -0.48958E-02
        -0.48958E-02
        -0.48958E-02
        -0.48958E-02
        -0.48958E-02
        -0.48958E-02
        -0.48958E-02
        -0.48958E-02
        -0.48958E-02
        -0.48958E-02
        -0.48958E-02
        -0.48958E-02
        -0.48958E-02
        -0.48958E-02
        -0.48958E-02
        -0.48958E-02
        -0.48958E-02
        -0.48958E-02
        -0.48958E-02
        -0.48958E-02
        -0.48958E-02
        -0.48958E-02
        -0.48958E-02
        -0.48958E-02
        -0.48958E-02
        -0.48958E-02
        -0.48958E-02
        -0.48958E-02
        -0.48958E-02
        -0.39167E-02
        -0.39167E-02
        -0.39167E-02
        -0.39167E-02
        -0.39167E-02
        -0.39167E-02
        -0.39167E-02
        -0.39167E-02
        -0.39167E-02
        -0.39167E-02
        -0.39167E-02
        -0.39167E-02
        -0.39167E-02
        -0.39167E-02
        -0.39167E-02
        -0.39167E-02
        -0.39167E-02
        -0.39167E-02
        -0.39167E-02
        -0.39167E-02
        -0.39167E-02
        -0.39167E-02
        -0.39167E-02
        -0.39167E-02
        -0.39167E-02
        -0.39167E-02
        -0.39167E-02
        -0.39167E-02
        -0.39167E-02
        -0.39167E-02
        -0.39167E-02
        -0.39167E-02
        -0.39167E-02
        -0.39167E-02
        -0.39167E-02
        -0.39167E-02
        -0.39167E-02
        -0.39167E-02
        -0.39167E-02
        -0.39167E-02
        -0.39167E-02
        -0.39167E-02
        -0.39167E-02
        -0.39167E-02
        -0.39167E-02
        -0.39167E-02
        -0.39167E-02
        -0.39167E-02
        -0.39167E-02
        -0.39167E-02
        -0.39167E-02
        -0.39167E-02
        -0.39167E-02
        -0.39167E-02
        -0.39167E-02
        -0.39167E-02
        -0.39167E-02
        -0.39167E-02
        -0.39167E-02
        -0.39167E-02
        -0.39167E-02
        -0.39167E-02
        -0.39167E-02
        -0.39167E-02
        -0.39167E-02
        -0.39167E-02
        -0.39167E-02
        -0.39167E-02
        -0.39167E-02
        -0.39167E-02
        -0.39167E-02
        -0.39167E-02
        -0.39167E-02
        -0.39167E-02
        -0.39167E-02
        -0.39167E-02
        -0.39167E-02
        -0.39167E-02
        -0.29375E-02
        -0.29375E-02
        -0.29375E-02
        -0.29375E-02
        -0.29375E-02
        -0.29375E-02
        -0.29375E-02
        -0.29375E-02
        -0.29375E-02
        -0.29375E-02
        -0.29375E-02
        -0.29375E-02
        -0.29375E-02
        -0.29375E-02
        -0.29375E-02
        -0.29375E-02
        -0.29375E-02
        -0.29375E-02
        -0.29375E-02
        -0.29375E-02
        -0.29375E-02
        -0.29375E-02
        -0.29375E-02
        -0.29375E-02
        -0.29375E-02
        -0.29375E-02
        -0.29375E-02
        -0.29375E-02
        -0.29375E-02
        -0.29375E-02
        -0.29375E-02
        -0.29375E-02
        -0.29375E-02
        -0.29375E-02
        -0.29375E-02
        -0.29375E-02
        -0.29375E-02
        -0.29375E-02
        -0.29375E-02
        -0.29375E-02
        -0.29375E-02
        -0.29375E-02
        -0.29375E-02
        -0.29375E-02
        -0.29375E-02
        -0.29375E-02
        -0.29375E-02
        -0.29375E-02
        -0.29375E-02
        -0.29375E-02
        -0.29375E-02
        -0.29375E-02
        -0.29375E-02
        -0.29375E-02
        -0.29375E-02
        -0.29375E-02
        -0.29375E-02
        -0.29375E-02
        -0.29375E-02
        -0.29375E-02
        -0.29375E-02
        -0.29375E-02
        -0.29375E-02
        -0.29375E-02
        -0.29375E-02
        -0.29375E-02
        -0.29375E-02
        -0.29375E-02
        -0.29375E-02
        -0.29375E-02
        -0.29375E-02
        -0.29375E-02
        -0.29375E-02
        -0.29375E-02
        -0.29375E-02
        -0.29375E-02
        -0.29375E-02
        -0.29375E-02
        -0.19583E-02
        -0.19583E-02
        -0.19583E-02
        -0.19583E-02
        -0.19583E-02
        -0.19583E-02
        -0.19583E-02
        -0.19583E-02
        -0.19583E-02
        -0.19583E-02
        -0.19583E-02
        -0.19583E-02
        -0.19583E-02
        -0.19583E-02
        -0.19583E-02
        -0.19583E-02
        -0.19583E-02
        -0.19583E-02
        -0.19583E-02
        -0.19583E-02
        -0.19583E-02
        -0.19583E-02
        -0.19583E-02
        -0.19583E-02
        -0.19583E-02
        -0.19583E-02
        -0.19583E-02
        -0.19583E-02
        -0.19583E-02
        -0.19583E-02
        -0.19583E-02
        -0.19583E-02
        -0.19583E-02
        -0.19583E-02
        -0.19583E-02
        -0.19583E-02
        -0.19583E-02
        -0.19583E-02
        -0.19583E-02
        -0.19583E-02
        -0.19583E-02
        -0.19583E-02
        -0.19583E-02
        -0.19583E-02
        -0.19583E-02
        -0.19583E-02
        -0.19583E-02
        -0.19583E-02
        -0.19583E-02
        -0.19583E-02
        -0.19583E-02
        -0.19583E-02
        -0.19583E-02
        -0.19583E-02
        -0.19583E-02
        -0.19583E-02
        -0.19583E-02
        -0.19583E-02
        -0.19583E-02
        -0.19583E-02
        -0.19583E-02
        -0.19583E-02
        -0.19583E-02
        -0.19583E-02
        -0.19583E-02
        -0.19583E-02
        -0.19583E-02
        -0.19583E-02
        -0.19583E-02
        -0.19583E-02
        -0.19583E-02
        -0.19583E-02
        -0.19583E-02
        -0.19583E-02
        -0.19583E-02
        -0.19583E-02
        -0.19583E-02
        -0.19583E-02
        -0.97917E-03
        -0.97917E-03
        -0.97917E-03
        -0.97917E-03
        -0.97917E-03
        -0.97917E-03
        -0.97917E-03
        -0.97917E-03
        -0.97917E-03
        -0.97917E-03
        -0.97917E-03
        -0.97917E-03
        -0.97917E-03
        -0.97917E-03
        -0.97917E-03
        -0.97917E-03
        -0.97917E-03
        -0.97917E-03
        -0.97917E-03
        -0.97917E-03
        -0.97917E-03
        -0.97917E-03
        -0.97917E-03
        -0.97917E-03
        -0.97917E-03
        -0.97917E-03
        -0.97917E-03
        -0.97917E-03
        -0.97917E-03
        -0.97917E-03
        -0.97917E-03
        -0.97917E-03
        -0.97917E-03
        -0.97917E-03
        -0.97917E-03
        -0.97917E-03
        -0.97917E-03
        -0.97917E-03
        -0.97917E-03
        -0.97917E-03
        -0.97917E-03
        -0.97917E-03
        -0.97917E-03
        -0.97917E-03
        -0.97917E-03
        -0.97917E-03
        -0.97917E-03
        -0.97917E-03
        -0.97917E-03
        -0.97917E-03
        -0.97917E-03
        -0.97917E-03
        -0.97917E-03
        -0.97917E-03
        -0.97917E-03
        -0.97917E-03
        -0.97917E-03
        -0.97917E-03
        -0.97917E-03
        -0.97917E-03
        -0.97917E-03
        -0.97917E-03
        -0.97917E-03
        -0.97917E-03
        -0.97917E-03
        -0.97917E-03
        -0.97917E-03
        -0.97917E-03
        -0.97917E-03
        -0.97917E-03
        -0.97917E-03
        -0.97917E-03
        -0.97917E-03
        -0.97917E-03
        -0.97917E-03
        -0.97917E-03
        -0.97917E-03
        -0.97917E-03
         0.38917E-18
         0.44621E-18
         0.34485E-18
         0.23671E-18
         0.26613E-18
         0.16162E-18
         0.53980E-18
         0.50579E-18
         0.36337E-18
         0.48798E-18
         0.60712E-18
         0.67611E-18
         0.60634E-18
         0.60658E-18
         0.70997E-18
         0.20892E-18
         0.35894E-18
         0.21887E-18
         0.27638E-18
         0.38382E-18
         0.29058E-18
         0.40326E-18
         0.18564E-18
         0.19650E-18
         0.48570E-18
         0.12837E-18
         0.60589E-18
         0.60416E-18
         0.60524E-18
         0.49621E-18
         0.61582E-19
         0.32255E-19
         0.73874E-19
         0.78478E-19
         0.34514E-18
         0.42054E-18
         0.51644E-18
         0.72521E-18
         0.72233E-18
         0.70722E-18
         0.69126E-18
         0.61573E-18
         0.51484E-18
         0.91170E-19
         0.30347E-20
        -0.66516E-19
        -0.69988E-19
        -0.68643E-19
        -0.59779E-19
        -0.43507E-19
        -0.29471E-19
         0.53205E-19
         0.86819E-18
         0.00000E+00
         0.86819E-18
         0.86819E-18
         0.00000E+00
         0.00000E+00
         0.00000E+00
         0.17364E-17
         0.17364E-17
         0.17364E-17
         0.43410E-18
         0.43410E-18
         0.43410E-18
         0.00000E+00
         0.00000E+00
         0.00000E+00
         0.00000E+00
         0.00000E+00
         0.21705E-18
        -0.21705E-18
         0.00000E+00
         0.00000E+00
         0.00000E+00
        -0.32557E-18
         0.54262E-19
        -0.40697E-18
         0.97917E-03
         0.97917E-03
         0.97917E-03
         0.97917E-03
         0.97917E-03
         0.97917E-03
         0.97917E-03
         0.97917E-03
         0.97917E-03
         0.97917E-03
         0.97917E-03
         0.97917E-03
         0.97917E-03
         0.97917E-03
         0.97917E-03
         0.97917E-03
         0.97917E-03
         0.97917E-03
         0.97917E-03
         0.97917E-03
         0.97917E-03
         0.97917E-03
         0.97917E-03
         0.97917E-03
         0.97917E-03
         0.97917E-03
         0.97917E-03
         0.97917E-03
         0.97917E-03
         0.97917E-03
         0.97917E-03
         0.97917E-03
         0.97917E-03
         0.97917E-03
         0.97917E-03
         0.97917E-03
         0.97917E-03
         0.97917E-03
         0.97917E-03
         0.97917E-03
         0.97917E-03
         0.97917E-03
         0.97917E-03
         0.97917E-03
         0.97917E-03
         0.97917E-03
         0.97917E-03
         0.97917E-03
         0.97917E-03
         0.97917E-03
         0.97917E-03
         0.97917E-03
         0.97917E-03
         0.97917E-03
         0.97917E-03
         0.97917E-03
         0.97917E-03
         0.97917E-03
         0.97917E-03
         0.97917E-03
         0.97917E-03
         0.97917E-03
         0.97917E-03
         0.97917E-03
         0.97917E-03
         0.97917E-03
         0.97917E-03
         0.97917E-03
         0.97917E-03
         0.97917E-03
         0.97917E-03
         0.97917E-03
         0.97917E-03
         0.97917E-03
         0.97917E-03
         0.97917E-03
         0.97917E-03
         0.97917E-03
         0.19583E-02
         0.19583E-02
         0.19583E-02
         0.19583E-02
         0.19583E-02
         0.19583E-02
         0.19583E-02
         0.19583E-02
         0.19583E-02
         0.19583E-02
         0.19583E-02
         0.19583E-02
         0.19583E-02
         0.19583E-02
         0.19583E-02
         0.19583E-02
         0.19583E-02
         0.19583E-02
         0.19583E-02
         0.19583E-02
         0.19583E-02
         0.19583E-02
         0.19583E-02
         0.19583E-02
         0.19583E-02
         0.19583E-02
         0.19583E-02
         0.19583E-02
         0.19583E-02
         0.19583E-02
         0.19583E-02
         0.19583E-02
         0.19583E-02
         0.19583E-02
         0.19583E-02
         0.19583E-02
         0.19583E-02
         0.19583E-02
         0.19583E-02
         0.19583E-02
         0.19583E-02
         0.19583E-02
         0.19583E-02
         0.19583E-02
         0.19583E-02
         0.19583E-02
         0.19583E-02
         0.19583E-02
         0.19583E-02
         0.19583E-02
         0.19583E-02
         0.19583E-02
         0.19583E-02
         0.19583E-02
         0.19583E-02
         0.19583E-02
         0.19583E-02
         0.19583E-02
         0.19583E-02
         0.19583E-02
         0.19583E-02
         0.19583E-02
         0.19583E-02
         0.19583E-02
         0.19583E-02
         0.19583E-02
         0.19583E-02
         0.19583E-02
         0.19583E-02
         0.19583E-02
         0.19583E-02
         0.19583E-02
         0.19583E-02
         0.19583E-02
         0.19583E-02
         0.19583E-02
         0.19583E-02
         0.19583E-02
         0.29375E-02
         0.29375E-02
         0.29375E-02
         0.29375E-02
         0.29375E-02
         0.29375E-02
         0.29375E-02
         0.29375E-02
         0.29375E-02
         0.29375E-02
         0.29375E-02
         0.29375E-02
         0.29375E-02
         0.29375E-02
         0.29375E-02
         0.29375E-02
         0.29375E-02
         0.29375E-02
         0.29375E-02
         0.29375E-02
         0.29375E-02
         0.29375E-02
         0.29375E-02
         0.29375E-02
         0.29375E-02
         0.29375E-02
         0.29375E-02
         0.29375E-02
         0.29375E-02
         0.29375E-02
         0.29375E-02
         0.29375E-02
         0.29375E-02
         0.29375E-02
         0.29375E-02
         0.29375E-02
         0.29375E-02
         0.29375E-02
         0.29375E-02
         0.29375E-02
         0.29375E-02
         0.29375E-02
         0.29375E-02
         0.29375E-02
         0.29375E-02
         0.29375E-02
         0.29375E-02
         0.29375E-02
         0.29375E-02
         0.29375E-02
         0.29375E-02
         0.29375E-02
         0.29375E-02
         0.29375E-02
         0.29375E-02
         0.29375E-02
         0.29375E-02
         0.29375E-02
         0.29375E-02
         0.29375E-02
         0.29375E-02
         0.29375E-02
         0.29375E-02
         0.29375E-02
         0.29375E-02
         0.29375E-02
         0.29375E-02
         0.29375E-02
         0.29375E-02
         0.29375E-02
         0.29375E-02
         0.29375E-02
         0.29375E-02
         0.29375E-02
         0.29375E-02
         0.29375E-02
         0.29375E-02
         0.29375E-02
         0.39167E-02
         0.39167E-02
         0.39167E-02
         0.39167E-02
         0.39167E-02
         0.39167E-02
         0.39167E-02
         0.39167E-02
         0.39167E-02
         0.39167E-02
         0.39167E-02
         0.39167E-02
         0.39167E-02
         0.39167E-02
         0.39167E-02
         0.39167E-02
         0.39167E-02
         0.39167E-02
         0.39167E-02
         0.39167E-02
         0.39167E-02
         0.39167E-02
         0.39167E-02
         0.39167E-02
         0.39167E-02
         0.39167E-02
         0.39167E-02
         0.39167E-02
         0.39167E-02
         0.39167E-02
         0.39167E-02
         0.39167E-02
         0.39167E-02
         0.39167E-02
         0.39167E-02
         0.39167E-02
         0.39167E-02
         0.39167E-02
         0.39167E-02
         0.39167E-02
         0.39167E-02
         0.39167E-02
         0.39167E-02
         0.39167E-02
         0.39167E-02
         0.39167E-02
         0.39167E-02
         0.39167E-02
         0.39167E-02
         0.39167E-02
         0.39167E-02
         0.39167E-02
         0.39167E-02
         0.39167E-02
         0.39167E-02
         0.39167E-02
         0.39167E-02
         0.39167E-02
         0.39167E-02
         0.39167E-02
         0.39167E-02
         0.39167E-02
         0.39167E-02
         0.39167E-02
         0.39167E-02
         0.39167E-02
         0.39167E-02
         0.39167E-02
         0.39167E-02
         0.39167E-02
         0.39167E-02
         0.39167E-02
         0.39167E-02
         0.39167E-02
         0.39167E-02
         0.39167E-02
         0.39167E-02
         0.39167E-02
         0.48958E-02
         0.48958E-02
         0.48958E-02
         0.48958E-02
         0.48958E-02
         0.48958E-02
         0.48958E-02
         0.48958E-02
         0.48958E-02
         0.48958E-02
         0.48958E-02
         0.48958E-02
         0.48958E-02
         0.48958E-02
         0.48958E-02
         0.48958E-02
         0.48958E-02
         0.48958E-02
         0.48958E-02
         0.48958E-02
         0.48958E-02
         0.48958E-02
         0.48958E-02
         0.48958E-02
         0.48958E-02
         0.48958E-02
         0.48958E-02
         0.48958E-02
         0.48958E-02
         0.48958E-02
         0.48958E-02
         0.48958E-02
         0.48958E-02
         0.48958E-02
         0.48958E-02
         0.48958E-02
         0.48958E-02
         0.48958E-02
         0.48958E-02
         0.48958E-02
         0.48958E-02
         0.48958E-02
         0.48958E-02
         0.48958E-02
         0.48958E-02
         0.48958E-02
         0.48958E-02
         0.48958E-02
         0.48958E-02
         0.48958E-02
         0.48958E-02
         0.48958E-02
         0.48958E-02
         0.48958E-02
         0.48958E-02
         0.48958E-02
         0.48958E-02
         0.48958E-02
         0.48958E-02
         0.48958E-02
         0.48958E-02
         0.48958E-02
         0.48958E-02
         0.48958E-02
         0.48958E-02
         0.48958E-02
         0.48958E-02
         0.48958E-02
         0.48958E-02
         0.48958E-02
         0.48958E-02
         0.48958E-02
         0.48958E-02
         0.48958E-02
         0.48958E-02
         0.48958E-02
         0.48958E-02
         0.48958E-02
         0.58750E-02
         0.58750E-02
         0.58750E-02
         0.58750E-02
         0.58750E-02
         0.58750E-02
         0.58750E-02
         0.58750E-02
         0.58750E-02
         0.58750E-02
         0.58750E-02
         0.58750E-02
         0.58750E-02
         0.58750E-02
         0.58750E-02
         0.58750E-02
         0.58750E-02
         0.58750E-02
         0.58750E-02
         0.58750E-02
         0.58750E-02
         0.58750E-02
         0.58750E-02
         0.58750E-02
         0.58750E-02
         0.58750E-02
         0.58750E-02
         0.58750E-02
         0.58750E-02
         0.58750E-02
         0.58750E-02
         0.58750E-02
         0.58750E-02
         0.58750E-02
         0.58750E-02
         0.58750E-02
         0.58750E-02
         0.58750E-02
         0.58750E-02
         0.58750E-02
         0.58750E-02
         0.58750E-02
         0.58750E-02
         0.58750E-02
         0.58750E-02
         0.58750E-02
         0.58750E-02
         0.58750E-02
         0.58750E-02
         0.58750E-02
         0.58750E-02
         0.58750E-02
         0.58750E-02
         0.58750E-02
         0.58750E-02
         0.58750E-02
         0.58750E-02
         0.58750E-02
         0.58750E-02
         0.58750E-02
         0.58750E-02
         0.58750E-02
         0.58750E-02
         0.58750E-02
         0.58750E-02
         0.58750E-02
         0.58750E-02
         0.58750E-02
         0.58750E-02
         0.58750E-02
         0.58750E-02
         0.58750E-02
         0.58750E-02
         0.58750E-02
         0.58750E-02
         0.58750E-02
         0.58750E-02
         0.58750E-02
         0.68542E-02
         0.68542E-02
         0.68542E-02
         0.68542E-02
         0.68542E-02
         0.68542E-02
         0.68542E-02
         0.68542E-02
         0.68542E-02
         0.68542E-02
         0.68542E-02
         0.68542E-02
         0.68542E-02
         0.68542E-02
         0.68542E-02
         0.68542E-02
         0.68542E-02
         0.68542E-02
         0.68542E-02
         0.68542E-02
         0.68542E-02
         0.68542E-02
         0.68542E-02
         0.68542E-02
         0.68542E-02
         0.68542E-02
         0.68542E-02
         0.68542E-02
         0.68542E-02
         0.68542E-02
         0.68542E-02
         0.68542E-02
         0.68542E-02
         0.68542E-02
         0.68542E-02
         0.68542E-02
         0.68542E-02
         0.68542E-02
         0.68542E-02
         0.68542E-02
         0.68542E-02
         0.68542E-02
         0.68542E-02
         0.68542E-02
         0.68542E-02
         0.68542E-02
         0.68542E-02
         0.68542E-02
         0.68542E-02
         0.68542E-02
         0.68542E-02
         0.68542E-02
         0.68542E-02
         0.68542E-02
         0.68542E-02
         0.68542E-02
         0.68542E-02
         0.68542E-02
         0.68542E-02
         0.68542E-02
         0.68542E-02
         0.68542E-02
         0.68542E-02
         0.68542E-02
         0.68542E-02
         0.68542E-02
         0.68542E-02
         0.68542E-02
         0.68542E-02
         0.68542E-02
         0.68542E-02
         0.68542E-02
         0.68542E-02
         0.68542E-02
         0.68542E-02
         0.68542E-02
         0.68542E-02
         0.68542E-02
         0.78333E-02
         0.78333E-02
         0.78333E-02
         0.78333E-02
         0.78333E-02
         0.78333E-02
         0.78333E-02
         0.78333E-02
         0.78333E-02
         0.78333E-02
         0.78333E-02
         0.78333E-02
         0.78333E-02
         0.78333E-02
         0.78333E-02
         0.78333E-02
         0.78333E-02
         0.78333E-02
         0.78333E-02
         0.78333E-02
         0.78333E-02
         0.78333E-02
         0.78333E-02
         0.78333E-02
         0.78333E-02
         0.78333E-02
         0.78333E-02
         0.78333E-02
         0.78333E-02
         0.78333E-02
         0.78333E-02
         0.78333E-02
         0.78333E-02
         0.78333E-02
         0.78333E-02
         0.78333E-02
         0.78333E-02
         0.78333E-02
         0.78333E-02
         0.78333E-02
         0.78333E-02
         0.78333E-02
         0.78333E-02
         0.78333E-02
         0.78333E-02
         0.78333E-02
         0.78333E-02
         0.78333E-02
         0.78333E-02
         0.78333E-02
         0.78333E-02
         0.78333E-02
         0.78333E-02
         0.78333E-02
         0.78333E-02
         0.78333E-02
         0.78333E-02
         0.78333E-02
         0.78333E-02
         0.78333E-02
         0.78333E-02
         0.78333E-02
         0.78333E-02
         0.78333E-02
         0.78333E-02
         0.78333E-02
         0.78333E-02
         0.78333E-02
         0.78333E-02
         0.78333E-02
         0.78333E-02
         0.78333E-02
         0.78333E-02
         0.78333E-02
         0.78333E-02
         0.78333E-02
         0.78333E-02
         0.78333E-02
         0.88125E-02
         0.88125E-02
         0.88125E-02
         0.88125E-02
         0.88125E-02
         0.88125E-02
         0.88125E-02
         0.88125E-02
         0.88125E-02
         0.88125E-02
         0.88125E-02
         0.88125E-02
         0.88125E-02
         0.88125E-02
         0.88125E-02
         0.88125E-02
         0.88125E-02
         0.88125E-02
         0.88125E-02
         0.88125E-02
         0.88125E-02
         0.88125E-02
         0.88125E-02
         0.88125E-02
         0.88125E-02
         0.88125E-02
         0.88125E-02
         0.88125E-02
         0.88125E-02
         0.88125E-02
         0.88125E-02
         0.88125E-02
         0.88125E-02
         0.88125E-02
         0.88125E-02
         0.88125E-02
         0.88125E-02
         0.88125E-02
         0.88125E-02
         0.88125E-02
         0.88125E-02
         0.88125E-02
         0.88125E-02
         0.88125E-02
         0.88125E-02
         0.88125E-02
         0.88125E-02
         0.88125E-02
         0.88125E-02
         0.88125E-02
         0.88125E-02
         0.88125E-02
         0.88125E-02
         0.88125E-02
         0.88125E-02
         0.88125E-02
         0.88125E-02
         0.88125E-02
         0.88125E-02
         0.88125E-02
         0.88125E-02
         0.88125E-02
         0.88125E-02
         0.88125E-02
         0.88125E-02
         0.88125E-02
         0.88125E-02
         0.88125E-02
         0.88125E-02
         0.88125E-02
         0.88125E-02
         0.88125E-02
         0.88125E-02
         0.88125E-02
         0.88125E-02
         0.88125E-02
         0.88125E-02
         0.88125E-02
         0.97917E-02
         0.97917E-02
         0.97917E-02
         0.97917E-02
         0.97917E-02
         0.97917E-02
         0.97917E-02
         0.97917E-02
         0.97917E-02
         0.97917E-02
         0.97917E-02
         0.97917E-02
         0.97917E-02
         0.97917E-02
         0.97917E-02
         0.97917E-02
         0.97917E-02
         0.97917E-02
         0.97917E-02
         0.97917E-02
         0.97917E-02
         0.97917E-02
         0.97917E-02
         0.97917E-02
         0.97917E-02
         0.97917E-02
         0.97917E-02
         0.97917E-02
         0.97917E-02
         0.97917E-02
         0.97917E-02
         0.97917E-02
         0.97917E-02
         0.97917E-02
         0.97917E-02
         0.97917E-02
         0.97917E-02
         0.97917E-02
         0.97917E-02
         0.97917E-02
         0.97917E-02
         0.97917E-02
         0.97917E-02
         0.97917E-02
         0.97917E-02
         0.97917E-02
         0.97917E-02
         0.97917E-02
         0.97917E-02
         0.97917E-02
         0.97917E-02
         0.97917E-02
         0.97917E-02
         0.97917E-02
         0.97917E-02
         0.97917E-02
         0.97917E-02
         0.97917E-02
         0.97917E-02
         0.97917E-02
         0.97917E-02
         0.97917E-02
         0.97917E-02
         0.97917E-02
         0.97917E-02
         0.97917E-02
         0.97917E-02
         0.97917E-02
         0.97917E-02
         0.97917E-02
         0.97917E-02
         0.97917E-02
         0.97917E-02
         0.97917E-02
         0.97917E-02
         0.97917E-02
         0.97917E-02
         0.97917E-02
         0.10771E-01
         0.10771E-01
         0.10771E-01
         0.10771E-01
         0.10771E-01
         0.10771E-01
         0.10771E-01
         0.10771E-01
         0.10771E-01
         0.10771E-01
         0.10771E-01
         0.10771E-01
         0.10771E-01
         0.10771E-01
         0.10771E-01
         0.10771E-01
         0.10771E-01
         0.10771E-01
         0.10771E-01
         0.10771E-01
         0.10771E-01
         0.10771E-01
         0.10771E-01
         0.10771E-01
         0.10771E-01
         0.10771E-01
         0.10771E-01
         0.10771E-01
         0.10771E-01
         0.10771E-01
         0.10771E-01
         0.10771E-01
         0.10771E-01
         0.10771E-01
         0.10771E-01
         0.10771E-01
         0.10771E-01
         0.10771E-01
         0.10771E-01
         0.10771E-01
         0.10771E-01
         0.10771E-01
         0.10771E-01
         0.10771E-01
         0.10771E-01
         0.10771E-01
         0.10771E-01
         0.10771E-01
         0.10771E-01
         0.10771E-01
         0.10771E-01
         0.10771E-01
         0.10771E-01
         0.10771E-01
         0.10771E-01
         0.10771E-01
         0.10771E-01
         0.10771E-01
         0.10771E-01
         0.10771E-01
         0.10771E-01
         0.10771E-01
         0.10771E-01
         0.10771E-01
         0.10771E-01
         0.10771E-01
         0.10771E-01
         0.10771E-01
         0.10771E-01
         0.10771E-01
         0.10771E-01
         0.10771E-01
         0.10771E-01
         0.10771E-01
         0.10771E-01
         0.10771E-01
         0.10771E-01
         0.10771E-01
         0.11750E-01
         0.11750E-01
         0.11750E-01
         0.11750E-01
         0.11750E-01
         0.11750E-01
         0.11750E-01
         0.11750E-01
         0.11750E-01
         0.11750E-01
         0.11750E-01
         0.11750E-01
         0.11750E-01
         0.11750E-01
         0.11750E-01
         0.11750E-01
         0.11750E-01
         0.11750E-01
         0.11750E-01
         0.11750E-01
         0.11750E-01
         0.11750E-01
         0.11750E-01
         0.11750E-01
         0.11750E-01
         0.11750E-01
         0.11750E-01
         0.11750E-01
         0.11750E-01
         0.11750E-01
         0.11750E-01
         0.11750E-01
         0.11750E-01
         0.11750E-01
         0.11750E-01
         0.11750E-01
         0.11750E-01
         0.11750E-01
         0.11750E-01
         0.11750E-01
         0.11750E-01
         0.11750E-01
         0.11750E-01
         0.11750E-01
         0.11750E-01
         0.11750E-01
         0.11750E-01
         0.11750E-01
         0.11750E-01
         0.11750E-01
         0.11750E-01
         0.11750E-01
         0.11750E-01
         0.11750E-01
         0.11750E-01
         0.11750E-01
         0.11750E-01
         0.11750E-01
         0.11750E-01
         0.11750E-01
         0.11750E-01
         0.11750E-01
         0.11750E-01
         0.11750E-01
         0.11750E-01
         0.11750E-01
         0.11750E-01
         0.11750E-01
         0.11750E-01
         0.11750E-01
         0.11750E-01
         0.11750E-01
         0.11750E-01
         0.11750E-01
         0.11750E-01
         0.11750E-01
         0.11750E-01
         0.11750E-01
  
SCALARS                init_velocity_x  double 1
LOOKUP_TABLE default
         0.00000E+00
         0.00000E+00
         0.00000E+00
         0.00000E+00
         0.00000E+00
         0.00000E+00
         0.00000E+00
         0.00000E+00
         0.00000E+00
         0.00000E+00
         0.00000E+00
         0.00000E+00
         0.00000E+00
         0.00000E+00
         0.00000E+00
         0.00000E+00
         0.00000E+00
         0.00000E+00
         0.00000E+00
         0.00000E+00
         0.00000E+00
         0.00000E+00
         0.00000E+00
         0.00000E+00
         0.00000E+00
         0.00000E+00
         0.00000E+00
         0.00000E+00
         0.00000E+00
         0.00000E+00
         0.00000E+00
         0.00000E+00
         0.00000E+00
         0.00000E+00
         0.00000E+00
         0.00000E+00
         0.00000E+00
         0.00000E+00
         0.00000E+00
         0.00000E+00
         0.00000E+00
         0.00000E+00
         0.00000E+00
         0.00000E+00
         0.00000E+00
         0.00000E+00
         0.00000E+00
         0.00000E+00
         0.00000E+00
         0.00000E+00
         0.00000E+00
         0.00000E+00
         0.00000E+00
         0.00000E+00
         0.00000E+00
         0.00000E+00
         0.00000E+00
         0.00000E+00
         0.00000E+00
         0.00000E+00
         0.00000E+00
         0.00000E+00
         0.00000E+00
         0.00000E+00
         0.00000E+00
         0.00000E+00
         0.00000E+00
         0.00000E+00
         0.00000E+00
         0.00000E+00
         0.00000E+00
         0.00000E+00
         0.00000E+00
         0.00000E+00
         0.00000E+00
         0.00000E+00
         0.00000E+00
         0.00000E+00
         0.00000E+00
         0.00000E+00
         0.00000E+00
         0.00000E+00
         0.00000E+00
         0.00000E+00
         0.00000E+00
         0.00000E+00
         0.00000E+00
         0.00000E+00
         0.00000E+00
         0.00000E+00
         0.00000E+00
         0.00000E+00
         0.00000E+00
         0.00000E+00
         0.00000E+00
         0.00000E+00
         0.00000E+00
         0.00000E+00
         0.00000E+00
         0.00000E+00
         0.00000E+00
         0.00000E+00
         0.00000E+00
         0.00000E+00
         0.00000E+00
         0.00000E+00
         0.00000E+00
         0.00000E+00
         0.00000E+00
         0.00000E+00
         0.00000E+00
         0.00000E+00
         0.00000E+00
         0.00000E+00
         0.00000E+00
         0.00000E+00
         0.00000E+00
         0.00000E+00
         0.00000E+00
         0.00000E+00
         0.00000E+00
         0.00000E+00
         0.00000E+00
         0.00000E+00
         0.00000E+00
         0.00000E+00
         0.00000E+00
         0.00000E+00
         0.00000E+00
         0.00000E+00
         0.00000E+00
         0.00000E+00
         0.00000E+00
         0.00000E+00
         0.00000E+00
         0.00000E+00
         0.00000E+00
         0.00000E+00
         0.00000E+00
         0.00000E+00
         0.00000E+00
         0.00000E+00
         0.00000E+00
         0.00000E+00
         0.00000E+00
         0.00000E+00
         0.00000E+00
         0.00000E+00
         0.00000E+00
         0.00000E+00
         0.00000E+00
         0.00000E+00
         0.00000E+00
         0.00000E+00
         0.00000E+00
         0.00000E+00
         0.00000E+00
         0.00000E+00
         0.00000E+00
         0.00000E+00
         0.00000E+00
         0.00000E+00
         0.00000E+00
         0.00000E+00
         0.00000E+00
         0.00000E+00
         0.00000E+00
         0.00000E+00
         0.00000E+00
         0.00000E+00
         0.00000E+00
         0.00000E+00
         0.00000E+00
         0.00000E+00
         0.00000E+00
         0.00000E+00
         0.00000E+00
         0.00000E+00
         0.00000E+00
         0.00000E+00
         0.00000E+00
         0.00000E+00
         0.00000E+00
         0.00000E+00
         0.00000E+00
         0.00000E+00
         0.00000E+00
         0.00000E+00
         0.00000E+00
         0.00000E+00
         0.00000E+00
         0.00000E+00
         0.00000E+00
         0.00000E+00
         0.00000E+00
         0.00000E+00
         0.00000E+00
         0.00000E+00
         0.00000E+00
         0.00000E+00
         0.00000E+00
         0.00000E+00
         0.00000E+00
         0.00000E+00
         0.00000E+00
         0.00000E+00
         0.00000E+00
         0.00000E+00
         0.00000E+00
         0.00000E+00
         0.00000E+00
         0.00000E+00
         0.00000E+00
         0.00000E+00
         0.00000E+00
         0.00000E+00
         0.00000E+00
         0.00000E+00
         0.00000E+00
         0.00000E+00
         0.00000E+00
         0.00000E+00
         0.00000E+00
         0.00000E+00
         0.00000E+00
         0.00000E+00
         0.00000E+00
         0.00000E+00
         0.00000E+00
         0.00000E+00
         0.00000E+00
         0.00000E+00
         0.00000E+00
         0.00000E+00
         0.00000E+00
         0.00000E+00
         0.00000E+00
         0.00000E+00
         0.00000E+00
         0.00000E+00
         0.00000E+00
         0.00000E+00
         0.00000E+00
         0.00000E+00
         0.00000E+00
         0.00000E+00
         0.00000E+00
         0.00000E+00
         0.00000E+00
         0.00000E+00
         0.00000E+00
         0.00000E+00
         0.00000E+00
         0.00000E+00
         0.00000E+00
         0.00000E+00
         0.00000E+00
         0.00000E+00
         0.00000E+00
         0.00000E+00
         0.00000E+00
         0.00000E+00
         0.00000E+00
         0.00000E+00
         0.00000E+00
         0.00000E+00
         0.00000E+00
         0.00000E+00
         0.00000E+00
         0.00000E+00
         0.00000E+00
         0.00000E+00
         0.00000E+00
         0.00000E+00
         0.00000E+00
         0.00000E+00
         0.00000E+00
         0.00000E+00
         0.00000E+00
         0.00000E+00
         0.00000E+00
         0.00000E+00
         0.00000E+00
         0.00000E+00
         0.00000E+00
         0.00000E+00
         0.00000E+00
         0.00000E+00
         0.00000E+00
         0.00000E+00
         0.00000E+00
         0.00000E+00
         0.00000E+00
         0.00000E+00
         0.00000E+00
         0.00000E+00
         0.00000E+00
         0.00000E+00
         0.00000E+00
         0.00000E+00
         0.00000E+00
         0.00000E+00
         0.00000E+00
         0.00000E+00
         0.00000E+00
         0.00000E+00
         0.00000E+00
         0.00000E+00
         0.00000E+00
         0.00000E+00
         0.00000E+00
         0.00000E+00
         0.00000E+00
         0.00000E+00
         0.00000E+00
         0.00000E+00
         0.00000E+00
         0.00000E+00
         0.00000E+00
         0.00000E+00
         0.00000E+00
         0.00000E+00
         0.00000E+00
         0.00000E+00
         0.00000E+00
         0.00000E+00
         0.00000E+00
         0.00000E+00
         0.00000E+00
         0.00000E+00
         0.00000E+00
         0.00000E+00
         0.00000E+00
         0.00000E+00
         0.00000E+00
         0.00000E+00
         0.00000E+00
         0.00000E+00
         0.00000E+00
         0.00000E+00
         0.00000E+00
         0.00000E+00
         0.00000E+00
         0.00000E+00
         0.00000E+00
         0.00000E+00
         0.00000E+00
         0.00000E+00
         0.00000E+00
         0.00000E+00
         0.00000E+00
         0.00000E+00
         0.00000E+00
         0.00000E+00
         0.00000E+00
         0.00000E+00
         0.00000E+00
         0.00000E+00
         0.00000E+00
         0.00000E+00
         0.00000E+00
         0.00000E+00
         0.00000E+00
         0.00000E+00
         0.00000E+00
         0.00000E+00
         0.00000E+00
         0.00000E+00
         0.00000E+00
         0.00000E+00
         0.00000E+00
         0.00000E+00
         0.00000E+00
         0.00000E+00
         0.00000E+00
         0.00000E+00
         0.00000E+00
         0.00000E+00
         0.00000E+00
         0.00000E+00
         0.00000E+00
         0.00000E+00
         0.00000E+00
         0.00000E+00
         0.00000E+00
         0.00000E+00
         0.00000E+00
         0.00000E+00
         0.00000E+00
         0.00000E+00
         0.00000E+00
         0.00000E+00
         0.00000E+00
         0.00000E+00
         0.00000E+00
         0.00000E+00
         0.00000E+00
         0.00000E+00
         0.00000E+00
         0.00000E+00
         0.00000E+00
         0.00000E+00
         0.00000E+00
         0.00000E+00
         0.00000E+00
         0.00000E+00
         0.00000E+00
         0.00000E+00
         0.00000E+00
         0.00000E+00
         0.00000E+00
         0.00000E+00
         0.00000E+00
         0.00000E+00
         0.00000E+00
         0.00000E+00
         0.00000E+00
         0.00000E+00
         0.00000E+00
         0.00000E+00
         0.00000E+00
         0.00000E+00
         0.00000E+00
         0.00000E+00
         0.00000E+00
         0.00000E+00
         0.00000E+00
         0.00000E+00
         0.00000E+00
         0.00000E+00
         0.00000E+00
         0.00000E+00
         0.00000E+00
         0.00000E+00
         0.00000E+00
         0.00000E+00
         0.00000E+00
         0.00000E+00
         0.00000E+00
         0.00000E+00
         0.00000E+00
         0.00000E+00
         0.00000E+00
         0.00000E+00
         0.00000E+00
         0.00000E+00
         0.00000E+00
         0.00000E+00
         0.00000E+00
         0.00000E+00
         0.00000E+00
         0.00000E+00
         0.00000E+00
         0.00000E+00
         0.00000E+00
         0.00000E+00
         0.00000E+00
         0.00000E+00
         0.00000E+00
         0.00000E+00
         0.00000E+00
         0.00000E+00
         0.00000E+00
         0.00000E+00
         0.00000E+00
         0.00000E+00
         0.00000E+00
         0.00000E+00
         0.00000E+00
         0.00000E+00
         0.00000E+00
         0.00000E+00
         0.00000E+00
         0.00000E+00
         0.00000E+00
         0.00000E+00
         0.00000E+00
         0.00000E+00
         0.00000E+00
         0.00000E+00
         0.00000E+00
         0.00000E+00
         0.00000E+00
         0.00000E+00
         0.00000E+00
         0.00000E+00
         0.00000E+00
         0.00000E+00
         0.00000E+00
         0.00000E+00
         0.00000E+00
         0.00000E+00
         0.00000E+00
         0.00000E+00
         0.00000E+00
         0.00000E+00
         0.00000E+00
         0.00000E+00
         0.00000E+00
         0.00000E+00
         0.00000E+00
         0.00000E+00
         0.00000E+00
         0.00000E+00
         0.00000E+00
         0.00000E+00
         0.00000E+00
         0.00000E+00
         0.00000E+00
         0.00000E+00
         0.00000E+00
         0.00000E+00
         0.00000E+00
         0.00000E+00
         0.00000E+00
         0.00000E+00
         0.00000E+00
         0.00000E+00
         0.00000E+00
         0.00000E+00
         0.00000E+00
         0.00000E+00
         0.00000E+00
         0.00000E+00
         0.00000E+00
         0.00000E+00
         0.00000E+00
         0.00000E+00
         0.00000E+00
         0.00000E+00
         0.00000E+00
         0.00000E+00
         0.00000E+00
         0.00000E+00
         0.00000E+00
         0.00000E+00
         0.00000E+00
         0.00000E+00
         0.00000E+00
         0.00000E+00
         0.00000E+00
         0.00000E+00
         0.00000E+00
         0.00000E+00
         0.00000E+00
         0.00000E+00
         0.00000E+00
         0.00000E+00
         0.00000E+00
         0.00000E+00
         0.00000E+00
         0.00000E+00
         0.00000E+00
         0.00000E+00
         0.00000E+00
         0.00000E+00
         0.00000E+00
         0.00000E+00
         0.00000E+00
         0.00000E+00
         0.00000E+00
         0.00000E+00
         0.00000E+00
         0.00000E+00
         0.00000E+00
         0.00000E+00
         0.00000E+00
         0.00000E+00
         0.00000E+00
         0.00000E+00
         0.00000E+00
         0.00000E+00
         0.00000E+00
         0.00000E+00
         0.00000E+00
         0.00000E+00
         0.00000E+00
         0.00000E+00
         0.00000E+00
         0.00000E+00
         0.00000E+00
         0.00000E+00
         0.00000E+00
         0.00000E+00
         0.00000E+00
         0.00000E+00
         0.00000E+00
         0.00000E+00
         0.00000E+00
         0.00000E+00
         0.00000E+00
         0.00000E+00
         0.00000E+00
         0.00000E+00
         0.00000E+00
         0.00000E+00
         0.00000E+00
         0.00000E+00
         0.00000E+00
         0.00000E+00
         0.00000E+00
         0.00000E+00
         0.00000E+00
         0.00000E+00
         0.00000E+00
         0.00000E+00
         0.00000E+00
         0.00000E+00
         0.00000E+00
         0.00000E+00
         0.00000E+00
         0.00000E+00
         0.00000E+00
         0.00000E+00
         0.00000E+00
         0.00000E+00
         0.00000E+00
         0.00000E+00
         0.00000E+00
         0.00000E+00
         0.00000E+00
         0.00000E+00
         0.00000E+00
         0.00000E+00
         0.00000E+00
         0.00000E+00
         0.00000E+00
         0.00000E+00
         0.00000E+00
         0.00000E+00
         0.00000E+00
         0.00000E+00
         0.00000E+00
         0.00000E+00
         0.00000E+00
         0.00000E+00
         0.00000E+00
         0.00000E+00
         0.00000E+00
         0.00000E+00
         0.00000E+00
         0.00000E+00
         0.00000E+00
         0.00000E+00
         0.00000E+00
         0.00000E+00
         0.00000E+00
         0.00000E+00
         0.00000E+00
         0.00000E+00
         0.00000E+00
         0.00000E+00
         0.00000E+00
         0.00000E+00
         0.00000E+00
         0.00000E+00
         0.00000E+00
         0.00000E+00
         0.00000E+00
         0.00000E+00
         0.00000E+00
         0.00000E+00
         0.00000E+00
         0.00000E+00
         0.00000E+00
         0.00000E+00
         0.00000E+00
         0.00000E+00
         0.00000E+00
         0.00000E+00
         0.00000E+00
         0.00000E+00
         0.00000E+00
         0.00000E+00
         0.00000E+00
         0.00000E+00
         0.00000E+00
         0.00000E+00
         0.00000E+00
         0.00000E+00
         0.00000E+00
         0.00000E+00
         0.00000E+00
         0.00000E+00
         0.00000E+00
         0.00000E+00
         0.00000E+00
         0.00000E+00
         0.00000E+00
         0.00000E+00
         0.00000E+00
         0.00000E+00
         0.00000E+00
         0.00000E+00
         0.00000E+00
         0.00000E+00
         0.00000E+00
         0.00000E+00
         0.00000E+00
         0.00000E+00
         0.00000E+00
         0.00000E+00
         0.00000E+00
         0.00000E+00
         0.00000E+00
         0.00000E+00
         0.00000E+00
         0.00000E+00
         0.00000E+00
         0.00000E+00
         0.00000E+00
         0.00000E+00
         0.00000E+00
         0.00000E+00
         0.00000E+00
         0.00000E+00
         0.00000E+00
         0.00000E+00
         0.00000E+00
         0.00000E+00
         0.00000E+00
         0.00000E+00
         0.00000E+00
         0.00000E+00
         0.00000E+00
         0.00000E+00
         0.00000E+00
         0.00000E+00
         0.00000E+00
         0.00000E+00
         0.00000E+00
         0.00000E+00
         0.00000E+00
         0.00000E+00
         0.00000E+00
         0.00000E+00
         0.00000E+00
         0.00000E+00
         0.00000E+00
         0.00000E+00
         0.00000E+00
         0.00000E+00
         0.00000E+00
         0.00000E+00
         0.00000E+00
         0.00000E+00
         0.00000E+00
         0.00000E+00
         0.00000E+00
         0.00000E+00
         0.00000E+00
         0.00000E+00
         0.00000E+00
         0.00000E+00
         0.00000E+00
         0.00000E+00
         0.00000E+00
         0.00000E+00
         0.00000E+00
         0.00000E+00
         0.00000E+00
         0.00000E+00
         0.00000E+00
         0.00000E+00
         0.00000E+00
         0.00000E+00
         0.00000E+00
         0.00000E+00
         0.00000E+00
         0.00000E+00
         0.00000E+00
         0.00000E+00
         0.00000E+00
         0.00000E+00
         0.00000E+00
         0.00000E+00
         0.00000E+00
         0.00000E+00
         0.00000E+00
         0.00000E+00
         0.00000E+00
         0.00000E+00
         0.00000E+00
         0.00000E+00
         0.00000E+00
         0.00000E+00
         0.00000E+00
         0.00000E+00
         0.00000E+00
         0.00000E+00
         0.00000E+00
         0.00000E+00
         0.00000E+00
         0.00000E+00
         0.00000E+00
         0.00000E+00
         0.00000E+00
         0.00000E+00
         0.00000E+00
         0.00000E+00
         0.00000E+00
         0.00000E+00
         0.00000E+00
         0.00000E+00
         0.00000E+00
         0.00000E+00
         0.00000E+00
         0.00000E+00
         0.00000E+00
         0.00000E+00
         0.00000E+00
         0.00000E+00
         0.00000E+00
         0.00000E+00
         0.00000E+00
         0.00000E+00
         0.00000E+00
         0.00000E+00
         0.00000E+00
         0.00000E+00
         0.00000E+00
         0.00000E+00
         0.00000E+00
         0.00000E+00
         0.00000E+00
         0.00000E+00
         0.00000E+00
         0.00000E+00
         0.00000E+00
         0.00000E+00
         0.00000E+00
         0.00000E+00
         0.00000E+00
         0.00000E+00
         0.00000E+00
         0.00000E+00
         0.00000E+00
         0.00000E+00
         0.00000E+00
         0.00000E+00
         0.00000E+00
         0.00000E+00
         0.00000E+00
         0.00000E+00
         0.00000E+00
         0.00000E+00
         0.00000E+00
         0.00000E+00
         0.00000E+00
         0.00000E+00
         0.00000E+00
         0.00000E+00
         0.00000E+00
         0.00000E+00
         0.00000E+00
         0.00000E+00
         0.00000E+00
         0.00000E+00
         0.00000E+00
         0.00000E+00
         0.00000E+00
         0.00000E+00
         0.00000E+00
         0.00000E+00
         0.00000E+00
         0.00000E+00
         0.00000E+00
         0.00000E+00
         0.00000E+00
         0.00000E+00
         0.00000E+00
         0.00000E+00
         0.00000E+00
         0.00000E+00
         0.00000E+00
         0.00000E+00
         0.00000E+00
         0.00000E+00
         0.00000E+00
         0.00000E+00
         0.00000E+00
         0.00000E+00
         0.00000E+00
         0.00000E+00
         0.00000E+00
         0.00000E+00
         0.00000E+00
         0.00000E+00
         0.00000E+00
         0.00000E+00
         0.00000E+00
         0.00000E+00
         0.00000E+00
         0.00000E+00
         0.00000E+00
         0.00000E+00
         0.00000E+00
         0.00000E+00
         0.00000E+00
         0.00000E+00
         0.00000E+00
         0.00000E+00
         0.00000E+00
         0.00000E+00
         0.00000E+00
         0.00000E+00
         0.00000E+00
         0.00000E+00
         0.00000E+00
         0.00000E+00
         0.00000E+00
         0.00000E+00
         0.00000E+00
         0.00000E+00
         0.00000E+00
         0.00000E+00
         0.00000E+00
         0.00000E+00
         0.00000E+00
         0.00000E+00
         0.00000E+00
         0.00000E+00
         0.00000E+00
         0.00000E+00
         0.00000E+00
         0.00000E+00
         0.00000E+00
         0.00000E+00
         0.00000E+00
         0.00000E+00
         0.00000E+00
         0.00000E+00
         0.00000E+00
         0.00000E+00
         0.00000E+00
         0.00000E+00
         0.00000E+00
         0.00000E+00
         0.00000E+00
         0.00000E+00
         0.00000E+00
         0.00000E+00
         0.00000E+00
         0.00000E+00
         0.00000E+00
         0.00000E+00
         0.00000E+00
         0.00000E+00
         0.00000E+00
         0.00000E+00
         0.00000E+00
         0.00000E+00
         0.00000E+00
         0.00000E+00
         0.00000E+00
         0.00000E+00
         0.00000E+00
         0.00000E+00
         0.00000E+00
         0.00000E+00
         0.00000E+00
         0.00000E+00
         0.00000E+00
         0.00000E+00
         0.00000E+00
         0.00000E+00
         0.00000E+00
         0.00000E+00
         0.00000E+00
         0.00000E+00
         0.00000E+00
         0.00000E+00
         0.00000E+00
         0.00000E+00
         0.00000E+00
         0.00000E+00
         0.00000E+00
         0.00000E+00
         0.00000E+00
         0.00000E+00
         0.00000E+00
         0.00000E+00
         0.00000E+00
         0.00000E+00
         0.00000E+00
         0.00000E+00
         0.00000E+00
         0.00000E+00
         0.00000E+00
         0.00000E+00
         0.00000E+00
         0.00000E+00
         0.00000E+00
         0.00000E+00
         0.00000E+00
         0.00000E+00
         0.00000E+00
         0.00000E+00
         0.00000E+00
         0.00000E+00
         0.00000E+00
         0.00000E+00
         0.00000E+00
         0.00000E+00
         0.00000E+00
         0.00000E+00
         0.00000E+00
         0.00000E+00
         0.00000E+00
         0.00000E+00
         0.00000E+00
         0.00000E+00
         0.00000E+00
         0.00000E+00
         0.00000E+00
         0.00000E+00
         0.00000E+00
         0.00000E+00
         0.00000E+00
         0.00000E+00
         0.00000E+00
         0.00000E+00
         0.00000E+00
         0.00000E+00
         0.00000E+00
         0.00000E+00
         0.00000E+00
         0.00000E+00
         0.00000E+00
         0.00000E+00
         0.00000E+00
         0.00000E+00
         0.00000E+00
         0.00000E+00
         0.00000E+00
         0.00000E+00
         0.00000E+00
         0.00000E+00
         0.00000E+00
         0.00000E+00
         0.00000E+00
         0.00000E+00
         0.00000E+00
         0.00000E+00
         0.00000E+00
         0.00000E+00
         0.00000E+00
         0.00000E+00
         0.00000E+00
         0.00000E+00
         0.00000E+00
         0.00000E+00
         0.00000E+00
         0.00000E+00
         0.00000E+00
         0.00000E+00
         0.00000E+00
         0.00000E+00
         0.00000E+00
         0.00000E+00
         0.00000E+00
         0.00000E+00
         0.00000E+00
         0.00000E+00
         0.00000E+00
         0.00000E+00
         0.00000E+00
         0.00000E+00
         0.00000E+00
         0.00000E+00
         0.00000E+00
         0.00000E+00
         0.00000E+00
         0.00000E+00
         0.00000E+00
         0.00000E+00
         0.00000E+00
         0.00000E+00
         0.00000E+00
         0.00000E+00
         0.00000E+00
         0.00000E+00
         0.00000E+00
         0.00000E+00
         0.00000E+00
         0.00000E+00
         0.00000E+00
         0.00000E+00
         0.00000E+00
         0.00000E+00
         0.00000E+00
         0.00000E+00
         0.00000E+00
         0.00000E+00
         0.00000E+00
         0.00000E+00
         0.00000E+00
         0.00000E+00
         0.00000E+00
         0.00000E+00
         0.00000E+00
         0.00000E+00
         0.00000E+00
         0.00000E+00
         0.00000E+00
         0.00000E+00
         0.00000E+00
         0.00000E+00
         0.00000E+00
         0.00000E+00
         0.00000E+00
         0.00000E+00
         0.00000E+00
         0.00000E+00
         0.00000E+00
         0.00000E+00
         0.00000E+00
         0.00000E+00
         0.00000E+00
         0.00000E+00
         0.00000E+00
         0.00000E+00
         0.00000E+00
         0.00000E+00
         0.00000E+00
         0.00000E+00
         0.00000E+00
         0.00000E+00
         0.00000E+00
         0.00000E+00
         0.00000E+00
         0.00000E+00
         0.00000E+00
         0.00000E+00
         0.00000E+00
         0.00000E+00
         0.00000E+00
         0.00000E+00
         0.00000E+00
         0.00000E+00
         0.00000E+00
         0.00000E+00
         0.00000E+00
         0.00000E+00
         0.00000E+00
         0.00000E+00
         0.00000E+00
         0.00000E+00
         0.00000E+00
         0.00000E+00
         0.00000E+00
         0.00000E+00
         0.00000E+00
         0.00000E+00
         0.00000E+00
         0.00000E+00
         0.00000E+00
         0.00000E+00
         0.00000E+00
         0.00000E+00
         0.00000E+00
         0.00000E+00
         0.00000E+00
         0.00000E+00
         0.00000E+00
         0.00000E+00
         0.00000E+00
         0.00000E+00
         0.00000E+00
         0.00000E+00
         0.00000E+00
         0.00000E+00
         0.00000E+00
         0.00000E+00
         0.00000E+00
         0.00000E+00
         0.00000E+00
         0.00000E+00
         0.00000E+00
         0.00000E+00
         0.00000E+00
         0.00000E+00
         0.00000E+00
         0.00000E+00
         0.00000E+00
         0.00000E+00
         0.00000E+00
         0.00000E+00
         0.00000E+00
         0.00000E+00
         0.00000E+00
         0.00000E+00
         0.00000E+00
         0.00000E+00
         0.00000E+00
         0.00000E+00
         0.00000E+00
         0.00000E+00
         0.00000E+00
         0.00000E+00
         0.00000E+00
         0.00000E+00
         0.00000E+00
         0.00000E+00
         0.00000E+00
         0.00000E+00
         0.00000E+00
         0.00000E+00
         0.00000E+00
         0.00000E+00
         0.00000E+00
         0.00000E+00
         0.00000E+00
         0.00000E+00
         0.00000E+00
         0.00000E+00
         0.00000E+00
         0.00000E+00
         0.00000E+00
         0.00000E+00
         0.00000E+00
         0.00000E+00
         0.00000E+00
         0.00000E+00
         0.00000E+00
         0.00000E+00
         0.00000E+00
         0.00000E+00
         0.00000E+00
         0.00000E+00
         0.00000E+00
         0.00000E+00
         0.00000E+00
         0.00000E+00
         0.00000E+00
         0.00000E+00
         0.00000E+00
         0.00000E+00
         0.00000E+00
         0.00000E+00
         0.00000E+00
         0.00000E+00
         0.00000E+00
         0.00000E+00
         0.00000E+00
         0.00000E+00
         0.00000E+00
         0.00000E+00
         0.00000E+00
         0.00000E+00
         0.00000E+00
         0.00000E+00
         0.00000E+00
         0.00000E+00
         0.00000E+00
         0.00000E+00
         0.00000E+00
         0.00000E+00
         0.00000E+00
         0.00000E+00
         0.00000E+00
         0.00000E+00
         0.00000E+00
         0.00000E+00
         0.00000E+00
         0.00000E+00
         0.00000E+00
         0.00000E+00
         0.00000E+00
         0.00000E+00
         0.00000E+00
         0.00000E+00
         0.00000E+00
         0.00000E+00
         0.00000E+00
         0.00000E+00
         0.00000E+00
         0.00000E+00
         0.00000E+00
         0.00000E+00
         0.00000E+00
         0.00000E+00
         0.00000E+00
         0.00000E+00
         0.00000E+00
         0.00000E+00
         0.00000E+00
         0.00000E+00
         0.00000E+00
         0.00000E+00
         0.00000E+00
         0.00000E+00
         0.00000E+00
         0.00000E+00
         0.00000E+00
         0.00000E+00
         0.00000E+00
         0.00000E+00
         0.00000E+00
         0.00000E+00
         0.00000E+00
         0.00000E+00
         0.00000E+00
         0.00000E+00
         0.00000E+00
         0.00000E+00
         0.00000E+00
         0.00000E+00
         0.00000E+00
         0.00000E+00
         0.00000E+00
         0.00000E+00
         0.00000E+00
         0.00000E+00
         0.00000E+00
         0.00000E+00
         0.00000E+00
         0.00000E+00
         0.00000E+00
         0.00000E+00
         0.00000E+00
         0.00000E+00
         0.00000E+00
         0.00000E+00
         0.00000E+00
         0.00000E+00
         0.00000E+00
         0.00000E+00
         0.00000E+00
         0.00000E+00
         0.00000E+00
         0.00000E+00
         0.00000E+00
         0.00000E+00
         0.00000E+00
         0.00000E+00
         0.00000E+00
         0.00000E+00
         0.00000E+00
         0.00000E+00
         0.00000E+00
         0.00000E+00
         0.00000E+00
         0.00000E+00
         0.00000E+00
         0.00000E+00
         0.00000E+00
         0.00000E+00
         0.00000E+00
         0.00000E+00
         0.00000E+00
         0.00000E+00
         0.00000E+00
         0.00000E+00
         0.00000E+00
         0.00000E+00
         0.00000E+00
         0.00000E+00
         0.00000E+00
         0.00000E+00
         0.00000E+00
         0.00000E+00
         0.00000E+00
         0.00000E+00
         0.00000E+00
         0.00000E+00
         0.00000E+00
         0.00000E+00
         0.00000E+00
         0.00000E+00
         0.00000E+00
         0.00000E+00
         0.00000E+00
         0.00000E+00
         0.00000E+00
         0.00000E+00
         0.00000E+00
         0.00000E+00
         0.00000E+00
         0.00000E+00
         0.00000E+00
         0.00000E+00
         0.00000E+00
         0.00000E+00
         0.00000E+00
         0.00000E+00
         0.00000E+00
         0.00000E+00
         0.00000E+00
         0.00000E+00
         0.00000E+00
         0.00000E+00
         0.00000E+00
         0.00000E+00
         0.00000E+00
         0.00000E+00
         0.00000E+00
         0.00000E+00
         0.00000E+00
         0.00000E+00
         0.00000E+00
         0.00000E+00
         0.00000E+00
         0.00000E+00
         0.00000E+00
         0.00000E+00
         0.00000E+00
         0.00000E+00
         0.00000E+00
         0.00000E+00
         0.00000E+00
         0.00000E+00
         0.00000E+00
         0.00000E+00
         0.00000E+00
         0.00000E+00
         0.00000E+00
         0.00000E+00
         0.00000E+00
         0.00000E+00
         0.00000E+00
         0.00000E+00
         0.00000E+00
         0.00000E+00
         0.00000E+00
         0.00000E+00
         0.00000E+00
         0.00000E+00
         0.00000E+00
         0.00000E+00
         0.00000E+00
         0.00000E+00
         0.00000E+00
         0.00000E+00
         0.00000E+00
         0.00000E+00
         0.00000E+00
         0.00000E+00
         0.00000E+00
         0.00000E+00
         0.00000E+00
         0.00000E+00
         0.00000E+00
         0.00000E+00
         0.00000E+00
         0.00000E+00
         0.00000E+00
         0.00000E+00
         0.00000E+00
         0.00000E+00
         0.00000E+00
         0.00000E+00
         0.00000E+00
         0.00000E+00
         0.00000E+00
         0.00000E+00
         0.00000E+00
         0.00000E+00
         0.00000E+00
         0.00000E+00
         0.00000E+00
         0.00000E+00
         0.00000E+00
         0.00000E+00
         0.00000E+00
         0.00000E+00
         0.00000E+00
         0.00000E+00
         0.00000E+00
         0.00000E+00
         0.00000E+00
         0.00000E+00
         0.00000E+00
         0.00000E+00
         0.00000E+00
         0.00000E+00
         0.00000E+00
         0.00000E+00
         0.00000E+00
         0.00000E+00
         0.00000E+00
         0.00000E+00
         0.00000E+00
         0.00000E+00
         0.00000E+00
         0.00000E+00
         0.00000E+00
         0.00000E+00
         0.00000E+00
         0.00000E+00
         0.00000E+00
         0.00000E+00
         0.00000E+00
         0.00000E+00
         0.00000E+00
         0.00000E+00
         0.00000E+00
         0.00000E+00
         0.00000E+00
         0.00000E+00
         0.00000E+00
         0.00000E+00
         0.00000E+00
         0.00000E+00
         0.00000E+00
         0.00000E+00
         0.00000E+00
         0.00000E+00
         0.00000E+00
         0.00000E+00
         0.00000E+00
         0.00000E+00
         0.00000E+00
         0.00000E+00
         0.00000E+00
         0.00000E+00
         0.00000E+00
         0.00000E+00
         0.00000E+00
         0.00000E+00
         0.00000E+00
         0.00000E+00
         0.00000E+00
         0.00000E+00
         0.00000E+00
         0.00000E+00
         0.00000E+00
         0.00000E+00
         0.00000E+00
         0.00000E+00
         0.00000E+00
         0.00000E+00
         0.00000E+00
         0.00000E+00
         0.00000E+00
         0.00000E+00
         0.00000E+00
         0.00000E+00
         0.00000E+00
         0.00000E+00
         0.00000E+00
         0.00000E+00
         0.00000E+00
         0.00000E+00
         0.00000E+00
         0.00000E+00
         0.00000E+00
         0.00000E+00
         0.00000E+00
         0.00000E+00
         0.00000E+00
         0.00000E+00
         0.00000E+00
         0.00000E+00
         0.00000E+00
         0.00000E+00
         0.00000E+00
         0.00000E+00
         0.00000E+00
         0.00000E+00
         0.00000E+00
         0.00000E+00
         0.00000E+00
         0.00000E+00
         0.00000E+00
         0.00000E+00
         0.00000E+00
         0.00000E+00
         0.00000E+00
         0.00000E+00
         0.00000E+00
         0.00000E+00
         0.00000E+00
         0.00000E+00
         0.00000E+00
         0.00000E+00
         0.00000E+00
         0.00000E+00
         0.00000E+00
         0.00000E+00
         0.00000E+00
         0.00000E+00
         0.00000E+00
         0.00000E+00
         0.00000E+00
         0.00000E+00
         0.00000E+00
         0.00000E+00
         0.00000E+00
         0.00000E+00
         0.00000E+00
         0.00000E+00
         0.00000E+00
         0.00000E+00
         0.00000E+00
         0.00000E+00
         0.00000E+00
         0.00000E+00
         0.00000E+00
         0.00000E+00
         0.00000E+00
         0.00000E+00
         0.00000E+00
         0.00000E+00
         0.00000E+00
         0.00000E+00
         0.00000E+00
         0.00000E+00
         0.00000E+00
         0.00000E+00
         0.00000E+00
         0.00000E+00
         0.00000E+00
         0.00000E+00
         0.00000E+00
         0.00000E+00
         0.00000E+00
         0.00000E+00
         0.00000E+00
         0.00000E+00
         0.00000E+00
         0.00000E+00
         0.00000E+00
         0.00000E+00
         0.00000E+00
         0.00000E+00
         0.00000E+00
         0.00000E+00
         0.00000E+00
         0.00000E+00
         0.00000E+00
         0.00000E+00
         0.00000E+00
         0.00000E+00
         0.00000E+00
         0.00000E+00
         0.00000E+00
         0.00000E+00
         0.00000E+00
         0.00000E+00
         0.00000E+00
         0.00000E+00
         0.00000E+00
         0.00000E+00
         0.00000E+00
         0.00000E+00
         0.00000E+00
         0.00000E+00
         0.00000E+00
         0.00000E+00
         0.00000E+00
         0.00000E+00
         0.00000E+00
         0.00000E+00
         0.00000E+00
         0.00000E+00
         0.00000E+00
         0.00000E+00
         0.00000E+00
         0.00000E+00
         0.00000E+00
         0.00000E+00
         0.00000E+00
         0.00000E+00
         0.00000E+00
         0.00000E+00
         0.00000E+00
         0.00000E+00
         0.00000E+00
         0.00000E+00
         0.00000E+00
         0.00000E+00
         0.00000E+00
         0.00000E+00
         0.00000E+00
         0.00000E+00
         0.00000E+00
         0.00000E+00
         0.00000E+00
         0.00000E+00
         0.00000E+00
         0.00000E+00
         0.00000E+00
         0.00000E+00
         0.00000E+00
         0.00000E+00
         0.00000E+00
         0.00000E+00
         0.00000E+00
         0.00000E+00
         0.00000E+00
         0.00000E+00
         0.00000E+00
         0.00000E+00
         0.00000E+00
         0.00000E+00
         0.00000E+00
         0.00000E+00
         0.00000E+00
         0.00000E+00
         0.00000E+00
         0.00000E+00
         0.00000E+00
         0.00000E+00
         0.00000E+00
         0.00000E+00
         0.00000E+00
         0.00000E+00
         0.00000E+00
         0.00000E+00
         0.00000E+00
         0.00000E+00
         0.00000E+00
         0.00000E+00
         0.00000E+00
         0.00000E+00
         0.00000E+00
         0.00000E+00
         0.00000E+00
         0.00000E+00
         0.00000E+00
         0.00000E+00
         0.00000E+00
         0.00000E+00
         0.00000E+00
         0.00000E+00
         0.00000E+00
         0.00000E+00
         0.00000E+00
         0.00000E+00
         0.00000E+00
         0.00000E+00
         0.00000E+00
         0.00000E+00
         0.00000E+00
         0.00000E+00
         0.00000E+00
         0.00000E+00
         0.00000E+00
         0.00000E+00
         0.00000E+00
         0.00000E+00
         0.00000E+00
         0.00000E+00
         0.00000E+00
         0.00000E+00
         0.00000E+00
         0.00000E+00
         0.00000E+00
         0.00000E+00
         0.00000E+00
         0.00000E+00
         0.00000E+00
         0.00000E+00
         0.00000E+00
         0.00000E+00
         0.00000E+00
         0.00000E+00
         0.00000E+00
         0.00000E+00
         0.00000E+00
         0.00000E+00
         0.00000E+00
         0.00000E+00
         0.00000E+00
         0.00000E+00
         0.00000E+00
         0.00000E+00
         0.00000E+00
         0.00000E+00
         0.00000E+00
         0.00000E+00
         0.00000E+00
         0.00000E+00
         0.00000E+00
         0.00000E+00
         0.00000E+00
         0.00000E+00
         0.00000E+00
         0.00000E+00
         0.00000E+00
         0.00000E+00
         0.00000E+00
         0.00000E+00
         0.00000E+00
         0.00000E+00
         0.00000E+00
         0.00000E+00
         0.00000E+00
         0.00000E+00
         0.00000E+00
         0.00000E+00
         0.00000E+00
         0.00000E+00
         0.00000E+00
         0.00000E+00
         0.00000E+00
         0.00000E+00
         0.00000E+00
         0.00000E+00
         0.00000E+00
         0.00000E+00
         0.00000E+00
         0.00000E+00
         0.00000E+00
         0.00000E+00
         0.00000E+00
         0.00000E+00
         0.00000E+00
         0.00000E+00
         0.00000E+00
         0.00000E+00
         0.00000E+00
         0.00000E+00
         0.00000E+00
         0.00000E+00
         0.00000E+00
         0.00000E+00
         0.00000E+00
         0.00000E+00
         0.00000E+00
         0.00000E+00
         0.00000E+00
         0.00000E+00
         0.00000E+00
         0.00000E+00
         0.00000E+00
         0.00000E+00
         0.00000E+00
         0.00000E+00
         0.00000E+00
         0.00000E+00
         0.00000E+00
         0.00000E+00
         0.00000E+00
         0.00000E+00
         0.00000E+00
         0.00000E+00
         0.00000E+00
         0.00000E+00
         0.00000E+00
         0.00000E+00
         0.00000E+00
         0.00000E+00
         0.00000E+00
         0.00000E+00
         0.00000E+00
         0.00000E+00
         0.00000E+00
         0.00000E+00
         0.00000E+00
         0.00000E+00
         0.00000E+00
         0.00000E+00
         0.00000E+00
         0.00000E+00
         0.00000E+00
         0.00000E+00
         0.00000E+00
         0.00000E+00
         0.00000E+00
         0.00000E+00
         0.00000E+00
         0.00000E+00
         0.00000E+00
         0.00000E+00
         0.00000E+00
         0.00000E+00
         0.00000E+00
         0.00000E+00
         0.00000E+00
         0.00000E+00
         0.00000E+00
         0.00000E+00
         0.00000E+00
         0.00000E+00
         0.00000E+00
         0.00000E+00
         0.00000E+00
         0.00000E+00
         0.00000E+00
         0.00000E+00
         0.00000E+00
         0.00000E+00
         0.00000E+00
         0.00000E+00
         0.00000E+00
         0.00000E+00
         0.00000E+00
         0.00000E+00
         0.00000E+00
         0.00000E+00
         0.00000E+00
         0.00000E+00
         0.00000E+00
         0.00000E+00
         0.00000E+00
         0.00000E+00
         0.00000E+00
         0.00000E+00
         0.00000E+00
         0.00000E+00
         0.00000E+00
         0.00000E+00
         0.00000E+00
         0.00000E+00
         0.00000E+00
         0.00000E+00
         0.00000E+00
         0.00000E+00
         0.00000E+00
         0.00000E+00
         0.00000E+00
         0.00000E+00
         0.00000E+00
         0.00000E+00
         0.00000E+00
         0.00000E+00
         0.00000E+00
         0.00000E+00
         0.00000E+00
         0.00000E+00
         0.00000E+00
         0.00000E+00
         0.00000E+00
         0.00000E+00
         0.00000E+00
         0.00000E+00
         0.00000E+00
         0.00000E+00
         0.00000E+00
         0.00000E+00
         0.00000E+00
         0.00000E+00
         0.00000E+00
         0.00000E+00
         0.00000E+00
         0.00000E+00
         0.00000E+00
         0.00000E+00
         0.00000E+00
         0.00000E+00
         0.00000E+00
         0.00000E+00
         0.00000E+00
         0.00000E+00
         0.00000E+00
         0.00000E+00
         0.00000E+00
         0.00000E+00
  
SCALARS                init_velocity_y  double 1
LOOKUP_TABLE default
         0.00000E+00
         0.00000E+00
         0.00000E+00
         0.00000E+00
         0.00000E+00
         0.00000E+00
         0.00000E+00
         0.00000E+00
         0.00000E+00
         0.00000E+00
         0.00000E+00
         0.00000E+00
         0.00000E+00
         0.00000E+00
         0.00000E+00
         0.00000E+00
         0.00000E+00
         0.00000E+00
         0.00000E+00
         0.00000E+00
         0.00000E+00
         0.00000E+00
         0.00000E+00
         0.00000E+00
         0.00000E+00
         0.00000E+00
         0.00000E+00
         0.00000E+00
         0.00000E+00
         0.00000E+00
         0.00000E+00
         0.00000E+00
         0.00000E+00
         0.00000E+00
         0.00000E+00
         0.00000E+00
         0.00000E+00
         0.00000E+00
         0.00000E+00
         0.00000E+00
         0.00000E+00
         0.00000E+00
         0.00000E+00
         0.00000E+00
         0.00000E+00
         0.00000E+00
         0.00000E+00
         0.00000E+00
         0.00000E+00
         0.00000E+00
         0.00000E+00
         0.00000E+00
         0.00000E+00
         0.00000E+00
         0.00000E+00
         0.00000E+00
         0.00000E+00
         0.00000E+00
         0.00000E+00
         0.00000E+00
         0.00000E+00
         0.00000E+00
         0.00000E+00
         0.00000E+00
         0.00000E+00
         0.00000E+00
         0.00000E+00
         0.00000E+00
         0.00000E+00
         0.00000E+00
         0.00000E+00
         0.00000E+00
         0.00000E+00
         0.00000E+00
         0.00000E+00
         0.00000E+00
         0.00000E+00
         0.00000E+00
         0.00000E+00
         0.00000E+00
         0.00000E+00
         0.00000E+00
         0.00000E+00
         0.00000E+00
         0.00000E+00
         0.00000E+00
         0.00000E+00
         0.00000E+00
         0.00000E+00
         0.00000E+00
         0.00000E+00
         0.00000E+00
         0.00000E+00
         0.00000E+00
         0.00000E+00
         0.00000E+00
         0.00000E+00
         0.00000E+00
         0.00000E+00
         0.00000E+00
         0.00000E+00
         0.00000E+00
         0.00000E+00
         0.00000E+00
         0.00000E+00
         0.00000E+00
         0.00000E+00
         0.00000E+00
         0.00000E+00
         0.00000E+00
         0.00000E+00
         0.00000E+00
         0.00000E+00
         0.00000E+00
         0.00000E+00
         0.00000E+00
         0.00000E+00
         0.00000E+00
         0.00000E+00
         0.00000E+00
         0.00000E+00
         0.00000E+00
         0.00000E+00
         0.00000E+00
         0.00000E+00
         0.00000E+00
         0.00000E+00
         0.00000E+00
         0.00000E+00
         0.00000E+00
         0.00000E+00
         0.00000E+00
         0.00000E+00
         0.00000E+00
         0.00000E+00
         0.00000E+00
         0.00000E+00
         0.00000E+00
         0.00000E+00
         0.00000E+00
         0.00000E+00
         0.00000E+00
         0.00000E+00
         0.00000E+00
         0.00000E+00
         0.00000E+00
         0.00000E+00
         0.00000E+00
         0.00000E+00
         0.00000E+00
         0.00000E+00
         0.00000E+00
         0.00000E+00
         0.00000E+00
         0.00000E+00
         0.00000E+00
         0.00000E+00
         0.00000E+00
         0.00000E+00
         0.00000E+00
         0.00000E+00
         0.00000E+00
         0.00000E+00
         0.00000E+00
         0.00000E+00
         0.00000E+00
         0.00000E+00
         0.00000E+00
         0.00000E+00
         0.00000E+00
         0.00000E+00
         0.00000E+00
         0.00000E+00
         0.00000E+00
         0.00000E+00
         0.00000E+00
         0.00000E+00
         0.00000E+00
         0.00000E+00
         0.00000E+00
         0.00000E+00
         0.00000E+00
         0.00000E+00
         0.00000E+00
         0.00000E+00
         0.00000E+00
         0.00000E+00
         0.00000E+00
         0.00000E+00
         0.00000E+00
         0.00000E+00
         0.00000E+00
         0.00000E+00
         0.00000E+00
         0.00000E+00
         0.00000E+00
         0.00000E+00
         0.00000E+00
         0.00000E+00
         0.00000E+00
         0.00000E+00
         0.00000E+00
         0.00000E+00
         0.00000E+00
         0.00000E+00
         0.00000E+00
         0.00000E+00
         0.00000E+00
         0.00000E+00
         0.00000E+00
         0.00000E+00
         0.00000E+00
         0.00000E+00
         0.00000E+00
         0.00000E+00
         0.00000E+00
         0.00000E+00
         0.00000E+00
         0.00000E+00
         0.00000E+00
         0.00000E+00
         0.00000E+00
         0.00000E+00
         0.00000E+00
         0.00000E+00
         0.00000E+00
         0.00000E+00
         0.00000E+00
         0.00000E+00
         0.00000E+00
         0.00000E+00
         0.00000E+00
         0.00000E+00
         0.00000E+00
         0.00000E+00
         0.00000E+00
         0.00000E+00
         0.00000E+00
         0.00000E+00
         0.00000E+00
         0.00000E+00
         0.00000E+00
         0.00000E+00
         0.00000E+00
         0.00000E+00
         0.00000E+00
         0.00000E+00
         0.00000E+00
         0.00000E+00
         0.00000E+00
         0.00000E+00
         0.00000E+00
         0.00000E+00
         0.00000E+00
         0.00000E+00
         0.00000E+00
         0.00000E+00
         0.00000E+00
         0.00000E+00
         0.00000E+00
         0.00000E+00
         0.00000E+00
         0.00000E+00
         0.00000E+00
         0.00000E+00
         0.00000E+00
         0.00000E+00
         0.00000E+00
         0.00000E+00
         0.00000E+00
         0.00000E+00
         0.00000E+00
         0.00000E+00
         0.00000E+00
         0.00000E+00
         0.00000E+00
         0.00000E+00
         0.00000E+00
         0.00000E+00
         0.00000E+00
         0.00000E+00
         0.00000E+00
         0.00000E+00
         0.00000E+00
         0.00000E+00
         0.00000E+00
         0.00000E+00
         0.00000E+00
         0.00000E+00
         0.00000E+00
         0.00000E+00
         0.00000E+00
         0.00000E+00
         0.00000E+00
         0.00000E+00
         0.00000E+00
         0.00000E+00
         0.00000E+00
         0.00000E+00
         0.00000E+00
         0.00000E+00
         0.00000E+00
         0.00000E+00
         0.00000E+00
         0.00000E+00
         0.00000E+00
         0.00000E+00
         0.00000E+00
         0.00000E+00
         0.00000E+00
         0.00000E+00
         0.00000E+00
         0.00000E+00
         0.00000E+00
         0.00000E+00
         0.00000E+00
         0.00000E+00
         0.00000E+00
         0.00000E+00
         0.00000E+00
         0.00000E+00
         0.00000E+00
         0.00000E+00
         0.00000E+00
         0.00000E+00
         0.00000E+00
         0.00000E+00
         0.00000E+00
         0.00000E+00
         0.00000E+00
         0.00000E+00
         0.00000E+00
         0.00000E+00
         0.00000E+00
         0.00000E+00
         0.00000E+00
         0.00000E+00
         0.00000E+00
         0.00000E+00
         0.00000E+00
         0.00000E+00
         0.00000E+00
         0.00000E+00
         0.00000E+00
         0.00000E+00
         0.00000E+00
         0.00000E+00
         0.00000E+00
         0.00000E+00
         0.00000E+00
         0.00000E+00
         0.00000E+00
         0.00000E+00
         0.00000E+00
         0.00000E+00
         0.00000E+00
         0.00000E+00
         0.00000E+00
         0.00000E+00
         0.00000E+00
         0.00000E+00
         0.00000E+00
         0.00000E+00
         0.00000E+00
         0.00000E+00
         0.00000E+00
         0.00000E+00
         0.00000E+00
         0.00000E+00
         0.00000E+00
         0.00000E+00
         0.00000E+00
         0.00000E+00
         0.00000E+00
         0.00000E+00
         0.00000E+00
         0.00000E+00
         0.00000E+00
         0.00000E+00
         0.00000E+00
         0.00000E+00
         0.00000E+00
         0.00000E+00
         0.00000E+00
         0.00000E+00
         0.00000E+00
         0.00000E+00
         0.00000E+00
         0.00000E+00
         0.00000E+00
         0.00000E+00
         0.00000E+00
         0.00000E+00
         0.00000E+00
         0.00000E+00
         0.00000E+00
         0.00000E+00
         0.00000E+00
         0.00000E+00
         0.00000E+00
         0.00000E+00
         0.00000E+00
         0.00000E+00
         0.00000E+00
         0.00000E+00
         0.00000E+00
         0.00000E+00
         0.00000E+00
         0.00000E+00
         0.00000E+00
         0.00000E+00
         0.00000E+00
         0.00000E+00
         0.00000E+00
         0.00000E+00
         0.00000E+00
         0.00000E+00
         0.00000E+00
         0.00000E+00
         0.00000E+00
         0.00000E+00
         0.00000E+00
         0.00000E+00
         0.00000E+00
         0.00000E+00
         0.00000E+00
         0.00000E+00
         0.00000E+00
         0.00000E+00
         0.00000E+00
         0.00000E+00
         0.00000E+00
         0.00000E+00
         0.00000E+00
         0.00000E+00
         0.00000E+00
         0.00000E+00
         0.00000E+00
         0.00000E+00
         0.00000E+00
         0.00000E+00
         0.00000E+00
         0.00000E+00
         0.00000E+00
         0.00000E+00
         0.00000E+00
         0.00000E+00
         0.00000E+00
         0.00000E+00
         0.00000E+00
         0.00000E+00
         0.00000E+00
         0.00000E+00
         0.00000E+00
         0.00000E+00
         0.00000E+00
         0.00000E+00
         0.00000E+00
         0.00000E+00
         0.00000E+00
         0.00000E+00
         0.00000E+00
         0.00000E+00
         0.00000E+00
         0.00000E+00
         0.00000E+00
         0.00000E+00
         0.00000E+00
         0.00000E+00
         0.00000E+00
         0.00000E+00
         0.00000E+00
         0.00000E+00
         0.00000E+00
         0.00000E+00
         0.00000E+00
         0.00000E+00
         0.00000E+00
         0.00000E+00
         0.00000E+00
         0.00000E+00
         0.00000E+00
         0.00000E+00
         0.00000E+00
         0.00000E+00
         0.00000E+00
         0.00000E+00
         0.00000E+00
         0.00000E+00
         0.00000E+00
         0.00000E+00
         0.00000E+00
         0.00000E+00
         0.00000E+00
         0.00000E+00
         0.00000E+00
         0.00000E+00
         0.00000E+00
         0.00000E+00
         0.00000E+00
         0.00000E+00
         0.00000E+00
         0.00000E+00
         0.00000E+00
         0.00000E+00
         0.00000E+00
         0.00000E+00
         0.00000E+00
         0.00000E+00
         0.00000E+00
         0.00000E+00
         0.00000E+00
         0.00000E+00
         0.00000E+00
         0.00000E+00
         0.00000E+00
         0.00000E+00
         0.00000E+00
         0.00000E+00
         0.00000E+00
         0.00000E+00
         0.00000E+00
         0.00000E+00
         0.00000E+00
         0.00000E+00
         0.00000E+00
         0.00000E+00
         0.00000E+00
         0.00000E+00
         0.00000E+00
         0.00000E+00
         0.00000E+00
         0.00000E+00
         0.00000E+00
         0.00000E+00
         0.00000E+00
         0.00000E+00
         0.00000E+00
         0.00000E+00
         0.00000E+00
         0.00000E+00
         0.00000E+00
         0.00000E+00
         0.00000E+00
         0.00000E+00
         0.00000E+00
         0.00000E+00
         0.00000E+00
         0.00000E+00
         0.00000E+00
         0.00000E+00
         0.00000E+00
         0.00000E+00
         0.00000E+00
         0.00000E+00
         0.00000E+00
         0.00000E+00
         0.00000E+00
         0.00000E+00
         0.00000E+00
         0.00000E+00
         0.00000E+00
         0.00000E+00
         0.00000E+00
         0.00000E+00
         0.00000E+00
         0.00000E+00
         0.00000E+00
         0.00000E+00
         0.00000E+00
         0.00000E+00
         0.00000E+00
         0.00000E+00
         0.00000E+00
         0.00000E+00
         0.00000E+00
         0.00000E+00
         0.00000E+00
         0.00000E+00
         0.00000E+00
         0.00000E+00
         0.00000E+00
         0.00000E+00
         0.00000E+00
         0.00000E+00
         0.00000E+00
         0.00000E+00
         0.00000E+00
         0.00000E+00
         0.00000E+00
         0.00000E+00
         0.00000E+00
         0.00000E+00
         0.00000E+00
         0.00000E+00
         0.00000E+00
         0.00000E+00
         0.00000E+00
         0.00000E+00
         0.00000E+00
         0.00000E+00
         0.00000E+00
         0.00000E+00
         0.00000E+00
         0.00000E+00
         0.00000E+00
         0.00000E+00
         0.00000E+00
         0.00000E+00
         0.00000E+00
         0.00000E+00
         0.00000E+00
         0.00000E+00
         0.00000E+00
         0.00000E+00
         0.00000E+00
         0.00000E+00
         0.00000E+00
         0.00000E+00
         0.00000E+00
         0.00000E+00
         0.00000E+00
         0.00000E+00
         0.00000E+00
         0.00000E+00
         0.00000E+00
         0.00000E+00
         0.00000E+00
         0.00000E+00
         0.00000E+00
         0.00000E+00
         0.00000E+00
         0.00000E+00
         0.00000E+00
         0.00000E+00
         0.00000E+00
         0.00000E+00
         0.00000E+00
         0.00000E+00
         0.00000E+00
         0.00000E+00
         0.00000E+00
         0.00000E+00
         0.00000E+00
         0.00000E+00
         0.00000E+00
         0.00000E+00
         0.00000E+00
         0.00000E+00
         0.00000E+00
         0.00000E+00
         0.00000E+00
         0.00000E+00
         0.00000E+00
         0.00000E+00
         0.00000E+00
         0.00000E+00
         0.00000E+00
         0.00000E+00
         0.00000E+00
         0.00000E+00
         0.00000E+00
         0.00000E+00
         0.00000E+00
         0.00000E+00
         0.00000E+00
         0.00000E+00
         0.00000E+00
         0.00000E+00
         0.00000E+00
         0.00000E+00
         0.00000E+00
         0.00000E+00
         0.00000E+00
         0.00000E+00
         0.00000E+00
         0.00000E+00
         0.00000E+00
         0.00000E+00
         0.00000E+00
         0.00000E+00
         0.00000E+00
         0.00000E+00
         0.00000E+00
         0.00000E+00
         0.00000E+00
         0.00000E+00
         0.00000E+00
         0.00000E+00
         0.00000E+00
         0.00000E+00
         0.00000E+00
         0.00000E+00
         0.00000E+00
         0.00000E+00
         0.00000E+00
         0.00000E+00
         0.00000E+00
         0.00000E+00
         0.00000E+00
         0.00000E+00
         0.00000E+00
         0.00000E+00
         0.00000E+00
         0.00000E+00
         0.00000E+00
         0.00000E+00
         0.00000E+00
         0.00000E+00
         0.00000E+00
         0.00000E+00
         0.00000E+00
         0.00000E+00
         0.00000E+00
         0.00000E+00
         0.00000E+00
         0.00000E+00
         0.00000E+00
         0.00000E+00
         0.00000E+00
         0.00000E+00
         0.00000E+00
         0.00000E+00
         0.00000E+00
         0.00000E+00
         0.00000E+00
         0.00000E+00
         0.00000E+00
         0.00000E+00
         0.00000E+00
         0.00000E+00
         0.00000E+00
         0.00000E+00
         0.00000E+00
         0.00000E+00
         0.00000E+00
         0.00000E+00
         0.00000E+00
         0.00000E+00
         0.00000E+00
         0.00000E+00
         0.00000E+00
         0.00000E+00
         0.00000E+00
         0.00000E+00
         0.00000E+00
         0.00000E+00
         0.00000E+00
         0.00000E+00
         0.00000E+00
         0.00000E+00
         0.00000E+00
         0.00000E+00
         0.00000E+00
         0.00000E+00
         0.00000E+00
         0.00000E+00
         0.00000E+00
         0.00000E+00
         0.00000E+00
         0.00000E+00
         0.00000E+00
         0.00000E+00
         0.00000E+00
         0.00000E+00
         0.00000E+00
         0.00000E+00
         0.00000E+00
         0.00000E+00
         0.00000E+00
         0.00000E+00
         0.00000E+00
         0.00000E+00
         0.00000E+00
         0.00000E+00
         0.00000E+00
         0.00000E+00
         0.00000E+00
         0.00000E+00
         0.00000E+00
         0.00000E+00
         0.00000E+00
         0.00000E+00
         0.00000E+00
         0.00000E+00
         0.00000E+00
         0.00000E+00
         0.00000E+00
         0.00000E+00
         0.00000E+00
         0.00000E+00
         0.00000E+00
         0.00000E+00
         0.00000E+00
         0.00000E+00
         0.00000E+00
         0.00000E+00
         0.00000E+00
         0.00000E+00
         0.00000E+00
         0.00000E+00
         0.00000E+00
         0.00000E+00
         0.00000E+00
         0.00000E+00
         0.00000E+00
         0.00000E+00
         0.00000E+00
         0.00000E+00
         0.00000E+00
         0.00000E+00
         0.00000E+00
         0.00000E+00
         0.00000E+00
         0.00000E+00
         0.00000E+00
         0.00000E+00
         0.00000E+00
         0.00000E+00
         0.00000E+00
         0.00000E+00
         0.00000E+00
         0.00000E+00
         0.00000E+00
         0.00000E+00
         0.00000E+00
         0.00000E+00
         0.00000E+00
         0.00000E+00
         0.00000E+00
         0.00000E+00
         0.00000E+00
         0.00000E+00
         0.00000E+00
         0.00000E+00
         0.00000E+00
         0.00000E+00
         0.00000E+00
         0.00000E+00
         0.00000E+00
         0.00000E+00
         0.00000E+00
         0.00000E+00
         0.00000E+00
         0.00000E+00
         0.00000E+00
         0.00000E+00
         0.00000E+00
         0.00000E+00
         0.00000E+00
         0.00000E+00
         0.00000E+00
         0.00000E+00
         0.00000E+00
         0.00000E+00
         0.00000E+00
         0.00000E+00
         0.00000E+00
         0.00000E+00
         0.00000E+00
         0.00000E+00
         0.00000E+00
         0.00000E+00
         0.00000E+00
         0.00000E+00
         0.00000E+00
         0.00000E+00
         0.00000E+00
         0.00000E+00
         0.00000E+00
         0.00000E+00
         0.00000E+00
         0.00000E+00
         0.00000E+00
         0.00000E+00
         0.00000E+00
         0.00000E+00
         0.00000E+00
         0.00000E+00
         0.00000E+00
         0.00000E+00
         0.00000E+00
         0.00000E+00
         0.00000E+00
         0.00000E+00
         0.00000E+00
         0.00000E+00
         0.00000E+00
         0.00000E+00
         0.00000E+00
         0.00000E+00
         0.00000E+00
         0.00000E+00
         0.00000E+00
         0.00000E+00
         0.00000E+00
         0.00000E+00
         0.00000E+00
         0.00000E+00
         0.00000E+00
         0.00000E+00
         0.00000E+00
         0.00000E+00
         0.00000E+00
         0.00000E+00
         0.00000E+00
         0.00000E+00
         0.00000E+00
         0.00000E+00
         0.00000E+00
         0.00000E+00
         0.00000E+00
         0.00000E+00
         0.00000E+00
         0.00000E+00
         0.00000E+00
         0.00000E+00
         0.00000E+00
         0.00000E+00
         0.00000E+00
         0.00000E+00
         0.00000E+00
         0.00000E+00
         0.00000E+00
         0.00000E+00
         0.00000E+00
         0.00000E+00
         0.00000E+00
         0.00000E+00
         0.00000E+00
         0.00000E+00
         0.00000E+00
         0.00000E+00
         0.00000E+00
         0.00000E+00
         0.00000E+00
         0.00000E+00
         0.00000E+00
         0.00000E+00
         0.00000E+00
         0.00000E+00
         0.00000E+00
         0.00000E+00
         0.00000E+00
         0.00000E+00
         0.00000E+00
         0.00000E+00
         0.00000E+00
         0.00000E+00
         0.00000E+00
         0.00000E+00
         0.00000E+00
         0.00000E+00
         0.00000E+00
         0.00000E+00
         0.00000E+00
         0.00000E+00
         0.00000E+00
         0.00000E+00
         0.00000E+00
         0.00000E+00
         0.00000E+00
         0.00000E+00
         0.00000E+00
         0.00000E+00
         0.00000E+00
         0.00000E+00
         0.00000E+00
         0.00000E+00
         0.00000E+00
         0.00000E+00
         0.00000E+00
         0.00000E+00
         0.00000E+00
         0.00000E+00
         0.00000E+00
         0.00000E+00
         0.00000E+00
         0.00000E+00
         0.00000E+00
         0.00000E+00
         0.00000E+00
         0.00000E+00
         0.00000E+00
         0.00000E+00
         0.00000E+00
         0.00000E+00
         0.00000E+00
         0.00000E+00
         0.00000E+00
         0.00000E+00
         0.00000E+00
         0.00000E+00
         0.00000E+00
         0.00000E+00
         0.00000E+00
         0.00000E+00
         0.00000E+00
         0.00000E+00
         0.00000E+00
         0.00000E+00
         0.00000E+00
         0.00000E+00
         0.00000E+00
         0.00000E+00
         0.00000E+00
         0.00000E+00
         0.00000E+00
         0.00000E+00
         0.00000E+00
         0.00000E+00
         0.00000E+00
         0.00000E+00
         0.00000E+00
         0.00000E+00
         0.00000E+00
         0.00000E+00
         0.00000E+00
         0.00000E+00
         0.00000E+00
         0.00000E+00
         0.00000E+00
         0.00000E+00
         0.00000E+00
         0.00000E+00
         0.00000E+00
         0.00000E+00
         0.00000E+00
         0.00000E+00
         0.00000E+00
         0.00000E+00
         0.00000E+00
         0.00000E+00
         0.00000E+00
         0.00000E+00
         0.00000E+00
         0.00000E+00
         0.00000E+00
         0.00000E+00
         0.00000E+00
         0.00000E+00
         0.00000E+00
         0.00000E+00
         0.00000E+00
         0.00000E+00
         0.00000E+00
         0.00000E+00
         0.00000E+00
         0.00000E+00
         0.00000E+00
         0.00000E+00
         0.00000E+00
         0.00000E+00
         0.00000E+00
         0.00000E+00
         0.00000E+00
         0.00000E+00
         0.00000E+00
         0.00000E+00
         0.00000E+00
         0.00000E+00
         0.00000E+00
         0.00000E+00
         0.00000E+00
         0.00000E+00
         0.00000E+00
         0.00000E+00
         0.00000E+00
         0.00000E+00
         0.00000E+00
         0.00000E+00
         0.00000E+00
         0.00000E+00
         0.00000E+00
         0.00000E+00
         0.00000E+00
         0.00000E+00
         0.00000E+00
         0.00000E+00
         0.00000E+00
         0.00000E+00
         0.00000E+00
         0.00000E+00
         0.00000E+00
         0.00000E+00
         0.00000E+00
         0.00000E+00
         0.00000E+00
         0.00000E+00
         0.00000E+00
         0.00000E+00
         0.00000E+00
         0.00000E+00
         0.00000E+00
         0.00000E+00
         0.00000E+00
         0.00000E+00
         0.00000E+00
         0.00000E+00
         0.00000E+00
         0.00000E+00
         0.00000E+00
         0.00000E+00
         0.00000E+00
         0.00000E+00
         0.00000E+00
         0.00000E+00
         0.00000E+00
         0.00000E+00
         0.00000E+00
         0.00000E+00
         0.00000E+00
         0.00000E+00
         0.00000E+00
         0.00000E+00
         0.00000E+00
         0.00000E+00
         0.00000E+00
         0.00000E+00
         0.00000E+00
         0.00000E+00
         0.00000E+00
         0.00000E+00
         0.00000E+00
         0.00000E+00
         0.00000E+00
         0.00000E+00
         0.00000E+00
         0.00000E+00
         0.00000E+00
         0.00000E+00
         0.00000E+00
         0.00000E+00
         0.00000E+00
         0.00000E+00
         0.00000E+00
         0.00000E+00
         0.00000E+00
         0.00000E+00
         0.00000E+00
         0.00000E+00
         0.00000E+00
         0.00000E+00
         0.00000E+00
         0.00000E+00
         0.00000E+00
         0.00000E+00
         0.00000E+00
         0.00000E+00
         0.00000E+00
         0.00000E+00
         0.00000E+00
         0.00000E+00
         0.00000E+00
         0.00000E+00
         0.00000E+00
         0.00000E+00
         0.00000E+00
         0.00000E+00
         0.00000E+00
         0.00000E+00
         0.00000E+00
         0.00000E+00
         0.00000E+00
         0.00000E+00
         0.00000E+00
         0.00000E+00
         0.00000E+00
         0.00000E+00
         0.00000E+00
         0.00000E+00
         0.00000E+00
         0.00000E+00
         0.00000E+00
         0.00000E+00
         0.00000E+00
         0.00000E+00
         0.00000E+00
         0.00000E+00
         0.00000E+00
         0.00000E+00
         0.00000E+00
         0.00000E+00
         0.00000E+00
         0.00000E+00
         0.00000E+00
         0.00000E+00
         0.00000E+00
         0.00000E+00
         0.00000E+00
         0.00000E+00
         0.00000E+00
         0.00000E+00
         0.00000E+00
         0.00000E+00
         0.00000E+00
         0.00000E+00
         0.00000E+00
         0.00000E+00
         0.00000E+00
         0.00000E+00
         0.00000E+00
         0.00000E+00
         0.00000E+00
         0.00000E+00
         0.00000E+00
         0.00000E+00
         0.00000E+00
         0.00000E+00
         0.00000E+00
         0.00000E+00
         0.00000E+00
         0.00000E+00
         0.00000E+00
         0.00000E+00
         0.00000E+00
         0.00000E+00
         0.00000E+00
         0.00000E+00
         0.00000E+00
         0.00000E+00
         0.00000E+00
         0.00000E+00
         0.00000E+00
         0.00000E+00
         0.00000E+00
         0.00000E+00
         0.00000E+00
         0.00000E+00
         0.00000E+00
         0.00000E+00
         0.00000E+00
         0.00000E+00
         0.00000E+00
         0.00000E+00
         0.00000E+00
         0.00000E+00
         0.00000E+00
         0.00000E+00
         0.00000E+00
         0.00000E+00
         0.00000E+00
         0.00000E+00
         0.00000E+00
         0.00000E+00
         0.00000E+00
         0.00000E+00
         0.00000E+00
         0.00000E+00
         0.00000E+00
         0.00000E+00
         0.00000E+00
         0.00000E+00
         0.00000E+00
         0.00000E+00
         0.00000E+00
         0.00000E+00
         0.00000E+00
         0.00000E+00
         0.00000E+00
         0.00000E+00
         0.00000E+00
         0.00000E+00
         0.00000E+00
         0.00000E+00
         0.00000E+00
         0.00000E+00
         0.00000E+00
         0.00000E+00
         0.00000E+00
         0.00000E+00
         0.00000E+00
         0.00000E+00
         0.00000E+00
         0.00000E+00
         0.00000E+00
         0.00000E+00
         0.00000E+00
         0.00000E+00
         0.00000E+00
         0.00000E+00
         0.00000E+00
         0.00000E+00
         0.00000E+00
         0.00000E+00
         0.00000E+00
         0.00000E+00
         0.00000E+00
         0.00000E+00
         0.00000E+00
         0.00000E+00
         0.00000E+00
         0.00000E+00
         0.00000E+00
         0.00000E+00
         0.00000E+00
         0.00000E+00
         0.00000E+00
         0.00000E+00
         0.00000E+00
         0.00000E+00
         0.00000E+00
         0.00000E+00
         0.00000E+00
         0.00000E+00
         0.00000E+00
         0.00000E+00
         0.00000E+00
         0.00000E+00
         0.00000E+00
         0.00000E+00
         0.00000E+00
         0.00000E+00
         0.00000E+00
         0.00000E+00
         0.00000E+00
         0.00000E+00
         0.00000E+00
         0.00000E+00
         0.00000E+00
         0.00000E+00
         0.00000E+00
         0.00000E+00
         0.00000E+00
         0.00000E+00
         0.00000E+00
         0.00000E+00
         0.00000E+00
         0.00000E+00
         0.00000E+00
         0.00000E+00
         0.00000E+00
         0.00000E+00
         0.00000E+00
         0.00000E+00
         0.00000E+00
         0.00000E+00
         0.00000E+00
         0.00000E+00
         0.00000E+00
         0.00000E+00
         0.00000E+00
         0.00000E+00
         0.00000E+00
         0.00000E+00
         0.00000E+00
         0.00000E+00
         0.00000E+00
         0.00000E+00
         0.00000E+00
         0.00000E+00
         0.00000E+00
         0.00000E+00
         0.00000E+00
         0.00000E+00
         0.00000E+00
         0.00000E+00
         0.00000E+00
         0.00000E+00
         0.00000E+00
         0.00000E+00
         0.00000E+00
         0.00000E+00
         0.00000E+00
         0.00000E+00
         0.00000E+00
         0.00000E+00
         0.00000E+00
         0.00000E+00
         0.00000E+00
         0.00000E+00
         0.00000E+00
         0.00000E+00
         0.00000E+00
         0.00000E+00
         0.00000E+00
         0.00000E+00
         0.00000E+00
         0.00000E+00
         0.00000E+00
         0.00000E+00
         0.00000E+00
         0.00000E+00
         0.00000E+00
         0.00000E+00
         0.00000E+00
         0.00000E+00
         0.00000E+00
         0.00000E+00
         0.00000E+00
         0.00000E+00
         0.00000E+00
         0.00000E+00
         0.00000E+00
         0.00000E+00
         0.00000E+00
         0.00000E+00
         0.00000E+00
         0.00000E+00
         0.00000E+00
         0.00000E+00
         0.00000E+00
         0.00000E+00
         0.00000E+00
         0.00000E+00
         0.00000E+00
         0.00000E+00
         0.00000E+00
         0.00000E+00
         0.00000E+00
         0.00000E+00
         0.00000E+00
         0.00000E+00
         0.00000E+00
         0.00000E+00
         0.00000E+00
         0.00000E+00
         0.00000E+00
         0.00000E+00
         0.00000E+00
         0.00000E+00
         0.00000E+00
         0.00000E+00
         0.00000E+00
         0.00000E+00
         0.00000E+00
         0.00000E+00
         0.00000E+00
         0.00000E+00
         0.00000E+00
         0.00000E+00
         0.00000E+00
         0.00000E+00
         0.00000E+00
         0.00000E+00
         0.00000E+00
         0.00000E+00
         0.00000E+00
         0.00000E+00
         0.00000E+00
         0.00000E+00
         0.00000E+00
         0.00000E+00
         0.00000E+00
         0.00000E+00
         0.00000E+00
         0.00000E+00
         0.00000E+00
         0.00000E+00
         0.00000E+00
         0.00000E+00
         0.00000E+00
         0.00000E+00
         0.00000E+00
         0.00000E+00
         0.00000E+00
         0.00000E+00
         0.00000E+00
         0.00000E+00
         0.00000E+00
         0.00000E+00
         0.00000E+00
         0.00000E+00
         0.00000E+00
         0.00000E+00
         0.00000E+00
         0.00000E+00
         0.00000E+00
         0.00000E+00
         0.00000E+00
         0.00000E+00
         0.00000E+00
         0.00000E+00
         0.00000E+00
         0.00000E+00
         0.00000E+00
         0.00000E+00
         0.00000E+00
         0.00000E+00
         0.00000E+00
         0.00000E+00
         0.00000E+00
         0.00000E+00
         0.00000E+00
         0.00000E+00
         0.00000E+00
         0.00000E+00
         0.00000E+00
         0.00000E+00
         0.00000E+00
         0.00000E+00
         0.00000E+00
         0.00000E+00
         0.00000E+00
         0.00000E+00
         0.00000E+00
         0.00000E+00
         0.00000E+00
         0.00000E+00
         0.00000E+00
         0.00000E+00
         0.00000E+00
         0.00000E+00
         0.00000E+00
         0.00000E+00
         0.00000E+00
         0.00000E+00
         0.00000E+00
         0.00000E+00
         0.00000E+00
         0.00000E+00
         0.00000E+00
         0.00000E+00
         0.00000E+00
         0.00000E+00
         0.00000E+00
         0.00000E+00
         0.00000E+00
         0.00000E+00
         0.00000E+00
         0.00000E+00
         0.00000E+00
         0.00000E+00
         0.00000E+00
         0.00000E+00
         0.00000E+00
         0.00000E+00
         0.00000E+00
         0.00000E+00
         0.00000E+00
         0.00000E+00
         0.00000E+00
         0.00000E+00
         0.00000E+00
         0.00000E+00
         0.00000E+00
         0.00000E+00
         0.00000E+00
         0.00000E+00
         0.00000E+00
         0.00000E+00
         0.00000E+00
         0.00000E+00
         0.00000E+00
         0.00000E+00
         0.00000E+00
         0.00000E+00
         0.00000E+00
         0.00000E+00
         0.00000E+00
         0.00000E+00
         0.00000E+00
         0.00000E+00
         0.00000E+00
         0.00000E+00
         0.00000E+00
         0.00000E+00
         0.00000E+00
         0.00000E+00
         0.00000E+00
         0.00000E+00
         0.00000E+00
         0.00000E+00
         0.00000E+00
         0.00000E+00
         0.00000E+00
         0.00000E+00
         0.00000E+00
         0.00000E+00
         0.00000E+00
         0.00000E+00
         0.00000E+00
         0.00000E+00
         0.00000E+00
         0.00000E+00
         0.00000E+00
         0.00000E+00
         0.00000E+00
         0.00000E+00
         0.00000E+00
         0.00000E+00
         0.00000E+00
         0.00000E+00
         0.00000E+00
         0.00000E+00
         0.00000E+00
         0.00000E+00
         0.00000E+00
         0.00000E+00
         0.00000E+00
         0.00000E+00
         0.00000E+00
         0.00000E+00
         0.00000E+00
         0.00000E+00
         0.00000E+00
         0.00000E+00
         0.00000E+00
         0.00000E+00
         0.00000E+00
         0.00000E+00
         0.00000E+00
         0.00000E+00
         0.00000E+00
         0.00000E+00
         0.00000E+00
         0.00000E+00
         0.00000E+00
         0.00000E+00
         0.00000E+00
         0.00000E+00
         0.00000E+00
         0.00000E+00
         0.00000E+00
         0.00000E+00
         0.00000E+00
         0.00000E+00
         0.00000E+00
         0.00000E+00
         0.00000E+00
         0.00000E+00
         0.00000E+00
         0.00000E+00
         0.00000E+00
         0.00000E+00
         0.00000E+00
         0.00000E+00
         0.00000E+00
         0.00000E+00
         0.00000E+00
         0.00000E+00
         0.00000E+00
         0.00000E+00
         0.00000E+00
         0.00000E+00
         0.00000E+00
         0.00000E+00
         0.00000E+00
         0.00000E+00
         0.00000E+00
         0.00000E+00
         0.00000E+00
         0.00000E+00
         0.00000E+00
         0.00000E+00
         0.00000E+00
         0.00000E+00
         0.00000E+00
         0.00000E+00
         0.00000E+00
         0.00000E+00
         0.00000E+00
         0.00000E+00
         0.00000E+00
         0.00000E+00
         0.00000E+00
         0.00000E+00
         0.00000E+00
         0.00000E+00
         0.00000E+00
         0.00000E+00
         0.00000E+00
         0.00000E+00
         0.00000E+00
         0.00000E+00
         0.00000E+00
         0.00000E+00
         0.00000E+00
         0.00000E+00
         0.00000E+00
         0.00000E+00
         0.00000E+00
         0.00000E+00
         0.00000E+00
         0.00000E+00
         0.00000E+00
         0.00000E+00
         0.00000E+00
         0.00000E+00
         0.00000E+00
         0.00000E+00
         0.00000E+00
         0.00000E+00
         0.00000E+00
         0.00000E+00
         0.00000E+00
         0.00000E+00
         0.00000E+00
         0.00000E+00
         0.00000E+00
         0.00000E+00
         0.00000E+00
         0.00000E+00
         0.00000E+00
         0.00000E+00
         0.00000E+00
         0.00000E+00
         0.00000E+00
         0.00000E+00
         0.00000E+00
         0.00000E+00
         0.00000E+00
         0.00000E+00
         0.00000E+00
         0.00000E+00
         0.00000E+00
         0.00000E+00
         0.00000E+00
         0.00000E+00
         0.00000E+00
         0.00000E+00
         0.00000E+00
         0.00000E+00
         0.00000E+00
         0.00000E+00
         0.00000E+00
         0.00000E+00
         0.00000E+00
         0.00000E+00
         0.00000E+00
         0.00000E+00
         0.00000E+00
         0.00000E+00
         0.00000E+00
         0.00000E+00
         0.00000E+00
         0.00000E+00
         0.00000E+00
         0.00000E+00
         0.00000E+00
         0.00000E+00
         0.00000E+00
         0.00000E+00
         0.00000E+00
         0.00000E+00
         0.00000E+00
         0.00000E+00
         0.00000E+00
         0.00000E+00
         0.00000E+00
         0.00000E+00
         0.00000E+00
         0.00000E+00
         0.00000E+00
         0.00000E+00
         0.00000E+00
         0.00000E+00
         0.00000E+00
         0.00000E+00
         0.00000E+00
         0.00000E+00
         0.00000E+00
         0.00000E+00
         0.00000E+00
         0.00000E+00
         0.00000E+00
         0.00000E+00
         0.00000E+00
         0.00000E+00
         0.00000E+00
         0.00000E+00
         0.00000E+00
         0.00000E+00
         0.00000E+00
         0.00000E+00
         0.00000E+00
         0.00000E+00
         0.00000E+00
         0.00000E+00
         0.00000E+00
         0.00000E+00
         0.00000E+00
         0.00000E+00
         0.00000E+00
         0.00000E+00
         0.00000E+00
         0.00000E+00
         0.00000E+00
         0.00000E+00
         0.00000E+00
         0.00000E+00
         0.00000E+00
         0.00000E+00
         0.00000E+00
         0.00000E+00
         0.00000E+00
         0.00000E+00
         0.00000E+00
         0.00000E+00
         0.00000E+00
         0.00000E+00
         0.00000E+00
         0.00000E+00
         0.00000E+00
         0.00000E+00
         0.00000E+00
         0.00000E+00
         0.00000E+00
         0.00000E+00
         0.00000E+00
         0.00000E+00
         0.00000E+00
         0.00000E+00
         0.00000E+00
         0.00000E+00
         0.00000E+00
         0.00000E+00
         0.00000E+00
         0.00000E+00
         0.00000E+00
         0.00000E+00
         0.00000E+00
         0.00000E+00
         0.00000E+00
         0.00000E+00
         0.00000E+00
         0.00000E+00
         0.00000E+00
         0.00000E+00
         0.00000E+00
         0.00000E+00
         0.00000E+00
         0.00000E+00
         0.00000E+00
         0.00000E+00
         0.00000E+00
         0.00000E+00
         0.00000E+00
         0.00000E+00
         0.00000E+00
         0.00000E+00
         0.00000E+00
         0.00000E+00
         0.00000E+00
         0.00000E+00
         0.00000E+00
         0.00000E+00
         0.00000E+00
         0.00000E+00
         0.00000E+00
         0.00000E+00
         0.00000E+00
         0.00000E+00
         0.00000E+00
         0.00000E+00
         0.00000E+00
         0.00000E+00
         0.00000E+00
         0.00000E+00
         0.00000E+00
         0.00000E+00
         0.00000E+00
         0.00000E+00
         0.00000E+00
         0.00000E+00
         0.00000E+00
         0.00000E+00
         0.00000E+00
         0.00000E+00
         0.00000E+00
         0.00000E+00
         0.00000E+00
         0.00000E+00
         0.00000E+00
         0.00000E+00
         0.00000E+00
         0.00000E+00
         0.00000E+00
         0.00000E+00
         0.00000E+00
         0.00000E+00
         0.00000E+00
         0.00000E+00
         0.00000E+00
         0.00000E+00
         0.00000E+00
         0.00000E+00
         0.00000E+00
         0.00000E+00
         0.00000E+00
         0.00000E+00
         0.00000E+00
         0.00000E+00
         0.00000E+00
         0.00000E+00
         0.00000E+00
         0.00000E+00
         0.00000E+00
         0.00000E+00
         0.00000E+00
         0.00000E+00
         0.00000E+00
         0.00000E+00
         0.00000E+00
         0.00000E+00
         0.00000E+00
         0.00000E+00
         0.00000E+00
         0.00000E+00
         0.00000E+00
         0.00000E+00
         0.00000E+00
         0.00000E+00
         0.00000E+00
         0.00000E+00
         0.00000E+00
         0.00000E+00
         0.00000E+00
         0.00000E+00
         0.00000E+00
         0.00000E+00
         0.00000E+00
         0.00000E+00
         0.00000E+00
         0.00000E+00
         0.00000E+00
         0.00000E+00
         0.00000E+00
         0.00000E+00
         0.00000E+00
         0.00000E+00
         0.00000E+00
         0.00000E+00
         0.00000E+00
         0.00000E+00
         0.00000E+00
         0.00000E+00
         0.00000E+00
         0.00000E+00
         0.00000E+00
         0.00000E+00
         0.00000E+00
         0.00000E+00
         0.00000E+00
         0.00000E+00
         0.00000E+00
         0.00000E+00
         0.00000E+00
         0.00000E+00
         0.00000E+00
         0.00000E+00
         0.00000E+00
         0.00000E+00
         0.00000E+00
         0.00000E+00
         0.00000E+00
         0.00000E+00
         0.00000E+00
         0.00000E+00
         0.00000E+00
  
SCALARS                init_velocity_z  double 1
LOOKUP_TABLE default
        -0.37300E+03
        -0.37300E+03
        -0.37300E+03
        -0.37300E+03
        -0.37300E+03
        -0.37300E+03
        -0.37300E+03
        -0.37300E+03
        -0.37300E+03
        -0.37300E+03
        -0.37300E+03
        -0.37300E+03
        -0.37300E+03
        -0.37300E+03
        -0.37300E+03
        -0.37300E+03
        -0.37300E+03
        -0.37300E+03
        -0.37300E+03
        -0.37300E+03
        -0.37300E+03
        -0.37300E+03
        -0.37300E+03
        -0.37300E+03
        -0.37300E+03
        -0.37300E+03
        -0.37300E+03
        -0.37300E+03
        -0.37300E+03
        -0.37300E+03
        -0.37300E+03
        -0.37300E+03
        -0.37300E+03
        -0.37300E+03
        -0.37300E+03
        -0.37300E+03
        -0.37300E+03
        -0.37300E+03
        -0.37300E+03
        -0.37300E+03
        -0.37300E+03
        -0.37300E+03
        -0.37300E+03
        -0.37300E+03
        -0.37300E+03
        -0.37300E+03
        -0.37300E+03
        -0.37300E+03
        -0.37300E+03
        -0.37300E+03
        -0.37300E+03
        -0.37300E+03
        -0.37300E+03
        -0.37300E+03
        -0.37300E+03
        -0.37300E+03
        -0.37300E+03
        -0.37300E+03
        -0.37300E+03
        -0.37300E+03
        -0.37300E+03
        -0.37300E+03
        -0.37300E+03
        -0.37300E+03
        -0.37300E+03
        -0.37300E+03
        -0.37300E+03
        -0.37300E+03
        -0.37300E+03
        -0.37300E+03
        -0.37300E+03
        -0.37300E+03
        -0.37300E+03
        -0.37300E+03
        -0.37300E+03
        -0.37300E+03
        -0.37300E+03
        -0.37300E+03
        -0.37300E+03
        -0.37300E+03
        -0.37300E+03
        -0.37300E+03
        -0.37300E+03
        -0.37300E+03
        -0.37300E+03
        -0.37300E+03
        -0.37300E+03
        -0.37300E+03
        -0.37300E+03
        -0.37300E+03
        -0.37300E+03
        -0.37300E+03
        -0.37300E+03
        -0.37300E+03
        -0.37300E+03
        -0.37300E+03
        -0.37300E+03
        -0.37300E+03
        -0.37300E+03
        -0.37300E+03
        -0.37300E+03
        -0.37300E+03
        -0.37300E+03
        -0.37300E+03
        -0.37300E+03
        -0.37300E+03
        -0.37300E+03
        -0.37300E+03
        -0.37300E+03
        -0.37300E+03
        -0.37300E+03
        -0.37300E+03
        -0.37300E+03
        -0.37300E+03
        -0.37300E+03
        -0.37300E+03
        -0.37300E+03
        -0.37300E+03
        -0.37300E+03
        -0.37300E+03
        -0.37300E+03
        -0.37300E+03
        -0.37300E+03
        -0.37300E+03
        -0.37300E+03
        -0.37300E+03
        -0.37300E+03
        -0.37300E+03
        -0.37300E+03
        -0.37300E+03
        -0.37300E+03
        -0.37300E+03
        -0.37300E+03
        -0.37300E+03
        -0.37300E+03
        -0.37300E+03
        -0.37300E+03
        -0.37300E+03
        -0.37300E+03
        -0.37300E+03
        -0.37300E+03
        -0.37300E+03
        -0.37300E+03
        -0.37300E+03
        -0.37300E+03
        -0.37300E+03
        -0.37300E+03
        -0.37300E+03
        -0.37300E+03
        -0.37300E+03
        -0.37300E+03
        -0.37300E+03
        -0.37300E+03
        -0.37300E+03
        -0.37300E+03
        -0.37300E+03
        -0.37300E+03
        -0.37300E+03
        -0.37300E+03
        -0.37300E+03
        -0.37300E+03
        -0.37300E+03
        -0.37300E+03
        -0.37300E+03
        -0.37300E+03
        -0.37300E+03
        -0.37300E+03
        -0.37300E+03
        -0.37300E+03
        -0.37300E+03
        -0.37300E+03
        -0.37300E+03
        -0.37300E+03
        -0.37300E+03
        -0.37300E+03
        -0.37300E+03
        -0.37300E+03
        -0.37300E+03
        -0.37300E+03
        -0.37300E+03
        -0.37300E+03
        -0.37300E+03
        -0.37300E+03
        -0.37300E+03
        -0.37300E+03
        -0.37300E+03
        -0.37300E+03
        -0.37300E+03
        -0.37300E+03
        -0.37300E+03
        -0.37300E+03
        -0.37300E+03
        -0.37300E+03
        -0.37300E+03
        -0.37300E+03
        -0.37300E+03
        -0.37300E+03
        -0.37300E+03
        -0.37300E+03
        -0.37300E+03
        -0.37300E+03
        -0.37300E+03
        -0.37300E+03
        -0.37300E+03
        -0.37300E+03
        -0.37300E+03
        -0.37300E+03
        -0.37300E+03
        -0.37300E+03
        -0.37300E+03
        -0.37300E+03
        -0.37300E+03
        -0.37300E+03
        -0.37300E+03
        -0.37300E+03
        -0.37300E+03
        -0.37300E+03
        -0.37300E+03
        -0.37300E+03
        -0.37300E+03
        -0.37300E+03
        -0.37300E+03
        -0.37300E+03
        -0.37300E+03
        -0.37300E+03
        -0.37300E+03
        -0.37300E+03
        -0.37300E+03
        -0.37300E+03
        -0.37300E+03
        -0.37300E+03
        -0.37300E+03
        -0.37300E+03
        -0.37300E+03
        -0.37300E+03
        -0.37300E+03
        -0.37300E+03
        -0.37300E+03
        -0.37300E+03
        -0.37300E+03
        -0.37300E+03
        -0.37300E+03
        -0.37300E+03
        -0.37300E+03
        -0.37300E+03
        -0.37300E+03
        -0.37300E+03
        -0.37300E+03
        -0.37300E+03
        -0.37300E+03
        -0.37300E+03
        -0.37300E+03
        -0.37300E+03
        -0.37300E+03
        -0.37300E+03
        -0.37300E+03
        -0.37300E+03
        -0.37300E+03
        -0.37300E+03
        -0.37300E+03
        -0.37300E+03
        -0.37300E+03
        -0.37300E+03
        -0.37300E+03
        -0.37300E+03
        -0.37300E+03
        -0.37300E+03
        -0.37300E+03
        -0.37300E+03
        -0.37300E+03
        -0.37300E+03
        -0.37300E+03
        -0.37300E+03
        -0.37300E+03
        -0.37300E+03
        -0.37300E+03
        -0.37300E+03
        -0.37300E+03
        -0.37300E+03
        -0.37300E+03
        -0.37300E+03
        -0.37300E+03
        -0.37300E+03
        -0.37300E+03
        -0.37300E+03
        -0.37300E+03
        -0.37300E+03
        -0.37300E+03
        -0.37300E+03
        -0.37300E+03
        -0.37300E+03
        -0.37300E+03
        -0.37300E+03
        -0.37300E+03
        -0.37300E+03
        -0.37300E+03
        -0.37300E+03
        -0.37300E+03
        -0.37300E+03
        -0.37300E+03
        -0.37300E+03
        -0.37300E+03
        -0.37300E+03
        -0.37300E+03
        -0.37300E+03
        -0.37300E+03
        -0.37300E+03
        -0.37300E+03
        -0.37300E+03
        -0.37300E+03
        -0.37300E+03
        -0.37300E+03
        -0.37300E+03
        -0.37300E+03
        -0.37300E+03
        -0.37300E+03
        -0.37300E+03
        -0.37300E+03
        -0.37300E+03
        -0.37300E+03
        -0.37300E+03
        -0.37300E+03
        -0.37300E+03
        -0.37300E+03
        -0.37300E+03
        -0.37300E+03
        -0.37300E+03
        -0.37300E+03
        -0.37300E+03
        -0.37300E+03
        -0.37300E+03
        -0.37300E+03
        -0.37300E+03
        -0.37300E+03
        -0.37300E+03
        -0.37300E+03
        -0.37300E+03
        -0.37300E+03
        -0.37300E+03
        -0.37300E+03
        -0.37300E+03
        -0.37300E+03
        -0.37300E+03
        -0.37300E+03
        -0.37300E+03
        -0.37300E+03
        -0.37300E+03
        -0.37300E+03
        -0.37300E+03
        -0.37300E+03
        -0.37300E+03
        -0.37300E+03
        -0.37300E+03
        -0.37300E+03
        -0.37300E+03
        -0.37300E+03
        -0.37300E+03
        -0.37300E+03
        -0.37300E+03
        -0.37300E+03
        -0.37300E+03
        -0.37300E+03
        -0.37300E+03
        -0.37300E+03
        -0.37300E+03
        -0.37300E+03
        -0.37300E+03
        -0.37300E+03
        -0.37300E+03
        -0.37300E+03
        -0.37300E+03
        -0.37300E+03
        -0.37300E+03
        -0.37300E+03
        -0.37300E+03
        -0.37300E+03
        -0.37300E+03
        -0.37300E+03
        -0.37300E+03
        -0.37300E+03
        -0.37300E+03
        -0.37300E+03
        -0.37300E+03
        -0.37300E+03
        -0.37300E+03
        -0.37300E+03
        -0.37300E+03
        -0.37300E+03
        -0.37300E+03
        -0.37300E+03
        -0.37300E+03
        -0.37300E+03
        -0.37300E+03
        -0.37300E+03
        -0.37300E+03
        -0.37300E+03
        -0.37300E+03
        -0.37300E+03
        -0.37300E+03
        -0.37300E+03
        -0.37300E+03
        -0.37300E+03
        -0.37300E+03
        -0.37300E+03
        -0.37300E+03
        -0.37300E+03
        -0.37300E+03
        -0.37300E+03
        -0.37300E+03
        -0.37300E+03
        -0.37300E+03
        -0.37300E+03
        -0.37300E+03
        -0.37300E+03
        -0.37300E+03
        -0.37300E+03
        -0.37300E+03
        -0.37300E+03
        -0.37300E+03
        -0.37300E+03
        -0.37300E+03
        -0.37300E+03
        -0.37300E+03
        -0.37300E+03
        -0.37300E+03
        -0.37300E+03
        -0.37300E+03
        -0.37300E+03
        -0.37300E+03
        -0.37300E+03
        -0.37300E+03
        -0.37300E+03
        -0.37300E+03
        -0.37300E+03
        -0.37300E+03
        -0.37300E+03
        -0.37300E+03
        -0.37300E+03
        -0.37300E+03
        -0.37300E+03
        -0.37300E+03
        -0.37300E+03
        -0.37300E+03
        -0.37300E+03
        -0.37300E+03
        -0.37300E+03
        -0.37300E+03
        -0.37300E+03
        -0.37300E+03
        -0.37300E+03
        -0.37300E+03
        -0.37300E+03
        -0.37300E+03
        -0.37300E+03
        -0.37300E+03
        -0.37300E+03
        -0.37300E+03
        -0.37300E+03
        -0.37300E+03
        -0.37300E+03
        -0.37300E+03
        -0.37300E+03
        -0.37300E+03
        -0.37300E+03
        -0.37300E+03
        -0.37300E+03
        -0.37300E+03
        -0.37300E+03
        -0.37300E+03
        -0.37300E+03
        -0.37300E+03
        -0.37300E+03
        -0.37300E+03
        -0.37300E+03
        -0.37300E+03
        -0.37300E+03
        -0.37300E+03
        -0.37300E+03
        -0.37300E+03
        -0.37300E+03
        -0.37300E+03
        -0.37300E+03
        -0.37300E+03
        -0.37300E+03
        -0.37300E+03
        -0.37300E+03
        -0.37300E+03
        -0.37300E+03
        -0.37300E+03
        -0.37300E+03
        -0.37300E+03
        -0.37300E+03
        -0.37300E+03
        -0.37300E+03
        -0.37300E+03
        -0.37300E+03
        -0.37300E+03
        -0.37300E+03
        -0.37300E+03
        -0.37300E+03
        -0.37300E+03
        -0.37300E+03
        -0.37300E+03
        -0.37300E+03
        -0.37300E+03
        -0.37300E+03
        -0.37300E+03
        -0.37300E+03
        -0.37300E+03
        -0.37300E+03
        -0.37300E+03
        -0.37300E+03
        -0.37300E+03
        -0.37300E+03
        -0.37300E+03
        -0.37300E+03
        -0.37300E+03
        -0.37300E+03
        -0.37300E+03
        -0.37300E+03
        -0.37300E+03
        -0.37300E+03
        -0.37300E+03
        -0.37300E+03
        -0.37300E+03
        -0.37300E+03
        -0.37300E+03
        -0.37300E+03
        -0.37300E+03
        -0.37300E+03
        -0.37300E+03
        -0.37300E+03
        -0.37300E+03
        -0.37300E+03
        -0.37300E+03
        -0.37300E+03
        -0.37300E+03
        -0.37300E+03
        -0.37300E+03
        -0.37300E+03
        -0.37300E+03
        -0.37300E+03
        -0.37300E+03
        -0.37300E+03
        -0.37300E+03
        -0.37300E+03
        -0.37300E+03
        -0.37300E+03
        -0.37300E+03
        -0.37300E+03
        -0.37300E+03
        -0.37300E+03
        -0.37300E+03
        -0.37300E+03
        -0.37300E+03
        -0.37300E+03
        -0.37300E+03
        -0.37300E+03
        -0.37300E+03
        -0.37300E+03
        -0.37300E+03
        -0.37300E+03
        -0.37300E+03
        -0.37300E+03
        -0.37300E+03
        -0.37300E+03
        -0.37300E+03
        -0.37300E+03
        -0.37300E+03
        -0.37300E+03
        -0.37300E+03
        -0.37300E+03
        -0.37300E+03
        -0.37300E+03
        -0.37300E+03
        -0.37300E+03
        -0.37300E+03
        -0.37300E+03
        -0.37300E+03
        -0.37300E+03
        -0.37300E+03
        -0.37300E+03
        -0.37300E+03
        -0.37300E+03
        -0.37300E+03
        -0.37300E+03
        -0.37300E+03
        -0.37300E+03
        -0.37300E+03
        -0.37300E+03
        -0.37300E+03
        -0.37300E+03
        -0.37300E+03
        -0.37300E+03
        -0.37300E+03
        -0.37300E+03
        -0.37300E+03
        -0.37300E+03
        -0.37300E+03
        -0.37300E+03
        -0.37300E+03
        -0.37300E+03
        -0.37300E+03
        -0.37300E+03
        -0.37300E+03
        -0.37300E+03
        -0.37300E+03
        -0.37300E+03
        -0.37300E+03
        -0.37300E+03
        -0.37300E+03
        -0.37300E+03
        -0.37300E+03
        -0.37300E+03
        -0.37300E+03
        -0.37300E+03
        -0.37300E+03
        -0.37300E+03
        -0.37300E+03
        -0.37300E+03
        -0.37300E+03
        -0.37300E+03
        -0.37300E+03
        -0.37300E+03
        -0.37300E+03
        -0.37300E+03
        -0.37300E+03
        -0.37300E+03
        -0.37300E+03
        -0.37300E+03
        -0.37300E+03
        -0.37300E+03
        -0.37300E+03
        -0.37300E+03
        -0.37300E+03
        -0.37300E+03
        -0.37300E+03
        -0.37300E+03
        -0.37300E+03
        -0.37300E+03
        -0.37300E+03
        -0.37300E+03
        -0.37300E+03
        -0.37300E+03
        -0.37300E+03
        -0.37300E+03
        -0.37300E+03
        -0.37300E+03
        -0.37300E+03
        -0.37300E+03
        -0.37300E+03
        -0.37300E+03
        -0.37300E+03
        -0.37300E+03
        -0.37300E+03
        -0.37300E+03
        -0.37300E+03
        -0.37300E+03
        -0.37300E+03
        -0.37300E+03
        -0.37300E+03
        -0.37300E+03
        -0.37300E+03
        -0.37300E+03
        -0.37300E+03
        -0.37300E+03
        -0.37300E+03
        -0.37300E+03
        -0.37300E+03
        -0.37300E+03
        -0.37300E+03
        -0.37300E+03
        -0.37300E+03
        -0.37300E+03
        -0.37300E+03
        -0.37300E+03
        -0.37300E+03
        -0.37300E+03
        -0.37300E+03
        -0.37300E+03
        -0.37300E+03
        -0.37300E+03
        -0.37300E+03
        -0.37300E+03
        -0.37300E+03
        -0.37300E+03
        -0.37300E+03
        -0.37300E+03
        -0.37300E+03
        -0.37300E+03
        -0.37300E+03
        -0.37300E+03
        -0.37300E+03
        -0.37300E+03
        -0.37300E+03
        -0.37300E+03
        -0.37300E+03
        -0.37300E+03
        -0.37300E+03
        -0.37300E+03
        -0.37300E+03
        -0.37300E+03
        -0.37300E+03
        -0.37300E+03
        -0.37300E+03
        -0.37300E+03
        -0.37300E+03
        -0.37300E+03
        -0.37300E+03
        -0.37300E+03
        -0.37300E+03
        -0.37300E+03
        -0.37300E+03
        -0.37300E+03
        -0.37300E+03
        -0.37300E+03
        -0.37300E+03
        -0.37300E+03
        -0.37300E+03
        -0.37300E+03
        -0.37300E+03
        -0.37300E+03
        -0.37300E+03
        -0.37300E+03
        -0.37300E+03
        -0.37300E+03
        -0.37300E+03
        -0.37300E+03
        -0.37300E+03
        -0.37300E+03
        -0.37300E+03
        -0.37300E+03
        -0.37300E+03
        -0.37300E+03
        -0.37300E+03
        -0.37300E+03
        -0.37300E+03
        -0.37300E+03
        -0.37300E+03
        -0.37300E+03
        -0.37300E+03
        -0.37300E+03
        -0.37300E+03
        -0.37300E+03
        -0.37300E+03
        -0.37300E+03
        -0.37300E+03
        -0.37300E+03
        -0.37300E+03
        -0.37300E+03
        -0.37300E+03
        -0.37300E+03
        -0.37300E+03
        -0.37300E+03
        -0.37300E+03
        -0.37300E+03
        -0.37300E+03
        -0.37300E+03
        -0.37300E+03
        -0.37300E+03
        -0.37300E+03
        -0.37300E+03
        -0.37300E+03
        -0.37300E+03
        -0.37300E+03
        -0.37300E+03
        -0.37300E+03
        -0.37300E+03
        -0.37300E+03
        -0.37300E+03
        -0.37300E+03
        -0.37300E+03
        -0.37300E+03
        -0.37300E+03
        -0.37300E+03
        -0.37300E+03
        -0.37300E+03
        -0.37300E+03
        -0.37300E+03
        -0.37300E+03
        -0.37300E+03
        -0.37300E+03
        -0.37300E+03
        -0.37300E+03
        -0.37300E+03
        -0.37300E+03
        -0.37300E+03
        -0.37300E+03
        -0.37300E+03
        -0.37300E+03
        -0.37300E+03
        -0.37300E+03
        -0.37300E+03
        -0.37300E+03
        -0.37300E+03
        -0.37300E+03
        -0.37300E+03
        -0.37300E+03
        -0.37300E+03
        -0.37300E+03
        -0.37300E+03
        -0.37300E+03
        -0.37300E+03
        -0.37300E+03
        -0.37300E+03
        -0.37300E+03
        -0.37300E+03
        -0.37300E+03
        -0.37300E+03
        -0.37300E+03
        -0.37300E+03
        -0.37300E+03
        -0.37300E+03
        -0.37300E+03
        -0.37300E+03
        -0.37300E+03
        -0.37300E+03
        -0.37300E+03
        -0.37300E+03
        -0.37300E+03
        -0.37300E+03
        -0.37300E+03
        -0.37300E+03
        -0.37300E+03
        -0.37300E+03
        -0.37300E+03
        -0.37300E+03
        -0.37300E+03
        -0.37300E+03
        -0.37300E+03
        -0.37300E+03
        -0.37300E+03
        -0.37300E+03
        -0.37300E+03
        -0.37300E+03
        -0.37300E+03
        -0.37300E+03
        -0.37300E+03
        -0.37300E+03
        -0.37300E+03
        -0.37300E+03
        -0.37300E+03
        -0.37300E+03
        -0.37300E+03
        -0.37300E+03
        -0.37300E+03
        -0.37300E+03
        -0.37300E+03
        -0.37300E+03
        -0.37300E+03
        -0.37300E+03
        -0.37300E+03
        -0.37300E+03
        -0.37300E+03
        -0.37300E+03
        -0.37300E+03
        -0.37300E+03
        -0.37300E+03
        -0.37300E+03
        -0.37300E+03
        -0.37300E+03
        -0.37300E+03
        -0.37300E+03
        -0.37300E+03
        -0.37300E+03
        -0.37300E+03
        -0.37300E+03
        -0.37300E+03
        -0.37300E+03
        -0.37300E+03
        -0.37300E+03
        -0.37300E+03
        -0.37300E+03
        -0.37300E+03
        -0.37300E+03
        -0.37300E+03
        -0.37300E+03
        -0.37300E+03
        -0.37300E+03
        -0.37300E+03
        -0.37300E+03
        -0.37300E+03
        -0.37300E+03
        -0.37300E+03
        -0.37300E+03
        -0.37300E+03
        -0.37300E+03
        -0.37300E+03
        -0.37300E+03
        -0.37300E+03
        -0.37300E+03
        -0.37300E+03
        -0.37300E+03
        -0.37300E+03
        -0.37300E+03
        -0.37300E+03
        -0.37300E+03
        -0.37300E+03
        -0.37300E+03
        -0.37300E+03
        -0.37300E+03
        -0.37300E+03
        -0.37300E+03
        -0.37300E+03
        -0.37300E+03
        -0.37300E+03
        -0.37300E+03
        -0.37300E+03
        -0.37300E+03
        -0.37300E+03
        -0.37300E+03
        -0.37300E+03
        -0.37300E+03
        -0.37300E+03
        -0.37300E+03
        -0.37300E+03
        -0.37300E+03
        -0.37300E+03
        -0.37300E+03
        -0.37300E+03
        -0.37300E+03
        -0.37300E+03
        -0.37300E+03
        -0.37300E+03
        -0.37300E+03
        -0.37300E+03
        -0.37300E+03
        -0.37300E+03
        -0.37300E+03
        -0.37300E+03
        -0.37300E+03
        -0.37300E+03
        -0.37300E+03
        -0.37300E+03
        -0.37300E+03
        -0.37300E+03
        -0.37300E+03
        -0.37300E+03
        -0.37300E+03
        -0.37300E+03
        -0.37300E+03
        -0.37300E+03
        -0.37300E+03
        -0.37300E+03
        -0.37300E+03
        -0.37300E+03
        -0.37300E+03
        -0.37300E+03
        -0.37300E+03
        -0.37300E+03
        -0.37300E+03
        -0.37300E+03
        -0.37300E+03
        -0.37300E+03
        -0.37300E+03
        -0.37300E+03
        -0.37300E+03
        -0.37300E+03
        -0.37300E+03
        -0.37300E+03
        -0.37300E+03
        -0.37300E+03
        -0.37300E+03
        -0.37300E+03
        -0.37300E+03
        -0.37300E+03
        -0.37300E+03
        -0.37300E+03
        -0.37300E+03
        -0.37300E+03
        -0.37300E+03
        -0.37300E+03
        -0.37300E+03
        -0.37300E+03
        -0.37300E+03
        -0.37300E+03
        -0.37300E+03
        -0.37300E+03
        -0.37300E+03
        -0.37300E+03
        -0.37300E+03
        -0.37300E+03
        -0.37300E+03
        -0.37300E+03
        -0.37300E+03
        -0.37300E+03
        -0.37300E+03
        -0.37300E+03
        -0.37300E+03
        -0.37300E+03
        -0.37300E+03
        -0.37300E+03
        -0.37300E+03
        -0.37300E+03
        -0.37300E+03
        -0.37300E+03
        -0.37300E+03
        -0.37300E+03
        -0.37300E+03
        -0.37300E+03
        -0.37300E+03
        -0.37300E+03
        -0.37300E+03
        -0.37300E+03
        -0.37300E+03
        -0.37300E+03
        -0.37300E+03
        -0.37300E+03
        -0.37300E+03
        -0.37300E+03
        -0.37300E+03
        -0.37300E+03
        -0.37300E+03
        -0.37300E+03
        -0.37300E+03
        -0.37300E+03
        -0.37300E+03
        -0.37300E+03
        -0.37300E+03
        -0.37300E+03
        -0.37300E+03
        -0.37300E+03
        -0.37300E+03
        -0.37300E+03
        -0.37300E+03
        -0.37300E+03
        -0.37300E+03
        -0.37300E+03
        -0.37300E+03
        -0.37300E+03
        -0.37300E+03
        -0.37300E+03
        -0.37300E+03
        -0.37300E+03
        -0.37300E+03
        -0.37300E+03
        -0.37300E+03
        -0.37300E+03
        -0.37300E+03
        -0.37300E+03
        -0.37300E+03
        -0.37300E+03
        -0.37300E+03
        -0.37300E+03
        -0.37300E+03
        -0.37300E+03
        -0.37300E+03
        -0.37300E+03
        -0.37300E+03
        -0.37300E+03
        -0.37300E+03
        -0.37300E+03
        -0.37300E+03
        -0.37300E+03
        -0.37300E+03
        -0.37300E+03
        -0.37300E+03
        -0.37300E+03
        -0.37300E+03
        -0.37300E+03
        -0.37300E+03
        -0.37300E+03
        -0.37300E+03
        -0.37300E+03
        -0.37300E+03
        -0.37300E+03
        -0.37300E+03
        -0.37300E+03
        -0.37300E+03
        -0.37300E+03
        -0.37300E+03
        -0.37300E+03
        -0.37300E+03
        -0.37300E+03
        -0.37300E+03
        -0.37300E+03
        -0.37300E+03
        -0.37300E+03
        -0.37300E+03
        -0.37300E+03
        -0.37300E+03
        -0.37300E+03
        -0.37300E+03
        -0.37300E+03
        -0.37300E+03
        -0.37300E+03
        -0.37300E+03
        -0.37300E+03
        -0.37300E+03
        -0.37300E+03
        -0.37300E+03
        -0.37300E+03
        -0.37300E+03
        -0.37300E+03
        -0.37300E+03
        -0.37300E+03
        -0.37300E+03
        -0.37300E+03
        -0.37300E+03
        -0.37300E+03
        -0.37300E+03
        -0.37300E+03
        -0.37300E+03
        -0.37300E+03
        -0.37300E+03
        -0.37300E+03
        -0.37300E+03
        -0.37300E+03
        -0.37300E+03
        -0.37300E+03
        -0.37300E+03
        -0.37300E+03
        -0.37300E+03
        -0.37300E+03
        -0.37300E+03
        -0.37300E+03
        -0.37300E+03
        -0.37300E+03
        -0.37300E+03
        -0.37300E+03
        -0.37300E+03
        -0.37300E+03
        -0.37300E+03
        -0.37300E+03
        -0.37300E+03
        -0.37300E+03
        -0.37300E+03
        -0.37300E+03
        -0.37300E+03
        -0.37300E+03
        -0.37300E+03
        -0.37300E+03
        -0.37300E+03
        -0.37300E+03
        -0.37300E+03
        -0.37300E+03
        -0.37300E+03
        -0.37300E+03
        -0.37300E+03
        -0.37300E+03
        -0.37300E+03
        -0.37300E+03
        -0.37300E+03
        -0.37300E+03
        -0.37300E+03
        -0.37300E+03
        -0.37300E+03
        -0.37300E+03
        -0.37300E+03
        -0.37300E+03
        -0.37300E+03
        -0.37300E+03
        -0.37300E+03
        -0.37300E+03
        -0.37300E+03
        -0.37300E+03
        -0.37300E+03
        -0.37300E+03
        -0.37300E+03
        -0.37300E+03
        -0.37300E+03
        -0.37300E+03
        -0.37300E+03
        -0.37300E+03
        -0.37300E+03
        -0.37300E+03
        -0.37300E+03
        -0.37300E+03
        -0.37300E+03
        -0.37300E+03
        -0.37300E+03
        -0.37300E+03
        -0.37300E+03
        -0.37300E+03
        -0.37300E+03
        -0.37300E+03
        -0.37300E+03
        -0.37300E+03
        -0.37300E+03
        -0.37300E+03
        -0.37300E+03
        -0.37300E+03
        -0.37300E+03
        -0.37300E+03
        -0.37300E+03
        -0.37300E+03
        -0.37300E+03
        -0.37300E+03
        -0.37300E+03
        -0.37300E+03
        -0.37300E+03
        -0.37300E+03
        -0.37300E+03
        -0.37300E+03
        -0.37300E+03
        -0.37300E+03
        -0.37300E+03
        -0.37300E+03
        -0.37300E+03
        -0.37300E+03
        -0.37300E+03
        -0.37300E+03
        -0.37300E+03
        -0.37300E+03
        -0.37300E+03
        -0.37300E+03
        -0.37300E+03
        -0.37300E+03
        -0.37300E+03
        -0.37300E+03
        -0.37300E+03
        -0.37300E+03
        -0.37300E+03
        -0.37300E+03
        -0.37300E+03
        -0.37300E+03
        -0.37300E+03
        -0.37300E+03
        -0.37300E+03
        -0.37300E+03
        -0.37300E+03
        -0.37300E+03
        -0.37300E+03
        -0.37300E+03
        -0.37300E+03
        -0.37300E+03
        -0.37300E+03
        -0.37300E+03
        -0.37300E+03
        -0.37300E+03
        -0.37300E+03
        -0.37300E+03
        -0.37300E+03
        -0.37300E+03
        -0.37300E+03
        -0.37300E+03
        -0.37300E+03
        -0.37300E+03
        -0.37300E+03
        -0.37300E+03
        -0.37300E+03
        -0.37300E+03
        -0.37300E+03
        -0.37300E+03
        -0.37300E+03
        -0.37300E+03
        -0.37300E+03
        -0.37300E+03
        -0.37300E+03
        -0.37300E+03
        -0.37300E+03
        -0.37300E+03
        -0.37300E+03
        -0.37300E+03
        -0.37300E+03
        -0.37300E+03
        -0.37300E+03
        -0.37300E+03
        -0.37300E+03
        -0.37300E+03
        -0.37300E+03
        -0.37300E+03
        -0.37300E+03
        -0.37300E+03
        -0.37300E+03
        -0.37300E+03
        -0.37300E+03
        -0.37300E+03
        -0.37300E+03
        -0.37300E+03
        -0.37300E+03
        -0.37300E+03
        -0.37300E+03
        -0.37300E+03
        -0.37300E+03
        -0.37300E+03
        -0.37300E+03
        -0.37300E+03
        -0.37300E+03
        -0.37300E+03
        -0.37300E+03
        -0.37300E+03
        -0.37300E+03
        -0.37300E+03
        -0.37300E+03
        -0.37300E+03
        -0.37300E+03
        -0.37300E+03
        -0.37300E+03
        -0.37300E+03
        -0.37300E+03
        -0.37300E+03
        -0.37300E+03
        -0.37300E+03
        -0.37300E+03
        -0.37300E+03
        -0.37300E+03
        -0.37300E+03
        -0.37300E+03
        -0.37300E+03
        -0.37300E+03
        -0.37300E+03
        -0.37300E+03
        -0.37300E+03
        -0.37300E+03
        -0.37300E+03
        -0.37300E+03
        -0.37300E+03
        -0.37300E+03
        -0.37300E+03
        -0.37300E+03
        -0.37300E+03
        -0.37300E+03
        -0.37300E+03
        -0.37300E+03
        -0.37300E+03
        -0.37300E+03
        -0.37300E+03
        -0.37300E+03
        -0.37300E+03
        -0.37300E+03
        -0.37300E+03
        -0.37300E+03
        -0.37300E+03
        -0.37300E+03
        -0.37300E+03
        -0.37300E+03
        -0.37300E+03
        -0.37300E+03
        -0.37300E+03
        -0.37300E+03
        -0.37300E+03
        -0.37300E+03
        -0.37300E+03
        -0.37300E+03
        -0.37300E+03
        -0.37300E+03
        -0.37300E+03
        -0.37300E+03
        -0.37300E+03
        -0.37300E+03
        -0.37300E+03
        -0.37300E+03
        -0.37300E+03
        -0.37300E+03
        -0.37300E+03
        -0.37300E+03
        -0.37300E+03
        -0.37300E+03
        -0.37300E+03
        -0.37300E+03
        -0.37300E+03
        -0.37300E+03
        -0.37300E+03
        -0.37300E+03
        -0.37300E+03
        -0.37300E+03
        -0.37300E+03
        -0.37300E+03
        -0.37300E+03
        -0.37300E+03
        -0.37300E+03
        -0.37300E+03
        -0.37300E+03
        -0.37300E+03
        -0.37300E+03
        -0.37300E+03
        -0.37300E+03
        -0.37300E+03
        -0.37300E+03
        -0.37300E+03
        -0.37300E+03
        -0.37300E+03
        -0.37300E+03
        -0.37300E+03
        -0.37300E+03
        -0.37300E+03
        -0.37300E+03
        -0.37300E+03
        -0.37300E+03
        -0.37300E+03
        -0.37300E+03
        -0.37300E+03
        -0.37300E+03
        -0.37300E+03
        -0.37300E+03
        -0.37300E+03
        -0.37300E+03
        -0.37300E+03
        -0.37300E+03
        -0.37300E+03
        -0.37300E+03
        -0.37300E+03
        -0.37300E+03
        -0.37300E+03
        -0.37300E+03
        -0.37300E+03
        -0.37300E+03
        -0.37300E+03
        -0.37300E+03
        -0.37300E+03
        -0.37300E+03
        -0.37300E+03
        -0.37300E+03
        -0.37300E+03
        -0.37300E+03
        -0.37300E+03
        -0.37300E+03
        -0.37300E+03
        -0.37300E+03
        -0.37300E+03
        -0.37300E+03
        -0.37300E+03
        -0.37300E+03
        -0.37300E+03
        -0.37300E+03
        -0.37300E+03
        -0.37300E+03
        -0.37300E+03
        -0.37300E+03
        -0.37300E+03
        -0.37300E+03
        -0.37300E+03
        -0.37300E+03
        -0.37300E+03
        -0.37300E+03
        -0.37300E+03
        -0.37300E+03
        -0.37300E+03
        -0.37300E+03
        -0.37300E+03
        -0.37300E+03
        -0.37300E+03
        -0.37300E+03
        -0.37300E+03
        -0.37300E+03
        -0.37300E+03
        -0.37300E+03
        -0.37300E+03
        -0.37300E+03
        -0.37300E+03
        -0.37300E+03
        -0.37300E+03
        -0.37300E+03
        -0.37300E+03
        -0.37300E+03
        -0.37300E+03
        -0.37300E+03
        -0.37300E+03
        -0.37300E+03
        -0.37300E+03
        -0.37300E+03
        -0.37300E+03
        -0.37300E+03
        -0.37300E+03
        -0.37300E+03
        -0.37300E+03
        -0.37300E+03
        -0.37300E+03
        -0.37300E+03
        -0.37300E+03
        -0.37300E+03
        -0.37300E+03
        -0.37300E+03
        -0.37300E+03
        -0.37300E+03
        -0.37300E+03
        -0.37300E+03
        -0.37300E+03
        -0.37300E+03
        -0.37300E+03
        -0.37300E+03
        -0.37300E+03
        -0.37300E+03
        -0.37300E+03
        -0.37300E+03
        -0.37300E+03
        -0.37300E+03
        -0.37300E+03
        -0.37300E+03
        -0.37300E+03
        -0.37300E+03
        -0.37300E+03
        -0.37300E+03
        -0.37300E+03
        -0.37300E+03
        -0.37300E+03
        -0.37300E+03
        -0.37300E+03
        -0.37300E+03
        -0.37300E+03
        -0.37300E+03
        -0.37300E+03
        -0.37300E+03
        -0.37300E+03
        -0.37300E+03
        -0.37300E+03
        -0.37300E+03
        -0.37300E+03
        -0.37300E+03
        -0.37300E+03
        -0.37300E+03
        -0.37300E+03
        -0.37300E+03
        -0.37300E+03
        -0.37300E+03
        -0.37300E+03
        -0.37300E+03
        -0.37300E+03
        -0.37300E+03
        -0.37300E+03
        -0.37300E+03
        -0.37300E+03
        -0.37300E+03
        -0.37300E+03
        -0.37300E+03
        -0.37300E+03
        -0.37300E+03
        -0.37300E+03
        -0.37300E+03
        -0.37300E+03
        -0.37300E+03
        -0.37300E+03
        -0.37300E+03
        -0.37300E+03
        -0.37300E+03
        -0.37300E+03
        -0.37300E+03
        -0.37300E+03
        -0.37300E+03
        -0.37300E+03
        -0.37300E+03
        -0.37300E+03
        -0.37300E+03
        -0.37300E+03
        -0.37300E+03
        -0.37300E+03
        -0.37300E+03
        -0.37300E+03
        -0.37300E+03
        -0.37300E+03
        -0.37300E+03
        -0.37300E+03
        -0.37300E+03
        -0.37300E+03
        -0.37300E+03
        -0.37300E+03
        -0.37300E+03
        -0.37300E+03
        -0.37300E+03
        -0.37300E+03
        -0.37300E+03
        -0.37300E+03
        -0.37300E+03
        -0.37300E+03
        -0.37300E+03
        -0.37300E+03
        -0.37300E+03
        -0.37300E+03
        -0.37300E+03
        -0.37300E+03
        -0.37300E+03
        -0.37300E+03
        -0.37300E+03
        -0.37300E+03
        -0.37300E+03
        -0.37300E+03
        -0.37300E+03
        -0.37300E+03
        -0.37300E+03
        -0.37300E+03
        -0.37300E+03
        -0.37300E+03
        -0.37300E+03
        -0.37300E+03
        -0.37300E+03
        -0.37300E+03
        -0.37300E+03
        -0.37300E+03
        -0.37300E+03
        -0.37300E+03
        -0.37300E+03
        -0.37300E+03
        -0.37300E+03
        -0.37300E+03
        -0.37300E+03
        -0.37300E+03
        -0.37300E+03
        -0.37300E+03
        -0.37300E+03
        -0.37300E+03
        -0.37300E+03
        -0.37300E+03
        -0.37300E+03
        -0.37300E+03
        -0.37300E+03
        -0.37300E+03
        -0.37300E+03
        -0.37300E+03
        -0.37300E+03
        -0.37300E+03
        -0.37300E+03
        -0.37300E+03
        -0.37300E+03
        -0.37300E+03
        -0.37300E+03
        -0.37300E+03
        -0.37300E+03
        -0.37300E+03
        -0.37300E+03
        -0.37300E+03
        -0.37300E+03
        -0.37300E+03
        -0.37300E+03
        -0.37300E+03
        -0.37300E+03
        -0.37300E+03
        -0.37300E+03
        -0.37300E+03
        -0.37300E+03
        -0.37300E+03
        -0.37300E+03
        -0.37300E+03
        -0.37300E+03
        -0.37300E+03
        -0.37300E+03
        -0.37300E+03
        -0.37300E+03
        -0.37300E+03
        -0.37300E+03
        -0.37300E+03
        -0.37300E+03
        -0.37300E+03
        -0.37300E+03
        -0.37300E+03
        -0.37300E+03
        -0.37300E+03
        -0.37300E+03
        -0.37300E+03
        -0.37300E+03
        -0.37300E+03
        -0.37300E+03
        -0.37300E+03
        -0.37300E+03
        -0.37300E+03
        -0.37300E+03
        -0.37300E+03
        -0.37300E+03
        -0.37300E+03
        -0.37300E+03
        -0.37300E+03
        -0.37300E+03
        -0.37300E+03
        -0.37300E+03
        -0.37300E+03
        -0.37300E+03
        -0.37300E+03
        -0.37300E+03
        -0.37300E+03
        -0.37300E+03
        -0.37300E+03
        -0.37300E+03
        -0.37300E+03
        -0.37300E+03
        -0.37300E+03
        -0.37300E+03
        -0.37300E+03
        -0.37300E+03
        -0.37300E+03
        -0.37300E+03
        -0.37300E+03
        -0.37300E+03
        -0.37300E+03
        -0.37300E+03
        -0.37300E+03
        -0.37300E+03
        -0.37300E+03
        -0.37300E+03
        -0.37300E+03
        -0.37300E+03
        -0.37300E+03
        -0.37300E+03
        -0.37300E+03
        -0.37300E+03
        -0.37300E+03
        -0.37300E+03
        -0.37300E+03
        -0.37300E+03
        -0.37300E+03
        -0.37300E+03
        -0.37300E+03
        -0.37300E+03
        -0.37300E+03
        -0.37300E+03
        -0.37300E+03
        -0.37300E+03
        -0.37300E+03
        -0.37300E+03
        -0.37300E+03
        -0.37300E+03
        -0.37300E+03
        -0.37300E+03
        -0.37300E+03
        -0.37300E+03
        -0.37300E+03
        -0.37300E+03
        -0.37300E+03
        -0.37300E+03
        -0.37300E+03
        -0.37300E+03
        -0.37300E+03
        -0.37300E+03
        -0.37300E+03
        -0.37300E+03
        -0.37300E+03
        -0.37300E+03
        -0.37300E+03
        -0.37300E+03
        -0.37300E+03
        -0.37300E+03
        -0.37300E+03
        -0.37300E+03
        -0.37300E+03
        -0.37300E+03
        -0.37300E+03
        -0.37300E+03
        -0.37300E+03
        -0.37300E+03
        -0.37300E+03
        -0.37300E+03
        -0.37300E+03
        -0.37300E+03
        -0.37300E+03
        -0.37300E+03
        -0.37300E+03
        -0.37300E+03
        -0.37300E+03
        -0.37300E+03
        -0.37300E+03
        -0.37300E+03
        -0.37300E+03
        -0.37300E+03
        -0.37300E+03
        -0.37300E+03
        -0.37300E+03
        -0.37300E+03
        -0.37300E+03
        -0.37300E+03
        -0.37300E+03
        -0.37300E+03
        -0.37300E+03
        -0.37300E+03
        -0.37300E+03
        -0.37300E+03
        -0.37300E+03
        -0.37300E+03
        -0.37300E+03
        -0.37300E+03
        -0.37300E+03
        -0.37300E+03
        -0.37300E+03
        -0.37300E+03
        -0.37300E+03
        -0.37300E+03
        -0.37300E+03
        -0.37300E+03
        -0.37300E+03
        -0.37300E+03
        -0.37300E+03
        -0.37300E+03
        -0.37300E+03
        -0.37300E+03
        -0.37300E+03
        -0.37300E+03
        -0.37300E+03
        -0.37300E+03
        -0.37300E+03
        -0.37300E+03
        -0.37300E+03
        -0.37300E+03
        -0.37300E+03
        -0.37300E+03
        -0.37300E+03
        -0.37300E+03
        -0.37300E+03
        -0.37300E+03
        -0.37300E+03
        -0.37300E+03
        -0.37300E+03
        -0.37300E+03
        -0.37300E+03
        -0.37300E+03
        -0.37300E+03
        -0.37300E+03
        -0.37300E+03
        -0.37300E+03
        -0.37300E+03
        -0.37300E+03
        -0.37300E+03
        -0.37300E+03
        -0.37300E+03
        -0.37300E+03
        -0.37300E+03
        -0.37300E+03
        -0.37300E+03
        -0.37300E+03
        -0.37300E+03
        -0.37300E+03
        -0.37300E+03
        -0.37300E+03
        -0.37300E+03
        -0.37300E+03
        -0.37300E+03
        -0.37300E+03
        -0.37300E+03
        -0.37300E+03
        -0.37300E+03
        -0.37300E+03
        -0.37300E+03
        -0.37300E+03
        -0.37300E+03
        -0.37300E+03
        -0.37300E+03
        -0.37300E+03
        -0.37300E+03
        -0.37300E+03
        -0.37300E+03
        -0.37300E+03
        -0.37300E+03
        -0.37300E+03
        -0.37300E+03
        -0.37300E+03
        -0.37300E+03
        -0.37300E+03
        -0.37300E+03
        -0.37300E+03
        -0.37300E+03
        -0.37300E+03
        -0.37300E+03
        -0.37300E+03
        -0.37300E+03
        -0.37300E+03
        -0.37300E+03
        -0.37300E+03
        -0.37300E+03
        -0.37300E+03
        -0.37300E+03
        -0.37300E+03
        -0.37300E+03
        -0.37300E+03
        -0.37300E+03
        -0.37300E+03
        -0.37300E+03
        -0.37300E+03
        -0.37300E+03
        -0.37300E+03
        -0.37300E+03
        -0.37300E+03
        -0.37300E+03
        -0.37300E+03
        -0.37300E+03
        -0.37300E+03
        -0.37300E+03
        -0.37300E+03
        -0.37300E+03
        -0.37300E+03
        -0.37300E+03
        -0.37300E+03
        -0.37300E+03
        -0.37300E+03
        -0.37300E+03
        -0.37300E+03
        -0.37300E+03
        -0.37300E+03
        -0.37300E+03
        -0.37300E+03
        -0.37300E+03
        -0.37300E+03
        -0.37300E+03
        -0.37300E+03
        -0.37300E+03
        -0.37300E+03
        -0.37300E+03
        -0.37300E+03
        -0.37300E+03
        -0.37300E+03
        -0.37300E+03
        -0.37300E+03
        -0.37300E+03
        -0.37300E+03
        -0.37300E+03
        -0.37300E+03
        -0.37300E+03
        -0.37300E+03
        -0.37300E+03
        -0.37300E+03
        -0.37300E+03
        -0.37300E+03
        -0.37300E+03
        -0.37300E+03
        -0.37300E+03
        -0.37300E+03
        -0.37300E+03
        -0.37300E+03
        -0.37300E+03
        -0.37300E+03
        -0.37300E+03
        -0.37300E+03
        -0.37300E+03
        -0.37300E+03
        -0.37300E+03
        -0.37300E+03
        -0.37300E+03
        -0.37300E+03
        -0.37300E+03
        -0.37300E+03
        -0.37300E+03
        -0.37300E+03
        -0.37300E+03
        -0.37300E+03
        -0.37300E+03
        -0.37300E+03
        -0.37300E+03
        -0.37300E+03
        -0.37300E+03
        -0.37300E+03
        -0.37300E+03
        -0.37300E+03
        -0.37300E+03
        -0.37300E+03
        -0.37300E+03
        -0.37300E+03
        -0.37300E+03
        -0.37300E+03
        -0.37300E+03
        -0.37300E+03
        -0.37300E+03
        -0.37300E+03
        -0.37300E+03
        -0.37300E+03
        -0.37300E+03
        -0.37300E+03
        -0.37300E+03
        -0.37300E+03
        -0.37300E+03
        -0.37300E+03
        -0.37300E+03
        -0.37300E+03
        -0.37300E+03
        -0.37300E+03
  
SCALARS              normalized_window  double 1
LOOKUP_TABLE default
         0.27500E+01
         0.27500E+01
         0.27500E+01
         0.27500E+01
         0.27500E+01
         0.27500E+01
         0.27500E+01
         0.27500E+01
         0.27500E+01
         0.27500E+01
         0.27500E+01
         0.27500E+01
         0.27500E+01
         0.27500E+01
         0.27500E+01
         0.27500E+01
         0.27500E+01
         0.27500E+01
         0.27500E+01
         0.27500E+01
         0.27500E+01
         0.27500E+01
         0.27500E+01
         0.27500E+01
         0.27500E+01
         0.27500E+01
         0.27500E+01
         0.27500E+01
         0.27500E+01
         0.27500E+01
         0.27500E+01
         0.27500E+01
         0.27500E+01
         0.27500E+01
         0.27500E+01
         0.27500E+01
         0.27500E+01
         0.27500E+01
         0.27500E+01
         0.27500E+01
         0.27500E+01
         0.27500E+01
         0.27500E+01
         0.27500E+01
         0.27500E+01
         0.27500E+01
         0.27500E+01
         0.27500E+01
         0.27500E+01
         0.27500E+01
         0.27500E+01
         0.27500E+01
         0.27500E+01
         0.27500E+01
         0.27500E+01
         0.27500E+01
         0.27500E+01
         0.27500E+01
         0.27500E+01
         0.27500E+01
         0.27500E+01
         0.27500E+01
         0.27500E+01
         0.27500E+01
         0.27500E+01
         0.27500E+01
         0.27500E+01
         0.27500E+01
         0.27500E+01
         0.27500E+01
         0.27500E+01
         0.27500E+01
         0.27500E+01
         0.27500E+01
         0.27500E+01
         0.27500E+01
         0.27500E+01
         0.27500E+01
         0.27500E+01
         0.27500E+01
         0.27500E+01
         0.27500E+01
         0.27500E+01
         0.27500E+01
         0.27500E+01
         0.27500E+01
         0.27500E+01
         0.27500E+01
         0.27500E+01
         0.27500E+01
         0.27500E+01
         0.27500E+01
         0.27500E+01
         0.27500E+01
         0.27500E+01
         0.27500E+01
         0.27500E+01
         0.27500E+01
         0.27500E+01
         0.27500E+01
         0.27500E+01
         0.27500E+01
         0.27500E+01
         0.27500E+01
         0.27500E+01
         0.27500E+01
         0.27500E+01
         0.27500E+01
         0.27500E+01
         0.27500E+01
         0.27500E+01
         0.27500E+01
         0.27500E+01
         0.27500E+01
         0.27500E+01
         0.27500E+01
         0.27500E+01
         0.27500E+01
         0.27500E+01
         0.27500E+01
         0.27500E+01
         0.27500E+01
         0.27500E+01
         0.27500E+01
         0.27500E+01
         0.27500E+01
         0.27500E+01
         0.27500E+01
         0.27500E+01
         0.27500E+01
         0.27500E+01
         0.27500E+01
         0.27500E+01
         0.27500E+01
         0.27500E+01
         0.27500E+01
         0.27500E+01
         0.27500E+01
         0.27500E+01
         0.27500E+01
         0.27500E+01
         0.27500E+01
         0.27500E+01
         0.27500E+01
         0.27500E+01
         0.27500E+01
         0.27500E+01
         0.27500E+01
         0.27500E+01
         0.27500E+01
         0.27500E+01
         0.27500E+01
         0.27500E+01
         0.27500E+01
         0.27500E+01
         0.27500E+01
         0.27500E+01
         0.27500E+01
         0.27500E+01
         0.27500E+01
         0.27500E+01
         0.27500E+01
         0.27500E+01
         0.27500E+01
         0.27500E+01
         0.27500E+01
         0.27500E+01
         0.27500E+01
         0.27500E+01
         0.27500E+01
         0.27500E+01
         0.27500E+01
         0.27500E+01
         0.27500E+01
         0.27500E+01
         0.27500E+01
         0.27500E+01
         0.27500E+01
         0.27500E+01
         0.27500E+01
         0.27500E+01
         0.27500E+01
         0.27500E+01
         0.27500E+01
         0.27500E+01
         0.27500E+01
         0.27500E+01
         0.27500E+01
         0.27500E+01
         0.27500E+01
         0.27500E+01
         0.27500E+01
         0.27500E+01
         0.27500E+01
         0.27500E+01
         0.27500E+01
         0.27500E+01
         0.27500E+01
         0.27500E+01
         0.27500E+01
         0.27500E+01
         0.27500E+01
         0.27500E+01
         0.27500E+01
         0.27500E+01
         0.27500E+01
         0.27500E+01
         0.27500E+01
         0.27500E+01
         0.27500E+01
         0.27500E+01
         0.27500E+01
         0.27500E+01
         0.27500E+01
         0.27500E+01
         0.27500E+01
         0.27500E+01
         0.27500E+01
         0.27500E+01
         0.27500E+01
         0.27500E+01
         0.27500E+01
         0.27500E+01
         0.27500E+01
         0.27500E+01
         0.27500E+01
         0.27500E+01
         0.27500E+01
         0.27500E+01
         0.27500E+01
         0.27500E+01
         0.27500E+01
         0.27500E+01
         0.27500E+01
         0.27500E+01
         0.27500E+01
         0.27500E+01
         0.27500E+01
         0.27500E+01
         0.27500E+01
         0.27500E+01
         0.27500E+01
         0.27500E+01
         0.27500E+01
         0.27500E+01
         0.27500E+01
         0.27500E+01
         0.27500E+01
         0.27500E+01
         0.27500E+01
         0.27500E+01
         0.27500E+01
         0.27500E+01
         0.27500E+01
         0.27500E+01
         0.27500E+01
         0.27500E+01
         0.27500E+01
         0.27500E+01
         0.27500E+01
         0.27500E+01
         0.27500E+01
         0.27500E+01
         0.27500E+01
         0.27500E+01
         0.27500E+01
         0.27500E+01
         0.27500E+01
         0.27500E+01
         0.27500E+01
         0.27500E+01
         0.27500E+01
         0.27500E+01
         0.27500E+01
         0.27500E+01
         0.27500E+01
         0.27500E+01
         0.27500E+01
         0.27500E+01
         0.27500E+01
         0.27500E+01
         0.27500E+01
         0.27500E+01
         0.27500E+01
         0.27500E+01
         0.27500E+01
         0.27500E+01
         0.27500E+01
         0.27500E+01
         0.27500E+01
         0.27500E+01
         0.27500E+01
         0.27500E+01
         0.27500E+01
         0.27500E+01
         0.27500E+01
         0.27500E+01
         0.27500E+01
         0.27500E+01
         0.27500E+01
         0.27500E+01
         0.27500E+01
         0.27500E+01
         0.27500E+01
         0.27500E+01
         0.27500E+01
         0.27500E+01
         0.27500E+01
         0.27500E+01
         0.27500E+01
         0.27500E+01
         0.27500E+01
         0.27500E+01
         0.27500E+01
         0.27500E+01
         0.27500E+01
         0.27500E+01
         0.27500E+01
         0.27500E+01
         0.27500E+01
         0.27500E+01
         0.27500E+01
         0.27500E+01
         0.27500E+01
         0.27500E+01
         0.27500E+01
         0.27500E+01
         0.27500E+01
         0.27500E+01
         0.27500E+01
         0.27500E+01
         0.27500E+01
         0.27500E+01
         0.27500E+01
         0.27500E+01
         0.27500E+01
         0.27500E+01
         0.27500E+01
         0.27500E+01
         0.27500E+01
         0.27500E+01
         0.27500E+01
         0.27500E+01
         0.27500E+01
         0.27500E+01
         0.27500E+01
         0.27500E+01
         0.27500E+01
         0.27500E+01
         0.27500E+01
         0.27500E+01
         0.27500E+01
         0.27500E+01
         0.27500E+01
         0.27500E+01
         0.27500E+01
         0.27500E+01
         0.27500E+01
         0.27500E+01
         0.27500E+01
         0.27500E+01
         0.27500E+01
         0.27500E+01
         0.27500E+01
         0.27500E+01
         0.27500E+01
         0.27500E+01
         0.27500E+01
         0.27500E+01
         0.27500E+01
         0.27500E+01
         0.27500E+01
         0.27500E+01
         0.27500E+01
         0.27500E+01
         0.27500E+01
         0.27500E+01
         0.27500E+01
         0.27500E+01
         0.27500E+01
         0.27500E+01
         0.27500E+01
         0.27500E+01
         0.27500E+01
         0.27500E+01
         0.27500E+01
         0.27500E+01
         0.27500E+01
         0.27500E+01
         0.27500E+01
         0.27500E+01
         0.27500E+01
         0.27500E+01
         0.27500E+01
         0.27500E+01
         0.27500E+01
         0.27500E+01
         0.27500E+01
         0.27500E+01
         0.27500E+01
         0.27500E+01
         0.27500E+01
         0.27500E+01
         0.27500E+01
         0.27500E+01
         0.27500E+01
         0.27500E+01
         0.27500E+01
         0.27500E+01
         0.27500E+01
         0.27500E+01
         0.27500E+01
         0.27500E+01
         0.27500E+01
         0.27500E+01
         0.27500E+01
         0.27500E+01
         0.27500E+01
         0.27500E+01
         0.27500E+01
         0.27500E+01
         0.27500E+01
         0.27500E+01
         0.27500E+01
         0.27500E+01
         0.27500E+01
         0.27500E+01
         0.27500E+01
         0.27500E+01
         0.27500E+01
         0.27500E+01
         0.27500E+01
         0.27500E+01
         0.27500E+01
         0.27500E+01
         0.27500E+01
         0.27500E+01
         0.27500E+01
         0.27500E+01
         0.27500E+01
         0.27500E+01
         0.27500E+01
         0.27500E+01
         0.27500E+01
         0.27500E+01
         0.27500E+01
         0.27500E+01
         0.27500E+01
         0.27500E+01
         0.27500E+01
         0.27500E+01
         0.27500E+01
         0.27500E+01
         0.27500E+01
         0.27500E+01
         0.27500E+01
         0.27500E+01
         0.27500E+01
         0.27500E+01
         0.27500E+01
         0.27500E+01
         0.27500E+01
         0.27500E+01
         0.27500E+01
         0.27500E+01
         0.27500E+01
         0.27500E+01
         0.27500E+01
         0.27500E+01
         0.27500E+01
         0.27500E+01
         0.27500E+01
         0.27500E+01
         0.27500E+01
         0.27500E+01
         0.27500E+01
         0.27500E+01
         0.27500E+01
         0.27500E+01
         0.27500E+01
         0.27500E+01
         0.27500E+01
         0.27500E+01
         0.27500E+01
         0.27500E+01
         0.27500E+01
         0.27500E+01
         0.27500E+01
         0.27500E+01
         0.27500E+01
         0.27500E+01
         0.27500E+01
         0.27500E+01
         0.27500E+01
         0.27500E+01
         0.27500E+01
         0.27500E+01
         0.27500E+01
         0.27500E+01
         0.27500E+01
         0.27500E+01
         0.27500E+01
         0.27500E+01
         0.27500E+01
         0.27500E+01
         0.27500E+01
         0.27500E+01
         0.27500E+01
         0.27500E+01
         0.27500E+01
         0.27500E+01
         0.27500E+01
         0.27500E+01
         0.27500E+01
         0.27500E+01
         0.27500E+01
         0.27500E+01
         0.27500E+01
         0.27500E+01
         0.27500E+01
         0.27500E+01
         0.27500E+01
         0.27500E+01
         0.27500E+01
         0.27500E+01
         0.27500E+01
         0.27500E+01
         0.27500E+01
         0.27500E+01
         0.27500E+01
         0.27500E+01
         0.27500E+01
         0.27500E+01
         0.27500E+01
         0.27500E+01
         0.27500E+01
         0.27500E+01
         0.27500E+01
         0.27500E+01
         0.27500E+01
         0.27500E+01
         0.27500E+01
         0.27500E+01
         0.27500E+01
         0.27500E+01
         0.27500E+01
         0.27500E+01
         0.27500E+01
         0.27500E+01
         0.27500E+01
         0.27500E+01
         0.27500E+01
         0.27500E+01
         0.27500E+01
         0.27500E+01
         0.27500E+01
         0.27500E+01
         0.27500E+01
         0.27500E+01
         0.27500E+01
         0.27500E+01
         0.27500E+01
         0.27500E+01
         0.27500E+01
         0.27500E+01
         0.27500E+01
         0.27500E+01
         0.27500E+01
         0.27500E+01
         0.27500E+01
         0.27500E+01
         0.27500E+01
         0.27500E+01
         0.27500E+01
         0.27500E+01
         0.27500E+01
         0.27500E+01
         0.27500E+01
         0.27500E+01
         0.27500E+01
         0.27500E+01
         0.27500E+01
         0.27500E+01
         0.27500E+01
         0.27500E+01
         0.27500E+01
         0.27500E+01
         0.27500E+01
         0.27500E+01
         0.27500E+01
         0.27500E+01
         0.27500E+01
         0.27500E+01
         0.27500E+01
         0.27500E+01
         0.27500E+01
         0.27500E+01
         0.27500E+01
         0.27500E+01
         0.27500E+01
         0.27500E+01
         0.27500E+01
         0.27500E+01
         0.27500E+01
         0.27500E+01
         0.27500E+01
         0.27500E+01
         0.27500E+01
         0.27500E+01
         0.27500E+01
         0.27500E+01
         0.27500E+01
         0.27500E+01
         0.27500E+01
         0.27500E+01
         0.27500E+01
         0.27500E+01
         0.27500E+01
         0.27500E+01
         0.27500E+01
         0.27500E+01
         0.27500E+01
         0.27500E+01
         0.27500E+01
         0.27500E+01
         0.27500E+01
         0.27500E+01
         0.27500E+01
         0.27500E+01
         0.27500E+01
         0.27500E+01
         0.27500E+01
         0.27500E+01
         0.27500E+01
         0.27500E+01
         0.27500E+01
         0.27500E+01
         0.27500E+01
         0.27500E+01
         0.27500E+01
         0.27500E+01
         0.27500E+01
         0.27500E+01
         0.27500E+01
         0.27500E+01
         0.27500E+01
         0.27500E+01
         0.27500E+01
         0.27500E+01
         0.27500E+01
         0.27500E+01
         0.27500E+01
         0.27500E+01
         0.27500E+01
         0.27500E+01
         0.27500E+01
         0.27500E+01
         0.27500E+01
         0.27500E+01
         0.27500E+01
         0.27500E+01
         0.27500E+01
         0.27500E+01
         0.27500E+01
         0.27500E+01
         0.27500E+01
         0.27500E+01
         0.27500E+01
         0.27500E+01
         0.27500E+01
         0.27500E+01
         0.27500E+01
         0.27500E+01
         0.27500E+01
         0.27500E+01
         0.27500E+01
         0.27500E+01
         0.27500E+01
         0.27500E+01
         0.27500E+01
         0.27500E+01
         0.27500E+01
         0.27500E+01
         0.27500E+01
         0.27500E+01
         0.27500E+01
         0.27500E+01
         0.27500E+01
         0.27500E+01
         0.27500E+01
         0.27500E+01
         0.27500E+01
         0.27500E+01
         0.27500E+01
         0.27500E+01
         0.27500E+01
         0.27500E+01
         0.27500E+01
         0.27500E+01
         0.27500E+01
         0.27500E+01
         0.27500E+01
         0.27500E+01
         0.27500E+01
         0.27500E+01
         0.27500E+01
         0.27500E+01
         0.27500E+01
         0.27500E+01
         0.27500E+01
         0.27500E+01
         0.27500E+01
         0.27500E+01
         0.27500E+01
         0.27500E+01
         0.27500E+01
         0.27500E+01
         0.27500E+01
         0.27500E+01
         0.27500E+01
         0.27500E+01
         0.27500E+01
         0.27500E+01
         0.27500E+01
         0.27500E+01
         0.27500E+01
         0.27500E+01
         0.27500E+01
         0.27500E+01
         0.27500E+01
         0.27500E+01
         0.27500E+01
         0.27500E+01
         0.27500E+01
         0.27500E+01
         0.27500E+01
         0.27500E+01
         0.27500E+01
         0.27500E+01
         0.27500E+01
         0.27500E+01
         0.27500E+01
         0.27500E+01
         0.27500E+01
         0.27500E+01
         0.27500E+01
         0.27500E+01
         0.27500E+01
         0.27500E+01
         0.27500E+01
         0.27500E+01
         0.27500E+01
         0.27500E+01
         0.27500E+01
         0.27500E+01
         0.27500E+01
         0.27500E+01
         0.27500E+01
         0.27500E+01
         0.27500E+01
         0.27500E+01
         0.27500E+01
         0.27500E+01
         0.27500E+01
         0.27500E+01
         0.27500E+01
         0.27500E+01
         0.27500E+01
         0.27500E+01
         0.27500E+01
         0.27500E+01
         0.27500E+01
         0.27500E+01
         0.27500E+01
         0.27500E+01
         0.27500E+01
         0.27500E+01
         0.27500E+01
         0.27500E+01
         0.27500E+01
         0.27500E+01
         0.27500E+01
         0.27500E+01
         0.27500E+01
         0.27500E+01
         0.27500E+01
         0.27500E+01
         0.27500E+01
         0.27500E+01
         0.27500E+01
         0.27500E+01
         0.27500E+01
         0.27500E+01
         0.27500E+01
         0.27500E+01
         0.27500E+01
         0.27500E+01
         0.27500E+01
         0.27500E+01
         0.27500E+01
         0.27500E+01
         0.27500E+01
         0.27500E+01
         0.27500E+01
         0.27500E+01
         0.27500E+01
         0.27500E+01
         0.27500E+01
         0.27500E+01
         0.27500E+01
         0.27500E+01
         0.27500E+01
         0.27500E+01
         0.27500E+01
         0.27500E+01
         0.27500E+01
         0.27500E+01
         0.27500E+01
         0.27500E+01
         0.27500E+01
         0.27500E+01
         0.27500E+01
         0.27500E+01
         0.27500E+01
         0.27500E+01
         0.27500E+01
         0.27500E+01
         0.27500E+01
         0.27500E+01
         0.27500E+01
         0.27500E+01
         0.27500E+01
         0.27500E+01
         0.27500E+01
         0.27500E+01
         0.27500E+01
         0.27500E+01
         0.27500E+01
         0.27500E+01
         0.27500E+01
         0.27500E+01
         0.27500E+01
         0.27500E+01
         0.27500E+01
         0.27500E+01
         0.27500E+01
         0.27500E+01
         0.27500E+01
         0.27500E+01
         0.27500E+01
         0.27500E+01
         0.27500E+01
         0.27500E+01
         0.27500E+01
         0.27500E+01
         0.27500E+01
         0.27500E+01
         0.27500E+01
         0.27500E+01
         0.27500E+01
         0.27500E+01
         0.27500E+01
         0.27500E+01
         0.27500E+01
         0.27500E+01
         0.27500E+01
         0.27500E+01
         0.27500E+01
         0.27500E+01
         0.27500E+01
         0.27500E+01
         0.27500E+01
         0.27500E+01
         0.27500E+01
         0.27500E+01
         0.27500E+01
         0.27500E+01
         0.27500E+01
         0.27500E+01
         0.27500E+01
         0.27500E+01
         0.27500E+01
         0.27500E+01
         0.27500E+01
         0.27500E+01
         0.27500E+01
         0.27500E+01
         0.27500E+01
         0.27500E+01
         0.27500E+01
         0.27500E+01
         0.27500E+01
         0.27500E+01
         0.27500E+01
         0.27500E+01
         0.27500E+01
         0.27500E+01
         0.27500E+01
         0.27500E+01
         0.27500E+01
         0.27500E+01
         0.27500E+01
         0.27500E+01
         0.27500E+01
         0.27500E+01
         0.27500E+01
         0.27500E+01
         0.27500E+01
         0.27500E+01
         0.27500E+01
         0.27500E+01
         0.27500E+01
         0.27500E+01
         0.27500E+01
         0.27500E+01
         0.27500E+01
         0.27500E+01
         0.27500E+01
         0.27500E+01
         0.27500E+01
         0.27500E+01
         0.27500E+01
         0.27500E+01
         0.27500E+01
         0.27500E+01
         0.27500E+01
         0.27500E+01
         0.27500E+01
         0.27500E+01
         0.27500E+01
         0.27500E+01
         0.27500E+01
         0.27500E+01
         0.27500E+01
         0.27500E+01
         0.27500E+01
         0.27500E+01
         0.27500E+01
         0.27500E+01
         0.27500E+01
         0.27500E+01
         0.27500E+01
         0.27500E+01
         0.27500E+01
         0.27500E+01
         0.27500E+01
         0.27500E+01
         0.27500E+01
         0.27500E+01
         0.27500E+01
         0.27500E+01
         0.27500E+01
         0.27500E+01
         0.27500E+01
         0.27500E+01
         0.27500E+01
         0.27500E+01
         0.27500E+01
         0.27500E+01
         0.27500E+01
         0.27500E+01
         0.27500E+01
         0.27500E+01
         0.27500E+01
         0.27500E+01
         0.27500E+01
         0.27500E+01
         0.27500E+01
         0.27500E+01
         0.27500E+01
         0.27500E+01
         0.27500E+01
         0.27500E+01
         0.27500E+01
         0.27500E+01
         0.27500E+01
         0.27500E+01
         0.27500E+01
         0.27500E+01
         0.27500E+01
         0.27500E+01
         0.27500E+01
         0.27500E+01
         0.27500E+01
         0.27500E+01
         0.27500E+01
         0.27500E+01
         0.27500E+01
         0.27500E+01
         0.27500E+01
         0.27500E+01
         0.27500E+01
         0.27500E+01
         0.27500E+01
         0.27500E+01
         0.27500E+01
         0.27500E+01
         0.27500E+01
         0.27500E+01
         0.27500E+01
         0.27500E+01
         0.27500E+01
         0.27500E+01
         0.27500E+01
         0.27500E+01
         0.27500E+01
         0.27500E+01
         0.27500E+01
         0.27500E+01
         0.27500E+01
         0.27500E+01
         0.27500E+01
         0.27500E+01
         0.27500E+01
         0.27500E+01
         0.27500E+01
         0.27500E+01
         0.27500E+01
         0.27500E+01
         0.27500E+01
         0.27500E+01
         0.27500E+01
         0.27500E+01
         0.27500E+01
         0.27500E+01
         0.27500E+01
         0.27500E+01
         0.27500E+01
         0.27500E+01
         0.27500E+01
         0.27500E+01
         0.27500E+01
         0.27500E+01
         0.27500E+01
         0.27500E+01
         0.27500E+01
         0.27500E+01
         0.27500E+01
         0.27500E+01
         0.27500E+01
         0.27500E+01
         0.27500E+01
         0.27500E+01
         0.27500E+01
         0.27500E+01
         0.27500E+01
         0.27500E+01
         0.27500E+01
         0.27500E+01
         0.27500E+01
         0.27500E+01
         0.27500E+01
         0.27500E+01
         0.27500E+01
         0.27500E+01
         0.27500E+01
         0.27500E+01
         0.27500E+01
         0.27500E+01
         0.27500E+01
         0.27500E+01
         0.27500E+01
         0.27500E+01
         0.27500E+01
         0.27500E+01
         0.27500E+01
         0.27500E+01
         0.27500E+01
         0.27500E+01
         0.27500E+01
         0.27500E+01
         0.27500E+01
         0.27500E+01
         0.27500E+01
         0.27500E+01
         0.27500E+01
         0.27500E+01
         0.27500E+01
         0.27500E+01
         0.27500E+01
         0.27500E+01
         0.27500E+01
         0.27500E+01
         0.27500E+01
         0.27500E+01
         0.27500E+01
         0.27500E+01
         0.27500E+01
         0.27500E+01
         0.27500E+01
         0.27500E+01
         0.27500E+01
         0.27500E+01
         0.27500E+01
         0.27500E+01
         0.27500E+01
         0.27500E+01
         0.27500E+01
         0.27500E+01
         0.27500E+01
         0.27500E+01
         0.27500E+01
         0.27500E+01
         0.27500E+01
         0.27500E+01
         0.27500E+01
         0.27500E+01
         0.27500E+01
         0.27500E+01
         0.27500E+01
         0.27500E+01
         0.27500E+01
         0.27500E+01
         0.27500E+01
         0.27500E+01
         0.27500E+01
         0.27500E+01
         0.27500E+01
         0.27500E+01
         0.27500E+01
         0.27500E+01
         0.27500E+01
         0.27500E+01
         0.27500E+01
         0.27500E+01
         0.27500E+01
         0.27500E+01
         0.27500E+01
         0.27500E+01
         0.27500E+01
         0.27500E+01
         0.27500E+01
         0.27500E+01
         0.27500E+01
         0.27500E+01
         0.27500E+01
         0.27500E+01
         0.27500E+01
         0.27500E+01
         0.27500E+01
         0.27500E+01
         0.27500E+01
         0.27500E+01
         0.27500E+01
         0.27500E+01
         0.27500E+01
         0.27500E+01
         0.27500E+01
         0.27500E+01
         0.27500E+01
         0.27500E+01
         0.27500E+01
         0.27500E+01
         0.27500E+01
         0.27500E+01
         0.27500E+01
         0.27500E+01
         0.27500E+01
         0.27500E+01
         0.27500E+01
         0.27500E+01
         0.27500E+01
         0.27500E+01
         0.27500E+01
         0.27500E+01
         0.27500E+01
         0.27500E+01
         0.27500E+01
         0.27500E+01
         0.27500E+01
         0.27500E+01
         0.27500E+01
         0.27500E+01
         0.27500E+01
         0.27500E+01
         0.27500E+01
         0.27500E+01
         0.27500E+01
         0.27500E+01
         0.27500E+01
         0.27500E+01
         0.27500E+01
         0.27500E+01
         0.27500E+01
         0.27500E+01
         0.27500E+01
         0.27500E+01
         0.27500E+01
         0.27500E+01
         0.27500E+01
         0.27500E+01
         0.27500E+01
         0.27500E+01
         0.27500E+01
         0.27500E+01
         0.27500E+01
         0.27500E+01
         0.27500E+01
         0.27500E+01
         0.27500E+01
         0.27500E+01
         0.27500E+01
         0.27500E+01
         0.27500E+01
         0.27500E+01
         0.27500E+01
         0.27500E+01
         0.27500E+01
         0.27500E+01
         0.27500E+01
         0.27500E+01
         0.27500E+01
         0.27500E+01
         0.27500E+01
         0.27500E+01
         0.27500E+01
         0.27500E+01
         0.27500E+01
         0.27500E+01
         0.27500E+01
         0.27500E+01
         0.27500E+01
         0.27500E+01
         0.27500E+01
         0.27500E+01
         0.27500E+01
         0.27500E+01
         0.27500E+01
         0.27500E+01
         0.27500E+01
         0.27500E+01
         0.27500E+01
         0.27500E+01
         0.27500E+01
         0.27500E+01
         0.27500E+01
         0.27500E+01
         0.27500E+01
         0.27500E+01
         0.27500E+01
         0.27500E+01
         0.27500E+01
         0.27500E+01
         0.27500E+01
         0.27500E+01
         0.27500E+01
         0.27500E+01
         0.27500E+01
         0.27500E+01
         0.27500E+01
         0.27500E+01
         0.27500E+01
         0.27500E+01
         0.27500E+01
         0.27500E+01
         0.27500E+01
         0.27500E+01
         0.27500E+01
         0.27500E+01
         0.27500E+01
         0.27500E+01
         0.27500E+01
         0.27500E+01
         0.27500E+01
         0.27500E+01
         0.27500E+01
         0.27500E+01
         0.27500E+01
         0.27500E+01
         0.27500E+01
         0.27500E+01
         0.27500E+01
         0.27500E+01
         0.27500E+01
         0.27500E+01
         0.27500E+01
         0.27500E+01
         0.27500E+01
         0.27500E+01
         0.27500E+01
         0.27500E+01
         0.27500E+01
         0.27500E+01
         0.27500E+01
         0.27500E+01
         0.27500E+01
         0.27500E+01
         0.27500E+01
         0.27500E+01
         0.27500E+01
         0.27500E+01
         0.27500E+01
         0.27500E+01
         0.27500E+01
         0.27500E+01
         0.27500E+01
         0.27500E+01
         0.27500E+01
         0.27500E+01
         0.27500E+01
         0.27500E+01
         0.27500E+01
         0.27500E+01
         0.27500E+01
         0.27500E+01
         0.27500E+01
         0.27500E+01
         0.27500E+01
         0.27500E+01
         0.27500E+01
         0.27500E+01
         0.27500E+01
         0.27500E+01
         0.27500E+01
         0.27500E+01
         0.27500E+01
         0.27500E+01
         0.27500E+01
         0.27500E+01
         0.27500E+01
         0.27500E+01
         0.27500E+01
         0.27500E+01
         0.27500E+01
         0.27500E+01
         0.27500E+01
         0.27500E+01
         0.27500E+01
         0.27500E+01
         0.27500E+01
         0.27500E+01
         0.27500E+01
         0.27500E+01
         0.27500E+01
         0.27500E+01
         0.27500E+01
         0.27500E+01
         0.27500E+01
         0.27500E+01
         0.27500E+01
         0.27500E+01
         0.27500E+01
         0.27500E+01
         0.27500E+01
         0.27500E+01
         0.27500E+01
         0.27500E+01
         0.27500E+01
         0.27500E+01
         0.27500E+01
         0.27500E+01
         0.27500E+01
         0.27500E+01
         0.27500E+01
         0.27500E+01
         0.27500E+01
         0.27500E+01
         0.27500E+01
         0.27500E+01
         0.27500E+01
         0.27500E+01
         0.27500E+01
         0.27500E+01
         0.27500E+01
         0.27500E+01
         0.27500E+01
         0.27500E+01
         0.27500E+01
         0.27500E+01
         0.27500E+01
         0.27500E+01
         0.27500E+01
         0.27500E+01
         0.27500E+01
         0.27500E+01
         0.27500E+01
         0.27500E+01
         0.27500E+01
         0.27500E+01
         0.27500E+01
         0.27500E+01
         0.27500E+01
         0.27500E+01
         0.27500E+01
         0.27500E+01
         0.27500E+01
         0.27500E+01
         0.27500E+01
         0.27500E+01
         0.27500E+01
         0.27500E+01
         0.27500E+01
         0.27500E+01
         0.27500E+01
         0.27500E+01
         0.27500E+01
         0.27500E+01
         0.27500E+01
         0.27500E+01
         0.27500E+01
         0.27500E+01
         0.27500E+01
         0.27500E+01
         0.27500E+01
         0.27500E+01
         0.27500E+01
         0.27500E+01
         0.27500E+01
         0.27500E+01
         0.27500E+01
         0.27500E+01
         0.27500E+01
         0.27500E+01
         0.27500E+01
         0.27500E+01
         0.27500E+01
         0.27500E+01
         0.27500E+01
         0.27500E+01
         0.27500E+01
         0.27500E+01
         0.27500E+01
         0.27500E+01
         0.27500E+01
         0.27500E+01
         0.27500E+01
         0.27500E+01
         0.27500E+01
         0.27500E+01
         0.27500E+01
         0.27500E+01
         0.27500E+01
         0.27500E+01
         0.27500E+01
         0.27500E+01
         0.27500E+01
         0.27500E+01
         0.27500E+01
         0.27500E+01
         0.27500E+01
         0.27500E+01
         0.27500E+01
         0.27500E+01
         0.27500E+01
         0.27500E+01
         0.27500E+01
         0.27500E+01
         0.27500E+01
         0.27500E+01
         0.27500E+01
         0.27500E+01
         0.27500E+01
         0.27500E+01
         0.27500E+01
         0.27500E+01
         0.27500E+01
         0.27500E+01
         0.27500E+01
         0.27500E+01
         0.27500E+01
         0.27500E+01
         0.27500E+01
         0.27500E+01
         0.27500E+01
         0.27500E+01
         0.27500E+01
         0.27500E+01
         0.27500E+01
         0.27500E+01
         0.27500E+01
         0.27500E+01
         0.27500E+01
         0.27500E+01
         0.27500E+01
         0.27500E+01
         0.27500E+01
         0.27500E+01
         0.27500E+01
         0.27500E+01
         0.27500E+01
         0.27500E+01
         0.27500E+01
         0.27500E+01
         0.27500E+01
         0.27500E+01
         0.27500E+01
         0.27500E+01
         0.27500E+01
         0.27500E+01
         0.27500E+01
         0.27500E+01
         0.27500E+01
         0.27500E+01
         0.27500E+01
         0.27500E+01
         0.27500E+01
         0.27500E+01
         0.27500E+01
         0.27500E+01
         0.27500E+01
         0.27500E+01
         0.27500E+01
         0.27500E+01
         0.27500E+01
         0.27500E+01
         0.27500E+01
         0.27500E+01
         0.27500E+01
         0.27500E+01
         0.27500E+01
         0.27500E+01
         0.27500E+01
         0.27500E+01
         0.27500E+01
         0.27500E+01
         0.27500E+01
         0.27500E+01
         0.27500E+01
         0.27500E+01
         0.27500E+01
         0.27500E+01
         0.27500E+01
         0.27500E+01
         0.27500E+01
         0.27500E+01
         0.27500E+01
         0.27500E+01
         0.27500E+01
         0.27500E+01
         0.27500E+01
         0.27500E+01
         0.27500E+01
         0.27500E+01
         0.27500E+01
         0.27500E+01
         0.27500E+01
         0.27500E+01
         0.27500E+01
         0.27500E+01
         0.27500E+01
         0.27500E+01
         0.27500E+01
         0.27500E+01
         0.27500E+01
         0.27500E+01
         0.27500E+01
         0.27500E+01
         0.27500E+01
         0.27500E+01
         0.27500E+01
         0.27500E+01
         0.27500E+01
         0.27500E+01
         0.27500E+01
         0.27500E+01
         0.27500E+01
         0.27500E+01
         0.27500E+01
         0.27500E+01
         0.27500E+01
         0.27500E+01
         0.27500E+01
         0.27500E+01
         0.27500E+01
         0.27500E+01
         0.27500E+01
         0.27500E+01
         0.27500E+01
         0.27500E+01
         0.27500E+01
         0.27500E+01
         0.27500E+01
         0.27500E+01
         0.27500E+01
         0.27500E+01
         0.27500E+01
         0.27500E+01
         0.27500E+01
         0.27500E+01
         0.27500E+01
         0.27500E+01
         0.27500E+01
         0.27500E+01
         0.27500E+01
         0.27500E+01
         0.27500E+01
         0.27500E+01
         0.27500E+01
         0.27500E+01
         0.27500E+01
         0.27500E+01
         0.27500E+01
         0.27500E+01
         0.27500E+01
         0.27500E+01
         0.27500E+01
         0.27500E+01
         0.27500E+01
         0.27500E+01
         0.27500E+01
         0.27500E+01
         0.27500E+01
         0.27500E+01
         0.27500E+01
         0.27500E+01
         0.27500E+01
         0.27500E+01
         0.27500E+01
         0.27500E+01
         0.27500E+01
         0.27500E+01
         0.27500E+01
         0.27500E+01
         0.27500E+01
         0.27500E+01
         0.27500E+01
         0.27500E+01
         0.27500E+01
         0.27500E+01
         0.27500E+01
         0.27500E+01
         0.27500E+01
         0.27500E+01
         0.27500E+01
         0.27500E+01
         0.27500E+01
         0.27500E+01
         0.27500E+01
         0.27500E+01
         0.27500E+01
         0.27500E+01
         0.27500E+01
         0.27500E+01
         0.27500E+01
         0.27500E+01
         0.27500E+01
         0.27500E+01
         0.27500E+01
         0.27500E+01
         0.27500E+01
         0.27500E+01
         0.27500E+01
         0.27500E+01
         0.27500E+01
         0.27500E+01
         0.27500E+01
         0.27500E+01
         0.27500E+01
         0.27500E+01
         0.27500E+01
         0.27500E+01
         0.27500E+01
         0.27500E+01
         0.27500E+01
         0.27500E+01
         0.27500E+01
         0.27500E+01
         0.27500E+01
         0.27500E+01
         0.27500E+01
         0.27500E+01
         0.27500E+01
         0.27500E+01
         0.27500E+01
         0.27500E+01
         0.27500E+01
         0.27500E+01
         0.27500E+01
         0.27500E+01
         0.27500E+01
         0.27500E+01
         0.27500E+01
         0.27500E+01
         0.27500E+01
         0.27500E+01
         0.27500E+01
         0.27500E+01
         0.27500E+01
         0.27500E+01
         0.27500E+01
         0.27500E+01
         0.27500E+01
         0.27500E+01
         0.27500E+01
         0.27500E+01
         0.27500E+01
         0.27500E+01
         0.27500E+01
         0.27500E+01
         0.27500E+01
         0.27500E+01
         0.27500E+01
         0.27500E+01
         0.27500E+01
         0.27500E+01
         0.27500E+01
         0.27500E+01
         0.27500E+01
         0.27500E+01
         0.27500E+01
         0.27500E+01
         0.27500E+01
         0.27500E+01
         0.27500E+01
         0.27500E+01
         0.27500E+01
         0.27500E+01
         0.27500E+01
         0.27500E+01
         0.27500E+01
         0.27500E+01
         0.27500E+01
         0.27500E+01
         0.27500E+01
         0.27500E+01
         0.27500E+01
         0.27500E+01
         0.27500E+01
         0.27500E+01
         0.27500E+01
         0.27500E+01
         0.27500E+01
         0.27500E+01
         0.27500E+01
         0.27500E+01
         0.27500E+01
         0.27500E+01
         0.27500E+01
         0.27500E+01
         0.27500E+01
         0.27500E+01
         0.27500E+01
         0.27500E+01
         0.27500E+01
         0.27500E+01
         0.27500E+01
         0.27500E+01
         0.27500E+01
         0.27500E+01
         0.27500E+01
         0.27500E+01
         0.27500E+01
         0.27500E+01
         0.27500E+01
         0.27500E+01
         0.27500E+01
         0.27500E+01
         0.27500E+01
         0.27500E+01
         0.27500E+01
         0.27500E+01
         0.27500E+01
         0.27500E+01
         0.27500E+01
         0.27500E+01
         0.27500E+01
         0.27500E+01
         0.27500E+01
         0.27500E+01
         0.27500E+01
         0.27500E+01
         0.27500E+01
         0.27500E+01
         0.27500E+01
         0.27500E+01
         0.27500E+01
         0.27500E+01
         0.27500E+01
         0.27500E+01
         0.27500E+01
         0.27500E+01
         0.27500E+01
         0.27500E+01
         0.27500E+01
         0.27500E+01
         0.27500E+01
         0.27500E+01
         0.27500E+01
         0.27500E+01
         0.27500E+01
         0.27500E+01
         0.27500E+01
         0.27500E+01
         0.27500E+01
         0.27500E+01
         0.27500E+01
         0.27500E+01
         0.27500E+01
         0.27500E+01
         0.27500E+01
         0.27500E+01
         0.27500E+01
         0.27500E+01
         0.27500E+01
         0.27500E+01
         0.27500E+01
         0.27500E+01
         0.27500E+01
         0.27500E+01
         0.27500E+01
         0.27500E+01
         0.27500E+01
         0.27500E+01
         0.27500E+01
         0.27500E+01
         0.27500E+01
         0.27500E+01
         0.27500E+01
         0.27500E+01
         0.27500E+01
         0.27500E+01
         0.27500E+01
         0.27500E+01
         0.27500E+01
         0.27500E+01
         0.27500E+01
         0.27500E+01
         0.27500E+01
         0.27500E+01
         0.27500E+01
         0.27500E+01
         0.27500E+01
         0.27500E+01
         0.27500E+01
         0.27500E+01
         0.27500E+01
         0.27500E+01
         0.27500E+01
         0.27500E+01
         0.27500E+01
         0.27500E+01
         0.27500E+01
         0.27500E+01
         0.27500E+01
         0.27500E+01
         0.27500E+01
         0.27500E+01
         0.27500E+01
         0.27500E+01
         0.27500E+01
         0.27500E+01
         0.27500E+01
         0.27500E+01
         0.27500E+01
         0.27500E+01
         0.27500E+01
         0.27500E+01
         0.27500E+01
         0.27500E+01
         0.27500E+01
         0.27500E+01
         0.27500E+01
         0.27500E+01
         0.27500E+01
         0.27500E+01
         0.27500E+01
         0.27500E+01
         0.27500E+01
         0.27500E+01
         0.27500E+01
         0.27500E+01
         0.27500E+01
         0.27500E+01
         0.27500E+01
         0.27500E+01
         0.27500E+01
         0.27500E+01
         0.27500E+01
         0.27500E+01
         0.27500E+01
         0.27500E+01
         0.27500E+01
         0.27500E+01
         0.27500E+01
         0.27500E+01
         0.27500E+01
         0.27500E+01
         0.27500E+01
         0.27500E+01
         0.27500E+01
         0.27500E+01
         0.27500E+01
         0.27500E+01
         0.27500E+01
         0.27500E+01
         0.27500E+01
         0.27500E+01
         0.27500E+01
         0.27500E+01
         0.27500E+01
         0.27500E+01
         0.27500E+01
         0.27500E+01
         0.27500E+01
         0.27500E+01
         0.27500E+01
         0.27500E+01
         0.27500E+01
         0.27500E+01
         0.27500E+01
         0.27500E+01
         0.27500E+01
         0.27500E+01
         0.27500E+01
         0.27500E+01
         0.27500E+01
         0.27500E+01
         0.27500E+01
         0.27500E+01
         0.27500E+01
         0.27500E+01
         0.27500E+01
         0.27500E+01
         0.27500E+01
         0.27500E+01
         0.27500E+01
         0.27500E+01
         0.27500E+01
         0.27500E+01
         0.27500E+01
         0.27500E+01
         0.27500E+01
         0.27500E+01
         0.27500E+01
         0.27500E+01
         0.27500E+01
         0.27500E+01
         0.27500E+01
         0.27500E+01
         0.27500E+01
         0.27500E+01
         0.27500E+01
         0.27500E+01
         0.27500E+01
         0.27500E+01
         0.27500E+01
         0.27500E+01
         0.27500E+01
         0.27500E+01
         0.27500E+01
         0.27500E+01
         0.27500E+01
         0.27500E+01
         0.27500E+01
         0.27500E+01
         0.27500E+01
         0.27500E+01
         0.27500E+01
         0.27500E+01
         0.27500E+01
  
SCALARS              physical_window_x  double 1
LOOKUP_TABLE default
         0.42419E-02
         0.35201E-02
         0.37624E-02
         0.42419E-02
         0.42417E-02
         0.35201E-02
         0.37618E-02
         0.42417E-02
         0.37624E-02
         0.37624E-02
         0.37618E-02
         0.37618E-02
         0.30086E-02
         0.32069E-02
         0.30084E-02
         0.32067E-02
         0.42419E-02
         0.32069E-02
         0.42417E-02
         0.32067E-02
         0.24180E-02
         0.29942E-02
         0.32396E-02
         0.24180E-02
         0.29933E-02
         0.32385E-02
         0.26608E-02
         0.27190E-02
         0.26608E-02
         0.27190E-02
         0.42687E-02
         0.36511E-02
         0.42687E-02
         0.42687E-02
         0.36511E-02
         0.42687E-02
         0.32069E-02
         0.29739E-02
         0.32066E-02
         0.29739E-02
         0.34652E-02
         0.32621E-02
         0.34652E-02
         0.32621E-02
         0.37123E-02
         0.32069E-02
         0.37123E-02
         0.32066E-02
         0.30844E-02
         0.30844E-02
         0.35191E-02
         0.35189E-02
         0.26925E-02
         0.26925E-02
         0.26925E-02
         0.26925E-02
         0.24643E-02
         0.27651E-02
         0.24643E-02
         0.27651E-02
         0.42687E-02
         0.35191E-02
         0.42687E-02
         0.35189E-02
         0.42687E-02
         0.42687E-02
         0.34658E-02
         0.34648E-02
         0.27274E-02
         0.31799E-02
         0.27273E-02
         0.31796E-02
         0.32396E-02
         0.32385E-02
         0.26964E-02
         0.26960E-02
         0.27828E-02
         0.27828E-02
         0.27828E-02
         0.27828E-02
         0.27004E-02
         0.31883E-02
         0.27003E-02
         0.31880E-02
         0.31883E-02
         0.31880E-02
         0.37123E-02
         0.37123E-02
         0.36245E-02
         0.36245E-02
         0.28253E-02
         0.31642E-02
         0.28253E-02
         0.31636E-02
         0.33485E-02
         0.33485E-02
         0.33485E-02
         0.33485E-02
         0.31978E-02
         0.31969E-02
         0.29849E-02
         0.32843E-02
         0.29849E-02
         0.32843E-02
         0.27274E-02
         0.31109E-02
         0.27273E-02
         0.31109E-02
         0.31799E-02
         0.31796E-02
         0.32396E-02
         0.32385E-02
         0.32396E-02
         0.32385E-02
         0.29942E-02
         0.29933E-02
         0.27190E-02
         0.27190E-02
         0.26964E-02
         0.26960E-02
         0.27828E-02
         0.27828E-02
         0.27828E-02
         0.27828E-02
         0.27004E-02
         0.27003E-02
         0.31883E-02
         0.31880E-02
         0.31883E-02
         0.31880E-02
         0.32621E-02
         0.32621E-02
         0.34652E-02
         0.34652E-02
         0.37123E-02
         0.37123E-02
         0.37123E-02
         0.37123E-02
         0.36245E-02
         0.36245E-02
         0.28253E-02
         0.28253E-02
         0.29097E-02
         0.29087E-02
         0.32389E-02
         0.32378E-02
         0.32389E-02
         0.32378E-02
         0.31978E-02
         0.31969E-02
         0.29849E-02
         0.29849E-02
         0.32843E-02
         0.32843E-02
         0.32843E-02
         0.32843E-02
         0.42420E-02
         0.35201E-02
         0.37629E-02
         0.42420E-02
         0.37629E-02
         0.37629E-02
         0.30087E-02
         0.32071E-02
         0.42420E-02
         0.32071E-02
         0.24178E-02
         0.29952E-02
         0.32407E-02
         0.26596E-02
         0.27191E-02
         0.42679E-02
         0.36502E-02
         0.42679E-02
         0.32071E-02
         0.29727E-02
         0.34648E-02
         0.32622E-02
         0.37119E-02
         0.32071E-02
         0.30833E-02
         0.35193E-02
         0.26910E-02
         0.26910E-02
         0.24638E-02
         0.27644E-02
         0.42679E-02
         0.35193E-02
         0.42679E-02
         0.34670E-02
         0.27274E-02
         0.31802E-02
         0.32407E-02
         0.26968E-02
         0.27828E-02
         0.27828E-02
         0.27005E-02
         0.31885E-02
         0.31885E-02
         0.37119E-02
         0.36244E-02
         0.28250E-02
         0.31647E-02
         0.33484E-02
         0.33484E-02
         0.31986E-02
         0.29848E-02
         0.32841E-02
         0.27274E-02
         0.31099E-02
         0.31802E-02
         0.32407E-02
         0.32407E-02
         0.29952E-02
         0.27191E-02
         0.26968E-02
         0.27828E-02
         0.27828E-02
         0.27005E-02
         0.31885E-02
         0.31885E-02
         0.32622E-02
         0.34648E-02
         0.37119E-02
         0.37119E-02
         0.36244E-02
         0.28250E-02
         0.29106E-02
         0.32401E-02
         0.32401E-02
         0.31986E-02
         0.29848E-02
         0.32841E-02
         0.32841E-02
         0.42421E-02
         0.35201E-02
         0.37634E-02
         0.42421E-02
         0.37634E-02
         0.37634E-02
         0.30089E-02
         0.32073E-02
         0.42421E-02
         0.32073E-02
         0.24177E-02
         0.29961E-02
         0.32418E-02
         0.26584E-02
         0.27191E-02
         0.42670E-02
         0.36493E-02
         0.42670E-02
         0.32073E-02
         0.29714E-02
         0.34644E-02
         0.32623E-02
         0.37115E-02
         0.32073E-02
         0.30822E-02
         0.35195E-02
         0.26896E-02
         0.26896E-02
         0.24633E-02
         0.27638E-02
         0.42670E-02
         0.35195E-02
         0.42670E-02
         0.34681E-02
         0.27275E-02
         0.31805E-02
         0.32418E-02
         0.26972E-02
         0.27828E-02
         0.27828E-02
         0.27006E-02
         0.31888E-02
         0.31888E-02
         0.37115E-02
         0.36243E-02
         0.28247E-02
         0.31652E-02
         0.33483E-02
         0.33483E-02
         0.31995E-02
         0.29847E-02
         0.32839E-02
         0.27275E-02
         0.31090E-02
         0.31805E-02
         0.32418E-02
         0.32418E-02
         0.29961E-02
         0.27191E-02
         0.26972E-02
         0.27828E-02
         0.27828E-02
         0.27006E-02
         0.31888E-02
         0.31888E-02
         0.32623E-02
         0.34644E-02
         0.37115E-02
         0.37115E-02
         0.36243E-02
         0.28247E-02
         0.29116E-02
         0.32412E-02
         0.32412E-02
         0.31995E-02
         0.29847E-02
         0.32839E-02
         0.32839E-02
         0.42423E-02
         0.35200E-02
         0.37639E-02
         0.42423E-02
         0.37639E-02
         0.37639E-02
         0.30091E-02
         0.32075E-02
         0.42423E-02
         0.32075E-02
         0.24176E-02
         0.29970E-02
         0.32428E-02
         0.26572E-02
         0.27192E-02
         0.42662E-02
         0.36483E-02
         0.42662E-02
         0.32075E-02
         0.29702E-02
         0.34639E-02
         0.32624E-02
         0.37111E-02
         0.32075E-02
         0.30811E-02
         0.35197E-02
         0.26881E-02
         0.26881E-02
         0.24628E-02
         0.27631E-02
         0.42662E-02
         0.35197E-02
         0.42662E-02
         0.34692E-02
         0.27276E-02
         0.31808E-02
         0.32428E-02
         0.26975E-02
         0.27828E-02
         0.27828E-02
         0.27007E-02
         0.31890E-02
         0.31890E-02
         0.37111E-02
         0.36242E-02
         0.28243E-02
         0.31658E-02
         0.33482E-02
         0.33482E-02
         0.32003E-02
         0.29846E-02
         0.32837E-02
         0.27276E-02
         0.31081E-02
         0.31808E-02
         0.32428E-02
         0.32428E-02
         0.29970E-02
         0.27192E-02
         0.26975E-02
         0.27828E-02
         0.27828E-02
         0.27007E-02
         0.31890E-02
         0.31890E-02
         0.32624E-02
         0.34639E-02
         0.37111E-02
         0.37111E-02
         0.36242E-02
         0.28243E-02
         0.29125E-02
         0.32423E-02
         0.32423E-02
         0.32003E-02
         0.29846E-02
         0.32837E-02
         0.32837E-02
         0.42424E-02
         0.35200E-02
         0.37644E-02
         0.42424E-02
         0.37644E-02
         0.37644E-02
         0.30093E-02
         0.32077E-02
         0.42424E-02
         0.32077E-02
         0.24174E-02
         0.29979E-02
         0.32439E-02
         0.26559E-02
         0.27192E-02
         0.42653E-02
         0.36474E-02
         0.42653E-02
         0.32077E-02
         0.29690E-02
         0.34635E-02
         0.32624E-02
         0.37108E-02
         0.32077E-02
         0.30799E-02
         0.35199E-02
         0.26867E-02
         0.26867E-02
         0.24623E-02
         0.27625E-02
         0.42653E-02
         0.35199E-02
         0.42653E-02
         0.34703E-02
         0.27276E-02
         0.31812E-02
         0.32439E-02
         0.26979E-02
         0.27828E-02
         0.27828E-02
         0.27008E-02
         0.31893E-02
         0.31893E-02
         0.37108E-02
         0.36241E-02
         0.28240E-02
         0.31663E-02
         0.33481E-02
         0.33481E-02
         0.32012E-02
         0.29844E-02
         0.32835E-02
         0.27276E-02
         0.31071E-02
         0.31812E-02
         0.32439E-02
         0.32439E-02
         0.29979E-02
         0.27192E-02
         0.26979E-02
         0.27828E-02
         0.27828E-02
         0.27008E-02
         0.31893E-02
         0.31893E-02
         0.32624E-02
         0.34635E-02
         0.37108E-02
         0.37108E-02
         0.36241E-02
         0.28240E-02
         0.29135E-02
         0.32434E-02
         0.32434E-02
         0.32012E-02
         0.29844E-02
         0.32835E-02
         0.32835E-02
         0.42425E-02
         0.35200E-02
         0.37649E-02
         0.42425E-02
         0.37649E-02
         0.37649E-02
         0.30095E-02
         0.32079E-02
         0.42425E-02
         0.32079E-02
         0.24173E-02
         0.29989E-02
         0.32450E-02
         0.26547E-02
         0.27193E-02
         0.42645E-02
         0.36465E-02
         0.42645E-02
         0.32079E-02
         0.29677E-02
         0.34631E-02
         0.32625E-02
         0.37104E-02
         0.32079E-02
         0.30788E-02
         0.35201E-02
         0.26852E-02
         0.26852E-02
         0.24618E-02
         0.27618E-02
         0.42645E-02
         0.35201E-02
         0.42645E-02
         0.34715E-02
         0.27277E-02
         0.31815E-02
         0.32450E-02
         0.26983E-02
         0.27828E-02
         0.27828E-02
         0.27009E-02
         0.31895E-02
         0.31895E-02
         0.37104E-02
         0.36239E-02
         0.28237E-02
         0.31668E-02
         0.33480E-02
         0.33480E-02
         0.32020E-02
         0.29843E-02
         0.32833E-02
         0.27277E-02
         0.31062E-02
         0.31815E-02
         0.32450E-02
         0.32450E-02
         0.29989E-02
         0.27193E-02
         0.26983E-02
         0.27828E-02
         0.27828E-02
         0.27009E-02
         0.31895E-02
         0.31895E-02
         0.32625E-02
         0.34631E-02
         0.37104E-02
         0.37104E-02
         0.36239E-02
         0.28237E-02
         0.29145E-02
         0.32445E-02
         0.32445E-02
         0.32020E-02
         0.29843E-02
         0.32833E-02
         0.32833E-02
         0.42427E-02
         0.35200E-02
         0.37654E-02
         0.42427E-02
         0.37654E-02
         0.37654E-02
         0.30097E-02
         0.32081E-02
         0.42427E-02
         0.32081E-02
         0.24171E-02
         0.29998E-02
         0.32461E-02
         0.26535E-02
         0.27193E-02
         0.42636E-02
         0.36455E-02
         0.42636E-02
         0.32081E-02
         0.29665E-02
         0.34626E-02
         0.32626E-02
         0.37100E-02
         0.32081E-02
         0.30777E-02
         0.35203E-02
         0.26838E-02
         0.26838E-02
         0.24613E-02
         0.27611E-02
         0.42636E-02
         0.35203E-02
         0.42636E-02
         0.34726E-02
         0.27278E-02
         0.31818E-02
         0.32461E-02
         0.26987E-02
         0.27827E-02
         0.27827E-02
         0.27010E-02
         0.31898E-02
         0.31898E-02
         0.37100E-02
         0.36238E-02
         0.28234E-02
         0.31673E-02
         0.33479E-02
         0.33479E-02
         0.32029E-02
         0.29842E-02
         0.32831E-02
         0.27278E-02
         0.31052E-02
         0.31818E-02
         0.32461E-02
         0.32461E-02
         0.29998E-02
         0.27193E-02
         0.26987E-02
         0.27827E-02
         0.27827E-02
         0.27010E-02
         0.31898E-02
         0.31898E-02
         0.32626E-02
         0.34626E-02
         0.37100E-02
         0.37100E-02
         0.36238E-02
         0.28234E-02
         0.29154E-02
         0.32457E-02
         0.32457E-02
         0.32029E-02
         0.29842E-02
         0.32831E-02
         0.32831E-02
         0.42428E-02
         0.35199E-02
         0.37660E-02
         0.42428E-02
         0.37660E-02
         0.37660E-02
         0.30099E-02
         0.32083E-02
         0.42428E-02
         0.32083E-02
         0.24170E-02
         0.30007E-02
         0.32471E-02
         0.26523E-02
         0.27194E-02
         0.42628E-02
         0.36446E-02
         0.42628E-02
         0.32083E-02
         0.29652E-02
         0.34622E-02
         0.32627E-02
         0.37096E-02
         0.32083E-02
         0.30766E-02
         0.35205E-02
         0.26823E-02
         0.26823E-02
         0.24608E-02
         0.27605E-02
         0.42628E-02
         0.35205E-02
         0.42628E-02
         0.34737E-02
         0.27279E-02
         0.31821E-02
         0.32471E-02
         0.26991E-02
         0.27827E-02
         0.27827E-02
         0.27011E-02
         0.31900E-02
         0.31900E-02
         0.37096E-02
         0.36237E-02
         0.28231E-02
         0.31679E-02
         0.33478E-02
         0.33478E-02
         0.32038E-02
         0.29841E-02
         0.32829E-02
         0.27279E-02
         0.31043E-02
         0.31821E-02
         0.32471E-02
         0.32471E-02
         0.30007E-02
         0.27194E-02
         0.26991E-02
         0.27827E-02
         0.27827E-02
         0.27011E-02
         0.31900E-02
         0.31900E-02
         0.32627E-02
         0.34622E-02
         0.37096E-02
         0.37096E-02
         0.36237E-02
         0.28231E-02
         0.29164E-02
         0.32468E-02
         0.32468E-02
         0.32038E-02
         0.29841E-02
         0.32829E-02
         0.32829E-02
         0.42429E-02
         0.35199E-02
         0.37665E-02
         0.42429E-02
         0.37665E-02
         0.37665E-02
         0.30101E-02
         0.32085E-02
         0.42429E-02
         0.32085E-02
         0.24168E-02
         0.30017E-02
         0.32482E-02
         0.26510E-02
         0.27194E-02
         0.42619E-02
         0.36437E-02
         0.42619E-02
         0.32085E-02
         0.29640E-02
         0.34618E-02
         0.32627E-02
         0.37092E-02
         0.32085E-02
         0.30755E-02
         0.35207E-02
         0.26808E-02
         0.26808E-02
         0.24603E-02
         0.27599E-02
         0.42619E-02
         0.35207E-02
         0.42619E-02
         0.34748E-02
         0.27279E-02
         0.31824E-02
         0.32482E-02
         0.26994E-02
         0.27827E-02
         0.27827E-02
         0.27012E-02
         0.31902E-02
         0.31902E-02
         0.37092E-02
         0.36236E-02
         0.28227E-02
         0.31684E-02
         0.33477E-02
         0.33477E-02
         0.32046E-02
         0.29840E-02
         0.32827E-02
         0.27279E-02
         0.31034E-02
         0.31824E-02
         0.32482E-02
         0.32482E-02
         0.30017E-02
         0.27194E-02
         0.26994E-02
         0.27827E-02
         0.27827E-02
         0.27012E-02
         0.31902E-02
         0.31902E-02
         0.32627E-02
         0.34618E-02
         0.37092E-02
         0.37092E-02
         0.36236E-02
         0.28227E-02
         0.29173E-02
         0.32479E-02
         0.32479E-02
         0.32046E-02
         0.29840E-02
         0.32827E-02
         0.32827E-02
         0.42431E-02
         0.35199E-02
         0.37670E-02
         0.42431E-02
         0.37670E-02
         0.37670E-02
         0.30102E-02
         0.32087E-02
         0.42431E-02
         0.32087E-02
         0.24167E-02
         0.30026E-02
         0.32493E-02
         0.26498E-02
         0.27194E-02
         0.42611E-02
         0.36427E-02
         0.42611E-02
         0.32087E-02
         0.29628E-02
         0.34613E-02
         0.32628E-02
         0.37089E-02
         0.32087E-02
         0.30744E-02
         0.35209E-02
         0.26794E-02
         0.26794E-02
         0.24598E-02
         0.27592E-02
         0.42611E-02
         0.35209E-02
         0.42611E-02
         0.34759E-02
         0.27280E-02
         0.31827E-02
         0.32493E-02
         0.26998E-02
         0.27827E-02
         0.27827E-02
         0.27013E-02
         0.31905E-02
         0.31905E-02
         0.37089E-02
         0.36235E-02
         0.28224E-02
         0.31689E-02
         0.33476E-02
         0.33476E-02
         0.32055E-02
         0.29839E-02
         0.32825E-02
         0.27280E-02
         0.31024E-02
         0.31827E-02
         0.32493E-02
         0.32493E-02
         0.30026E-02
         0.27194E-02
         0.26998E-02
         0.27827E-02
         0.27827E-02
         0.27013E-02
         0.31905E-02
         0.31905E-02
         0.32628E-02
         0.34613E-02
         0.37089E-02
         0.37089E-02
         0.36235E-02
         0.28224E-02
         0.29183E-02
         0.32490E-02
         0.32490E-02
         0.32055E-02
         0.29839E-02
         0.32825E-02
         0.32825E-02
         0.42432E-02
         0.35199E-02
         0.37675E-02
         0.42432E-02
         0.37675E-02
         0.37675E-02
         0.30104E-02
         0.32089E-02
         0.42432E-02
         0.32089E-02
         0.24166E-02
         0.30035E-02
         0.32504E-02
         0.26486E-02
         0.27195E-02
         0.42603E-02
         0.36418E-02
         0.42603E-02
         0.32089E-02
         0.29615E-02
         0.34609E-02
         0.32629E-02
         0.37085E-02
         0.32089E-02
         0.30732E-02
         0.35211E-02
         0.26779E-02
         0.26779E-02
         0.24593E-02
         0.27585E-02
         0.42603E-02
         0.35211E-02
         0.42603E-02
         0.34771E-02
         0.27281E-02
         0.31830E-02
         0.32504E-02
         0.27002E-02
         0.27827E-02
         0.27827E-02
         0.27014E-02
         0.31907E-02
         0.31907E-02
         0.37085E-02
         0.36233E-02
         0.28221E-02
         0.31694E-02
         0.33475E-02
         0.33475E-02
         0.32063E-02
         0.29838E-02
         0.32823E-02
         0.27281E-02
         0.31015E-02
         0.31830E-02
         0.32504E-02
         0.32504E-02
         0.30035E-02
         0.27195E-02
         0.27002E-02
         0.27827E-02
         0.27827E-02
         0.27014E-02
         0.31907E-02
         0.31907E-02
         0.32629E-02
         0.34609E-02
         0.37085E-02
         0.37085E-02
         0.36233E-02
         0.28221E-02
         0.29193E-02
         0.32501E-02
         0.32501E-02
         0.32063E-02
         0.29838E-02
         0.32823E-02
         0.32823E-02
         0.42433E-02
         0.35199E-02
         0.37680E-02
         0.42433E-02
         0.37680E-02
         0.37680E-02
         0.30106E-02
         0.32091E-02
         0.42433E-02
         0.32091E-02
         0.24164E-02
         0.30045E-02
         0.32514E-02
         0.26474E-02
         0.27195E-02
         0.42594E-02
         0.36409E-02
         0.42594E-02
         0.32091E-02
         0.29603E-02
         0.34605E-02
         0.32630E-02
         0.37081E-02
         0.32091E-02
         0.30721E-02
         0.35213E-02
         0.26765E-02
         0.26765E-02
         0.24588E-02
         0.27579E-02
         0.42594E-02
         0.35213E-02
         0.42594E-02
         0.34782E-02
         0.27281E-02
         0.31833E-02
         0.32514E-02
         0.27006E-02
         0.27826E-02
         0.27826E-02
         0.27015E-02
         0.31910E-02
         0.31910E-02
         0.37081E-02
         0.36232E-02
         0.28218E-02
         0.31700E-02
         0.33474E-02
         0.33474E-02
         0.32072E-02
         0.29836E-02
         0.32821E-02
         0.27281E-02
         0.31005E-02
         0.31833E-02
         0.32514E-02
         0.32514E-02
         0.30045E-02
         0.27195E-02
         0.27006E-02
         0.27826E-02
         0.27826E-02
         0.27015E-02
         0.31910E-02
         0.31910E-02
         0.32630E-02
         0.34605E-02
         0.37081E-02
         0.37081E-02
         0.36232E-02
         0.28218E-02
         0.29202E-02
         0.32512E-02
         0.32512E-02
         0.32072E-02
         0.29836E-02
         0.32821E-02
         0.32821E-02
         0.42435E-02
         0.35199E-02
         0.37685E-02
         0.42435E-02
         0.37685E-02
         0.37685E-02
         0.30108E-02
         0.32093E-02
         0.42435E-02
         0.32093E-02
         0.24163E-02
         0.30054E-02
         0.32525E-02
         0.26461E-02
         0.27196E-02
         0.42586E-02
         0.36399E-02
         0.42586E-02
         0.32093E-02
         0.29591E-02
         0.34601E-02
         0.32630E-02
         0.37077E-02
         0.32093E-02
         0.30710E-02
         0.35215E-02
         0.26750E-02
         0.26750E-02
         0.24583E-02
         0.27572E-02
         0.42586E-02
         0.35215E-02
         0.42586E-02
         0.34793E-02
         0.27282E-02
         0.31836E-02
         0.32525E-02
         0.27010E-02
         0.27826E-02
         0.27826E-02
         0.27016E-02
         0.31912E-02
         0.31912E-02
         0.37077E-02
         0.36231E-02
         0.28215E-02
         0.31705E-02
         0.33473E-02
         0.33473E-02
         0.32080E-02
         0.29835E-02
         0.32819E-02
         0.27282E-02
         0.30996E-02
         0.31836E-02
         0.32525E-02
         0.32525E-02
         0.30054E-02
         0.27196E-02
         0.27010E-02
         0.27826E-02
         0.27826E-02
         0.27016E-02
         0.31912E-02
         0.31912E-02
         0.32630E-02
         0.34601E-02
         0.37077E-02
         0.37077E-02
         0.36231E-02
         0.28215E-02
         0.29212E-02
         0.32524E-02
         0.32524E-02
         0.32080E-02
         0.29835E-02
         0.32819E-02
         0.32819E-02
         0.42436E-02
         0.35198E-02
         0.37690E-02
         0.42436E-02
         0.37690E-02
         0.37690E-02
         0.30110E-02
         0.32095E-02
         0.42436E-02
         0.32095E-02
         0.24162E-02
         0.30064E-02
         0.32536E-02
         0.26449E-02
         0.27196E-02
         0.42577E-02
         0.36390E-02
         0.42577E-02
         0.32096E-02
         0.29578E-02
         0.34596E-02
         0.32631E-02
         0.37074E-02
         0.32096E-02
         0.30699E-02
         0.35217E-02
         0.26735E-02
         0.26735E-02
         0.24578E-02
         0.27566E-02
         0.42577E-02
         0.35217E-02
         0.42577E-02
         0.34804E-02
         0.27283E-02
         0.31839E-02
         0.32536E-02
         0.27013E-02
         0.27826E-02
         0.27826E-02
         0.27017E-02
         0.31915E-02
         0.31915E-02
         0.37074E-02
         0.36230E-02
         0.28211E-02
         0.31710E-02
         0.33472E-02
         0.33472E-02
         0.32089E-02
         0.29834E-02
         0.32817E-02
         0.27283E-02
         0.30986E-02
         0.31839E-02
         0.32536E-02
         0.32536E-02
         0.30064E-02
         0.27196E-02
         0.27013E-02
         0.27826E-02
         0.27826E-02
         0.27017E-02
         0.31915E-02
         0.31915E-02
         0.32631E-02
         0.34596E-02
         0.37074E-02
         0.37074E-02
         0.36230E-02
         0.28211E-02
         0.29221E-02
         0.32535E-02
         0.32535E-02
         0.32089E-02
         0.29834E-02
         0.32817E-02
         0.32817E-02
         0.42437E-02
         0.35198E-02
         0.37695E-02
         0.42437E-02
         0.37695E-02
         0.37695E-02
         0.30112E-02
         0.32097E-02
         0.42437E-02
         0.32097E-02
         0.24160E-02
         0.30073E-02
         0.32547E-02
         0.26437E-02
         0.27197E-02
         0.42569E-02
         0.36381E-02
         0.42569E-02
         0.32098E-02
         0.29566E-02
         0.34592E-02
         0.32632E-02
         0.37070E-02
         0.32098E-02
         0.30688E-02
         0.35219E-02
         0.26721E-02
         0.26721E-02
         0.24573E-02
         0.27560E-02
         0.42569E-02
         0.35219E-02
         0.42569E-02
         0.34815E-02
         0.27284E-02
         0.31843E-02
         0.32547E-02
         0.27017E-02
         0.27826E-02
         0.27826E-02
         0.27018E-02
         0.31917E-02
         0.31917E-02
         0.37070E-02
         0.36229E-02
         0.28208E-02
         0.31716E-02
         0.33471E-02
         0.33471E-02
         0.32097E-02
         0.29833E-02
         0.32815E-02
         0.27284E-02
         0.30977E-02
         0.31843E-02
         0.32547E-02
         0.32547E-02
         0.30073E-02
         0.27197E-02
         0.27017E-02
         0.27826E-02
         0.27826E-02
         0.27018E-02
         0.31917E-02
         0.31917E-02
         0.32632E-02
         0.34592E-02
         0.37070E-02
         0.37070E-02
         0.36229E-02
         0.28208E-02
         0.29231E-02
         0.32546E-02
         0.32546E-02
         0.32097E-02
         0.29833E-02
         0.32815E-02
         0.32815E-02
         0.42439E-02
         0.35198E-02
         0.37701E-02
         0.42439E-02
         0.37701E-02
         0.37701E-02
         0.30113E-02
         0.32099E-02
         0.42439E-02
         0.32099E-02
         0.24159E-02
         0.30082E-02
         0.32558E-02
         0.26425E-02
         0.27197E-02
         0.42560E-02
         0.36371E-02
         0.42560E-02
         0.32100E-02
         0.29554E-02
         0.34588E-02
         0.32633E-02
         0.37066E-02
         0.32100E-02
         0.30677E-02
         0.35221E-02
         0.26706E-02
         0.26706E-02
         0.24568E-02
         0.27553E-02
         0.42560E-02
         0.35221E-02
         0.42560E-02
         0.34827E-02
         0.27284E-02
         0.31846E-02
         0.32558E-02
         0.27021E-02
         0.27826E-02
         0.27826E-02
         0.27019E-02
         0.31920E-02
         0.31920E-02
         0.37066E-02
         0.36227E-02
         0.28205E-02
         0.31721E-02
         0.33470E-02
         0.33470E-02
         0.32106E-02
         0.29831E-02
         0.32813E-02
         0.27284E-02
         0.30968E-02
         0.31846E-02
         0.32558E-02
         0.32558E-02
         0.30082E-02
         0.27197E-02
         0.27021E-02
         0.27826E-02
         0.27826E-02
         0.27019E-02
         0.31920E-02
         0.31920E-02
         0.32633E-02
         0.34588E-02
         0.37066E-02
         0.37066E-02
         0.36227E-02
         0.28205E-02
         0.29241E-02
         0.32557E-02
         0.32557E-02
         0.32106E-02
         0.29831E-02
         0.32813E-02
         0.32813E-02
         0.42440E-02
         0.35198E-02
         0.37706E-02
         0.42440E-02
         0.37706E-02
         0.37706E-02
         0.30115E-02
         0.32101E-02
         0.42440E-02
         0.32101E-02
         0.24158E-02
         0.30091E-02
         0.32568E-02
         0.26412E-02
         0.27198E-02
         0.42552E-02
         0.36362E-02
         0.42552E-02
         0.32102E-02
         0.29541E-02
         0.34583E-02
         0.32633E-02
         0.37062E-02
         0.32102E-02
         0.30665E-02
         0.35223E-02
         0.26692E-02
         0.26692E-02
         0.24563E-02
         0.27546E-02
         0.42552E-02
         0.35223E-02
         0.42552E-02
         0.34838E-02
         0.27285E-02
         0.31849E-02
         0.32568E-02
         0.27025E-02
         0.27826E-02
         0.27826E-02
         0.27020E-02
         0.31922E-02
         0.31922E-02
         0.37062E-02
         0.36226E-02
         0.28202E-02
         0.31726E-02
         0.33469E-02
         0.33469E-02
         0.32114E-02
         0.29830E-02
         0.32811E-02
         0.27285E-02
         0.30958E-02
         0.31849E-02
         0.32568E-02
         0.32568E-02
         0.30091E-02
         0.27198E-02
         0.27025E-02
         0.27826E-02
         0.27826E-02
         0.27020E-02
         0.31922E-02
         0.31922E-02
         0.32633E-02
         0.34583E-02
         0.37062E-02
         0.37062E-02
         0.36226E-02
         0.28202E-02
         0.29250E-02
         0.32568E-02
         0.32568E-02
         0.32114E-02
         0.29830E-02
         0.32811E-02
         0.32811E-02
         0.42441E-02
         0.35198E-02
         0.37711E-02
         0.42441E-02
         0.37711E-02
         0.37711E-02
         0.30117E-02
         0.32103E-02
         0.42441E-02
         0.32103E-02
         0.24156E-02
         0.30101E-02
         0.32579E-02
         0.26400E-02
         0.27198E-02
         0.42543E-02
         0.36353E-02
         0.42543E-02
         0.32104E-02
         0.29529E-02
         0.34579E-02
         0.32634E-02
         0.37058E-02
         0.32104E-02
         0.30654E-02
         0.35225E-02
         0.26677E-02
         0.26677E-02
         0.24558E-02
         0.27540E-02
         0.42543E-02
         0.35225E-02
         0.42543E-02
         0.34849E-02
         0.27286E-02
         0.31852E-02
         0.32579E-02
         0.27029E-02
         0.27826E-02
         0.27826E-02
         0.27021E-02
         0.31924E-02
         0.31924E-02
         0.37058E-02
         0.36225E-02
         0.28198E-02
         0.31731E-02
         0.33468E-02
         0.33468E-02
         0.32123E-02
         0.29829E-02
         0.32809E-02
         0.27286E-02
         0.30949E-02
         0.31852E-02
         0.32579E-02
         0.32579E-02
         0.30101E-02
         0.27198E-02
         0.27029E-02
         0.27826E-02
         0.27826E-02
         0.27021E-02
         0.31924E-02
         0.31924E-02
         0.32634E-02
         0.34579E-02
         0.37058E-02
         0.37058E-02
         0.36225E-02
         0.28198E-02
         0.29260E-02
         0.32579E-02
         0.32579E-02
         0.32123E-02
         0.29829E-02
         0.32809E-02
         0.32809E-02
         0.42443E-02
         0.35197E-02
         0.37716E-02
         0.42443E-02
         0.37716E-02
         0.37716E-02
         0.30119E-02
         0.32105E-02
         0.42443E-02
         0.32105E-02
         0.24155E-02
         0.30110E-02
         0.32590E-02
         0.26388E-02
         0.27199E-02
         0.42535E-02
         0.36343E-02
         0.42535E-02
         0.32106E-02
         0.29517E-02
         0.34575E-02
         0.32635E-02
         0.37055E-02
         0.32106E-02
         0.30643E-02
         0.35227E-02
         0.26663E-02
         0.26663E-02
         0.24553E-02
         0.27533E-02
         0.42535E-02
         0.35227E-02
         0.42535E-02
         0.34860E-02
         0.27286E-02
         0.31855E-02
         0.32590E-02
         0.27032E-02
         0.27826E-02
         0.27826E-02
         0.27022E-02
         0.31927E-02
         0.31927E-02
         0.37055E-02
         0.36224E-02
         0.28195E-02
         0.31737E-02
         0.33467E-02
         0.33467E-02
         0.32132E-02
         0.29828E-02
         0.32807E-02
         0.27286E-02
         0.30939E-02
         0.31855E-02
         0.32590E-02
         0.32590E-02
         0.30110E-02
         0.27199E-02
         0.27032E-02
         0.27826E-02
         0.27826E-02
         0.27022E-02
         0.31927E-02
         0.31927E-02
         0.32635E-02
         0.34575E-02
         0.37055E-02
         0.37055E-02
         0.36224E-02
         0.28195E-02
         0.29269E-02
         0.32591E-02
         0.32591E-02
         0.32132E-02
         0.29828E-02
         0.32807E-02
         0.32807E-02
         0.42444E-02
         0.35197E-02
         0.37721E-02
         0.42444E-02
         0.37721E-02
         0.37721E-02
         0.30121E-02
         0.32107E-02
         0.42444E-02
         0.32107E-02
         0.24154E-02
         0.30119E-02
         0.32601E-02
         0.26376E-02
         0.27199E-02
         0.42527E-02
         0.36334E-02
         0.42527E-02
         0.32108E-02
         0.29504E-02
         0.34571E-02
         0.32636E-02
         0.37051E-02
         0.32108E-02
         0.30632E-02
         0.35229E-02
         0.26648E-02
         0.26648E-02
         0.24552E-02
         0.27527E-02
         0.42527E-02
         0.35229E-02
         0.42527E-02
         0.34871E-02
         0.27287E-02
         0.31858E-02
         0.32601E-02
         0.27036E-02
         0.27825E-02
         0.27825E-02
         0.27023E-02
         0.31929E-02
         0.31929E-02
         0.37051E-02
         0.36223E-02
         0.28192E-02
         0.31742E-02
         0.33466E-02
         0.33466E-02
         0.32140E-02
         0.29827E-02
         0.32805E-02
         0.27287E-02
         0.30930E-02
         0.31858E-02
         0.32601E-02
         0.32601E-02
         0.30119E-02
         0.27199E-02
         0.27036E-02
         0.27825E-02
         0.27825E-02
         0.27023E-02
         0.31929E-02
         0.31929E-02
         0.32636E-02
         0.34571E-02
         0.37051E-02
         0.37051E-02
         0.36223E-02
         0.28192E-02
         0.29279E-02
         0.32602E-02
         0.32602E-02
         0.32140E-02
         0.29827E-02
         0.32805E-02
         0.32805E-02
         0.42445E-02
         0.35197E-02
         0.37726E-02
         0.42445E-02
         0.37726E-02
         0.37726E-02
         0.30123E-02
         0.32108E-02
         0.42445E-02
         0.32108E-02
         0.24152E-02
         0.30129E-02
         0.32611E-02
         0.26363E-02
         0.27200E-02
         0.42518E-02
         0.36325E-02
         0.42518E-02
         0.32110E-02
         0.29492E-02
         0.34566E-02
         0.32636E-02
         0.37047E-02
         0.32110E-02
         0.30621E-02
         0.35231E-02
         0.26633E-02
         0.26633E-02
         0.24554E-02
         0.27520E-02
         0.42518E-02
         0.35231E-02
         0.42518E-02
         0.34882E-02
         0.27288E-02
         0.31861E-02
         0.32611E-02
         0.27040E-02
         0.27825E-02
         0.27825E-02
         0.27024E-02
         0.31932E-02
         0.31932E-02
         0.37047E-02
         0.36222E-02
         0.28189E-02
         0.31747E-02
         0.33465E-02
         0.33465E-02
         0.32149E-02
         0.29826E-02
         0.32803E-02
         0.27288E-02
         0.30921E-02
         0.31861E-02
         0.32611E-02
         0.32611E-02
         0.30129E-02
         0.27200E-02
         0.27040E-02
         0.27825E-02
         0.27825E-02
         0.27024E-02
         0.31932E-02
         0.31932E-02
         0.32636E-02
         0.34566E-02
         0.37047E-02
         0.37047E-02
         0.36222E-02
         0.28189E-02
         0.29289E-02
         0.32613E-02
         0.32613E-02
         0.32149E-02
         0.29826E-02
         0.32803E-02
         0.32803E-02
         0.42447E-02
         0.35196E-02
         0.37732E-02
         0.42447E-02
         0.37732E-02
         0.37732E-02
         0.30125E-02
         0.32111E-02
         0.42447E-02
         0.32111E-02
         0.24151E-02
         0.30138E-02
         0.32622E-02
         0.26351E-02
         0.27200E-02
         0.42510E-02
         0.36315E-02
         0.42510E-02
         0.32112E-02
         0.29480E-02
         0.34562E-02
         0.32637E-02
         0.37043E-02
         0.32112E-02
         0.30610E-02
         0.35233E-02
         0.26619E-02
         0.26619E-02
         0.24557E-02
         0.27514E-02
         0.42510E-02
         0.35233E-02
         0.42510E-02
         0.34894E-02
         0.27289E-02
         0.31864E-02
         0.32622E-02
         0.27044E-02
         0.27825E-02
         0.27825E-02
         0.27025E-02
         0.31934E-02
         0.31934E-02
         0.37043E-02
         0.36220E-02
         0.28186E-02
         0.31753E-02
         0.33464E-02
         0.33464E-02
         0.32157E-02
         0.29824E-02
         0.32801E-02
         0.27289E-02
         0.30911E-02
         0.31864E-02
         0.32622E-02
         0.32622E-02
         0.30138E-02
         0.27200E-02
         0.27044E-02
         0.27825E-02
         0.27825E-02
         0.27025E-02
         0.31934E-02
         0.31934E-02
         0.32637E-02
         0.34562E-02
         0.37043E-02
         0.37043E-02
         0.36220E-02
         0.28186E-02
         0.29298E-02
         0.32624E-02
         0.32624E-02
         0.32157E-02
         0.29824E-02
         0.32801E-02
         0.32801E-02
         0.42448E-02
         0.35196E-02
         0.37737E-02
         0.42448E-02
         0.37737E-02
         0.37737E-02
         0.30126E-02
         0.32112E-02
         0.42448E-02
         0.32112E-02
         0.24150E-02
         0.30147E-02
         0.32633E-02
         0.26339E-02
         0.27200E-02
         0.42501E-02
         0.36306E-02
         0.42501E-02
         0.32114E-02
         0.29467E-02
         0.34558E-02
         0.32638E-02
         0.37039E-02
         0.32114E-02
         0.30598E-02
         0.35235E-02
         0.26604E-02
         0.26604E-02
         0.24559E-02
         0.27507E-02
         0.42501E-02
         0.35235E-02
         0.42501E-02
         0.34905E-02
         0.27289E-02
         0.31867E-02
         0.32633E-02
         0.27048E-02
         0.27825E-02
         0.27825E-02
         0.27026E-02
         0.31937E-02
         0.31937E-02
         0.37039E-02
         0.36219E-02
         0.28183E-02
         0.31758E-02
         0.33463E-02
         0.33463E-02
         0.32166E-02
         0.29823E-02
         0.32799E-02
         0.27289E-02
         0.30902E-02
         0.31867E-02
         0.32633E-02
         0.32633E-02
         0.30147E-02
         0.27200E-02
         0.27048E-02
         0.27825E-02
         0.27825E-02
         0.27026E-02
         0.31937E-02
         0.31937E-02
         0.32638E-02
         0.34558E-02
         0.37039E-02
         0.37039E-02
         0.36219E-02
         0.28183E-02
         0.29308E-02
         0.32635E-02
         0.32635E-02
         0.32166E-02
         0.29823E-02
         0.32799E-02
         0.32799E-02
         0.42448E-02
         0.35196E-02
         0.37737E-02
         0.42448E-02
         0.37737E-02
         0.37737E-02
         0.30126E-02
         0.32112E-02
         0.42448E-02
         0.32112E-02
         0.24148E-02
         0.30147E-02
         0.32633E-02
         0.26327E-02
         0.27200E-02
         0.42493E-02
         0.36297E-02
         0.42493E-02
         0.32114E-02
         0.29455E-02
         0.34553E-02
         0.32638E-02
         0.37036E-02
         0.32114E-02
         0.30587E-02
         0.35235E-02
         0.26590E-02
         0.26590E-02
         0.24559E-02
         0.27501E-02
         0.42493E-02
         0.35235E-02
         0.42493E-02
         0.34905E-02
         0.27289E-02
         0.31867E-02
         0.32633E-02
         0.27048E-02
         0.27825E-02
         0.27825E-02
         0.27026E-02
         0.31937E-02
         0.31937E-02
         0.37036E-02
         0.36218E-02
         0.28180E-02
         0.31758E-02
         0.33462E-02
         0.33462E-02
         0.32166E-02
         0.29822E-02
         0.32797E-02
         0.27289E-02
         0.30892E-02
         0.31867E-02
         0.32633E-02
         0.32633E-02
         0.30147E-02
         0.27200E-02
         0.27048E-02
         0.27825E-02
         0.27825E-02
         0.27026E-02
         0.31937E-02
         0.31937E-02
         0.32638E-02
         0.34553E-02
         0.37036E-02
         0.37036E-02
         0.36218E-02
         0.28180E-02
         0.29308E-02
         0.32635E-02
         0.32635E-02
         0.32166E-02
         0.29822E-02
         0.32797E-02
         0.32797E-02
  
SCALARS              physical_window_y  double 1
LOOKUP_TABLE default
         0.43155E-02
         0.43155E-02
         0.43155E-02
         0.43155E-02
         0.43155E-02
         0.43155E-02
         0.43155E-02
         0.43155E-02
         0.34883E-02
         0.34883E-02
         0.34882E-02
         0.34882E-02
         0.32826E-02
         0.32142E-02
         0.32826E-02
         0.32142E-02
         0.37863E-02
         0.31884E-02
         0.37863E-02
         0.31884E-02
         0.27172E-02
         0.33887E-02
         0.37164E-02
         0.27172E-02
         0.33887E-02
         0.37164E-02
         0.27582E-02
         0.28966E-02
         0.27582E-02
         0.28954E-02
         0.37007E-02
         0.35859E-02
         0.37863E-02
         0.37007E-02
         0.35824E-02
         0.37863E-02
         0.29875E-02
         0.29875E-02
         0.29867E-02
         0.29867E-02
         0.28561E-02
         0.26860E-02
         0.28556E-02
         0.26852E-02
         0.29518E-02
         0.28068E-02
         0.29517E-02
         0.28066E-02
         0.29975E-02
         0.29949E-02
         0.37007E-02
         0.37007E-02
         0.28693E-02
         0.28693E-02
         0.28693E-02
         0.28693E-02
         0.27602E-02
         0.26193E-02
         0.27602E-02
         0.26193E-02
         0.37007E-02
         0.37007E-02
         0.37007E-02
         0.37007E-02
         0.37685E-02
         0.37665E-02
         0.37685E-02
         0.37665E-02
         0.30230E-02
         0.37003E-02
         0.30229E-02
         0.37003E-02
         0.37164E-02
         0.37164E-02
         0.31934E-02
         0.31921E-02
         0.32777E-02
         0.32771E-02
         0.32777E-02
         0.32771E-02
         0.27006E-02
         0.25920E-02
         0.27006E-02
         0.25920E-02
         0.25916E-02
         0.25916E-02
         0.29715E-02
         0.29715E-02
         0.29715E-02
         0.29715E-02
         0.26477E-02
         0.29102E-02
         0.26477E-02
         0.29102E-02
         0.34085E-02
         0.34085E-02
         0.35350E-02
         0.35350E-02
         0.35350E-02
         0.35350E-02
         0.29766E-02
         0.32272E-02
         0.29763E-02
         0.32254E-02
         0.29087E-02
         0.29835E-02
         0.29087E-02
         0.29825E-02
         0.37003E-02
         0.37003E-02
         0.37164E-02
         0.37164E-02
         0.37164E-02
         0.37164E-02
         0.33887E-02
         0.33887E-02
         0.28966E-02
         0.28954E-02
         0.31934E-02
         0.31921E-02
         0.32777E-02
         0.32771E-02
         0.32777E-02
         0.32771E-02
         0.27006E-02
         0.27006E-02
         0.25920E-02
         0.25920E-02
         0.25916E-02
         0.25916E-02
         0.26860E-02
         0.26852E-02
         0.28561E-02
         0.28556E-02
         0.29518E-02
         0.29517E-02
         0.29715E-02
         0.29715E-02
         0.29715E-02
         0.29715E-02
         0.26477E-02
         0.26477E-02
         0.27685E-02
         0.27685E-02
         0.34085E-02
         0.34085E-02
         0.35350E-02
         0.35350E-02
         0.35350E-02
         0.35350E-02
         0.29766E-02
         0.29763E-02
         0.31381E-02
         0.31368E-02
         0.31381E-02
         0.31368E-02
         0.43153E-02
         0.43153E-02
         0.43153E-02
         0.43153E-02
         0.34883E-02
         0.34883E-02
         0.32812E-02
         0.32132E-02
         0.37858E-02
         0.31880E-02
         0.27155E-02
         0.33883E-02
         0.37163E-02
         0.27535E-02
         0.28978E-02
         0.37004E-02
         0.35894E-02
         0.37858E-02
         0.29882E-02
         0.29882E-02
         0.28566E-02
         0.26867E-02
         0.29519E-02
         0.28071E-02
         0.30001E-02
         0.37004E-02
         0.28667E-02
         0.28667E-02
         0.27589E-02
         0.26183E-02
         0.37004E-02
         0.37004E-02
         0.37706E-02
         0.37706E-02
         0.30232E-02
         0.36991E-02
         0.37163E-02
         0.31947E-02
         0.32784E-02
         0.32784E-02
         0.27006E-02
         0.25920E-02
         0.25909E-02
         0.29715E-02
         0.29715E-02
         0.26476E-02
         0.29101E-02
         0.34078E-02
         0.35344E-02
         0.35344E-02
         0.29769E-02
         0.32290E-02
         0.29059E-02
         0.29845E-02
         0.36991E-02
         0.37163E-02
         0.37163E-02
         0.33883E-02
         0.28978E-02
         0.31947E-02
         0.32784E-02
         0.32784E-02
         0.27006E-02
         0.25920E-02
         0.25909E-02
         0.26867E-02
         0.28566E-02
         0.29519E-02
         0.29715E-02
         0.29715E-02
         0.26476E-02
         0.27685E-02
         0.34078E-02
         0.35344E-02
         0.35344E-02
         0.29769E-02
         0.31395E-02
         0.31395E-02
         0.43150E-02
         0.43150E-02
         0.43150E-02
         0.43150E-02
         0.34884E-02
         0.34884E-02
         0.32798E-02
         0.32122E-02
         0.37853E-02
         0.31876E-02
         0.27137E-02
         0.33879E-02
         0.37162E-02
         0.27488E-02
         0.28990E-02
         0.37001E-02
         0.35930E-02
         0.37853E-02
         0.29889E-02
         0.29889E-02
         0.28571E-02
         0.26875E-02
         0.29521E-02
         0.28074E-02
         0.30027E-02
         0.37001E-02
         0.28641E-02
         0.28641E-02
         0.27576E-02
         0.26173E-02
         0.37001E-02
         0.37001E-02
         0.37727E-02
         0.37727E-02
         0.30234E-02
         0.36979E-02
         0.37162E-02
         0.31960E-02
         0.32790E-02
         0.32790E-02
         0.27006E-02
         0.25920E-02
         0.25902E-02
         0.29715E-02
         0.29715E-02
         0.26476E-02
         0.29100E-02
         0.34071E-02
         0.35339E-02
         0.35339E-02
         0.29772E-02
         0.32307E-02
         0.29032E-02
         0.29855E-02
         0.36979E-02
         0.37162E-02
         0.37162E-02
         0.33879E-02
         0.28990E-02
         0.31960E-02
         0.32790E-02
         0.32790E-02
         0.27006E-02
         0.25920E-02
         0.25902E-02
         0.26875E-02
         0.28571E-02
         0.29521E-02
         0.29715E-02
         0.29715E-02
         0.26476E-02
         0.27684E-02
         0.34071E-02
         0.35339E-02
         0.35339E-02
         0.29772E-02
         0.31408E-02
         0.31408E-02
         0.43148E-02
         0.43148E-02
         0.43148E-02
         0.43148E-02
         0.34885E-02
         0.34885E-02
         0.32783E-02
         0.32112E-02
         0.37849E-02
         0.31872E-02
         0.27120E-02
         0.33875E-02
         0.37161E-02
         0.27441E-02
         0.29003E-02
         0.36998E-02
         0.35965E-02
         0.37849E-02
         0.29896E-02
         0.29896E-02
         0.28575E-02
         0.26882E-02
         0.29522E-02
         0.28077E-02
         0.30053E-02
         0.36998E-02
         0.28615E-02
         0.28615E-02
         0.27563E-02
         0.26163E-02
         0.36998E-02
         0.36998E-02
         0.37747E-02
         0.37747E-02
         0.30236E-02
         0.36967E-02
         0.37161E-02
         0.31973E-02
         0.32796E-02
         0.32796E-02
         0.27006E-02
         0.25920E-02
         0.25895E-02
         0.29714E-02
         0.29714E-02
         0.26475E-02
         0.29099E-02
         0.34063E-02
         0.35333E-02
         0.35333E-02
         0.29775E-02
         0.32325E-02
         0.29004E-02
         0.29865E-02
         0.36967E-02
         0.37161E-02
         0.37161E-02
         0.33875E-02
         0.29003E-02
         0.31973E-02
         0.32796E-02
         0.32796E-02
         0.27006E-02
         0.25920E-02
         0.25895E-02
         0.26882E-02
         0.28575E-02
         0.29522E-02
         0.29714E-02
         0.29714E-02
         0.26475E-02
         0.27684E-02
         0.34063E-02
         0.35333E-02
         0.35333E-02
         0.29775E-02
         0.31422E-02
         0.31422E-02
         0.43145E-02
         0.43145E-02
         0.43145E-02
         0.43145E-02
         0.34886E-02
         0.34886E-02
         0.32769E-02
         0.32102E-02
         0.37844E-02
         0.31868E-02
         0.27103E-02
         0.33871E-02
         0.37160E-02
         0.27394E-02
         0.29015E-02
         0.36995E-02
         0.36000E-02
         0.37844E-02
         0.29903E-02
         0.29903E-02
         0.28580E-02
         0.26890E-02
         0.29523E-02
         0.28079E-02
         0.30079E-02
         0.36995E-02
         0.28589E-02
         0.28589E-02
         0.27550E-02
         0.26152E-02
         0.36995E-02
         0.36995E-02
         0.37768E-02
         0.37768E-02
         0.30238E-02
         0.36956E-02
         0.37160E-02
         0.31986E-02
         0.32802E-02
         0.32802E-02
         0.27006E-02
         0.25920E-02
         0.25887E-02
         0.29714E-02
         0.29714E-02
         0.26475E-02
         0.29098E-02
         0.34056E-02
         0.35327E-02
         0.35327E-02
         0.29778E-02
         0.32342E-02
         0.28977E-02
         0.29875E-02
         0.36956E-02
         0.37160E-02
         0.37160E-02
         0.33871E-02
         0.29015E-02
         0.31986E-02
         0.32802E-02
         0.32802E-02
         0.27006E-02
         0.25920E-02
         0.25887E-02
         0.26890E-02
         0.28580E-02
         0.29523E-02
         0.29714E-02
         0.29714E-02
         0.26475E-02
         0.27683E-02
         0.34056E-02
         0.35327E-02
         0.35327E-02
         0.29778E-02
         0.31435E-02
         0.31435E-02
         0.43143E-02
         0.43143E-02
         0.43143E-02
         0.43143E-02
         0.34887E-02
         0.34887E-02
         0.32755E-02
         0.32091E-02
         0.37839E-02
         0.31864E-02
         0.27086E-02
         0.33867E-02
         0.37159E-02
         0.27347E-02
         0.29027E-02
         0.36991E-02
         0.36036E-02
         0.37839E-02
         0.29920E-02
         0.29920E-02
         0.28585E-02
         0.26897E-02
         0.29525E-02
         0.28082E-02
         0.30105E-02
         0.36991E-02
         0.28563E-02
         0.28563E-02
         0.27537E-02
         0.26142E-02
         0.36991E-02
         0.36991E-02
         0.37789E-02
         0.37789E-02
         0.30240E-02
         0.36944E-02
         0.37159E-02
         0.31999E-02
         0.32808E-02
         0.32808E-02
         0.27006E-02
         0.25920E-02
         0.25880E-02
         0.29714E-02
         0.29714E-02
         0.26474E-02
         0.29097E-02
         0.34049E-02
         0.35322E-02
         0.35322E-02
         0.29781E-02
         0.32360E-02
         0.28949E-02
         0.29885E-02
         0.36944E-02
         0.37159E-02
         0.37159E-02
         0.33867E-02
         0.29027E-02
         0.31999E-02
         0.32808E-02
         0.32808E-02
         0.27006E-02
         0.25920E-02
         0.25880E-02
         0.26897E-02
         0.28585E-02
         0.29525E-02
         0.29714E-02
         0.29714E-02
         0.26474E-02
         0.27683E-02
         0.34049E-02
         0.35322E-02
         0.35322E-02
         0.29781E-02
         0.31449E-02
         0.31449E-02
         0.43140E-02
         0.43140E-02
         0.43140E-02
         0.43140E-02
         0.34888E-02
         0.34888E-02
         0.32740E-02
         0.32081E-02
         0.37834E-02
         0.31860E-02
         0.27069E-02
         0.33863E-02
         0.37158E-02
         0.27299E-02
         0.29039E-02
         0.36988E-02
         0.36071E-02
         0.37834E-02
         0.29946E-02
         0.29946E-02
         0.28589E-02
         0.26905E-02
         0.29526E-02
         0.28085E-02
         0.30131E-02
         0.36988E-02
         0.28538E-02
         0.28538E-02
         0.27524E-02
         0.26132E-02
         0.36988E-02
         0.36988E-02
         0.37809E-02
         0.37809E-02
         0.30241E-02
         0.36932E-02
         0.37158E-02
         0.32012E-02
         0.32814E-02
         0.32814E-02
         0.27006E-02
         0.25920E-02
         0.25873E-02
         0.29714E-02
         0.29714E-02
         0.26473E-02
         0.29097E-02
         0.34041E-02
         0.35316E-02
         0.35316E-02
         0.29784E-02
         0.32378E-02
         0.28921E-02
         0.29895E-02
         0.36932E-02
         0.37158E-02
         0.37158E-02
         0.33863E-02
         0.29039E-02
         0.32012E-02
         0.32814E-02
         0.32814E-02
         0.27006E-02
         0.25920E-02
         0.25873E-02
         0.26905E-02
         0.28589E-02
         0.29526E-02
         0.29714E-02
         0.29714E-02
         0.26473E-02
         0.27683E-02
         0.34041E-02
         0.35316E-02
         0.35316E-02
         0.29784E-02
         0.31463E-02
         0.31463E-02
         0.43138E-02
         0.43138E-02
         0.43138E-02
         0.43138E-02
         0.34888E-02
         0.34888E-02
         0.32726E-02
         0.32071E-02
         0.37830E-02
         0.31856E-02
         0.27051E-02
         0.33859E-02
         0.37157E-02
         0.27252E-02
         0.29051E-02
         0.36985E-02
         0.36106E-02
         0.37830E-02
         0.29972E-02
         0.29972E-02
         0.28594E-02
         0.26912E-02
         0.29528E-02
         0.28087E-02
         0.30156E-02
         0.36985E-02
         0.28512E-02
         0.28512E-02
         0.27512E-02
         0.26122E-02
         0.36985E-02
         0.36985E-02
         0.37830E-02
         0.37830E-02
         0.30243E-02
         0.36920E-02
         0.37157E-02
         0.32025E-02
         0.32821E-02
         0.32821E-02
         0.27006E-02
         0.25920E-02
         0.25866E-02
         0.29714E-02
         0.29714E-02
         0.26473E-02
         0.29096E-02
         0.34034E-02
         0.35310E-02
         0.35310E-02
         0.29787E-02
         0.32396E-02
         0.28894E-02
         0.29905E-02
         0.36920E-02
         0.37157E-02
         0.37157E-02
         0.33859E-02
         0.29051E-02
         0.32025E-02
         0.32821E-02
         0.32821E-02
         0.27006E-02
         0.25920E-02
         0.25866E-02
         0.26912E-02
         0.28594E-02
         0.29528E-02
         0.29714E-02
         0.29714E-02
         0.26473E-02
         0.27682E-02
         0.34034E-02
         0.35310E-02
         0.35310E-02
         0.29787E-02
         0.31476E-02
         0.31476E-02
         0.43135E-02
         0.43135E-02
         0.43135E-02
         0.43135E-02
         0.34889E-02
         0.34889E-02
         0.32712E-02
         0.32061E-02
         0.37825E-02
         0.31852E-02
         0.27034E-02
         0.33856E-02
         0.37156E-02
         0.27205E-02
         0.29063E-02
         0.36982E-02
         0.36142E-02
         0.37851E-02
         0.29998E-02
         0.29998E-02
         0.28599E-02
         0.26920E-02
         0.29529E-02
         0.28090E-02
         0.30182E-02
         0.36982E-02
         0.28486E-02
         0.28486E-02
         0.27499E-02
         0.26112E-02
         0.36982E-02
         0.36982E-02
         0.37851E-02
         0.37851E-02
         0.30245E-02
         0.36908E-02
         0.37156E-02
         0.32038E-02
         0.32827E-02
         0.32827E-02
         0.27006E-02
         0.25920E-02
         0.25859E-02
         0.29714E-02
         0.29714E-02
         0.26472E-02
         0.29095E-02
         0.34027E-02
         0.35304E-02
         0.35304E-02
         0.29790E-02
         0.32413E-02
         0.28866E-02
         0.29915E-02
         0.36908E-02
         0.37156E-02
         0.37156E-02
         0.33856E-02
         0.29063E-02
         0.32038E-02
         0.32827E-02
         0.32827E-02
         0.27006E-02
         0.25920E-02
         0.25859E-02
         0.26920E-02
         0.28599E-02
         0.29529E-02
         0.29714E-02
         0.29714E-02
         0.26472E-02
         0.27682E-02
         0.34027E-02
         0.35304E-02
         0.35304E-02
         0.29790E-02
         0.31490E-02
         0.31490E-02
         0.43133E-02
         0.43133E-02
         0.43133E-02
         0.43133E-02
         0.34890E-02
         0.34890E-02
         0.32698E-02
         0.32051E-02
         0.37820E-02
         0.31848E-02
         0.27017E-02
         0.33851E-02
         0.37155E-02
         0.27158E-02
         0.29075E-02
         0.36979E-02
         0.36177E-02
         0.37871E-02
         0.30024E-02
         0.30024E-02
         0.28603E-02
         0.26927E-02
         0.29530E-02
         0.28093E-02
         0.30208E-02
         0.36979E-02
         0.28460E-02
         0.28460E-02
         0.27486E-02
         0.26101E-02
         0.36979E-02
         0.36979E-02
         0.37871E-02
         0.37871E-02
         0.30247E-02
         0.36896E-02
         0.37155E-02
         0.32051E-02
         0.32833E-02
         0.32833E-02
         0.27006E-02
         0.25920E-02
         0.25851E-02
         0.29714E-02
         0.29714E-02
         0.26472E-02
         0.29094E-02
         0.34019E-02
         0.35299E-02
         0.35299E-02
         0.29793E-02
         0.32431E-02
         0.28838E-02
         0.29925E-02
         0.36896E-02
         0.37155E-02
         0.37155E-02
         0.33851E-02
         0.29075E-02
         0.32051E-02
         0.32833E-02
         0.32833E-02
         0.27006E-02
         0.25920E-02
         0.25851E-02
         0.26927E-02
         0.28603E-02
         0.29530E-02
         0.29714E-02
         0.29714E-02
         0.26472E-02
         0.27681E-02
         0.34019E-02
         0.35299E-02
         0.35299E-02
         0.29793E-02
         0.31503E-02
         0.31503E-02
         0.43130E-02
         0.43130E-02
         0.43130E-02
         0.43130E-02
         0.34891E-02
         0.34891E-02
         0.32683E-02
         0.32041E-02
         0.37816E-02
         0.31844E-02
         0.27000E-02
         0.33848E-02
         0.37154E-02
         0.27111E-02
         0.29087E-02
         0.36976E-02
         0.36213E-02
         0.37892E-02
         0.30050E-02
         0.30050E-02
         0.28608E-02
         0.26935E-02
         0.29532E-02
         0.28096E-02
         0.30234E-02
         0.36976E-02
         0.28434E-02
         0.28434E-02
         0.27472E-02
         0.26091E-02
         0.36976E-02
         0.36976E-02
         0.37892E-02
         0.37892E-02
         0.30249E-02
         0.36885E-02
         0.37154E-02
         0.32064E-02
         0.32839E-02
         0.32839E-02
         0.27006E-02
         0.25920E-02
         0.25844E-02
         0.29714E-02
         0.29714E-02
         0.26471E-02
         0.29094E-02
         0.34012E-02
         0.35293E-02
         0.35293E-02
         0.29797E-02
         0.32449E-02
         0.28811E-02
         0.29935E-02
         0.36885E-02
         0.37154E-02
         0.37154E-02
         0.33848E-02
         0.29087E-02
         0.32064E-02
         0.32839E-02
         0.32839E-02
         0.27006E-02
         0.25920E-02
         0.25844E-02
         0.26935E-02
         0.28608E-02
         0.29532E-02
         0.29714E-02
         0.29714E-02
         0.26471E-02
         0.27681E-02
         0.34012E-02
         0.35293E-02
         0.35293E-02
         0.29797E-02
         0.31517E-02
         0.31517E-02
         0.43128E-02
         0.43128E-02
         0.43128E-02
         0.43128E-02
         0.34892E-02
         0.34892E-02
         0.32669E-02
         0.32031E-02
         0.37811E-02
         0.31840E-02
         0.26982E-02
         0.33844E-02
         0.37152E-02
         0.27063E-02
         0.29099E-02
         0.36973E-02
         0.36248E-02
         0.37913E-02
         0.30076E-02
         0.30076E-02
         0.28613E-02
         0.26942E-02
         0.29533E-02
         0.28099E-02
         0.30260E-02
         0.36973E-02
         0.28408E-02
         0.28408E-02
         0.27460E-02
         0.26081E-02
         0.36973E-02
         0.36973E-02
         0.37913E-02
         0.37913E-02
         0.30250E-02
         0.36873E-02
         0.37152E-02
         0.32077E-02
         0.32845E-02
         0.32845E-02
         0.27006E-02
         0.25920E-02
         0.25837E-02
         0.29714E-02
         0.29714E-02
         0.26471E-02
         0.29093E-02
         0.34005E-02
         0.35287E-02
         0.35287E-02
         0.29800E-02
         0.32467E-02
         0.28783E-02
         0.29945E-02
         0.36873E-02
         0.37152E-02
         0.37152E-02
         0.33844E-02
         0.29099E-02
         0.32077E-02
         0.32845E-02
         0.32845E-02
         0.27006E-02
         0.25920E-02
         0.25837E-02
         0.26942E-02
         0.28613E-02
         0.29533E-02
         0.29714E-02
         0.29714E-02
         0.26471E-02
         0.27681E-02
         0.34005E-02
         0.35287E-02
         0.35287E-02
         0.29800E-02
         0.31530E-02
         0.31530E-02
         0.43125E-02
         0.43125E-02
         0.43125E-02
         0.43125E-02
         0.34893E-02
         0.34893E-02
         0.32655E-02
         0.32021E-02
         0.37806E-02
         0.31836E-02
         0.26965E-02
         0.33840E-02
         0.37151E-02
         0.27016E-02
         0.29111E-02
         0.36969E-02
         0.36283E-02
         0.37933E-02
         0.30102E-02
         0.30102E-02
         0.28617E-02
         0.26950E-02
         0.29535E-02
         0.28101E-02
         0.30286E-02
         0.36969E-02
         0.28382E-02
         0.28382E-02
         0.27447E-02
         0.26071E-02
         0.36969E-02
         0.36969E-02
         0.37933E-02
         0.37933E-02
         0.30252E-02
         0.36861E-02
         0.37151E-02
         0.32090E-02
         0.32852E-02
         0.32852E-02
         0.27006E-02
         0.25920E-02
         0.25830E-02
         0.29714E-02
         0.29714E-02
         0.26470E-02
         0.29092E-02
         0.33997E-02
         0.35282E-02
         0.35282E-02
         0.29803E-02
         0.32484E-02
         0.28755E-02
         0.29955E-02
         0.36861E-02
         0.37151E-02
         0.37151E-02
         0.33840E-02
         0.29111E-02
         0.32090E-02
         0.32852E-02
         0.32852E-02
         0.27006E-02
         0.25920E-02
         0.25830E-02
         0.26950E-02
         0.28617E-02
         0.29535E-02
         0.29714E-02
         0.29714E-02
         0.26470E-02
         0.27680E-02
         0.33997E-02
         0.35282E-02
         0.35282E-02
         0.29803E-02
         0.31544E-02
         0.31544E-02
         0.43123E-02
         0.43123E-02
         0.43123E-02
         0.43123E-02
         0.34893E-02
         0.34893E-02
         0.32640E-02
         0.32011E-02
         0.37801E-02
         0.31832E-02
         0.26948E-02
         0.33836E-02
         0.37150E-02
         0.26969E-02
         0.29123E-02
         0.36966E-02
         0.36319E-02
         0.37954E-02
         0.30128E-02
         0.30128E-02
         0.28622E-02
         0.26957E-02
         0.29536E-02
         0.28104E-02
         0.30312E-02
         0.36966E-02
         0.28357E-02
         0.28357E-02
         0.27434E-02
         0.26061E-02
         0.36966E-02
         0.36966E-02
         0.37954E-02
         0.37954E-02
         0.30254E-02
         0.36849E-02
         0.37150E-02
         0.32103E-02
         0.32858E-02
         0.32858E-02
         0.27006E-02
         0.25920E-02
         0.25823E-02
         0.29714E-02
         0.29714E-02
         0.26470E-02
         0.29091E-02
         0.33990E-02
         0.35276E-02
         0.35276E-02
         0.29806E-02
         0.32502E-02
         0.28728E-02
         0.29965E-02
         0.36849E-02
         0.37150E-02
         0.37150E-02
         0.33836E-02
         0.29123E-02
         0.32103E-02
         0.32858E-02
         0.32858E-02
         0.27006E-02
         0.25920E-02
         0.25823E-02
         0.26957E-02
         0.28622E-02
         0.29536E-02
         0.29714E-02
         0.29714E-02
         0.26470E-02
         0.27680E-02
         0.33990E-02
         0.35276E-02
         0.35276E-02
         0.29806E-02
         0.31557E-02
         0.31557E-02
         0.43120E-02
         0.43120E-02
         0.43120E-02
         0.43120E-02
         0.34894E-02
         0.34894E-02
         0.32626E-02
         0.32001E-02
         0.37797E-02
         0.31828E-02
         0.26931E-02
         0.33832E-02
         0.37149E-02
         0.26922E-02
         0.29135E-02
         0.36963E-02
         0.36354E-02
         0.37975E-02
         0.30154E-02
         0.30154E-02
         0.28627E-02
         0.26965E-02
         0.29537E-02
         0.28107E-02
         0.30338E-02
         0.36963E-02
         0.28331E-02
         0.28331E-02
         0.27421E-02
         0.26051E-02
         0.36963E-02
         0.36963E-02
         0.37975E-02
         0.37975E-02
         0.30256E-02
         0.36838E-02
         0.37149E-02
         0.32116E-02
         0.32864E-02
         0.32864E-02
         0.27006E-02
         0.25920E-02
         0.25815E-02
         0.29714E-02
         0.29714E-02
         0.26469E-02
         0.29090E-02
         0.33983E-02
         0.35270E-02
         0.35270E-02
         0.29809E-02
         0.32519E-02
         0.28700E-02
         0.29975E-02
         0.36838E-02
         0.37149E-02
         0.37149E-02
         0.33832E-02
         0.29135E-02
         0.32116E-02
         0.32864E-02
         0.32864E-02
         0.27006E-02
         0.25920E-02
         0.25815E-02
         0.26965E-02
         0.28627E-02
         0.29537E-02
         0.29714E-02
         0.29714E-02
         0.26469E-02
         0.27680E-02
         0.33983E-02
         0.35270E-02
         0.35270E-02
         0.29809E-02
         0.31571E-02
         0.31571E-02
         0.43118E-02
         0.43118E-02
         0.43118E-02
         0.43118E-02
         0.34895E-02
         0.34895E-02
         0.32612E-02
         0.31990E-02
         0.37792E-02
         0.31824E-02
         0.26913E-02
         0.33828E-02
         0.37148E-02
         0.26875E-02
         0.29148E-02
         0.36960E-02
         0.36390E-02
         0.37995E-02
         0.30180E-02
         0.30180E-02
         0.28631E-02
         0.26972E-02
         0.29539E-02
         0.28110E-02
         0.30364E-02
         0.36960E-02
         0.28305E-02
         0.28305E-02
         0.27408E-02
         0.26040E-02
         0.36960E-02
         0.36960E-02
         0.37995E-02
         0.37995E-02
         0.30258E-02
         0.36826E-02
         0.37148E-02
         0.32129E-02
         0.32870E-02
         0.32870E-02
         0.27006E-02
         0.25920E-02
         0.25808E-02
         0.29713E-02
         0.29713E-02
         0.26468E-02
         0.29089E-02
         0.33975E-02
         0.35264E-02
         0.35264E-02
         0.29812E-02
         0.32537E-02
         0.28672E-02
         0.29985E-02
         0.36826E-02
         0.37148E-02
         0.37148E-02
         0.33828E-02
         0.29148E-02
         0.32129E-02
         0.32870E-02
         0.32870E-02
         0.27006E-02
         0.25920E-02
         0.25808E-02
         0.26972E-02
         0.28631E-02
         0.29539E-02
         0.29713E-02
         0.29713E-02
         0.26468E-02
         0.27679E-02
         0.33975E-02
         0.35264E-02
         0.35264E-02
         0.29812E-02
         0.31585E-02
         0.31585E-02
         0.43115E-02
         0.43115E-02
         0.43115E-02
         0.43115E-02
         0.34896E-02
         0.34896E-02
         0.32597E-02
         0.31980E-02
         0.37787E-02
         0.31820E-02
         0.26896E-02
         0.33824E-02
         0.37147E-02
         0.26827E-02
         0.29160E-02
         0.36957E-02
         0.36425E-02
         0.38016E-02
         0.30206E-02
         0.30206E-02
         0.28636E-02
         0.26980E-02
         0.29540E-02
         0.28112E-02
         0.30390E-02
         0.36957E-02
         0.28279E-02
         0.28279E-02
         0.27395E-02
         0.26030E-02
         0.36957E-02
         0.36957E-02
         0.38016E-02
         0.38016E-02
         0.30260E-02
         0.36814E-02
         0.37147E-02
         0.32141E-02
         0.32876E-02
         0.32876E-02
         0.27006E-02
         0.25920E-02
         0.25801E-02
         0.29713E-02
         0.29713E-02
         0.26468E-02
         0.29089E-02
         0.33968E-02
         0.35259E-02
         0.35259E-02
         0.29815E-02
         0.32555E-02
         0.28645E-02
         0.29995E-02
         0.36814E-02
         0.37147E-02
         0.37147E-02
         0.33824E-02
         0.29160E-02
         0.32141E-02
         0.32876E-02
         0.32876E-02
         0.27006E-02
         0.25920E-02
         0.25801E-02
         0.26980E-02
         0.28636E-02
         0.29540E-02
         0.29713E-02
         0.29713E-02
         0.26468E-02
         0.27679E-02
         0.33968E-02
         0.35259E-02
         0.35259E-02
         0.29815E-02
         0.31598E-02
         0.31598E-02
         0.43113E-02
         0.43113E-02
         0.43113E-02
         0.43113E-02
         0.34897E-02
         0.34897E-02
         0.32583E-02
         0.31970E-02
         0.37783E-02
         0.31816E-02
         0.26879E-02
         0.33820E-02
         0.37146E-02
         0.26780E-02
         0.29172E-02
         0.36954E-02
         0.36460E-02
         0.38037E-02
         0.30232E-02
         0.30232E-02
         0.28641E-02
         0.26987E-02
         0.29542E-02
         0.28115E-02
         0.30416E-02
         0.36954E-02
         0.28253E-02
         0.28253E-02
         0.27382E-02
         0.26020E-02
         0.36954E-02
         0.36954E-02
         0.38037E-02
         0.38037E-02
         0.30261E-02
         0.36802E-02
         0.37146E-02
         0.32154E-02
         0.32882E-02
         0.32882E-02
         0.27006E-02
         0.25921E-02
         0.25794E-02
         0.29713E-02
         0.29713E-02
         0.26467E-02
         0.29088E-02
         0.33961E-02
         0.35253E-02
         0.35253E-02
         0.29818E-02
         0.32573E-02
         0.28617E-02
         0.30005E-02
         0.36802E-02
         0.37146E-02
         0.37146E-02
         0.33820E-02
         0.29172E-02
         0.32154E-02
         0.32882E-02
         0.32882E-02
         0.27006E-02
         0.25921E-02
         0.25794E-02
         0.26987E-02
         0.28641E-02
         0.29542E-02
         0.29713E-02
         0.29713E-02
         0.26467E-02
         0.27678E-02
         0.33961E-02
         0.35253E-02
         0.35253E-02
         0.29818E-02
         0.31612E-02
         0.31612E-02
         0.43110E-02
         0.43110E-02
         0.43110E-02
         0.43110E-02
         0.34898E-02
         0.34898E-02
         0.32569E-02
         0.31960E-02
         0.37778E-02
         0.31812E-02
         0.26862E-02
         0.33816E-02
         0.37145E-02
         0.26733E-02
         0.29184E-02
         0.36950E-02
         0.36495E-02
         0.38057E-02
         0.30258E-02
         0.30258E-02
         0.28645E-02
         0.26995E-02
         0.29543E-02
         0.28118E-02
         0.30442E-02
         0.36950E-02
         0.28227E-02
         0.28227E-02
         0.27369E-02
         0.26010E-02
         0.36950E-02
         0.36950E-02
         0.38057E-02
         0.38057E-02
         0.30263E-02
         0.36790E-02
         0.37145E-02
         0.32167E-02
         0.32889E-02
         0.32889E-02
         0.27006E-02
         0.25921E-02
         0.25787E-02
         0.29713E-02
         0.29713E-02
         0.26467E-02
         0.29087E-02
         0.33953E-02
         0.35247E-02
         0.35247E-02
         0.29821E-02
         0.32590E-02
         0.28589E-02
         0.30015E-02
         0.36790E-02
         0.37145E-02
         0.37145E-02
         0.33816E-02
         0.29184E-02
         0.32167E-02
         0.32889E-02
         0.32889E-02
         0.27006E-02
         0.25921E-02
         0.25787E-02
         0.26995E-02
         0.28645E-02
         0.29543E-02
         0.29713E-02
         0.29713E-02
         0.26467E-02
         0.27678E-02
         0.33953E-02
         0.35247E-02
         0.35247E-02
         0.29821E-02
         0.31625E-02
         0.31625E-02
         0.43108E-02
         0.43108E-02
         0.43108E-02
         0.43108E-02
         0.34898E-02
         0.34898E-02
         0.32555E-02
         0.31950E-02
         0.37773E-02
         0.31808E-02
         0.26845E-02
         0.33812E-02
         0.37144E-02
         0.26686E-02
         0.29196E-02
         0.36948E-02
         0.36531E-02
         0.38078E-02
         0.30285E-02
         0.30285E-02
         0.28650E-02
         0.27002E-02
         0.29544E-02
         0.28120E-02
         0.30467E-02
         0.36948E-02
         0.28201E-02
         0.28201E-02
         0.27356E-02
         0.26000E-02
         0.36948E-02
         0.36948E-02
         0.38078E-02
         0.38078E-02
         0.30265E-02
         0.36779E-02
         0.37144E-02
         0.32181E-02
         0.32895E-02
         0.32895E-02
         0.27006E-02
         0.25921E-02
         0.25779E-02
         0.29713E-02
         0.29713E-02
         0.26466E-02
         0.29086E-02
         0.33946E-02
         0.35242E-02
         0.35242E-02
         0.29824E-02
         0.32608E-02
         0.28562E-02
         0.30025E-02
         0.36779E-02
         0.37144E-02
         0.37144E-02
         0.33812E-02
         0.29196E-02
         0.32181E-02
         0.32895E-02
         0.32895E-02
         0.27006E-02
         0.25921E-02
         0.25779E-02
         0.27002E-02
         0.28650E-02
         0.29544E-02
         0.29713E-02
         0.29713E-02
         0.26466E-02
         0.27678E-02
         0.33946E-02
         0.35242E-02
         0.35242E-02
         0.29824E-02
         0.31639E-02
         0.31639E-02
         0.43105E-02
         0.43105E-02
         0.43105E-02
         0.43105E-02
         0.34899E-02
         0.34899E-02
         0.32540E-02
         0.31940E-02
         0.37768E-02
         0.31804E-02
         0.26827E-02
         0.33808E-02
         0.37143E-02
         0.26639E-02
         0.29208E-02
         0.36944E-02
         0.36566E-02
         0.38099E-02
         0.30311E-02
         0.30311E-02
         0.28655E-02
         0.27010E-02
         0.29546E-02
         0.28123E-02
         0.30493E-02
         0.36944E-02
         0.28175E-02
         0.28175E-02
         0.27343E-02
         0.25990E-02
         0.36944E-02
         0.36944E-02
         0.38099E-02
         0.38099E-02
         0.30267E-02
         0.36767E-02
         0.37143E-02
         0.32193E-02
         0.32901E-02
         0.32901E-02
         0.27006E-02
         0.25921E-02
         0.25772E-02
         0.29713E-02
         0.29713E-02
         0.26466E-02
         0.29085E-02
         0.33939E-02
         0.35236E-02
         0.35236E-02
         0.29827E-02
         0.32626E-02
         0.28534E-02
         0.30035E-02
         0.36767E-02
         0.37143E-02
         0.37143E-02
         0.33808E-02
         0.29208E-02
         0.32193E-02
         0.32901E-02
         0.32901E-02
         0.27006E-02
         0.25921E-02
         0.25772E-02
         0.27010E-02
         0.28655E-02
         0.29546E-02
         0.29713E-02
         0.29713E-02
         0.26466E-02
         0.27677E-02
         0.33939E-02
         0.35236E-02
         0.35236E-02
         0.29827E-02
         0.31652E-02
         0.31652E-02
         0.43103E-02
         0.43103E-02
         0.43103E-02
         0.43103E-02
         0.34900E-02
         0.34900E-02
         0.32526E-02
         0.31930E-02
         0.37764E-02
         0.31800E-02
         0.26810E-02
         0.33804E-02
         0.37142E-02
         0.26591E-02
         0.29220E-02
         0.36941E-02
         0.36602E-02
         0.38119E-02
         0.30337E-02
         0.30337E-02
         0.28660E-02
         0.27017E-02
         0.29547E-02
         0.28126E-02
         0.30519E-02
         0.36941E-02
         0.28150E-02
         0.28150E-02
         0.27330E-02
         0.25979E-02
         0.36941E-02
         0.36941E-02
         0.38119E-02
         0.38119E-02
         0.30269E-02
         0.36755E-02
         0.37142E-02
         0.32206E-02
         0.32907E-02
         0.32907E-02
         0.27006E-02
         0.25921E-02
         0.25765E-02
         0.29713E-02
         0.29713E-02
         0.26465E-02
         0.29085E-02
         0.33931E-02
         0.35230E-02
         0.35230E-02
         0.29830E-02
         0.32643E-02
         0.28507E-02
         0.30045E-02
         0.36755E-02
         0.37142E-02
         0.37142E-02
         0.33804E-02
         0.29220E-02
         0.32206E-02
         0.32907E-02
         0.32907E-02
         0.27006E-02
         0.25921E-02
         0.25765E-02
         0.27017E-02
         0.28660E-02
         0.29547E-02
         0.29713E-02
         0.29713E-02
         0.26465E-02
         0.27677E-02
         0.33931E-02
         0.35230E-02
         0.35230E-02
         0.29830E-02
         0.31666E-02
         0.31666E-02
         0.43100E-02
         0.43100E-02
         0.43100E-02
         0.43100E-02
         0.34901E-02
         0.34901E-02
         0.32512E-02
         0.31920E-02
         0.37759E-02
         0.31796E-02
         0.26793E-02
         0.33800E-02
         0.37141E-02
         0.26544E-02
         0.29232E-02
         0.36938E-02
         0.36637E-02
         0.38140E-02
         0.30363E-02
         0.30363E-02
         0.28664E-02
         0.27025E-02
         0.29548E-02
         0.28129E-02
         0.30545E-02
         0.36938E-02
         0.28124E-02
         0.28124E-02
         0.27317E-02
         0.25969E-02
         0.36938E-02
         0.36938E-02
         0.38140E-02
         0.38140E-02
         0.30271E-02
         0.36743E-02
         0.37141E-02
         0.32219E-02
         0.32913E-02
         0.32913E-02
         0.27006E-02
         0.25921E-02
         0.25758E-02
         0.29713E-02
         0.29713E-02
         0.26465E-02
         0.29084E-02
         0.33924E-02
         0.35224E-02
         0.35224E-02
         0.29833E-02
         0.32661E-02
         0.28479E-02
         0.30055E-02
         0.36743E-02
         0.37141E-02
         0.37141E-02
         0.33800E-02
         0.29232E-02
         0.32219E-02
         0.32913E-02
         0.32913E-02
         0.27006E-02
         0.25921E-02
         0.25758E-02
         0.27025E-02
         0.28664E-02
         0.29548E-02
         0.29713E-02
         0.29713E-02
         0.26465E-02
         0.27677E-02
         0.33924E-02
         0.35224E-02
         0.35224E-02
         0.29833E-02
         0.31680E-02
         0.31680E-02
         0.43098E-02
         0.43098E-02
         0.43098E-02
         0.43098E-02
         0.34901E-02
         0.34901E-02
         0.32498E-02
         0.31910E-02
         0.37754E-02
         0.31792E-02
         0.26776E-02
         0.33796E-02
         0.37140E-02
         0.26497E-02
         0.29232E-02
         0.36935E-02
         0.36637E-02
         0.38140E-02
         0.30363E-02
         0.30363E-02
         0.28664E-02
         0.27025E-02
         0.29548E-02
         0.28129E-02
         0.30545E-02
         0.36935E-02
         0.28098E-02
         0.28098E-02
         0.27304E-02
         0.25959E-02
         0.36935E-02
         0.36935E-02
         0.38140E-02
         0.38140E-02
         0.30271E-02
         0.36731E-02
         0.37140E-02
         0.32219E-02
         0.32913E-02
         0.32913E-02
         0.27006E-02
         0.25921E-02
         0.25751E-02
         0.29713E-02
         0.29713E-02
         0.26464E-02
         0.29083E-02
         0.33916E-02
         0.35219E-02
         0.35219E-02
         0.29833E-02
         0.32661E-02
         0.28451E-02
         0.30055E-02
         0.36731E-02
         0.37140E-02
         0.37140E-02
         0.33796E-02
         0.29232E-02
         0.32219E-02
         0.32913E-02
         0.32913E-02
         0.27006E-02
         0.25921E-02
         0.25751E-02
         0.27025E-02
         0.28664E-02
         0.29548E-02
         0.29713E-02
         0.29713E-02
         0.26464E-02
         0.27676E-02
         0.33916E-02
         0.35219E-02
         0.35219E-02
         0.29833E-02
         0.31680E-02
         0.31680E-02
  
SCALARS              physical_window_z  double 1
LOOKUP_TABLE default
         0.26928E-02
         0.26928E-02
         0.26928E-02
         0.26928E-02
         0.26928E-02
         0.26928E-02
         0.26928E-02
         0.26928E-02
         0.26928E-02
         0.26928E-02
         0.26928E-02
         0.26928E-02
         0.26928E-02
         0.26928E-02
         0.26928E-02
         0.26928E-02
         0.26928E-02
         0.26928E-02
         0.26928E-02
         0.26928E-02
         0.26928E-02
         0.26928E-02
         0.26928E-02
         0.26928E-02
         0.26928E-02
         0.26928E-02
         0.26928E-02
         0.26928E-02
         0.26928E-02
         0.26928E-02
         0.26928E-02
         0.26928E-02
         0.26928E-02
         0.26928E-02
         0.26928E-02
         0.26928E-02
         0.26928E-02
         0.26928E-02
         0.26928E-02
         0.26928E-02
         0.26928E-02
         0.26928E-02
         0.26928E-02
         0.26928E-02
         0.26928E-02
         0.26928E-02
         0.26928E-02
         0.26928E-02
         0.26928E-02
         0.26928E-02
         0.26928E-02
         0.26928E-02
         0.26928E-02
         0.26928E-02
         0.26928E-02
         0.26928E-02
         0.26928E-02
         0.26928E-02
         0.26928E-02
         0.26928E-02
         0.26928E-02
         0.26928E-02
         0.26928E-02
         0.26928E-02
         0.26928E-02
         0.26928E-02
         0.26928E-02
         0.26928E-02
         0.26928E-02
         0.26928E-02
         0.26928E-02
         0.26928E-02
         0.26928E-02
         0.26928E-02
         0.26928E-02
         0.26928E-02
         0.26928E-02
         0.26928E-02
         0.26928E-02
         0.26928E-02
         0.26928E-02
         0.26928E-02
         0.26928E-02
         0.26928E-02
         0.26928E-02
         0.26928E-02
         0.26928E-02
         0.26928E-02
         0.26928E-02
         0.26928E-02
         0.26928E-02
         0.26928E-02
         0.26928E-02
         0.26928E-02
         0.26928E-02
         0.26928E-02
         0.26928E-02
         0.26928E-02
         0.26928E-02
         0.26928E-02
         0.26928E-02
         0.26928E-02
         0.26928E-02
         0.26928E-02
         0.26928E-02
         0.26928E-02
         0.26928E-02
         0.26928E-02
         0.26928E-02
         0.26928E-02
         0.26928E-02
         0.26928E-02
         0.26928E-02
         0.26928E-02
         0.26928E-02
         0.26928E-02
         0.26928E-02
         0.26928E-02
         0.26928E-02
         0.26928E-02
         0.26928E-02
         0.26928E-02
         0.26928E-02
         0.26928E-02
         0.26928E-02
         0.26928E-02
         0.26928E-02
         0.26928E-02
         0.26928E-02
         0.26928E-02
         0.26928E-02
         0.26928E-02
         0.26928E-02
         0.26928E-02
         0.26928E-02
         0.26928E-02
         0.26928E-02
         0.26928E-02
         0.26928E-02
         0.26928E-02
         0.26928E-02
         0.26928E-02
         0.26928E-02
         0.26928E-02
         0.26928E-02
         0.26928E-02
         0.26928E-02
         0.26928E-02
         0.26928E-02
         0.26928E-02
         0.26928E-02
         0.26928E-02
         0.26928E-02
         0.26928E-02
         0.26928E-02
         0.26928E-02
         0.26927E-02
         0.26927E-02
         0.26927E-02
         0.26927E-02
         0.26927E-02
         0.26927E-02
         0.26927E-02
         0.26927E-02
         0.26927E-02
         0.26927E-02
         0.26927E-02
         0.26927E-02
         0.26927E-02
         0.26927E-02
         0.26927E-02
         0.26927E-02
         0.26927E-02
         0.26927E-02
         0.26927E-02
         0.26927E-02
         0.26927E-02
         0.26927E-02
         0.26927E-02
         0.26927E-02
         0.26927E-02
         0.26927E-02
         0.26927E-02
         0.26927E-02
         0.26927E-02
         0.26927E-02
         0.26927E-02
         0.26927E-02
         0.26927E-02
         0.26927E-02
         0.26927E-02
         0.26927E-02
         0.26927E-02
         0.26927E-02
         0.26927E-02
         0.26927E-02
         0.26927E-02
         0.26927E-02
         0.26927E-02
         0.26927E-02
         0.26927E-02
         0.26927E-02
         0.26927E-02
         0.26927E-02
         0.26927E-02
         0.26927E-02
         0.26927E-02
         0.26927E-02
         0.26927E-02
         0.26927E-02
         0.26927E-02
         0.26927E-02
         0.26927E-02
         0.26927E-02
         0.26927E-02
         0.26927E-02
         0.26927E-02
         0.26927E-02
         0.26927E-02
         0.26927E-02
         0.26927E-02
         0.26927E-02
         0.26927E-02
         0.26927E-02
         0.26927E-02
         0.26927E-02
         0.26927E-02
         0.26927E-02
         0.26927E-02
         0.26927E-02
         0.26927E-02
         0.26927E-02
         0.26927E-02
         0.26927E-02
         0.26927E-02
         0.26927E-02
         0.26927E-02
         0.26927E-02
         0.26927E-02
         0.26927E-02
         0.26927E-02
         0.26927E-02
         0.26927E-02
         0.26927E-02
         0.26927E-02
         0.26927E-02
         0.26927E-02
         0.26927E-02
         0.26927E-02
         0.26927E-02
         0.26927E-02
         0.26927E-02
         0.26927E-02
         0.26927E-02
         0.26927E-02
         0.26927E-02
         0.26927E-02
         0.26927E-02
         0.26927E-02
         0.26927E-02
         0.26927E-02
         0.26927E-02
         0.26927E-02
         0.26927E-02
         0.26927E-02
         0.26927E-02
         0.26927E-02
         0.26927E-02
         0.26927E-02
         0.26927E-02
         0.26927E-02
         0.26927E-02
         0.26927E-02
         0.26927E-02
         0.26927E-02
         0.26927E-02
         0.26927E-02
         0.26927E-02
         0.26927E-02
         0.26927E-02
         0.26927E-02
         0.26927E-02
         0.26927E-02
         0.26927E-02
         0.26927E-02
         0.26927E-02
         0.26927E-02
         0.26927E-02
         0.26927E-02
         0.26927E-02
         0.26927E-02
         0.26927E-02
         0.26927E-02
         0.26927E-02
         0.26927E-02
         0.26927E-02
         0.26927E-02
         0.26927E-02
         0.26927E-02
         0.26927E-02
         0.26927E-02
         0.26927E-02
         0.26927E-02
         0.26927E-02
         0.26927E-02
         0.26927E-02
         0.26927E-02
         0.26927E-02
         0.26927E-02
         0.26927E-02
         0.26927E-02
         0.26927E-02
         0.26927E-02
         0.26927E-02
         0.26927E-02
         0.26927E-02
         0.26927E-02
         0.26927E-02
         0.26927E-02
         0.26927E-02
         0.26927E-02
         0.26927E-02
         0.26927E-02
         0.26927E-02
         0.26927E-02
         0.26927E-02
         0.26927E-02
         0.26927E-02
         0.26927E-02
         0.26927E-02
         0.26927E-02
         0.26927E-02
         0.26927E-02
         0.26927E-02
         0.26927E-02
         0.26927E-02
         0.26927E-02
         0.26927E-02
         0.26927E-02
         0.26927E-02
         0.26927E-02
         0.26927E-02
         0.26927E-02
         0.26927E-02
         0.26927E-02
         0.26927E-02
         0.26927E-02
         0.26927E-02
         0.26927E-02
         0.26927E-02
         0.26927E-02
         0.26927E-02
         0.26927E-02
         0.26927E-02
         0.26927E-02
         0.26927E-02
         0.26927E-02
         0.26927E-02
         0.26927E-02
         0.26927E-02
         0.26927E-02
         0.26927E-02
         0.26927E-02
         0.26927E-02
         0.26927E-02
         0.26927E-02
         0.26927E-02
         0.26927E-02
         0.26927E-02
         0.26927E-02
         0.26927E-02
         0.26927E-02
         0.26927E-02
         0.26927E-02
         0.26927E-02
         0.26927E-02
         0.26927E-02
         0.26927E-02
         0.26927E-02
         0.26927E-02
         0.26927E-02
         0.26927E-02
         0.26927E-02
         0.26927E-02
         0.26927E-02
         0.26927E-02
         0.26927E-02
         0.26927E-02
         0.26927E-02
         0.26927E-02
         0.26927E-02
         0.26927E-02
         0.26927E-02
         0.26927E-02
         0.26927E-02
         0.26927E-02
         0.26927E-02
         0.26927E-02
         0.26927E-02
         0.26927E-02
         0.26927E-02
         0.26927E-02
         0.26927E-02
         0.26927E-02
         0.26927E-02
         0.26927E-02
         0.26927E-02
         0.26927E-02
         0.26927E-02
         0.26927E-02
         0.26927E-02
         0.26927E-02
         0.26927E-02
         0.26927E-02
         0.26927E-02
         0.26927E-02
         0.26927E-02
         0.26927E-02
         0.26927E-02
         0.26927E-02
         0.26927E-02
         0.26927E-02
         0.26927E-02
         0.26927E-02
         0.26927E-02
         0.26927E-02
         0.26927E-02
         0.26927E-02
         0.26927E-02
         0.26927E-02
         0.26927E-02
         0.26927E-02
         0.26927E-02
         0.26927E-02
         0.26927E-02
         0.26927E-02
         0.26927E-02
         0.26927E-02
         0.26927E-02
         0.26927E-02
         0.26927E-02
         0.26927E-02
         0.26927E-02
         0.26927E-02
         0.26927E-02
         0.26927E-02
         0.26927E-02
         0.26927E-02
         0.26927E-02
         0.26927E-02
         0.26927E-02
         0.26927E-02
         0.26927E-02
         0.26927E-02
         0.26927E-02
         0.26927E-02
         0.26927E-02
         0.26927E-02
         0.26927E-02
         0.26927E-02
         0.26927E-02
         0.26927E-02
         0.26927E-02
         0.26927E-02
         0.26927E-02
         0.26927E-02
         0.26927E-02
         0.26927E-02
         0.26927E-02
         0.26927E-02
         0.26927E-02
         0.26927E-02
         0.26927E-02
         0.26927E-02
         0.26927E-02
         0.26927E-02
         0.26927E-02
         0.26927E-02
         0.26927E-02
         0.26927E-02
         0.26927E-02
         0.26927E-02
         0.26927E-02
         0.26927E-02
         0.26927E-02
         0.26927E-02
         0.26927E-02
         0.26927E-02
         0.26927E-02
         0.26927E-02
         0.26927E-02
         0.26927E-02
         0.26927E-02
         0.26927E-02
         0.26927E-02
         0.26927E-02
         0.26927E-02
         0.26927E-02
         0.26927E-02
         0.26927E-02
         0.26927E-02
         0.26927E-02
         0.26927E-02
         0.26927E-02
         0.26927E-02
         0.26927E-02
         0.26927E-02
         0.26927E-02
         0.26927E-02
         0.26927E-02
         0.26927E-02
         0.26927E-02
         0.26927E-02
         0.26927E-02
         0.26927E-02
         0.26927E-02
         0.26927E-02
         0.26927E-02
         0.26927E-02
         0.26927E-02
         0.26927E-02
         0.26927E-02
         0.26927E-02
         0.26927E-02
         0.26927E-02
         0.26927E-02
         0.26927E-02
         0.26927E-02
         0.26927E-02
         0.26927E-02
         0.26927E-02
         0.26927E-02
         0.26927E-02
         0.26927E-02
         0.26927E-02
         0.26927E-02
         0.26927E-02
         0.26927E-02
         0.26927E-02
         0.26927E-02
         0.26927E-02
         0.26927E-02
         0.26927E-02
         0.26927E-02
         0.26927E-02
         0.26927E-02
         0.26927E-02
         0.26927E-02
         0.26927E-02
         0.26927E-02
         0.26927E-02
         0.26927E-02
         0.26927E-02
         0.26927E-02
         0.26927E-02
         0.26927E-02
         0.26927E-02
         0.26927E-02
         0.26927E-02
         0.26927E-02
         0.26927E-02
         0.26927E-02
         0.26927E-02
         0.26927E-02
         0.26927E-02
         0.26927E-02
         0.26927E-02
         0.26927E-02
         0.26927E-02
         0.26927E-02
         0.26927E-02
         0.26927E-02
         0.26927E-02
         0.26927E-02
         0.26927E-02
         0.26927E-02
         0.26927E-02
         0.26927E-02
         0.26927E-02
         0.26927E-02
         0.26927E-02
         0.26927E-02
         0.26927E-02
         0.26927E-02
         0.26927E-02
         0.26927E-02
         0.26927E-02
         0.26927E-02
         0.26927E-02
         0.26927E-02
         0.26927E-02
         0.26927E-02
         0.26927E-02
         0.26927E-02
         0.26927E-02
         0.26927E-02
         0.26927E-02
         0.26927E-02
         0.26927E-02
         0.26927E-02
         0.26927E-02
         0.26927E-02
         0.26927E-02
         0.26927E-02
         0.26927E-02
         0.26927E-02
         0.26927E-02
         0.26927E-02
         0.26927E-02
         0.26927E-02
         0.26927E-02
         0.26927E-02
         0.26927E-02
         0.26927E-02
         0.26927E-02
         0.26927E-02
         0.26927E-02
         0.26927E-02
         0.26927E-02
         0.26927E-02
         0.26927E-02
         0.26927E-02
         0.26927E-02
         0.26927E-02
         0.26927E-02
         0.26927E-02
         0.26927E-02
         0.26927E-02
         0.26927E-02
         0.26927E-02
         0.26927E-02
         0.26927E-02
         0.26927E-02
         0.26927E-02
         0.26927E-02
         0.26927E-02
         0.26927E-02
         0.26927E-02
         0.26927E-02
         0.26927E-02
         0.26927E-02
         0.26927E-02
         0.26927E-02
         0.26927E-02
         0.26927E-02
         0.26927E-02
         0.26927E-02
         0.26927E-02
         0.26927E-02
         0.26927E-02
         0.26927E-02
         0.26927E-02
         0.26927E-02
         0.26927E-02
         0.26927E-02
         0.26927E-02
         0.26927E-02
         0.26927E-02
         0.26927E-02
         0.26927E-02
         0.26927E-02
         0.26927E-02
         0.26927E-02
         0.26927E-02
         0.26927E-02
         0.26927E-02
         0.26927E-02
         0.26927E-02
         0.26927E-02
         0.26927E-02
         0.26927E-02
         0.26927E-02
         0.26927E-02
         0.26927E-02
         0.26927E-02
         0.26927E-02
         0.26927E-02
         0.26927E-02
         0.26927E-02
         0.26927E-02
         0.26927E-02
         0.26927E-02
         0.26927E-02
         0.26927E-02
         0.26927E-02
         0.26927E-02
         0.26927E-02
         0.26927E-02
         0.26927E-02
         0.26927E-02
         0.26927E-02
         0.26927E-02
         0.26927E-02
         0.26927E-02
         0.26927E-02
         0.26927E-02
         0.26927E-02
         0.26927E-02
         0.26927E-02
         0.26927E-02
         0.26927E-02
         0.26927E-02
         0.26927E-02
         0.26927E-02
         0.26927E-02
         0.26927E-02
         0.26927E-02
         0.26927E-02
         0.26927E-02
         0.26927E-02
         0.26927E-02
         0.26927E-02
         0.26927E-02
         0.26927E-02
         0.26927E-02
         0.26927E-02
         0.26927E-02
         0.26927E-02
         0.26927E-02
         0.26927E-02
         0.26927E-02
         0.26927E-02
         0.26927E-02
         0.26927E-02
         0.26927E-02
         0.26927E-02
         0.26927E-02
         0.26927E-02
         0.26927E-02
         0.26927E-02
         0.26927E-02
         0.26927E-02
         0.26927E-02
         0.26927E-02
         0.26927E-02
         0.26927E-02
         0.26927E-02
         0.26927E-02
         0.26927E-02
         0.26927E-02
         0.26927E-02
         0.26927E-02
         0.26927E-02
         0.26927E-02
         0.26927E-02
         0.26927E-02
         0.26927E-02
         0.26927E-02
         0.26927E-02
         0.26927E-02
         0.26927E-02
         0.26927E-02
         0.26927E-02
         0.26927E-02
         0.26927E-02
         0.26927E-02
         0.26927E-02
         0.26927E-02
         0.26927E-02
         0.26927E-02
         0.26927E-02
         0.26927E-02
         0.26927E-02
         0.26927E-02
         0.26927E-02
         0.26927E-02
         0.26927E-02
         0.26927E-02
         0.26927E-02
         0.26927E-02
         0.26927E-02
         0.26927E-02
         0.26927E-02
         0.26927E-02
         0.26927E-02
         0.26927E-02
         0.26927E-02
         0.26927E-02
         0.26927E-02
         0.26927E-02
         0.26927E-02
         0.26927E-02
         0.26927E-02
         0.26927E-02
         0.26927E-02
         0.26927E-02
         0.26927E-02
         0.26927E-02
         0.26927E-02
         0.26927E-02
         0.26927E-02
         0.26927E-02
         0.26927E-02
         0.26927E-02
         0.26927E-02
         0.26927E-02
         0.26927E-02
         0.26927E-02
         0.26927E-02
         0.26927E-02
         0.26927E-02
         0.26927E-02
         0.26927E-02
         0.26927E-02
         0.26927E-02
         0.26927E-02
         0.26927E-02
         0.26927E-02
         0.26927E-02
         0.26927E-02
         0.26927E-02
         0.26927E-02
         0.26927E-02
         0.26927E-02
         0.26927E-02
         0.26927E-02
         0.26927E-02
         0.26927E-02
         0.26927E-02
         0.26927E-02
         0.26927E-02
         0.26927E-02
         0.26927E-02
         0.26927E-02
         0.26927E-02
         0.26927E-02
         0.26927E-02
         0.26927E-02
         0.26927E-02
         0.26927E-02
         0.26927E-02
         0.26927E-02
         0.26927E-02
         0.26927E-02
         0.26927E-02
         0.26927E-02
         0.26927E-02
         0.26927E-02
         0.26927E-02
         0.26927E-02
         0.26927E-02
         0.26927E-02
         0.26927E-02
         0.26927E-02
         0.26927E-02
         0.26927E-02
         0.26927E-02
         0.26927E-02
         0.26927E-02
         0.26927E-02
         0.26927E-02
         0.26927E-02
         0.26927E-02
         0.26927E-02
         0.26927E-02
         0.26927E-02
         0.26927E-02
         0.26927E-02
         0.26927E-02
         0.26927E-02
         0.26927E-02
         0.26927E-02
         0.26927E-02
         0.26927E-02
         0.26927E-02
         0.26927E-02
         0.26927E-02
         0.26927E-02
         0.26927E-02
         0.26927E-02
         0.26927E-02
         0.26927E-02
         0.26927E-02
         0.26927E-02
         0.26927E-02
         0.26927E-02
         0.26927E-02
         0.26927E-02
         0.26927E-02
         0.26927E-02
         0.26927E-02
         0.26927E-02
         0.26927E-02
         0.26927E-02
         0.26927E-02
         0.26927E-02
         0.26927E-02
         0.26927E-02
         0.26927E-02
         0.26927E-02
         0.26927E-02
         0.26927E-02
         0.26927E-02
         0.26927E-02
         0.26927E-02
         0.26927E-02
         0.26927E-02
         0.26927E-02
         0.26927E-02
         0.26927E-02
         0.26927E-02
         0.26927E-02
         0.26927E-02
         0.26927E-02
         0.26927E-02
         0.26927E-02
         0.26927E-02
         0.26927E-02
         0.26927E-02
         0.26927E-02
         0.26927E-02
         0.26927E-02
         0.26927E-02
         0.26927E-02
         0.26927E-02
         0.26927E-02
         0.26927E-02
         0.26927E-02
         0.26927E-02
         0.26927E-02
         0.26927E-02
         0.26927E-02
         0.26927E-02
         0.26927E-02
         0.26927E-02
         0.26927E-02
         0.26927E-02
         0.26927E-02
         0.26927E-02
         0.26927E-02
         0.26927E-02
         0.26927E-02
         0.26927E-02
         0.26927E-02
         0.26927E-02
         0.26927E-02
         0.26927E-02
         0.26927E-02
         0.26927E-02
         0.26927E-02
         0.26927E-02
         0.26927E-02
         0.26927E-02
         0.26927E-02
         0.26927E-02
         0.26927E-02
         0.26927E-02
         0.26927E-02
         0.26927E-02
         0.26927E-02
         0.26927E-02
         0.26927E-02
         0.26927E-02
         0.26927E-02
         0.26927E-02
         0.26927E-02
         0.26927E-02
         0.26927E-02
         0.26927E-02
         0.26927E-02
         0.26927E-02
         0.26927E-02
         0.26927E-02
         0.26927E-02
         0.26927E-02
         0.26927E-02
         0.26927E-02
         0.26927E-02
         0.26927E-02
         0.26927E-02
         0.26927E-02
         0.26927E-02
         0.26927E-02
         0.26927E-02
         0.26927E-02
         0.26927E-02
         0.26927E-02
         0.26927E-02
         0.26927E-02
         0.26927E-02
         0.26927E-02
         0.26927E-02
         0.26927E-02
         0.26927E-02
         0.26927E-02
         0.26927E-02
         0.26927E-02
         0.26927E-02
         0.26927E-02
         0.26927E-02
         0.26927E-02
         0.26927E-02
         0.26927E-02
         0.26927E-02
         0.26927E-02
         0.26927E-02
         0.26927E-02
         0.26927E-02
         0.26927E-02
         0.26927E-02
         0.26927E-02
         0.26927E-02
         0.26927E-02
         0.26927E-02
         0.26927E-02
         0.26927E-02
         0.26927E-02
         0.26927E-02
         0.26927E-02
         0.26927E-02
         0.26927E-02
         0.26927E-02
         0.26927E-02
         0.26927E-02
         0.26927E-02
         0.26927E-02
         0.26927E-02
         0.26927E-02
         0.26927E-02
         0.26927E-02
         0.26927E-02
         0.26927E-02
         0.26927E-02
         0.26927E-02
         0.26927E-02
         0.26927E-02
         0.26927E-02
         0.26927E-02
         0.26927E-02
         0.26927E-02
         0.26927E-02
         0.26927E-02
         0.26927E-02
         0.26927E-02
         0.26927E-02
         0.26927E-02
         0.26927E-02
         0.26927E-02
         0.26927E-02
         0.26927E-02
         0.26927E-02
         0.26927E-02
         0.26927E-02
         0.26927E-02
         0.26927E-02
         0.26927E-02
         0.26927E-02
         0.26927E-02
         0.26927E-02
         0.26927E-02
         0.26927E-02
         0.26927E-02
         0.26927E-02
         0.26927E-02
         0.26927E-02
         0.26927E-02
         0.26927E-02
         0.26927E-02
         0.26927E-02
         0.26927E-02
         0.26927E-02
         0.26927E-02
         0.26927E-02
         0.26927E-02
         0.26927E-02
         0.26927E-02
         0.26927E-02
         0.26927E-02
         0.26927E-02
         0.26927E-02
         0.26927E-02
         0.26927E-02
         0.26927E-02
         0.26927E-02
         0.26927E-02
         0.26927E-02
         0.26927E-02
         0.26927E-02
         0.26927E-02
         0.26927E-02
         0.26927E-02
         0.26927E-02
         0.26927E-02
         0.26927E-02
         0.26927E-02
         0.26927E-02
         0.26927E-02
         0.26927E-02
         0.26927E-02
         0.26927E-02
         0.26927E-02
         0.26927E-02
         0.26927E-02
         0.26927E-02
         0.26927E-02
         0.26927E-02
         0.26927E-02
         0.26927E-02
         0.26927E-02
         0.26927E-02
         0.26927E-02
         0.26927E-02
         0.26927E-02
         0.26927E-02
         0.26927E-02
         0.26927E-02
         0.26927E-02
         0.26927E-02
         0.26927E-02
         0.26927E-02
         0.26927E-02
         0.26927E-02
         0.26927E-02
         0.26927E-02
         0.26927E-02
         0.26927E-02
         0.26927E-02
         0.26927E-02
         0.26927E-02
         0.26927E-02
         0.26927E-02
         0.26927E-02
         0.26927E-02
         0.26927E-02
         0.26927E-02
         0.26927E-02
         0.26927E-02
         0.26927E-02
         0.26927E-02
         0.26927E-02
         0.26927E-02
         0.26927E-02
         0.26927E-02
         0.26927E-02
         0.26927E-02
         0.26927E-02
         0.26927E-02
         0.26927E-02
         0.26927E-02
         0.26927E-02
         0.26927E-02
         0.26927E-02
         0.26927E-02
         0.26927E-02
         0.26927E-02
         0.26927E-02
         0.26927E-02
         0.26927E-02
         0.26927E-02
         0.26927E-02
         0.26927E-02
         0.26927E-02
         0.26927E-02
         0.26927E-02
         0.26927E-02
         0.26927E-02
         0.26927E-02
         0.26927E-02
         0.26927E-02
         0.26927E-02
         0.26927E-02
         0.26927E-02
         0.26927E-02
         0.26927E-02
         0.26927E-02
         0.26927E-02
         0.26927E-02
         0.26927E-02
         0.26927E-02
         0.26927E-02
         0.26927E-02
         0.26927E-02
         0.26927E-02
         0.26927E-02
         0.26927E-02
         0.26927E-02
         0.26927E-02
         0.26927E-02
         0.26927E-02
         0.26927E-02
         0.26927E-02
         0.26927E-02
         0.26927E-02
         0.26927E-02
         0.26927E-02
         0.26927E-02
         0.26927E-02
         0.26927E-02
         0.26927E-02
         0.26927E-02
         0.26927E-02
         0.26927E-02
         0.26927E-02
         0.26927E-02
         0.26927E-02
         0.26927E-02
         0.26927E-02
         0.26927E-02
         0.26927E-02
         0.26927E-02
         0.26927E-02
         0.26927E-02
         0.26927E-02
         0.26927E-02
         0.26927E-02
         0.26927E-02
         0.26927E-02
         0.26927E-02
         0.26927E-02
         0.26927E-02
         0.26927E-02
         0.26927E-02
         0.26927E-02
         0.26927E-02
         0.26927E-02
         0.26927E-02
         0.26927E-02
         0.26927E-02
         0.26927E-02
         0.26927E-02
         0.26927E-02
         0.26927E-02
         0.26927E-02
         0.26927E-02
         0.26927E-02
         0.26927E-02
         0.26927E-02
         0.26927E-02
         0.26927E-02
         0.26927E-02
         0.26927E-02
         0.26927E-02
         0.26927E-02
         0.26927E-02
         0.26927E-02
         0.26927E-02
         0.26927E-02
         0.26927E-02
         0.26927E-02
         0.26927E-02
         0.26927E-02
         0.26927E-02
         0.26927E-02
         0.26927E-02
         0.26927E-02
         0.26927E-02
         0.26927E-02
         0.26927E-02
         0.26927E-02
         0.26927E-02
         0.26927E-02
         0.26927E-02
         0.26927E-02
         0.26927E-02
         0.26927E-02
         0.26927E-02
         0.26927E-02
         0.26927E-02
         0.26927E-02
         0.26927E-02
         0.26927E-02
         0.26927E-02
         0.26927E-02
         0.26927E-02
         0.26927E-02
         0.26927E-02
         0.26927E-02
         0.26927E-02
         0.26927E-02
         0.26927E-02
         0.26927E-02
         0.26927E-02
         0.26927E-02
         0.26927E-02
         0.26927E-02
         0.26927E-02
         0.26927E-02
         0.26927E-02
         0.26927E-02
         0.26927E-02
         0.26927E-02
         0.26927E-02
         0.26927E-02
         0.26927E-02
         0.26927E-02
         0.26927E-02
         0.26927E-02
         0.26927E-02
         0.26927E-02
         0.26927E-02
         0.26927E-02
         0.26927E-02
         0.26927E-02
         0.26927E-02
         0.26927E-02
         0.26927E-02
         0.26927E-02
         0.26927E-02
         0.26927E-02
         0.26927E-02
         0.26927E-02
         0.26927E-02
         0.26927E-02
         0.26927E-02
         0.26927E-02
         0.26927E-02
         0.26927E-02
         0.26927E-02
         0.26927E-02
         0.26927E-02
         0.26927E-02
         0.26927E-02
         0.26927E-02
         0.26927E-02
         0.26927E-02
         0.26927E-02
         0.26927E-02
         0.26927E-02
         0.26927E-02
         0.26927E-02
         0.26927E-02
         0.26927E-02
         0.26927E-02
         0.26927E-02
         0.26927E-02
         0.26927E-02
         0.26927E-02
         0.26927E-02
         0.26927E-02
         0.26927E-02
         0.26927E-02
         0.26927E-02
         0.26927E-02
         0.26927E-02
         0.26927E-02
         0.26927E-02
         0.26927E-02
         0.26927E-02
         0.26927E-02
         0.26927E-02
         0.26927E-02
         0.26927E-02
         0.26927E-02
         0.26927E-02
         0.26927E-02
         0.26927E-02
         0.26927E-02
         0.26927E-02
         0.26927E-02
         0.26927E-02
         0.26927E-02
         0.26927E-02
         0.26927E-02
         0.26927E-02
         0.26927E-02
         0.26927E-02
         0.26927E-02
         0.26927E-02
         0.26927E-02
         0.26927E-02
         0.26927E-02
         0.26927E-02
         0.26927E-02
         0.26927E-02
         0.26927E-02
         0.26927E-02
         0.26927E-02
         0.26927E-02
         0.26927E-02
         0.26927E-02
         0.26927E-02
         0.26927E-02
         0.26927E-02
         0.26927E-02
         0.26927E-02
         0.26927E-02
         0.26927E-02
         0.26927E-02
         0.26927E-02
         0.26927E-02
         0.26927E-02
         0.26927E-02
         0.26927E-02
         0.26927E-02
         0.26927E-02
         0.26927E-02
         0.26927E-02
         0.26927E-02
         0.26927E-02
         0.26927E-02
         0.26927E-02
         0.26927E-02
         0.26927E-02
         0.26927E-02
         0.26927E-02
         0.26927E-02
         0.26927E-02
         0.26927E-02
         0.26927E-02
         0.26927E-02
         0.26927E-02
         0.26927E-02
         0.26927E-02
         0.26927E-02
         0.26927E-02
         0.26927E-02
         0.26927E-02
         0.26927E-02
         0.26927E-02
         0.26927E-02
         0.26927E-02
         0.26927E-02
         0.26927E-02
         0.26927E-02
         0.26927E-02
         0.26927E-02
         0.26927E-02
         0.26927E-02
         0.26927E-02
         0.26927E-02
         0.26927E-02
         0.26927E-02
         0.26927E-02
         0.26927E-02
         0.26927E-02
         0.26927E-02
         0.26927E-02
         0.26927E-02
         0.26927E-02
         0.26927E-02
         0.26927E-02
         0.26927E-02
         0.26927E-02
         0.26927E-02
         0.26927E-02
         0.26927E-02
         0.26927E-02
         0.26927E-02
         0.26927E-02
         0.26927E-02
         0.26927E-02
         0.26927E-02
         0.26927E-02
         0.26927E-02
         0.26927E-02
         0.26927E-02
         0.26927E-02
         0.26927E-02
         0.26927E-02
         0.26927E-02
         0.26927E-02
         0.26927E-02
         0.26927E-02
         0.26927E-02
         0.26927E-02
         0.26927E-02
         0.26927E-02
         0.26927E-02
         0.26927E-02
         0.26927E-02
         0.26927E-02
         0.26927E-02
         0.26927E-02
         0.26927E-02
         0.26927E-02
         0.26927E-02
         0.26927E-02
         0.26927E-02
         0.26927E-02
         0.26927E-02
         0.26927E-02
         0.26927E-02
         0.26927E-02
         0.26927E-02
         0.26927E-02
         0.26927E-02
         0.26927E-02
         0.26927E-02
         0.26927E-02
         0.26927E-02
         0.26927E-02
         0.26927E-02
         0.26927E-02
         0.26927E-02
         0.26927E-02
         0.26927E-02
         0.26927E-02
         0.26927E-02
         0.26927E-02
         0.26927E-02
         0.26927E-02
         0.26927E-02
         0.26927E-02
         0.26927E-02
         0.26927E-02
         0.26927E-02
         0.26927E-02
         0.26927E-02
         0.26927E-02
         0.26927E-02
         0.26927E-02
         0.26927E-02
         0.26927E-02
         0.26927E-02
         0.26927E-02
         0.26927E-02
         0.26927E-02
         0.26927E-02
         0.26927E-02
         0.26927E-02
         0.26927E-02
         0.26927E-02
         0.26927E-02
         0.26927E-02
         0.26927E-02
         0.26927E-02
         0.26927E-02
         0.26927E-02
         0.26927E-02
         0.26927E-02
         0.26927E-02
         0.26927E-02
         0.26927E-02
         0.26927E-02
         0.26927E-02
         0.26927E-02
         0.26927E-02
         0.26927E-02
         0.26927E-02
         0.26927E-02
         0.26927E-02
         0.26927E-02
         0.26927E-02
         0.26927E-02
         0.26927E-02
         0.26927E-02
         0.26927E-02
         0.26927E-02
         0.26927E-02
         0.26927E-02
         0.26927E-02
         0.26927E-02
         0.26927E-02
         0.26927E-02
         0.26927E-02
         0.26927E-02
         0.26927E-02
         0.26927E-02
         0.26927E-02
         0.26927E-02
         0.26927E-02
         0.26927E-02
         0.26927E-02
         0.26927E-02
         0.26927E-02
         0.26927E-02
         0.26927E-02
         0.26927E-02
         0.26927E-02
         0.26927E-02
         0.26927E-02
         0.26927E-02
         0.26927E-02
         0.26927E-02
         0.26927E-02
         0.26927E-02
         0.26927E-02
         0.26927E-02
         0.26927E-02
         0.26927E-02
         0.26927E-02
         0.26927E-02
         0.26927E-02
         0.26927E-02
         0.26927E-02
         0.26927E-02
         0.26927E-02
         0.26927E-02
         0.26927E-02
         0.26927E-02
         0.26927E-02
         0.26927E-02
         0.26927E-02
         0.26927E-02
         0.26927E-02
         0.26927E-02
         0.26927E-02
         0.26927E-02
         0.26927E-02
         0.26927E-02
         0.26927E-02
         0.26927E-02
         0.26927E-02
         0.26927E-02
         0.26927E-02
         0.26927E-02
         0.26927E-02
         0.26927E-02
         0.26927E-02
         0.26927E-02
         0.26927E-02
         0.26927E-02
         0.26927E-02
         0.26927E-02
         0.26927E-02
         0.26927E-02
         0.26927E-02
         0.26927E-02
         0.26927E-02
         0.26927E-02
         0.26927E-02
         0.26927E-02
         0.26927E-02
         0.26927E-02
         0.26927E-02
         0.26927E-02
         0.26927E-02
         0.26927E-02
         0.26927E-02
         0.26927E-02
         0.26927E-02
         0.26927E-02
         0.26927E-02
         0.26927E-02
         0.26927E-02
         0.26927E-02
         0.26927E-02
         0.26927E-02
         0.26927E-02
         0.26927E-02
         0.26927E-02
         0.26927E-02
         0.26927E-02
         0.26927E-02
         0.26927E-02
         0.26927E-02
         0.26927E-02
         0.26927E-02
         0.26927E-02
         0.26927E-02
         0.26927E-02
         0.26927E-02
         0.26927E-02
         0.26927E-02
         0.26927E-02
         0.26927E-02
         0.26927E-02
         0.26927E-02
         0.26927E-02
         0.26927E-02
         0.26927E-02
         0.26927E-02
         0.26927E-02
         0.26927E-02
         0.26927E-02
         0.26927E-02
         0.26927E-02
         0.26927E-02
         0.26927E-02
         0.26927E-02
         0.26927E-02
         0.26927E-02
         0.26927E-02
         0.26927E-02
         0.26927E-02
         0.26927E-02
         0.26927E-02
         0.26927E-02
         0.26927E-02
         0.26927E-02
         0.26927E-02
         0.26927E-02
         0.26927E-02
         0.26927E-02
         0.26927E-02
         0.26927E-02
         0.26927E-02
         0.26927E-02
         0.26927E-02
         0.26927E-02
         0.26927E-02
         0.26927E-02
         0.26927E-02
         0.26927E-02
         0.26927E-02
         0.26927E-02
         0.26927E-02
         0.26927E-02
         0.26927E-02
         0.26927E-02
         0.26927E-02
         0.26927E-02
         0.26927E-02
         0.26927E-02
         0.26927E-02
         0.26927E-02
         0.26927E-02
         0.26927E-02
         0.26927E-02
         0.26927E-02
         0.26927E-02
         0.26927E-02
         0.26927E-02
         0.26927E-02
         0.26927E-02
         0.26927E-02
         0.26927E-02
         0.26927E-02
         0.26927E-02
         0.26927E-02
         0.26927E-02
         0.26927E-02
         0.26927E-02
         0.26927E-02
         0.26927E-02
         0.26927E-02
         0.26927E-02
         0.26927E-02
         0.26927E-02
         0.26927E-02
         0.26927E-02
         0.26927E-02
         0.26927E-02
         0.26927E-02
         0.26927E-02
         0.26927E-02
         0.26927E-02
         0.26927E-02
         0.26927E-02
         0.26927E-02
         0.26927E-02
         0.26927E-02
         0.26927E-02
         0.26927E-02
         0.26927E-02
         0.26927E-02
         0.26927E-02
         0.26927E-02
         0.26927E-02
         0.26927E-02
         0.26927E-02
         0.26927E-02
         0.26927E-02
         0.26927E-02
         0.26927E-02
         0.26927E-02
         0.26927E-02
         0.26927E-02
         0.26927E-02
         0.26927E-02
         0.26927E-02
         0.26927E-02
         0.26927E-02
         0.26927E-02
         0.26927E-02
         0.26927E-02
         0.26927E-02
         0.26927E-02
         0.26927E-02
         0.26927E-02
         0.26927E-02
         0.26927E-02
         0.26927E-02
         0.26927E-02
         0.26927E-02
         0.26927E-02
         0.26927E-02
         0.26927E-02
         0.26927E-02
         0.26927E-02
         0.26927E-02
         0.26927E-02
         0.26927E-02
         0.26927E-02
         0.26927E-02
         0.26927E-02
         0.26927E-02
         0.26927E-02
         0.26927E-02
         0.26927E-02
         0.26927E-02
         0.26927E-02
         0.26927E-02
         0.26927E-02
         0.26927E-02
         0.26927E-02
         0.26927E-02
         0.26927E-02
         0.26927E-02
         0.26927E-02
         0.26927E-02
         0.26927E-02
         0.26927E-02
         0.26927E-02
         0.26928E-02
         0.26928E-02
         0.26928E-02
         0.26928E-02
         0.26928E-02
         0.26928E-02
         0.26928E-02
         0.26928E-02
         0.26928E-02
         0.26928E-02
         0.26928E-02
         0.26928E-02
         0.26928E-02
         0.26928E-02
         0.26928E-02
         0.26928E-02
         0.26928E-02
         0.26928E-02
         0.26928E-02
         0.26928E-02
         0.26928E-02
         0.26928E-02
         0.26928E-02
         0.26928E-02
         0.26928E-02
         0.26928E-02
         0.26928E-02
         0.26928E-02
         0.26928E-02
         0.26928E-02
         0.26928E-02
         0.26928E-02
         0.26928E-02
         0.26928E-02
         0.26928E-02
         0.26928E-02
         0.26928E-02
         0.26928E-02
         0.26928E-02
         0.26928E-02
         0.26928E-02
         0.26928E-02
         0.26928E-02
         0.26928E-02
         0.26928E-02
         0.26928E-02
         0.26928E-02
         0.26928E-02
         0.26928E-02
         0.26928E-02
         0.26928E-02
         0.26928E-02
         0.26928E-02
         0.26928E-02
         0.26928E-02
         0.26928E-02
         0.26928E-02
         0.26928E-02
         0.26928E-02
         0.26928E-02
         0.26928E-02
         0.26928E-02
         0.26928E-02
         0.26928E-02
         0.26928E-02
         0.26928E-02
         0.26928E-02
         0.26928E-02
         0.26928E-02
         0.26928E-02
         0.26928E-02
         0.26928E-02
         0.26928E-02
         0.26928E-02
         0.26928E-02
         0.26928E-02
         0.26928E-02
         0.26928E-02
         0.26928E-02
         0.26928E-02
         0.26928E-02
         0.26928E-02
         0.26928E-02
         0.26928E-02
         0.26928E-02
         0.26928E-02
         0.26928E-02
         0.26928E-02
         0.26928E-02
         0.26928E-02
         0.26928E-02
         0.26928E-02
         0.26928E-02
         0.26928E-02
         0.26928E-02
         0.26928E-02
         0.26928E-02
         0.26928E-02
         0.26928E-02
         0.26928E-02
         0.26928E-02
         0.26928E-02
         0.26928E-02
         0.26928E-02
         0.26928E-02
         0.26928E-02
         0.26928E-02
         0.26928E-02
         0.26928E-02
         0.26928E-02
         0.26928E-02
         0.26928E-02
         0.26928E-02
         0.26928E-02
         0.26928E-02
         0.26928E-02
         0.26928E-02
         0.26928E-02
         0.26928E-02
         0.26928E-02
         0.26928E-02
         0.26928E-02
         0.26928E-02
         0.26928E-02
         0.26928E-02
         0.26928E-02
         0.26928E-02
         0.26928E-02
         0.26928E-02
         0.26928E-02
         0.26928E-02
         0.26928E-02
         0.26928E-02
         0.26928E-02
         0.26928E-02
         0.26928E-02
         0.26928E-02
         0.26928E-02
         0.26928E-02
         0.26928E-02
         0.26928E-02
         0.26928E-02
         0.26928E-02
         0.26928E-02
         0.26928E-02
         0.26928E-02
         0.26928E-02
         0.26928E-02
         0.26928E-02
         0.26928E-02
         0.26928E-02
         0.26928E-02
         0.26928E-02
         0.26928E-02
         0.26928E-02
         0.26928E-02
  
SCALARS                   nodal_volume  double 1
LOOKUP_TABLE default
         0.91140E-09
         0.72412E-09
         0.77574E-09
         0.13316E-08
         0.45570E-09
         0.36211E-09
         0.38787E-09
         0.66566E-09
         0.71537E-09
         0.91211E-09
         0.35767E-09
         0.45600E-09
         0.51195E-09
         0.61532E-09
         0.25605E-09
         0.30776E-09
         0.10101E-08
         0.74536E-09
         0.50500E-09
         0.37281E-09
         0.30273E-09
         0.57012E-09
         0.62699E-09
         0.15144E-09
         0.28509E-09
         0.31352E-09
         0.51329E-09
         0.64933E-09
         0.25683E-09
         0.32471E-09
         0.12026E-08
         0.93909E-09
         0.11935E-08
         0.60122E-09
         0.46945E-09
         0.59663E-09
         0.70296E-09
         0.80270E-09
         0.35149E-09
         0.40134E-09
         0.75859E-09
         0.84013E-09
         0.37932E-09
         0.42007E-09
         0.64542E-09
         0.40086E-09
         0.32274E-09
         0.20045E-09
         0.76288E-09
         0.38153E-09
         0.63346E-09
         0.31675E-09
         0.66583E-09
         0.33318E-09
         0.68008E-09
         0.34022E-09
         0.58930E-09
         0.71738E-09
         0.29472E-09
         0.35874E-09
         0.90938E-09
         0.64302E-09
         0.45469E-09
         0.32154E-09
         0.10152E-08
         0.50747E-09
         0.88120E-09
         0.44042E-09
         0.40077E-09
         0.61872E-09
         0.20039E-09
         0.30940E-09
         0.70206E-09
         0.35106E-09
         0.74172E-09
         0.37089E-09
         0.71539E-09
         0.35770E-09
         0.56226E-09
         0.28113E-09
         0.35349E-09
         0.58452E-09
         0.17675E-09
         0.29229E-09
         0.77354E-09
         0.38679E-09
         0.62469E-09
         0.31238E-09
         0.54957E-09
         0.27483E-09
         0.36009E-09
         0.61365E-09
         0.18007E-09
         0.30685E-09
         0.83268E-09
         0.41635E-09
         0.87287E-09
         0.43642E-09
         0.70438E-09
         0.35217E-09
         0.43365E-09
         0.74413E-09
         0.21683E-09
         0.37198E-09
         0.27660E-09
         0.35144E-09
         0.13833E-09
         0.17573E-09
         0.32921E-09
         0.16465E-09
         0.38764E-09
         0.19382E-09
         0.37797E-09
         0.18897E-09
         0.36707E-09
         0.18352E-09
         0.39112E-09
         0.19552E-09
         0.41268E-09
         0.20627E-09
         0.38876E-09
         0.19433E-09
         0.30402E-09
         0.15200E-09
         0.24796E-09
         0.12398E-09
         0.31999E-09
         0.16000E-09
         0.42608E-09
         0.21303E-09
         0.46805E-09
         0.23401E-09
         0.44933E-09
         0.22466E-09
         0.40550E-09
         0.20276E-09
         0.36826E-09
         0.18414E-09
         0.29911E-09
         0.14956E-09
         0.25178E-09
         0.12591E-09
         0.32888E-09
         0.16445E-09
         0.43529E-09
         0.21765E-09
         0.44963E-09
         0.22482E-09
         0.36384E-09
         0.18194E-09
         0.29543E-09
         0.14774E-09
         0.36126E-09
         0.18063E-09
         0.42771E-09
         0.21386E-09
         0.91143E-09
         0.72396E-09
         0.77579E-09
         0.13322E-08
         0.71547E-09
         0.91237E-09
         0.51167E-09
         0.61494E-09
         0.10105E-08
         0.74486E-09
         0.30244E-09
         0.57001E-09
         0.62694E-09
         0.51257E-09
         0.64918E-09
         0.12029E-08
         0.93950E-09
         0.11941E-08
         0.70298E-09
         0.80279E-09
         0.75855E-09
         0.84015E-09
         0.64535E-09
         0.40081E-09
         0.76254E-09
         0.63339E-09
         0.66483E-09
         0.67941E-09
         0.58904E-09
         0.71721E-09
         0.90946E-09
         0.64293E-09
         0.10157E-08
         0.88199E-09
         0.40076E-09
         0.61859E-09
         0.70195E-09
         0.74166E-09
         0.71543E-09
         0.56228E-09
         0.35349E-09
         0.58443E-09
         0.77349E-09
         0.62459E-09
         0.54943E-09
         0.35999E-09
         0.61359E-09
         0.83268E-09
         0.87299E-09
         0.70451E-09
         0.43366E-09
         0.74449E-09
         0.27651E-09
         0.35143E-09
         0.32904E-09
         0.38765E-09
         0.37805E-09
         0.36714E-09
         0.39129E-09
         0.41297E-09
         0.38899E-09
         0.30408E-09
         0.24798E-09
         0.31999E-09
         0.42613E-09
         0.46815E-09
         0.44938E-09
         0.40548E-09
         0.36823E-09
         0.29908E-09
         0.25174E-09
         0.32885E-09
         0.43527E-09
         0.44962E-09
         0.36376E-09
         0.29536E-09
         0.36130E-09
         0.42769E-09
         0.91151E-09
         0.72383E-09
         0.77587E-09
         0.13329E-08
         0.71560E-09
         0.91267E-09
         0.51142E-09
         0.61459E-09
         0.10109E-08
         0.74439E-09
         0.30216E-09
         0.56992E-09
         0.62691E-09
         0.51187E-09
         0.64906E-09
         0.12033E-08
         0.93995E-09
         0.11947E-08
         0.70302E-09
         0.80291E-09
         0.75853E-09
         0.84020E-09
         0.64530E-09
         0.40078E-09
         0.76223E-09
         0.63335E-09
         0.66385E-09
         0.67875E-09
         0.58880E-09
         0.71706E-09
         0.90957E-09
         0.64286E-09
         0.10162E-08
         0.88281E-09
         0.40076E-09
         0.61849E-09
         0.70188E-09
         0.74162E-09
         0.71550E-09
         0.56232E-09
         0.35350E-09
         0.58436E-09
         0.77347E-09
         0.62452E-09
         0.54931E-09
         0.35990E-09
         0.61355E-09
         0.83270E-09
         0.87315E-09
         0.70467E-09
         0.43368E-09
         0.74487E-09
         0.27643E-09
         0.35143E-09
         0.32889E-09
         0.38767E-09
         0.37814E-09
         0.36723E-09
         0.39147E-09
         0.41328E-09
         0.38923E-09
         0.30416E-09
         0.24800E-09
         0.32001E-09
         0.42620E-09
         0.46826E-09
         0.44944E-09
         0.40548E-09
         0.36821E-09
         0.29906E-09
         0.25171E-09
         0.32883E-09
         0.43527E-09
         0.44963E-09
         0.36369E-09
         0.29530E-09
         0.36135E-09
         0.42769E-09
         0.91156E-09
         0.72368E-09
         0.77594E-09
         0.13335E-08
         0.71571E-09
         0.91295E-09
         0.51115E-09
         0.61422E-09
         0.10112E-08
         0.74389E-09
         0.30187E-09
         0.56982E-09
         0.62686E-09
         0.51116E-09
         0.64892E-09
         0.12036E-08
         0.94038E-09
         0.11953E-08
         0.70304E-09
         0.80300E-09
         0.75850E-09
         0.84023E-09
         0.64523E-09
         0.40073E-09
         0.76190E-09
         0.63330E-09
         0.66285E-09
         0.67809E-09
         0.58855E-09
         0.71689E-09
         0.90966E-09
         0.64278E-09
         0.10168E-08
         0.88361E-09
         0.40076E-09
         0.61837E-09
         0.70178E-09
         0.74156E-09
         0.71554E-09
         0.56234E-09
         0.35350E-09
         0.58428E-09
         0.77343E-09
         0.62442E-09
         0.54918E-09
         0.35981E-09
         0.61349E-09
         0.83271E-09
         0.87328E-09
         0.70481E-09
         0.43369E-09
         0.74524E-09
         0.27634E-09
         0.35142E-09
         0.32873E-09
         0.38768E-09
         0.37823E-09
         0.36731E-09
         0.39163E-09
         0.41358E-09
         0.38945E-09
         0.30422E-09
         0.24802E-09
         0.32001E-09
         0.42625E-09
         0.46837E-09
         0.44949E-09
         0.40546E-09
         0.36819E-09
         0.29904E-09
         0.25167E-09
         0.32881E-09
         0.43526E-09
         0.44963E-09
         0.36362E-09
         0.29523E-09
         0.36139E-09
         0.42768E-09
         0.91161E-09
         0.72353E-09
         0.77600E-09
         0.13341E-08
         0.71583E-09
         0.91323E-09
         0.51088E-09
         0.61386E-09
         0.10116E-08
         0.74341E-09
         0.30158E-09
         0.56972E-09
         0.62682E-09
         0.51045E-09
         0.64879E-09
         0.12040E-08
         0.94081E-09
         0.11959E-08
         0.70307E-09
         0.80310E-09
         0.75847E-09
         0.84027E-09
         0.64517E-09
         0.40069E-09
         0.76158E-09
         0.63325E-09
         0.66186E-09
         0.67742E-09
         0.58831E-09
         0.71673E-09
         0.90975E-09
         0.64270E-09
         0.10173E-08
         0.88441E-09
         0.40075E-09
         0.61825E-09
         0.70169E-09
         0.74151E-09
         0.71559E-09
         0.56237E-09
         0.35350E-09
         0.58420E-09
         0.77339E-09
         0.62433E-09
         0.54905E-09
         0.35972E-09
         0.61344E-09
         0.83272E-09
         0.87341E-09
         0.70496E-09
         0.43370E-09
         0.74562E-09
         0.27626E-09
         0.35142E-09
         0.32857E-09
         0.38770E-09
         0.37832E-09
         0.36739E-09
         0.39181E-09
         0.41387E-09
         0.38968E-09
         0.30429E-09
         0.24804E-09
         0.32002E-09
         0.42631E-09
         0.46847E-09
         0.44954E-09
         0.40545E-09
         0.36816E-09
         0.29901E-09
         0.25163E-09
         0.32878E-09
         0.43525E-09
         0.44963E-09
         0.36354E-09
         0.29517E-09
         0.36144E-09
         0.42766E-09
         0.91167E-09
         0.72338E-09
         0.77607E-09
         0.13348E-08
         0.71594E-09
         0.91351E-09
         0.51062E-09
         0.61349E-09
         0.10119E-08
         0.74292E-09
         0.30129E-09
         0.56962E-09
         0.62678E-09
         0.50974E-09
         0.64865E-09
         0.12044E-08
         0.94125E-09
         0.11965E-08
         0.70310E-09
         0.80321E-09
         0.75844E-09
         0.84031E-09
         0.64511E-09
         0.40065E-09
         0.76125E-09
         0.63320E-09
         0.66087E-09
         0.67676E-09
         0.58806E-09
         0.71657E-09
         0.90984E-09
         0.64263E-09
         0.10179E-08
         0.88522E-09
         0.40075E-09
         0.61813E-09
         0.70160E-09
         0.74146E-09
         0.71564E-09
         0.56240E-09
         0.35350E-09
         0.58412E-09
         0.77336E-09
         0.62425E-09
         0.54892E-09
         0.35963E-09
         0.61339E-09
         0.83274E-09
         0.87355E-09
         0.70511E-09
         0.43371E-09
         0.74599E-09
         0.27618E-09
         0.35141E-09
         0.32841E-09
         0.38771E-09
         0.37841E-09
         0.36747E-09
         0.39198E-09
         0.41417E-09
         0.38992E-09
         0.30436E-09
         0.24806E-09
         0.32003E-09
         0.42637E-09
         0.46858E-09
         0.44960E-09
         0.40544E-09
         0.36814E-09
         0.29899E-09
         0.25159E-09
         0.32876E-09
         0.43525E-09
         0.44963E-09
         0.36347E-09
         0.29511E-09
         0.36148E-09
         0.42766E-09
         0.91171E-09
         0.72323E-09
         0.77613E-09
         0.13354E-08
         0.71606E-09
         0.91379E-09
         0.51035E-09
         0.61313E-09
         0.10123E-08
         0.74243E-09
         0.30101E-09
         0.56952E-09
         0.62674E-09
         0.50903E-09
         0.64851E-09
         0.12047E-08
         0.94167E-09
         0.11971E-08
         0.70312E-09
         0.80331E-09
         0.75840E-09
         0.84034E-09
         0.64504E-09
         0.40061E-09
         0.76092E-09
         0.63314E-09
         0.65988E-09
         0.67609E-09
         0.58781E-09
         0.71641E-09
         0.90993E-09
         0.64255E-09
         0.10184E-08
         0.88601E-09
         0.40075E-09
         0.61801E-09
         0.70151E-09
         0.74140E-09
         0.71569E-09
         0.56243E-09
         0.35350E-09
         0.58404E-09
         0.77332E-09
         0.62416E-09
         0.54879E-09
         0.35953E-09
         0.61334E-09
         0.83274E-09
         0.87368E-09
         0.70525E-09
         0.43372E-09
         0.74636E-09
         0.27609E-09
         0.35141E-09
         0.32825E-09
         0.38772E-09
         0.37849E-09
         0.36754E-09
         0.39215E-09
         0.41447E-09
         0.39014E-09
         0.30443E-09
         0.24808E-09
         0.32004E-09
         0.42642E-09
         0.46868E-09
         0.44965E-09
         0.40543E-09
         0.36812E-09
         0.29897E-09
         0.25155E-09
         0.32874E-09
         0.43524E-09
         0.44963E-09
         0.36340E-09
         0.29504E-09
         0.36153E-09
         0.42764E-09
         0.91176E-09
         0.72308E-09
         0.77620E-09
         0.13360E-08
         0.71617E-09
         0.91407E-09
         0.51008E-09
         0.61276E-09
         0.10126E-08
         0.74195E-09
         0.30072E-09
         0.56942E-09
         0.62670E-09
         0.50832E-09
         0.64838E-09
         0.12051E-08
         0.94210E-09
         0.11977E-08
         0.70314E-09
         0.80341E-09
         0.75837E-09
         0.84038E-09
         0.64498E-09
         0.40056E-09
         0.76060E-09
         0.63309E-09
         0.65888E-09
         0.67542E-09
         0.58756E-09
         0.71624E-09
         0.91002E-09
         0.64247E-09
         0.10189E-08
         0.88682E-09
         0.40074E-09
         0.61790E-09
         0.70142E-09
         0.74135E-09
         0.71574E-09
         0.56245E-09
         0.35351E-09
         0.58396E-09
         0.77328E-09
         0.62407E-09
         0.54866E-09
         0.35944E-09
         0.61329E-09
         0.83275E-09
         0.87382E-09
         0.70539E-09
         0.43373E-09
         0.74673E-09
         0.27601E-09
         0.35140E-09
         0.32809E-09
         0.38774E-09
         0.37858E-09
         0.36762E-09
         0.39232E-09
         0.41477E-09
         0.39037E-09
         0.30450E-09
         0.24810E-09
         0.32005E-09
         0.42648E-09
         0.46879E-09
         0.44970E-09
         0.40541E-09
         0.36809E-09
         0.29894E-09
         0.25151E-09
         0.32871E-09
         0.43523E-09
         0.44963E-09
         0.36333E-09
         0.29497E-09
         0.36157E-09
         0.42763E-09
         0.91182E-09
         0.72293E-09
         0.77627E-09
         0.13367E-08
         0.71629E-09
         0.91436E-09
         0.50982E-09
         0.61240E-09
         0.10130E-08
         0.74146E-09
         0.30043E-09
         0.56932E-09
         0.62666E-09
         0.50762E-09
         0.64825E-09
         0.12054E-08
         0.94253E-09
         0.11983E-08
         0.70317E-09
         0.80351E-09
         0.75834E-09
         0.84041E-09
         0.64491E-09
         0.40053E-09
         0.76028E-09
         0.63304E-09
         0.65790E-09
         0.67476E-09
         0.58731E-09
         0.71609E-09
         0.91012E-09
         0.64239E-09
         0.10195E-08
         0.88762E-09
         0.40074E-09
         0.61778E-09
         0.70133E-09
         0.74130E-09
         0.71579E-09
         0.56249E-09
         0.35351E-09
         0.58388E-09
         0.77324E-09
         0.62398E-09
         0.54853E-09
         0.35935E-09
         0.61324E-09
         0.83277E-09
         0.87396E-09
         0.70554E-09
         0.43375E-09
         0.74711E-09
         0.27592E-09
         0.35140E-09
         0.32793E-09
         0.38775E-09
         0.37867E-09
         0.36770E-09
         0.39249E-09
         0.41507E-09
         0.39061E-09
         0.30457E-09
         0.24812E-09
         0.32006E-09
         0.42654E-09
         0.46890E-09
         0.44975E-09
         0.40540E-09
         0.36807E-09
         0.29892E-09
         0.25148E-09
         0.32869E-09
         0.43522E-09
         0.44963E-09
         0.36325E-09
         0.29491E-09
         0.36162E-09
         0.42762E-09
         0.91187E-09
         0.72278E-09
         0.77633E-09
         0.13373E-08
         0.71640E-09
         0.91463E-09
         0.50955E-09
         0.61204E-09
         0.10134E-08
         0.74098E-09
         0.30015E-09
         0.56922E-09
         0.62662E-09
         0.50691E-09
         0.64811E-09
         0.12058E-08
         0.94296E-09
         0.11989E-08
         0.70320E-09
         0.80361E-09
         0.75831E-09
         0.84045E-09
         0.64485E-09
         0.40048E-09
         0.75995E-09
         0.63298E-09
         0.65690E-09
         0.67409E-09
         0.58706E-09
         0.71592E-09
         0.91020E-09
         0.64231E-09
         0.10200E-08
         0.88843E-09
         0.40074E-09
         0.61766E-09
         0.70124E-09
         0.74124E-09
         0.71584E-09
         0.56251E-09
         0.35351E-09
         0.58380E-09
         0.77320E-09
         0.62389E-09
         0.54840E-09
         0.35926E-09
         0.61318E-09
         0.83277E-09
         0.87409E-09
         0.70568E-09
         0.43376E-09
         0.74748E-09
         0.27584E-09
         0.35139E-09
         0.32777E-09
         0.38777E-09
         0.37876E-09
         0.36778E-09
         0.39266E-09
         0.41536E-09
         0.39084E-09
         0.30464E-09
         0.24814E-09
         0.32006E-09
         0.42659E-09
         0.46900E-09
         0.44980E-09
         0.40539E-09
         0.36805E-09
         0.29890E-09
         0.25144E-09
         0.32867E-09
         0.43521E-09
         0.44963E-09
         0.36318E-09
         0.29485E-09
         0.36166E-09
         0.42761E-09
         0.91192E-09
         0.72263E-09
         0.77640E-09
         0.13380E-08
         0.71652E-09
         0.91491E-09
         0.50928E-09
         0.61167E-09
         0.10137E-08
         0.74049E-09
         0.29986E-09
         0.56912E-09
         0.62657E-09
         0.50620E-09
         0.64797E-09
         0.12061E-08
         0.94339E-09
         0.11995E-08
         0.70322E-09
         0.80371E-09
         0.75827E-09
         0.84048E-09
         0.64478E-09
         0.40044E-09
         0.75962E-09
         0.63293E-09
         0.65591E-09
         0.67343E-09
         0.58681E-09
         0.71576E-09
         0.91029E-09
         0.64223E-09
         0.10205E-08
         0.88923E-09
         0.40073E-09
         0.61754E-09
         0.70114E-09
         0.74119E-09
         0.71588E-09
         0.56254E-09
         0.35351E-09
         0.58372E-09
         0.77316E-09
         0.62380E-09
         0.54827E-09
         0.35917E-09
         0.61313E-09
         0.83278E-09
         0.87422E-09
         0.70582E-09
         0.43377E-09
         0.74785E-09
         0.27575E-09
         0.35138E-09
         0.32761E-09
         0.38778E-09
         0.37885E-09
         0.36786E-09
         0.39283E-09
         0.41566E-09
         0.39107E-09
         0.30470E-09
         0.24816E-09
         0.32007E-09
         0.42665E-09
         0.46911E-09
         0.44985E-09
         0.40538E-09
         0.36802E-09
         0.29887E-09
         0.25140E-09
         0.32864E-09
         0.43520E-09
         0.44963E-09
         0.36310E-09
         0.29478E-09
         0.36170E-09
         0.42760E-09
         0.91198E-09
         0.72248E-09
         0.77646E-09
         0.13386E-08
         0.71663E-09
         0.91520E-09
         0.50901E-09
         0.61131E-09
         0.10141E-08
         0.74000E-09
         0.29957E-09
         0.56902E-09
         0.62653E-09
         0.50549E-09
         0.64784E-09
         0.12065E-08
         0.94382E-09
         0.12002E-08
         0.70325E-09
         0.80381E-09
         0.75824E-09
         0.84052E-09
         0.64472E-09
         0.40040E-09
         0.75929E-09
         0.63288E-09
         0.65492E-09
         0.67276E-09
         0.58657E-09
         0.71560E-09
         0.91038E-09
         0.64216E-09
         0.10211E-08
         0.89003E-09
         0.40073E-09
         0.61742E-09
         0.70105E-09
         0.74114E-09
         0.71593E-09
         0.56257E-09
         0.35351E-09
         0.58364E-09
         0.77313E-09
         0.62371E-09
         0.54814E-09
         0.35908E-09
         0.61308E-09
         0.83280E-09
         0.87436E-09
         0.70597E-09
         0.43378E-09
         0.74823E-09
         0.27567E-09
         0.35138E-09
         0.32745E-09
         0.38779E-09
         0.37893E-09
         0.36794E-09
         0.39300E-09
         0.41596E-09
         0.39130E-09
         0.30477E-09
         0.24818E-09
         0.32008E-09
         0.42671E-09
         0.46921E-09
         0.44991E-09
         0.40537E-09
         0.36800E-09
         0.29885E-09
         0.25136E-09
         0.32862E-09
         0.43520E-09
         0.44963E-09
         0.36303E-09
         0.29472E-09
         0.36175E-09
         0.42759E-09
         0.91203E-09
         0.72233E-09
         0.77653E-09
         0.13392E-08
         0.71675E-09
         0.91547E-09
         0.50875E-09
         0.61094E-09
         0.10144E-08
         0.73952E-09
         0.29928E-09
         0.56892E-09
         0.62649E-09
         0.50478E-09
         0.64770E-09
         0.12068E-08
         0.94424E-09
         0.12008E-08
         0.70327E-09
         0.80391E-09
         0.75821E-09
         0.84055E-09
         0.64465E-09
         0.40035E-09
         0.75896E-09
         0.63282E-09
         0.65393E-09
         0.67210E-09
         0.58632E-09
         0.71543E-09
         0.91047E-09
         0.64208E-09
         0.10216E-08
         0.89084E-09
         0.40073E-09
         0.61730E-09
         0.70096E-09
         0.74108E-09
         0.71598E-09
         0.56259E-09
         0.35351E-09
         0.58356E-09
         0.77309E-09
         0.62362E-09
         0.54801E-09
         0.35898E-09
         0.61303E-09
         0.83281E-09
         0.87449E-09
         0.70611E-09
         0.43379E-09
         0.74860E-09
         0.27558E-09
         0.35137E-09
         0.32729E-09
         0.38781E-09
         0.37902E-09
         0.36802E-09
         0.39317E-09
         0.41625E-09
         0.39153E-09
         0.30484E-09
         0.24820E-09
         0.32009E-09
         0.42677E-09
         0.46932E-09
         0.44996E-09
         0.40536E-09
         0.36798E-09
         0.29883E-09
         0.25132E-09
         0.32859E-09
         0.43519E-09
         0.44963E-09
         0.36296E-09
         0.29465E-09
         0.36179E-09
         0.42758E-09
         0.91208E-09
         0.72218E-09
         0.77659E-09
         0.13399E-08
         0.71686E-09
         0.91576E-09
         0.50848E-09
         0.61058E-09
         0.10148E-08
         0.73903E-09
         0.29900E-09
         0.56882E-09
         0.62645E-09
         0.50408E-09
         0.64757E-09
         0.12072E-08
         0.94467E-09
         0.12014E-08
         0.70330E-09
         0.80401E-09
         0.75818E-09
         0.84059E-09
         0.64459E-09
         0.40031E-09
         0.75864E-09
         0.63277E-09
         0.65294E-09
         0.67143E-09
         0.58607E-09
         0.71527E-09
         0.91057E-09
         0.64200E-09
         0.10221E-08
         0.89164E-09
         0.40072E-09
         0.61719E-09
         0.70087E-09
         0.74103E-09
         0.71603E-09
         0.56262E-09
         0.35352E-09
         0.58348E-09
         0.77305E-09
         0.62354E-09
         0.54788E-09
         0.35889E-09
         0.61298E-09
         0.83282E-09
         0.87463E-09
         0.70626E-09
         0.43380E-09
         0.74897E-09
         0.27550E-09
         0.35137E-09
         0.32713E-09
         0.38782E-09
         0.37911E-09
         0.36810E-09
         0.39334E-09
         0.41655E-09
         0.39176E-09
         0.30491E-09
         0.24822E-09
         0.32010E-09
         0.42682E-09
         0.46942E-09
         0.45001E-09
         0.40534E-09
         0.36796E-09
         0.29881E-09
         0.25128E-09
         0.32857E-09
         0.43518E-09
         0.44963E-09
         0.36288E-09
         0.29459E-09
         0.36184E-09
         0.42757E-09
         0.91214E-09
         0.72204E-09
         0.77666E-09
         0.13405E-08
         0.71698E-09
         0.91604E-09
         0.50822E-09
         0.61022E-09
         0.10151E-08
         0.73855E-09
         0.29871E-09
         0.56872E-09
         0.62641E-09
         0.50337E-09
         0.64743E-09
         0.12075E-08
         0.94510E-09
         0.12020E-08
         0.70333E-09
         0.80411E-09
         0.75815E-09
         0.84063E-09
         0.64453E-09
         0.40027E-09
         0.75831E-09
         0.63272E-09
         0.65196E-09
         0.67077E-09
         0.58582E-09
         0.71511E-09
         0.91066E-09
         0.64192E-09
         0.10227E-08
         0.89245E-09
         0.40072E-09
         0.61707E-09
         0.70078E-09
         0.74098E-09
         0.71608E-09
         0.56265E-09
         0.35352E-09
         0.58340E-09
         0.77301E-09
         0.62345E-09
         0.54775E-09
         0.35880E-09
         0.61293E-09
         0.83283E-09
         0.87476E-09
         0.70641E-09
         0.43382E-09
         0.74935E-09
         0.27541E-09
         0.35136E-09
         0.32697E-09
         0.38784E-09
         0.37920E-09
         0.36818E-09
         0.39352E-09
         0.41685E-09
         0.39199E-09
         0.30498E-09
         0.24824E-09
         0.32011E-09
         0.42688E-09
         0.46953E-09
         0.45007E-09
         0.40533E-09
         0.36793E-09
         0.29878E-09
         0.25124E-09
         0.32855E-09
         0.43517E-09
         0.44963E-09
         0.36281E-09
         0.29452E-09
         0.36188E-09
         0.42756E-09
         0.91219E-09
         0.72188E-09
         0.77672E-09
         0.13412E-08
         0.71709E-09
         0.91632E-09
         0.50795E-09
         0.60986E-09
         0.10155E-08
         0.73806E-09
         0.29842E-09
         0.56862E-09
         0.62636E-09
         0.50266E-09
         0.64730E-09
         0.12079E-08
         0.94552E-09
         0.12026E-08
         0.70335E-09
         0.80421E-09
         0.75811E-09
         0.84066E-09
         0.64446E-09
         0.40023E-09
         0.75798E-09
         0.63267E-09
         0.65096E-09
         0.67010E-09
         0.58557E-09
         0.71494E-09
         0.91074E-09
         0.64184E-09
         0.10232E-08
         0.89325E-09
         0.40072E-09
         0.61695E-09
         0.70069E-09
         0.74092E-09
         0.71612E-09
         0.56268E-09
         0.35352E-09
         0.58332E-09
         0.77297E-09
         0.62336E-09
         0.54762E-09
         0.35871E-09
         0.61287E-09
         0.83284E-09
         0.87489E-09
         0.70655E-09
         0.43383E-09
         0.74972E-09
         0.27533E-09
         0.35136E-09
         0.32681E-09
         0.38785E-09
         0.37929E-09
         0.36825E-09
         0.39369E-09
         0.41715E-09
         0.39222E-09
         0.30505E-09
         0.24826E-09
         0.32011E-09
         0.42694E-09
         0.46963E-09
         0.45011E-09
         0.40532E-09
         0.36791E-09
         0.29876E-09
         0.25120E-09
         0.32853E-09
         0.43516E-09
         0.44962E-09
         0.36274E-09
         0.29445E-09
         0.36192E-09
         0.42755E-09
         0.91224E-09
         0.72173E-09
         0.77679E-09
         0.13418E-08
         0.71720E-09
         0.91660E-09
         0.50768E-09
         0.60949E-09
         0.10158E-08
         0.73758E-09
         0.29814E-09
         0.56852E-09
         0.62632E-09
         0.50195E-09
         0.64716E-09
         0.12082E-08
         0.94595E-09
         0.12032E-08
         0.70337E-09
         0.80431E-09
         0.75808E-09
         0.84069E-09
         0.64440E-09
         0.40018E-09
         0.75766E-09
         0.63262E-09
         0.64998E-09
         0.66943E-09
         0.58532E-09
         0.71478E-09
         0.91083E-09
         0.64176E-09
         0.10238E-08
         0.89406E-09
         0.40071E-09
         0.61683E-09
         0.70059E-09
         0.74087E-09
         0.71617E-09
         0.56270E-09
         0.35352E-09
         0.58324E-09
         0.77294E-09
         0.62327E-09
         0.54749E-09
         0.35861E-09
         0.61282E-09
         0.83284E-09
         0.87503E-09
         0.70669E-09
         0.43384E-09
         0.75009E-09
         0.27524E-09
         0.35135E-09
         0.32665E-09
         0.38786E-09
         0.37937E-09
         0.36833E-09
         0.39386E-09
         0.41745E-09
         0.39245E-09
         0.30512E-09
         0.24828E-09
         0.32012E-09
         0.42699E-09
         0.46974E-09
         0.45017E-09
         0.40531E-09
         0.36788E-09
         0.29873E-09
         0.25117E-09
         0.32850E-09
         0.43515E-09
         0.44962E-09
         0.36266E-09
         0.29439E-09
         0.36197E-09
         0.42754E-09
         0.91230E-09
         0.72159E-09
         0.77686E-09
         0.13425E-08
         0.71732E-09
         0.91688E-09
         0.50742E-09
         0.60913E-09
         0.10162E-08
         0.73710E-09
         0.29785E-09
         0.56842E-09
         0.62628E-09
         0.50125E-09
         0.64703E-09
         0.12086E-08
         0.94638E-09
         0.12038E-08
         0.70340E-09
         0.80441E-09
         0.75805E-09
         0.84073E-09
         0.64433E-09
         0.40014E-09
         0.75733E-09
         0.63257E-09
         0.64899E-09
         0.66877E-09
         0.58508E-09
         0.71462E-09
         0.91093E-09
         0.64169E-09
         0.10243E-08
         0.89487E-09
         0.40071E-09
         0.61671E-09
         0.70051E-09
         0.74082E-09
         0.71622E-09
         0.56273E-09
         0.35352E-09
         0.58316E-09
         0.77290E-09
         0.62318E-09
         0.54737E-09
         0.35852E-09
         0.61277E-09
         0.83286E-09
         0.87517E-09
         0.70684E-09
         0.43385E-09
         0.75047E-09
         0.27516E-09
         0.35135E-09
         0.32649E-09
         0.38788E-09
         0.37946E-09
         0.36841E-09
         0.39403E-09
         0.41775E-09
         0.39268E-09
         0.30519E-09
         0.24830E-09
         0.32013E-09
         0.42705E-09
         0.46985E-09
         0.45022E-09
         0.40530E-09
         0.36786E-09
         0.29871E-09
         0.25113E-09
         0.32848E-09
         0.43515E-09
         0.44962E-09
         0.36259E-09
         0.29433E-09
         0.36201E-09
         0.42753E-09
         0.91235E-09
         0.72143E-09
         0.77692E-09
         0.13431E-08
         0.71743E-09
         0.91716E-09
         0.50715E-09
         0.60877E-09
         0.10165E-08
         0.73661E-09
         0.29757E-09
         0.56832E-09
         0.62624E-09
         0.50054E-09
         0.64689E-09
         0.12089E-08
         0.94680E-09
         0.12044E-08
         0.70342E-09
         0.80450E-09
         0.75802E-09
         0.84076E-09
         0.64427E-09
         0.40010E-09
         0.75700E-09
         0.63251E-09
         0.64800E-09
         0.66810E-09
         0.58482E-09
         0.71445E-09
         0.91101E-09
         0.64161E-09
         0.10248E-08
         0.89567E-09
         0.40071E-09
         0.61659E-09
         0.70041E-09
         0.74077E-09
         0.71627E-09
         0.56276E-09
         0.35352E-09
         0.58308E-09
         0.77286E-09
         0.62309E-09
         0.54723E-09
         0.35843E-09
         0.61272E-09
         0.83287E-09
         0.87530E-09
         0.70698E-09
         0.43386E-09
         0.75084E-09
         0.27507E-09
         0.35134E-09
         0.32633E-09
         0.38789E-09
         0.37955E-09
         0.36849E-09
         0.39420E-09
         0.41804E-09
         0.39291E-09
         0.30525E-09
         0.24832E-09
         0.32014E-09
         0.42711E-09
         0.46995E-09
         0.45027E-09
         0.40528E-09
         0.36784E-09
         0.29869E-09
         0.25109E-09
         0.32845E-09
         0.43514E-09
         0.44962E-09
         0.36252E-09
         0.29426E-09
         0.36206E-09
         0.42751E-09
         0.91240E-09
         0.72128E-09
         0.77698E-09
         0.13437E-08
         0.71755E-09
         0.91744E-09
         0.50688E-09
         0.60841E-09
         0.10169E-08
         0.73612E-09
         0.29728E-09
         0.56822E-09
         0.62619E-09
         0.49984E-09
         0.64676E-09
         0.12093E-08
         0.94723E-09
         0.12050E-08
         0.70345E-09
         0.80460E-09
         0.75798E-09
         0.84080E-09
         0.64420E-09
         0.40006E-09
         0.75667E-09
         0.63246E-09
         0.64701E-09
         0.66744E-09
         0.58457E-09
         0.71429E-09
         0.91110E-09
         0.64153E-09
         0.10254E-08
         0.89648E-09
         0.40070E-09
         0.61647E-09
         0.70032E-09
         0.74071E-09
         0.71632E-09
         0.56279E-09
         0.35353E-09
         0.58300E-09
         0.77282E-09
         0.62300E-09
         0.54710E-09
         0.35834E-09
         0.61266E-09
         0.83288E-09
         0.87543E-09
         0.70713E-09
         0.43387E-09
         0.75122E-09
         0.27499E-09
         0.35133E-09
         0.32617E-09
         0.38790E-09
         0.37964E-09
         0.36857E-09
         0.39437E-09
         0.41834E-09
         0.39314E-09
         0.30532E-09
         0.24834E-09
         0.32014E-09
         0.42716E-09
         0.47005E-09
         0.45032E-09
         0.40527E-09
         0.36781E-09
         0.29866E-09
         0.25105E-09
         0.32843E-09
         0.43513E-09
         0.44962E-09
         0.36244E-09
         0.29419E-09
         0.36210E-09
         0.42750E-09
         0.91246E-09
         0.72114E-09
         0.77705E-09
         0.13444E-08
         0.71767E-09
         0.91773E-09
         0.50662E-09
         0.60805E-09
         0.10173E-08
         0.73564E-09
         0.29700E-09
         0.56812E-09
         0.62616E-09
         0.49914E-09
         0.64663E-09
         0.12097E-08
         0.94766E-09
         0.12056E-08
         0.70348E-09
         0.80471E-09
         0.75796E-09
         0.84084E-09
         0.64414E-09
         0.40002E-09
         0.75635E-09
         0.63241E-09
         0.64603E-09
         0.66678E-09
         0.58433E-09
         0.71413E-09
         0.91120E-09
         0.64146E-09
         0.10259E-08
         0.89729E-09
         0.40070E-09
         0.61636E-09
         0.70023E-09
         0.74067E-09
         0.71637E-09
         0.56282E-09
         0.35353E-09
         0.58293E-09
         0.77279E-09
         0.62291E-09
         0.54698E-09
         0.35825E-09
         0.61261E-09
         0.83289E-09
         0.87557E-09
         0.70728E-09
         0.43389E-09
         0.75160E-09
         0.27491E-09
         0.35133E-09
         0.32601E-09
         0.38792E-09
         0.37972E-09
         0.36865E-09
         0.39454E-09
         0.41864E-09
         0.39337E-09
         0.30539E-09
         0.24836E-09
         0.32015E-09
         0.42722E-09
         0.47016E-09
         0.45038E-09
         0.40526E-09
         0.36779E-09
         0.29864E-09
         0.25101E-09
         0.32841E-09
         0.43512E-09
         0.44962E-09
         0.36237E-09
         0.29413E-09
         0.36215E-09
         0.42750E-09
         0.91249E-09
         0.72097E-09
         0.77710E-09
         0.13450E-08
         0.71777E-09
         0.91799E-09
         0.50634E-09
         0.60767E-09
         0.10176E-08
         0.73514E-09
         0.29670E-09
         0.56801E-09
         0.62610E-09
         0.49842E-09
         0.64648E-09
         0.12100E-08
         0.94806E-09
         0.12062E-08
         0.70349E-09
         0.80479E-09
         0.75791E-09
         0.84086E-09
         0.64406E-09
         0.39997E-09
         0.75600E-09
         0.63234E-09
         0.64503E-09
         0.66610E-09
         0.58407E-09
         0.71395E-09
         0.91127E-09
         0.64136E-09
         0.10264E-08
         0.89808E-09
         0.40069E-09
         0.61622E-09
         0.70012E-09
         0.74060E-09
         0.71641E-09
         0.56283E-09
         0.35352E-09
         0.58283E-09
         0.77273E-09
         0.62281E-09
         0.54684E-09
         0.35815E-09
         0.61255E-09
         0.83288E-09
         0.87569E-09
         0.70741E-09
         0.43389E-09
         0.75195E-09
         0.27482E-09
         0.35132E-09
         0.32584E-09
         0.38793E-09
         0.37980E-09
         0.36872E-09
         0.39470E-09
         0.41893E-09
         0.39360E-09
         0.30545E-09
         0.24837E-09
         0.32016E-09
         0.42727E-09
         0.47026E-09
         0.45042E-09
         0.40524E-09
         0.36776E-09
         0.29861E-09
         0.25097E-09
         0.32838E-09
         0.43510E-09
         0.44961E-09
         0.36229E-09
         0.29406E-09
         0.36218E-09
         0.42748E-09
         0.91256E-09
         0.72083E-09
         0.77718E-09
         0.13457E-08
         0.71789E-09
         0.91829E-09
         0.50608E-09
         0.60732E-09
         0.10180E-08
         0.73467E-09
         0.29642E-09
         0.56792E-09
         0.62607E-09
         0.49772E-09
         0.64636E-09
         0.12103E-08
         0.94850E-09
         0.12068E-08
         0.70352E-09
         0.80490E-09
         0.75789E-09
         0.84091E-09
         0.64401E-09
         0.39993E-09
         0.75569E-09
         0.63230E-09
         0.64405E-09
         0.66544E-09
         0.58382E-09
         0.71379E-09
         0.91137E-09
         0.64129E-09
         0.10270E-08
         0.89890E-09
         0.40069E-09
         0.61611E-09
         0.70004E-09
         0.74056E-09
         0.71646E-09
         0.56287E-09
         0.35353E-09
         0.58276E-09
         0.77271E-09
         0.62273E-09
         0.54672E-09
         0.35806E-09
         0.61251E-09
         0.83291E-09
         0.87583E-09
         0.70756E-09
         0.43391E-09
         0.75234E-09
         0.27474E-09
         0.35132E-09
         0.32569E-09
         0.38794E-09
         0.37990E-09
         0.36881E-09
         0.39488E-09
         0.41923E-09
         0.39383E-09
         0.30553E-09
         0.24840E-09
         0.32017E-09
         0.42734E-09
         0.47037E-09
         0.45048E-09
         0.40524E-09
         0.36774E-09
         0.29859E-09
         0.25093E-09
         0.32836E-09
         0.43510E-09
         0.44962E-09
         0.36222E-09
         0.29400E-09
         0.36223E-09
         0.42747E-09
         0.45631E-09
         0.36039E-09
         0.38862E-09
         0.67302E-09
         0.35899E-09
         0.45923E-09
         0.25298E-09
         0.30358E-09
         0.50909E-09
         0.36723E-09
         0.14815E-09
         0.28394E-09
         0.31303E-09
         0.24869E-09
         0.32316E-09
         0.60528E-09
         0.47437E-09
         0.60357E-09
         0.35178E-09
         0.40249E-09
         0.37895E-09
         0.42048E-09
         0.32200E-09
         0.19996E-09
         0.37777E-09
         0.31615E-09
         0.32179E-09
         0.33257E-09
         0.29186E-09
         0.35687E-09
         0.45572E-09
         0.32064E-09
         0.51365E-09
         0.44967E-09
         0.20035E-09
         0.30804E-09
         0.35001E-09
         0.37028E-09
         0.35826E-09
         0.28145E-09
         0.17677E-09
         0.29137E-09
         0.38636E-09
         0.31135E-09
         0.27333E-09
         0.17901E-09
         0.30625E-09
         0.41647E-09
         0.43797E-09
         0.35383E-09
         0.21697E-09
         0.37628E-09
         0.13735E-09
         0.17566E-09
         0.16281E-09
         0.19398E-09
         0.18998E-09
         0.18443E-09
         0.19749E-09
         0.20970E-09
         0.19698E-09
         0.15279E-09
         0.12421E-09
         0.16009E-09
         0.21369E-09
         0.23522E-09
         0.22526E-09
         0.20262E-09
         0.18387E-09
         0.14930E-09
         0.12546E-09
         0.16418E-09
         0.21756E-09
         0.22482E-09
         0.18110E-09
         0.14699E-09
         0.18113E-09
         0.21374E-09
  
SCALARS               pre_disp_force_x  double 1
LOOKUP_TABLE default
         0.00000E+00
         0.00000E+00
         0.00000E+00
         0.00000E+00
         0.00000E+00
         0.00000E+00
         0.00000E+00
         0.00000E+00
         0.00000E+00
         0.00000E+00
         0.00000E+00
         0.00000E+00
         0.00000E+00
         0.00000E+00
         0.00000E+00
         0.00000E+00
         0.00000E+00
         0.00000E+00
         0.00000E+00
         0.00000E+00
         0.00000E+00
         0.00000E+00
         0.00000E+00
         0.00000E+00
         0.00000E+00
         0.00000E+00
         0.00000E+00
         0.00000E+00
         0.00000E+00
         0.00000E+00
         0.00000E+00
         0.00000E+00
         0.00000E+00
         0.00000E+00
         0.00000E+00
         0.00000E+00
         0.00000E+00
         0.00000E+00
         0.00000E+00
         0.00000E+00
         0.00000E+00
         0.00000E+00
         0.00000E+00
         0.00000E+00
         0.00000E+00
         0.00000E+00
         0.00000E+00
         0.00000E+00
         0.00000E+00
         0.00000E+00
         0.00000E+00
         0.00000E+00
         0.00000E+00
         0.00000E+00
         0.00000E+00
         0.00000E+00
         0.00000E+00
         0.00000E+00
         0.00000E+00
         0.00000E+00
         0.00000E+00
         0.00000E+00
         0.00000E+00
         0.00000E+00
         0.00000E+00
         0.00000E+00
         0.00000E+00
         0.00000E+00
         0.00000E+00
         0.00000E+00
         0.00000E+00
         0.00000E+00
         0.00000E+00
         0.00000E+00
         0.00000E+00
         0.00000E+00
         0.00000E+00
         0.00000E+00
         0.00000E+00
         0.00000E+00
         0.00000E+00
         0.00000E+00
         0.00000E+00
         0.00000E+00
         0.00000E+00
         0.00000E+00
         0.00000E+00
         0.00000E+00
         0.00000E+00
         0.00000E+00
         0.00000E+00
         0.00000E+00
         0.00000E+00
         0.00000E+00
         0.00000E+00
         0.00000E+00
         0.00000E+00
         0.00000E+00
         0.00000E+00
         0.00000E+00
         0.00000E+00
         0.00000E+00
         0.00000E+00
         0.00000E+00
         0.00000E+00
         0.00000E+00
         0.00000E+00
         0.00000E+00
         0.00000E+00
         0.00000E+00
         0.00000E+00
         0.00000E+00
         0.00000E+00
         0.00000E+00
         0.00000E+00
         0.00000E+00
         0.00000E+00
         0.00000E+00
         0.00000E+00
         0.00000E+00
         0.00000E+00
         0.00000E+00
         0.00000E+00
         0.00000E+00
         0.00000E+00
         0.00000E+00
         0.00000E+00
         0.00000E+00
         0.00000E+00
         0.00000E+00
         0.00000E+00
         0.00000E+00
         0.00000E+00
         0.00000E+00
         0.00000E+00
         0.00000E+00
         0.00000E+00
         0.00000E+00
         0.00000E+00
         0.00000E+00
         0.00000E+00
         0.00000E+00
         0.00000E+00
         0.00000E+00
         0.00000E+00
         0.00000E+00
         0.00000E+00
         0.00000E+00
         0.00000E+00
         0.00000E+00
         0.00000E+00
         0.00000E+00
         0.00000E+00
         0.00000E+00
         0.00000E+00
         0.00000E+00
         0.00000E+00
         0.00000E+00
         0.00000E+00
         0.00000E+00
         0.00000E+00
         0.00000E+00
         0.00000E+00
         0.00000E+00
         0.00000E+00
         0.00000E+00
         0.00000E+00
         0.00000E+00
         0.00000E+00
         0.00000E+00
         0.00000E+00
         0.00000E+00
         0.00000E+00
         0.00000E+00
         0.00000E+00
         0.00000E+00
         0.00000E+00
         0.00000E+00
         0.00000E+00
         0.00000E+00
         0.00000E+00
         0.00000E+00
         0.00000E+00
         0.00000E+00
         0.00000E+00
         0.00000E+00
         0.00000E+00
         0.00000E+00
         0.00000E+00
         0.00000E+00
         0.00000E+00
         0.00000E+00
         0.00000E+00
         0.00000E+00
         0.00000E+00
         0.00000E+00
         0.00000E+00
         0.00000E+00
         0.00000E+00
         0.00000E+00
         0.00000E+00
         0.00000E+00
         0.00000E+00
         0.00000E+00
         0.00000E+00
         0.00000E+00
         0.00000E+00
         0.00000E+00
         0.00000E+00
         0.00000E+00
         0.00000E+00
         0.00000E+00
         0.00000E+00
         0.00000E+00
         0.00000E+00
         0.00000E+00
         0.00000E+00
         0.00000E+00
         0.00000E+00
         0.00000E+00
         0.00000E+00
         0.00000E+00
         0.00000E+00
         0.00000E+00
         0.00000E+00
         0.00000E+00
         0.00000E+00
         0.00000E+00
         0.00000E+00
         0.00000E+00
         0.00000E+00
         0.00000E+00
         0.00000E+00
         0.00000E+00
         0.00000E+00
         0.00000E+00
         0.00000E+00
         0.00000E+00
         0.00000E+00
         0.00000E+00
         0.00000E+00
         0.00000E+00
         0.00000E+00
         0.00000E+00
         0.00000E+00
         0.00000E+00
         0.00000E+00
         0.00000E+00
         0.00000E+00
         0.00000E+00
         0.00000E+00
         0.00000E+00
         0.00000E+00
         0.00000E+00
         0.00000E+00
         0.00000E+00
         0.00000E+00
         0.00000E+00
         0.00000E+00
         0.00000E+00
         0.00000E+00
         0.00000E+00
         0.00000E+00
         0.00000E+00
         0.00000E+00
         0.00000E+00
         0.00000E+00
         0.00000E+00
         0.00000E+00
         0.00000E+00
         0.00000E+00
         0.00000E+00
         0.00000E+00
         0.00000E+00
         0.00000E+00
         0.00000E+00
         0.00000E+00
         0.00000E+00
         0.00000E+00
         0.00000E+00
         0.00000E+00
         0.00000E+00
         0.00000E+00
         0.00000E+00
         0.00000E+00
         0.00000E+00
         0.00000E+00
         0.00000E+00
         0.00000E+00
         0.00000E+00
         0.00000E+00
         0.00000E+00
         0.00000E+00
         0.00000E+00
         0.00000E+00
         0.00000E+00
         0.00000E+00
         0.00000E+00
         0.00000E+00
         0.00000E+00
         0.00000E+00
         0.00000E+00
         0.00000E+00
         0.00000E+00
         0.00000E+00
         0.00000E+00
         0.00000E+00
         0.00000E+00
         0.00000E+00
         0.00000E+00
         0.00000E+00
         0.00000E+00
         0.00000E+00
         0.00000E+00
         0.00000E+00
         0.00000E+00
         0.00000E+00
         0.00000E+00
         0.00000E+00
         0.00000E+00
         0.00000E+00
         0.00000E+00
         0.00000E+00
         0.00000E+00
         0.00000E+00
         0.00000E+00
         0.00000E+00
         0.00000E+00
         0.00000E+00
         0.00000E+00
         0.00000E+00
         0.00000E+00
         0.00000E+00
         0.00000E+00
         0.00000E+00
         0.00000E+00
         0.00000E+00
         0.00000E+00
         0.00000E+00
         0.00000E+00
         0.00000E+00
         0.00000E+00
         0.00000E+00
         0.00000E+00
         0.00000E+00
         0.00000E+00
         0.00000E+00
         0.00000E+00
         0.00000E+00
         0.00000E+00
         0.00000E+00
         0.00000E+00
         0.00000E+00
         0.00000E+00
         0.00000E+00
         0.00000E+00
         0.00000E+00
         0.00000E+00
         0.00000E+00
         0.00000E+00
         0.00000E+00
         0.00000E+00
         0.00000E+00
         0.00000E+00
         0.00000E+00
         0.00000E+00
         0.00000E+00
         0.00000E+00
         0.00000E+00
         0.00000E+00
         0.00000E+00
         0.00000E+00
         0.00000E+00
         0.00000E+00
         0.00000E+00
         0.00000E+00
         0.00000E+00
         0.00000E+00
         0.00000E+00
         0.00000E+00
         0.00000E+00
         0.00000E+00
         0.00000E+00
         0.00000E+00
         0.00000E+00
         0.00000E+00
         0.00000E+00
         0.00000E+00
         0.00000E+00
         0.00000E+00
         0.00000E+00
         0.00000E+00
         0.00000E+00
         0.00000E+00
         0.00000E+00
         0.00000E+00
         0.00000E+00
         0.00000E+00
         0.00000E+00
         0.00000E+00
         0.00000E+00
         0.00000E+00
         0.00000E+00
         0.00000E+00
         0.00000E+00
         0.00000E+00
         0.00000E+00
         0.00000E+00
         0.00000E+00
         0.00000E+00
         0.00000E+00
         0.00000E+00
         0.00000E+00
         0.00000E+00
         0.00000E+00
         0.00000E+00
         0.00000E+00
         0.00000E+00
         0.00000E+00
         0.00000E+00
         0.00000E+00
         0.00000E+00
         0.00000E+00
         0.00000E+00
         0.00000E+00
         0.00000E+00
         0.00000E+00
         0.00000E+00
         0.00000E+00
         0.00000E+00
         0.00000E+00
         0.00000E+00
         0.00000E+00
         0.00000E+00
         0.00000E+00
         0.00000E+00
         0.00000E+00
         0.00000E+00
         0.00000E+00
         0.00000E+00
         0.00000E+00
         0.00000E+00
         0.00000E+00
         0.00000E+00
         0.00000E+00
         0.00000E+00
         0.00000E+00
         0.00000E+00
         0.00000E+00
         0.00000E+00
         0.00000E+00
         0.00000E+00
         0.00000E+00
         0.00000E+00
         0.00000E+00
         0.00000E+00
         0.00000E+00
         0.00000E+00
         0.00000E+00
         0.00000E+00
         0.00000E+00
         0.00000E+00
         0.00000E+00
         0.00000E+00
         0.00000E+00
         0.00000E+00
         0.00000E+00
         0.00000E+00
         0.00000E+00
         0.00000E+00
         0.00000E+00
         0.00000E+00
         0.00000E+00
         0.00000E+00
         0.00000E+00
         0.00000E+00
         0.00000E+00
         0.00000E+00
         0.00000E+00
         0.00000E+00
         0.00000E+00
         0.00000E+00
         0.00000E+00
         0.00000E+00
         0.00000E+00
         0.00000E+00
         0.00000E+00
         0.00000E+00
         0.00000E+00
         0.00000E+00
         0.00000E+00
         0.00000E+00
         0.00000E+00
         0.00000E+00
         0.00000E+00
         0.00000E+00
         0.00000E+00
         0.00000E+00
         0.00000E+00
         0.00000E+00
         0.00000E+00
         0.00000E+00
         0.00000E+00
         0.00000E+00
         0.00000E+00
         0.00000E+00
         0.00000E+00
         0.00000E+00
         0.00000E+00
         0.00000E+00
         0.00000E+00
         0.00000E+00
         0.00000E+00
         0.00000E+00
         0.00000E+00
         0.00000E+00
         0.00000E+00
         0.00000E+00
         0.00000E+00
         0.00000E+00
         0.00000E+00
         0.00000E+00
         0.00000E+00
         0.00000E+00
         0.00000E+00
         0.00000E+00
         0.00000E+00
         0.00000E+00
         0.00000E+00
         0.00000E+00
         0.00000E+00
         0.00000E+00
         0.00000E+00
         0.00000E+00
         0.00000E+00
         0.00000E+00
         0.00000E+00
         0.00000E+00
         0.00000E+00
         0.00000E+00
         0.00000E+00
         0.00000E+00
         0.00000E+00
         0.00000E+00
         0.00000E+00
         0.00000E+00
         0.00000E+00
         0.00000E+00
         0.00000E+00
         0.00000E+00
         0.00000E+00
         0.00000E+00
         0.00000E+00
         0.00000E+00
         0.00000E+00
         0.00000E+00
         0.00000E+00
         0.00000E+00
         0.00000E+00
         0.00000E+00
         0.00000E+00
         0.00000E+00
         0.00000E+00
         0.00000E+00
         0.00000E+00
         0.00000E+00
         0.00000E+00
         0.00000E+00
         0.00000E+00
         0.00000E+00
         0.00000E+00
         0.00000E+00
         0.00000E+00
         0.00000E+00
         0.00000E+00
         0.00000E+00
         0.00000E+00
         0.00000E+00
         0.00000E+00
         0.00000E+00
         0.00000E+00
         0.00000E+00
         0.00000E+00
         0.00000E+00
         0.00000E+00
         0.00000E+00
         0.00000E+00
         0.00000E+00
         0.00000E+00
         0.00000E+00
         0.00000E+00
         0.00000E+00
         0.00000E+00
         0.00000E+00
         0.00000E+00
         0.00000E+00
         0.00000E+00
         0.00000E+00
         0.00000E+00
         0.00000E+00
         0.00000E+00
         0.00000E+00
         0.00000E+00
         0.00000E+00
         0.00000E+00
         0.00000E+00
         0.00000E+00
         0.00000E+00
         0.00000E+00
         0.00000E+00
         0.00000E+00
         0.00000E+00
         0.00000E+00
         0.00000E+00
         0.00000E+00
         0.00000E+00
         0.00000E+00
         0.00000E+00
         0.00000E+00
         0.00000E+00
         0.00000E+00
         0.00000E+00
         0.00000E+00
         0.00000E+00
         0.00000E+00
         0.00000E+00
         0.00000E+00
         0.00000E+00
         0.00000E+00
         0.00000E+00
         0.00000E+00
         0.00000E+00
         0.00000E+00
         0.00000E+00
         0.00000E+00
         0.00000E+00
         0.00000E+00
         0.00000E+00
         0.00000E+00
         0.00000E+00
         0.00000E+00
         0.00000E+00
         0.00000E+00
         0.00000E+00
         0.00000E+00
         0.00000E+00
         0.00000E+00
         0.00000E+00
         0.00000E+00
         0.00000E+00
         0.00000E+00
         0.00000E+00
         0.00000E+00
         0.00000E+00
         0.00000E+00
         0.00000E+00
         0.00000E+00
         0.00000E+00
         0.00000E+00
         0.00000E+00
         0.00000E+00
         0.00000E+00
         0.00000E+00
         0.00000E+00
         0.00000E+00
         0.00000E+00
         0.00000E+00
         0.00000E+00
         0.00000E+00
         0.00000E+00
         0.00000E+00
         0.00000E+00
         0.00000E+00
         0.00000E+00
         0.00000E+00
         0.00000E+00
         0.00000E+00
         0.00000E+00
         0.00000E+00
         0.00000E+00
         0.00000E+00
         0.00000E+00
         0.00000E+00
         0.00000E+00
         0.00000E+00
         0.00000E+00
         0.00000E+00
         0.00000E+00
         0.00000E+00
         0.00000E+00
         0.00000E+00
         0.00000E+00
         0.00000E+00
         0.00000E+00
         0.00000E+00
         0.00000E+00
         0.00000E+00
         0.00000E+00
         0.00000E+00
         0.00000E+00
         0.00000E+00
         0.00000E+00
         0.00000E+00
         0.00000E+00
         0.00000E+00
         0.00000E+00
         0.00000E+00
         0.00000E+00
         0.00000E+00
         0.00000E+00
         0.00000E+00
         0.00000E+00
         0.00000E+00
         0.00000E+00
         0.00000E+00
         0.00000E+00
         0.00000E+00
         0.00000E+00
         0.00000E+00
         0.00000E+00
         0.00000E+00
         0.00000E+00
         0.00000E+00
         0.00000E+00
         0.00000E+00
         0.00000E+00
         0.00000E+00
         0.00000E+00
         0.00000E+00
         0.00000E+00
         0.00000E+00
         0.00000E+00
         0.00000E+00
         0.00000E+00
         0.00000E+00
         0.00000E+00
         0.00000E+00
         0.00000E+00
         0.00000E+00
         0.00000E+00
         0.00000E+00
         0.00000E+00
         0.00000E+00
         0.00000E+00
         0.00000E+00
         0.00000E+00
         0.00000E+00
         0.00000E+00
         0.00000E+00
         0.00000E+00
         0.00000E+00
         0.00000E+00
         0.00000E+00
         0.00000E+00
         0.00000E+00
         0.00000E+00
         0.00000E+00
         0.00000E+00
         0.00000E+00
         0.00000E+00
         0.00000E+00
         0.00000E+00
         0.00000E+00
         0.00000E+00
         0.00000E+00
         0.00000E+00
         0.00000E+00
         0.00000E+00
         0.00000E+00
         0.00000E+00
         0.00000E+00
         0.00000E+00
         0.00000E+00
         0.00000E+00
         0.00000E+00
         0.00000E+00
         0.00000E+00
         0.00000E+00
         0.00000E+00
         0.00000E+00
         0.00000E+00
         0.00000E+00
         0.00000E+00
         0.00000E+00
         0.00000E+00
         0.00000E+00
         0.00000E+00
         0.00000E+00
         0.00000E+00
         0.00000E+00
         0.00000E+00
         0.00000E+00
         0.00000E+00
         0.00000E+00
         0.00000E+00
         0.00000E+00
         0.00000E+00
         0.00000E+00
         0.00000E+00
         0.00000E+00
         0.00000E+00
         0.00000E+00
         0.00000E+00
         0.00000E+00
         0.00000E+00
         0.00000E+00
         0.00000E+00
         0.00000E+00
         0.00000E+00
         0.00000E+00
         0.00000E+00
         0.00000E+00
         0.00000E+00
         0.00000E+00
         0.00000E+00
         0.00000E+00
         0.00000E+00
         0.00000E+00
         0.00000E+00
         0.00000E+00
         0.00000E+00
         0.00000E+00
         0.00000E+00
         0.00000E+00
         0.00000E+00
         0.00000E+00
         0.00000E+00
         0.00000E+00
         0.00000E+00
         0.00000E+00
         0.00000E+00
         0.00000E+00
         0.00000E+00
         0.00000E+00
         0.00000E+00
         0.00000E+00
         0.00000E+00
         0.00000E+00
         0.00000E+00
         0.00000E+00
         0.00000E+00
         0.00000E+00
         0.00000E+00
         0.00000E+00
         0.00000E+00
         0.00000E+00
         0.00000E+00
         0.00000E+00
         0.00000E+00
         0.00000E+00
         0.00000E+00
         0.00000E+00
         0.00000E+00
         0.00000E+00
         0.00000E+00
         0.00000E+00
         0.00000E+00
         0.00000E+00
         0.00000E+00
         0.00000E+00
         0.00000E+00
         0.00000E+00
         0.00000E+00
         0.00000E+00
         0.00000E+00
         0.00000E+00
         0.00000E+00
         0.00000E+00
         0.00000E+00
         0.00000E+00
         0.00000E+00
         0.00000E+00
         0.00000E+00
         0.00000E+00
         0.00000E+00
         0.00000E+00
         0.00000E+00
         0.00000E+00
         0.00000E+00
         0.00000E+00
         0.00000E+00
         0.00000E+00
         0.00000E+00
         0.00000E+00
         0.00000E+00
         0.00000E+00
         0.00000E+00
         0.00000E+00
         0.00000E+00
         0.00000E+00
         0.00000E+00
         0.00000E+00
         0.00000E+00
         0.00000E+00
         0.00000E+00
         0.00000E+00
         0.00000E+00
         0.00000E+00
         0.00000E+00
         0.00000E+00
         0.00000E+00
         0.00000E+00
         0.00000E+00
         0.00000E+00
         0.00000E+00
         0.00000E+00
         0.00000E+00
         0.00000E+00
         0.00000E+00
         0.00000E+00
         0.00000E+00
         0.00000E+00
         0.00000E+00
         0.00000E+00
         0.00000E+00
         0.00000E+00
         0.00000E+00
         0.00000E+00
         0.00000E+00
         0.00000E+00
         0.00000E+00
         0.00000E+00
         0.00000E+00
         0.00000E+00
         0.00000E+00
         0.00000E+00
         0.00000E+00
         0.00000E+00
         0.00000E+00
         0.00000E+00
         0.00000E+00
         0.00000E+00
         0.00000E+00
         0.00000E+00
         0.00000E+00
         0.00000E+00
         0.00000E+00
         0.00000E+00
         0.00000E+00
         0.00000E+00
         0.00000E+00
         0.00000E+00
         0.00000E+00
         0.00000E+00
         0.00000E+00
         0.00000E+00
         0.00000E+00
         0.00000E+00
         0.00000E+00
         0.00000E+00
         0.00000E+00
         0.00000E+00
         0.00000E+00
         0.00000E+00
         0.00000E+00
         0.00000E+00
         0.00000E+00
         0.00000E+00
         0.00000E+00
         0.00000E+00
         0.00000E+00
         0.00000E+00
         0.00000E+00
         0.00000E+00
         0.00000E+00
         0.00000E+00
         0.00000E+00
         0.00000E+00
         0.00000E+00
         0.00000E+00
         0.00000E+00
         0.00000E+00
         0.00000E+00
         0.00000E+00
         0.00000E+00
         0.00000E+00
         0.00000E+00
         0.00000E+00
         0.00000E+00
         0.00000E+00
         0.00000E+00
         0.00000E+00
         0.00000E+00
         0.00000E+00
         0.00000E+00
         0.00000E+00
         0.00000E+00
         0.00000E+00
         0.00000E+00
         0.00000E+00
         0.00000E+00
         0.00000E+00
         0.00000E+00
         0.00000E+00
         0.00000E+00
         0.00000E+00
         0.00000E+00
         0.00000E+00
         0.00000E+00
         0.00000E+00
         0.00000E+00
         0.00000E+00
         0.00000E+00
         0.00000E+00
         0.00000E+00
         0.00000E+00
         0.00000E+00
         0.00000E+00
         0.00000E+00
         0.00000E+00
         0.00000E+00
         0.00000E+00
         0.00000E+00
         0.00000E+00
         0.00000E+00
         0.00000E+00
         0.00000E+00
         0.00000E+00
         0.00000E+00
         0.00000E+00
         0.00000E+00
         0.00000E+00
         0.00000E+00
         0.00000E+00
         0.00000E+00
         0.00000E+00
         0.00000E+00
         0.00000E+00
         0.00000E+00
         0.00000E+00
         0.00000E+00
         0.00000E+00
         0.00000E+00
         0.00000E+00
         0.00000E+00
         0.00000E+00
         0.00000E+00
         0.00000E+00
         0.00000E+00
         0.00000E+00
         0.00000E+00
         0.00000E+00
         0.00000E+00
         0.00000E+00
         0.00000E+00
         0.00000E+00
         0.00000E+00
         0.00000E+00
         0.00000E+00
         0.00000E+00
         0.00000E+00
         0.00000E+00
         0.00000E+00
         0.00000E+00
         0.00000E+00
         0.00000E+00
         0.00000E+00
         0.00000E+00
         0.00000E+00
         0.00000E+00
         0.00000E+00
         0.00000E+00
         0.00000E+00
         0.00000E+00
         0.00000E+00
         0.00000E+00
         0.00000E+00
         0.00000E+00
         0.00000E+00
         0.00000E+00
         0.00000E+00
         0.00000E+00
         0.00000E+00
         0.00000E+00
         0.00000E+00
         0.00000E+00
         0.00000E+00
         0.00000E+00
         0.00000E+00
         0.00000E+00
         0.00000E+00
         0.00000E+00
         0.00000E+00
         0.00000E+00
         0.00000E+00
         0.00000E+00
         0.00000E+00
         0.00000E+00
         0.00000E+00
         0.00000E+00
         0.00000E+00
         0.00000E+00
         0.00000E+00
         0.00000E+00
         0.00000E+00
         0.00000E+00
         0.00000E+00
         0.00000E+00
         0.00000E+00
         0.00000E+00
         0.00000E+00
         0.00000E+00
         0.00000E+00
         0.00000E+00
         0.00000E+00
         0.00000E+00
         0.00000E+00
         0.00000E+00
         0.00000E+00
         0.00000E+00
         0.00000E+00
         0.00000E+00
         0.00000E+00
         0.00000E+00
         0.00000E+00
         0.00000E+00
         0.00000E+00
         0.00000E+00
         0.00000E+00
         0.00000E+00
         0.00000E+00
         0.00000E+00
         0.00000E+00
         0.00000E+00
         0.00000E+00
         0.00000E+00
         0.00000E+00
         0.00000E+00
         0.00000E+00
         0.00000E+00
         0.00000E+00
         0.00000E+00
         0.00000E+00
         0.00000E+00
         0.00000E+00
         0.00000E+00
         0.00000E+00
         0.00000E+00
         0.00000E+00
         0.00000E+00
         0.00000E+00
         0.00000E+00
         0.00000E+00
         0.00000E+00
         0.00000E+00
         0.00000E+00
         0.00000E+00
         0.00000E+00
         0.00000E+00
         0.00000E+00
         0.00000E+00
         0.00000E+00
         0.00000E+00
         0.00000E+00
         0.00000E+00
         0.00000E+00
         0.00000E+00
         0.00000E+00
         0.00000E+00
         0.00000E+00
         0.00000E+00
         0.00000E+00
         0.00000E+00
         0.00000E+00
         0.00000E+00
         0.00000E+00
         0.00000E+00
         0.00000E+00
         0.00000E+00
         0.00000E+00
         0.00000E+00
         0.00000E+00
         0.00000E+00
         0.00000E+00
         0.00000E+00
         0.00000E+00
         0.00000E+00
         0.00000E+00
         0.00000E+00
         0.00000E+00
         0.00000E+00
         0.00000E+00
         0.00000E+00
         0.00000E+00
         0.00000E+00
         0.00000E+00
         0.00000E+00
         0.00000E+00
         0.00000E+00
         0.00000E+00
         0.00000E+00
         0.00000E+00
         0.00000E+00
         0.00000E+00
         0.00000E+00
         0.00000E+00
         0.00000E+00
         0.00000E+00
         0.00000E+00
         0.00000E+00
         0.00000E+00
         0.00000E+00
         0.00000E+00
         0.00000E+00
         0.00000E+00
         0.00000E+00
         0.00000E+00
         0.00000E+00
         0.00000E+00
         0.00000E+00
         0.00000E+00
         0.00000E+00
         0.00000E+00
         0.00000E+00
         0.00000E+00
         0.00000E+00
         0.00000E+00
         0.00000E+00
         0.00000E+00
         0.00000E+00
         0.00000E+00
         0.00000E+00
         0.00000E+00
         0.00000E+00
         0.00000E+00
         0.00000E+00
         0.00000E+00
         0.00000E+00
         0.00000E+00
         0.00000E+00
         0.00000E+00
         0.00000E+00
         0.00000E+00
         0.00000E+00
         0.00000E+00
         0.00000E+00
         0.00000E+00
         0.00000E+00
         0.00000E+00
         0.00000E+00
         0.00000E+00
         0.00000E+00
         0.00000E+00
         0.00000E+00
         0.00000E+00
         0.00000E+00
         0.00000E+00
         0.00000E+00
         0.00000E+00
         0.00000E+00
         0.00000E+00
         0.00000E+00
         0.00000E+00
         0.00000E+00
         0.00000E+00
         0.00000E+00
         0.00000E+00
         0.00000E+00
         0.00000E+00
         0.00000E+00
         0.00000E+00
         0.00000E+00
         0.00000E+00
         0.00000E+00
         0.00000E+00
         0.00000E+00
         0.00000E+00
         0.00000E+00
         0.00000E+00
         0.00000E+00
         0.00000E+00
         0.00000E+00
         0.00000E+00
         0.00000E+00
         0.00000E+00
         0.00000E+00
         0.00000E+00
         0.00000E+00
         0.00000E+00
         0.00000E+00
         0.00000E+00
         0.00000E+00
         0.00000E+00
         0.00000E+00
         0.00000E+00
         0.00000E+00
         0.00000E+00
         0.00000E+00
         0.00000E+00
         0.00000E+00
         0.00000E+00
         0.00000E+00
         0.00000E+00
         0.00000E+00
         0.00000E+00
         0.00000E+00
         0.00000E+00
         0.00000E+00
         0.00000E+00
         0.00000E+00
         0.00000E+00
         0.00000E+00
         0.00000E+00
         0.00000E+00
         0.00000E+00
         0.00000E+00
         0.00000E+00
         0.00000E+00
         0.00000E+00
         0.00000E+00
         0.00000E+00
         0.00000E+00
         0.00000E+00
         0.00000E+00
         0.00000E+00
         0.00000E+00
         0.00000E+00
         0.00000E+00
         0.00000E+00
         0.00000E+00
         0.00000E+00
         0.00000E+00
         0.00000E+00
         0.00000E+00
         0.00000E+00
         0.00000E+00
         0.00000E+00
         0.00000E+00
         0.00000E+00
         0.00000E+00
         0.00000E+00
         0.00000E+00
         0.00000E+00
         0.00000E+00
         0.00000E+00
         0.00000E+00
         0.00000E+00
         0.00000E+00
         0.00000E+00
         0.00000E+00
         0.00000E+00
         0.00000E+00
         0.00000E+00
         0.00000E+00
         0.00000E+00
         0.00000E+00
         0.00000E+00
         0.00000E+00
         0.00000E+00
         0.00000E+00
         0.00000E+00
         0.00000E+00
         0.00000E+00
         0.00000E+00
         0.00000E+00
         0.00000E+00
         0.00000E+00
         0.00000E+00
         0.00000E+00
         0.00000E+00
         0.00000E+00
         0.00000E+00
         0.00000E+00
         0.00000E+00
         0.00000E+00
         0.00000E+00
         0.00000E+00
         0.00000E+00
         0.00000E+00
         0.00000E+00
         0.00000E+00
         0.00000E+00
         0.00000E+00
         0.00000E+00
         0.00000E+00
         0.00000E+00
         0.00000E+00
         0.00000E+00
         0.00000E+00
         0.00000E+00
         0.00000E+00
         0.00000E+00
         0.00000E+00
         0.00000E+00
         0.00000E+00
         0.00000E+00
         0.00000E+00
         0.00000E+00
         0.00000E+00
         0.00000E+00
         0.00000E+00
         0.00000E+00
         0.00000E+00
         0.00000E+00
         0.00000E+00
         0.00000E+00
         0.00000E+00
         0.00000E+00
         0.00000E+00
         0.00000E+00
         0.00000E+00
         0.00000E+00
         0.00000E+00
         0.00000E+00
         0.00000E+00
         0.00000E+00
         0.00000E+00
         0.00000E+00
         0.00000E+00
         0.00000E+00
         0.00000E+00
         0.00000E+00
         0.00000E+00
         0.00000E+00
         0.00000E+00
         0.00000E+00
         0.00000E+00
         0.00000E+00
         0.00000E+00
         0.00000E+00
         0.00000E+00
         0.00000E+00
         0.00000E+00
         0.00000E+00
         0.00000E+00
         0.00000E+00
         0.00000E+00
         0.00000E+00
         0.00000E+00
         0.00000E+00
         0.00000E+00
         0.00000E+00
         0.00000E+00
         0.00000E+00
         0.00000E+00
         0.00000E+00
         0.00000E+00
         0.00000E+00
         0.00000E+00
         0.00000E+00
         0.00000E+00
         0.00000E+00
         0.00000E+00
         0.00000E+00
         0.00000E+00
         0.00000E+00
         0.00000E+00
         0.00000E+00
         0.00000E+00
         0.00000E+00
         0.00000E+00
         0.00000E+00
         0.00000E+00
         0.00000E+00
         0.00000E+00
         0.00000E+00
         0.00000E+00
         0.00000E+00
         0.00000E+00
         0.00000E+00
         0.00000E+00
         0.00000E+00
         0.00000E+00
         0.00000E+00
         0.00000E+00
         0.00000E+00
         0.00000E+00
         0.00000E+00
         0.00000E+00
         0.00000E+00
         0.00000E+00
         0.00000E+00
         0.00000E+00
         0.00000E+00
         0.00000E+00
         0.00000E+00
         0.00000E+00
         0.00000E+00
         0.00000E+00
         0.00000E+00
         0.00000E+00
         0.00000E+00
         0.00000E+00
         0.00000E+00
         0.00000E+00
         0.00000E+00
         0.00000E+00
         0.00000E+00
         0.00000E+00
         0.00000E+00
         0.00000E+00
         0.00000E+00
         0.00000E+00
         0.00000E+00
         0.00000E+00
         0.00000E+00
         0.00000E+00
         0.00000E+00
         0.00000E+00
         0.00000E+00
         0.00000E+00
         0.00000E+00
         0.00000E+00
         0.00000E+00
         0.00000E+00
         0.00000E+00
         0.00000E+00
         0.00000E+00
         0.00000E+00
         0.00000E+00
         0.00000E+00
         0.00000E+00
         0.00000E+00
         0.00000E+00
         0.00000E+00
         0.00000E+00
         0.00000E+00
         0.00000E+00
         0.00000E+00
         0.00000E+00
         0.00000E+00
         0.00000E+00
         0.00000E+00
         0.00000E+00
         0.00000E+00
         0.00000E+00
         0.00000E+00
         0.00000E+00
         0.00000E+00
         0.00000E+00
         0.00000E+00
         0.00000E+00
         0.00000E+00
         0.00000E+00
         0.00000E+00
         0.00000E+00
         0.00000E+00
         0.00000E+00
         0.00000E+00
         0.00000E+00
         0.00000E+00
         0.00000E+00
         0.00000E+00
         0.00000E+00
         0.00000E+00
         0.00000E+00
         0.00000E+00
         0.00000E+00
         0.00000E+00
         0.00000E+00
         0.00000E+00
         0.00000E+00
         0.00000E+00
         0.00000E+00
         0.00000E+00
         0.00000E+00
         0.00000E+00
         0.00000E+00
         0.00000E+00
         0.00000E+00
         0.00000E+00
         0.00000E+00
         0.00000E+00
         0.00000E+00
         0.00000E+00
         0.00000E+00
         0.00000E+00
         0.00000E+00
         0.00000E+00
         0.00000E+00
         0.00000E+00
         0.00000E+00
         0.00000E+00
         0.00000E+00
         0.00000E+00
         0.00000E+00
         0.00000E+00
         0.00000E+00
         0.00000E+00
         0.00000E+00
         0.00000E+00
         0.00000E+00
         0.00000E+00
         0.00000E+00
         0.00000E+00
         0.00000E+00
         0.00000E+00
         0.00000E+00
         0.00000E+00
         0.00000E+00
         0.00000E+00
         0.00000E+00
         0.00000E+00
         0.00000E+00
         0.00000E+00
         0.00000E+00
         0.00000E+00
         0.00000E+00
         0.00000E+00
         0.00000E+00
         0.00000E+00
         0.00000E+00
         0.00000E+00
         0.00000E+00
         0.00000E+00
         0.00000E+00
         0.00000E+00
         0.00000E+00
         0.00000E+00
         0.00000E+00
         0.00000E+00
         0.00000E+00
         0.00000E+00
         0.00000E+00
         0.00000E+00
         0.00000E+00
         0.00000E+00
         0.00000E+00
         0.00000E+00
         0.00000E+00
         0.00000E+00
         0.00000E+00
         0.00000E+00
         0.00000E+00
         0.00000E+00
         0.00000E+00
         0.00000E+00
         0.00000E+00
         0.00000E+00
         0.00000E+00
         0.00000E+00
         0.00000E+00
         0.00000E+00
         0.00000E+00
         0.00000E+00
         0.00000E+00
         0.00000E+00
         0.00000E+00
         0.00000E+00
         0.00000E+00
         0.00000E+00
         0.00000E+00
         0.00000E+00
         0.00000E+00
         0.00000E+00
         0.00000E+00
         0.00000E+00
         0.00000E+00
         0.00000E+00
         0.00000E+00
         0.00000E+00
         0.00000E+00
         0.00000E+00
         0.00000E+00
         0.00000E+00
         0.00000E+00
         0.00000E+00
         0.00000E+00
         0.00000E+00
         0.00000E+00
         0.00000E+00
         0.00000E+00
         0.00000E+00
         0.00000E+00
         0.00000E+00
         0.00000E+00
         0.00000E+00
         0.00000E+00
         0.00000E+00
         0.00000E+00
         0.00000E+00
         0.00000E+00
         0.00000E+00
         0.00000E+00
         0.00000E+00
         0.00000E+00
         0.00000E+00
         0.00000E+00
         0.00000E+00
         0.00000E+00
         0.00000E+00
         0.00000E+00
         0.00000E+00
         0.00000E+00
         0.00000E+00
         0.00000E+00
         0.00000E+00
         0.00000E+00
         0.00000E+00
         0.00000E+00
         0.00000E+00
         0.00000E+00
         0.00000E+00
         0.00000E+00
         0.00000E+00
         0.00000E+00
         0.00000E+00
         0.00000E+00
         0.00000E+00
         0.00000E+00
         0.00000E+00
         0.00000E+00
         0.00000E+00
         0.00000E+00
         0.00000E+00
         0.00000E+00
         0.00000E+00
         0.00000E+00
         0.00000E+00
         0.00000E+00
         0.00000E+00
         0.00000E+00
         0.00000E+00
         0.00000E+00
         0.00000E+00
         0.00000E+00
         0.00000E+00
         0.00000E+00
         0.00000E+00
         0.00000E+00
         0.00000E+00
         0.00000E+00
         0.00000E+00
         0.00000E+00
         0.00000E+00
         0.00000E+00
         0.00000E+00
         0.00000E+00
         0.00000E+00
         0.00000E+00
         0.00000E+00
         0.00000E+00
         0.00000E+00
         0.00000E+00
         0.00000E+00
         0.00000E+00
         0.00000E+00
         0.00000E+00
         0.00000E+00
         0.00000E+00
         0.00000E+00
         0.00000E+00
         0.00000E+00
         0.00000E+00
         0.00000E+00
         0.00000E+00
         0.00000E+00
         0.00000E+00
         0.00000E+00
         0.00000E+00
         0.00000E+00
         0.00000E+00
         0.00000E+00
         0.00000E+00
         0.00000E+00
         0.00000E+00
         0.00000E+00
         0.00000E+00
         0.00000E+00
         0.00000E+00
         0.00000E+00
         0.00000E+00
         0.00000E+00
         0.00000E+00
         0.00000E+00
         0.00000E+00
         0.00000E+00
         0.00000E+00
         0.00000E+00
         0.00000E+00
         0.00000E+00
         0.00000E+00
         0.00000E+00
         0.00000E+00
         0.00000E+00
         0.00000E+00
         0.00000E+00
         0.00000E+00
         0.00000E+00
         0.00000E+00
         0.00000E+00
         0.00000E+00
         0.00000E+00
         0.00000E+00
         0.00000E+00
         0.00000E+00
         0.00000E+00
         0.00000E+00
         0.00000E+00
         0.00000E+00
         0.00000E+00
         0.00000E+00
         0.00000E+00
         0.00000E+00
         0.00000E+00
         0.00000E+00
         0.00000E+00
         0.00000E+00
         0.00000E+00
         0.00000E+00
         0.00000E+00
         0.00000E+00
         0.00000E+00
         0.00000E+00
         0.00000E+00
         0.00000E+00
         0.00000E+00
         0.00000E+00
         0.00000E+00
         0.00000E+00
         0.00000E+00
         0.00000E+00
         0.00000E+00
         0.00000E+00
         0.00000E+00
         0.00000E+00
         0.00000E+00
         0.00000E+00
         0.00000E+00
         0.00000E+00
         0.00000E+00
         0.00000E+00
         0.00000E+00
         0.00000E+00
         0.00000E+00
         0.00000E+00
         0.00000E+00
         0.00000E+00
         0.00000E+00
         0.00000E+00
         0.00000E+00
         0.00000E+00
         0.00000E+00
         0.00000E+00
         0.00000E+00
         0.00000E+00
         0.00000E+00
         0.00000E+00
         0.00000E+00
         0.00000E+00
         0.00000E+00
         0.00000E+00
         0.00000E+00
         0.00000E+00
         0.00000E+00
         0.00000E+00
         0.00000E+00
         0.00000E+00
         0.00000E+00
         0.00000E+00
         0.00000E+00
         0.00000E+00
         0.00000E+00
         0.00000E+00
         0.00000E+00
         0.00000E+00
         0.00000E+00
         0.00000E+00
         0.00000E+00
         0.00000E+00
         0.00000E+00
         0.00000E+00
         0.00000E+00
         0.00000E+00
         0.00000E+00
         0.00000E+00
         0.00000E+00
         0.00000E+00
         0.00000E+00
         0.00000E+00
         0.00000E+00
         0.00000E+00
         0.00000E+00
         0.00000E+00
         0.00000E+00
         0.00000E+00
         0.00000E+00
         0.00000E+00
         0.00000E+00
         0.00000E+00
         0.00000E+00
         0.00000E+00
         0.00000E+00
         0.00000E+00
         0.00000E+00
         0.00000E+00
         0.00000E+00
         0.00000E+00
         0.00000E+00
         0.00000E+00
         0.00000E+00
         0.00000E+00
         0.00000E+00
         0.00000E+00
         0.00000E+00
         0.00000E+00
         0.00000E+00
         0.00000E+00
         0.00000E+00
         0.00000E+00
         0.00000E+00
         0.00000E+00
         0.00000E+00
         0.00000E+00
         0.00000E+00
         0.00000E+00
         0.00000E+00
         0.00000E+00
         0.00000E+00
         0.00000E+00
         0.00000E+00
         0.00000E+00
         0.00000E+00
         0.00000E+00
         0.00000E+00
         0.00000E+00
         0.00000E+00
         0.00000E+00
         0.00000E+00
         0.00000E+00
         0.00000E+00
         0.00000E+00
         0.00000E+00
         0.00000E+00
         0.00000E+00
         0.00000E+00
         0.00000E+00
         0.00000E+00
         0.00000E+00
         0.00000E+00
         0.00000E+00
         0.00000E+00
         0.00000E+00
         0.00000E+00
         0.00000E+00
         0.00000E+00
         0.00000E+00
         0.00000E+00
         0.00000E+00
         0.00000E+00
         0.00000E+00
         0.00000E+00
         0.00000E+00
         0.00000E+00
         0.00000E+00
         0.00000E+00
         0.00000E+00
         0.00000E+00
         0.00000E+00
         0.00000E+00
  
SCALARS               pre_disp_force_y  double 1
LOOKUP_TABLE default
         0.00000E+00
         0.00000E+00
         0.00000E+00
         0.00000E+00
         0.00000E+00
         0.00000E+00
         0.00000E+00
         0.00000E+00
         0.00000E+00
         0.00000E+00
         0.00000E+00
         0.00000E+00
         0.00000E+00
         0.00000E+00
         0.00000E+00
         0.00000E+00
         0.00000E+00
         0.00000E+00
         0.00000E+00
         0.00000E+00
         0.00000E+00
         0.00000E+00
         0.00000E+00
         0.00000E+00
         0.00000E+00
         0.00000E+00
         0.00000E+00
         0.00000E+00
         0.00000E+00
         0.00000E+00
         0.00000E+00
         0.00000E+00
         0.00000E+00
         0.00000E+00
         0.00000E+00
         0.00000E+00
         0.00000E+00
         0.00000E+00
         0.00000E+00
         0.00000E+00
         0.00000E+00
         0.00000E+00
         0.00000E+00
         0.00000E+00
         0.00000E+00
         0.00000E+00
         0.00000E+00
         0.00000E+00
         0.00000E+00
         0.00000E+00
         0.00000E+00
         0.00000E+00
         0.00000E+00
         0.00000E+00
         0.00000E+00
         0.00000E+00
         0.00000E+00
         0.00000E+00
         0.00000E+00
         0.00000E+00
         0.00000E+00
         0.00000E+00
         0.00000E+00
         0.00000E+00
         0.00000E+00
         0.00000E+00
         0.00000E+00
         0.00000E+00
         0.00000E+00
         0.00000E+00
         0.00000E+00
         0.00000E+00
         0.00000E+00
         0.00000E+00
         0.00000E+00
         0.00000E+00
         0.00000E+00
         0.00000E+00
         0.00000E+00
         0.00000E+00
         0.00000E+00
         0.00000E+00
         0.00000E+00
         0.00000E+00
         0.00000E+00
         0.00000E+00
         0.00000E+00
         0.00000E+00
         0.00000E+00
         0.00000E+00
         0.00000E+00
         0.00000E+00
         0.00000E+00
         0.00000E+00
         0.00000E+00
         0.00000E+00
         0.00000E+00
         0.00000E+00
         0.00000E+00
         0.00000E+00
         0.00000E+00
         0.00000E+00
         0.00000E+00
         0.00000E+00
         0.00000E+00
         0.00000E+00
         0.00000E+00
         0.00000E+00
         0.00000E+00
         0.00000E+00
         0.00000E+00
         0.00000E+00
         0.00000E+00
         0.00000E+00
         0.00000E+00
         0.00000E+00
         0.00000E+00
         0.00000E+00
         0.00000E+00
         0.00000E+00
         0.00000E+00
         0.00000E+00
         0.00000E+00
         0.00000E+00
         0.00000E+00
         0.00000E+00
         0.00000E+00
         0.00000E+00
         0.00000E+00
         0.00000E+00
         0.00000E+00
         0.00000E+00
         0.00000E+00
         0.00000E+00
         0.00000E+00
         0.00000E+00
         0.00000E+00
         0.00000E+00
         0.00000E+00
         0.00000E+00
         0.00000E+00
         0.00000E+00
         0.00000E+00
         0.00000E+00
         0.00000E+00
         0.00000E+00
         0.00000E+00
         0.00000E+00
         0.00000E+00
         0.00000E+00
         0.00000E+00
         0.00000E+00
         0.00000E+00
         0.00000E+00
         0.00000E+00
         0.00000E+00
         0.00000E+00
         0.00000E+00
         0.00000E+00
         0.00000E+00
         0.00000E+00
         0.00000E+00
         0.00000E+00
         0.00000E+00
         0.00000E+00
         0.00000E+00
         0.00000E+00
         0.00000E+00
         0.00000E+00
         0.00000E+00
         0.00000E+00
         0.00000E+00
         0.00000E+00
         0.00000E+00
         0.00000E+00
         0.00000E+00
         0.00000E+00
         0.00000E+00
         0.00000E+00
         0.00000E+00
         0.00000E+00
         0.00000E+00
         0.00000E+00
         0.00000E+00
         0.00000E+00
         0.00000E+00
         0.00000E+00
         0.00000E+00
         0.00000E+00
         0.00000E+00
         0.00000E+00
         0.00000E+00
         0.00000E+00
         0.00000E+00
         0.00000E+00
         0.00000E+00
         0.00000E+00
         0.00000E+00
         0.00000E+00
         0.00000E+00
         0.00000E+00
         0.00000E+00
         0.00000E+00
         0.00000E+00
         0.00000E+00
         0.00000E+00
         0.00000E+00
         0.00000E+00
         0.00000E+00
         0.00000E+00
         0.00000E+00
         0.00000E+00
         0.00000E+00
         0.00000E+00
         0.00000E+00
         0.00000E+00
         0.00000E+00
         0.00000E+00
         0.00000E+00
         0.00000E+00
         0.00000E+00
         0.00000E+00
         0.00000E+00
         0.00000E+00
         0.00000E+00
         0.00000E+00
         0.00000E+00
         0.00000E+00
         0.00000E+00
         0.00000E+00
         0.00000E+00
         0.00000E+00
         0.00000E+00
         0.00000E+00
         0.00000E+00
         0.00000E+00
         0.00000E+00
         0.00000E+00
         0.00000E+00
         0.00000E+00
         0.00000E+00
         0.00000E+00
         0.00000E+00
         0.00000E+00
         0.00000E+00
         0.00000E+00
         0.00000E+00
         0.00000E+00
         0.00000E+00
         0.00000E+00
         0.00000E+00
         0.00000E+00
         0.00000E+00
         0.00000E+00
         0.00000E+00
         0.00000E+00
         0.00000E+00
         0.00000E+00
         0.00000E+00
         0.00000E+00
         0.00000E+00
         0.00000E+00
         0.00000E+00
         0.00000E+00
         0.00000E+00
         0.00000E+00
         0.00000E+00
         0.00000E+00
         0.00000E+00
         0.00000E+00
         0.00000E+00
         0.00000E+00
         0.00000E+00
         0.00000E+00
         0.00000E+00
         0.00000E+00
         0.00000E+00
         0.00000E+00
         0.00000E+00
         0.00000E+00
         0.00000E+00
         0.00000E+00
         0.00000E+00
         0.00000E+00
         0.00000E+00
         0.00000E+00
         0.00000E+00
         0.00000E+00
         0.00000E+00
         0.00000E+00
         0.00000E+00
         0.00000E+00
         0.00000E+00
         0.00000E+00
         0.00000E+00
         0.00000E+00
         0.00000E+00
         0.00000E+00
         0.00000E+00
         0.00000E+00
         0.00000E+00
         0.00000E+00
         0.00000E+00
         0.00000E+00
         0.00000E+00
         0.00000E+00
         0.00000E+00
         0.00000E+00
         0.00000E+00
         0.00000E+00
         0.00000E+00
         0.00000E+00
         0.00000E+00
         0.00000E+00
         0.00000E+00
         0.00000E+00
         0.00000E+00
         0.00000E+00
         0.00000E+00
         0.00000E+00
         0.00000E+00
         0.00000E+00
         0.00000E+00
         0.00000E+00
         0.00000E+00
         0.00000E+00
         0.00000E+00
         0.00000E+00
         0.00000E+00
         0.00000E+00
         0.00000E+00
         0.00000E+00
         0.00000E+00
         0.00000E+00
         0.00000E+00
         0.00000E+00
         0.00000E+00
         0.00000E+00
         0.00000E+00
         0.00000E+00
         0.00000E+00
         0.00000E+00
         0.00000E+00
         0.00000E+00
         0.00000E+00
         0.00000E+00
         0.00000E+00
         0.00000E+00
         0.00000E+00
         0.00000E+00
         0.00000E+00
         0.00000E+00
         0.00000E+00
         0.00000E+00
         0.00000E+00
         0.00000E+00
         0.00000E+00
         0.00000E+00
         0.00000E+00
         0.00000E+00
         0.00000E+00
         0.00000E+00
         0.00000E+00
         0.00000E+00
         0.00000E+00
         0.00000E+00
         0.00000E+00
         0.00000E+00
         0.00000E+00
         0.00000E+00
         0.00000E+00
         0.00000E+00
         0.00000E+00
         0.00000E+00
         0.00000E+00
         0.00000E+00
         0.00000E+00
         0.00000E+00
         0.00000E+00
         0.00000E+00
         0.00000E+00
         0.00000E+00
         0.00000E+00
         0.00000E+00
         0.00000E+00
         0.00000E+00
         0.00000E+00
         0.00000E+00
         0.00000E+00
         0.00000E+00
         0.00000E+00
         0.00000E+00
         0.00000E+00
         0.00000E+00
         0.00000E+00
         0.00000E+00
         0.00000E+00
         0.00000E+00
         0.00000E+00
         0.00000E+00
         0.00000E+00
         0.00000E+00
         0.00000E+00
         0.00000E+00
         0.00000E+00
         0.00000E+00
         0.00000E+00
         0.00000E+00
         0.00000E+00
         0.00000E+00
         0.00000E+00
         0.00000E+00
         0.00000E+00
         0.00000E+00
         0.00000E+00
         0.00000E+00
         0.00000E+00
         0.00000E+00
         0.00000E+00
         0.00000E+00
         0.00000E+00
         0.00000E+00
         0.00000E+00
         0.00000E+00
         0.00000E+00
         0.00000E+00
         0.00000E+00
         0.00000E+00
         0.00000E+00
         0.00000E+00
         0.00000E+00
         0.00000E+00
         0.00000E+00
         0.00000E+00
         0.00000E+00
         0.00000E+00
         0.00000E+00
         0.00000E+00
         0.00000E+00
         0.00000E+00
         0.00000E+00
         0.00000E+00
         0.00000E+00
         0.00000E+00
         0.00000E+00
         0.00000E+00
         0.00000E+00
         0.00000E+00
         0.00000E+00
         0.00000E+00
         0.00000E+00
         0.00000E+00
         0.00000E+00
         0.00000E+00
         0.00000E+00
         0.00000E+00
         0.00000E+00
         0.00000E+00
         0.00000E+00
         0.00000E+00
         0.00000E+00
         0.00000E+00
         0.00000E+00
         0.00000E+00
         0.00000E+00
         0.00000E+00
         0.00000E+00
         0.00000E+00
         0.00000E+00
         0.00000E+00
         0.00000E+00
         0.00000E+00
         0.00000E+00
         0.00000E+00
         0.00000E+00
         0.00000E+00
         0.00000E+00
         0.00000E+00
         0.00000E+00
         0.00000E+00
         0.00000E+00
         0.00000E+00
         0.00000E+00
         0.00000E+00
         0.00000E+00
         0.00000E+00
         0.00000E+00
         0.00000E+00
         0.00000E+00
         0.00000E+00
         0.00000E+00
         0.00000E+00
         0.00000E+00
         0.00000E+00
         0.00000E+00
         0.00000E+00
         0.00000E+00
         0.00000E+00
         0.00000E+00
         0.00000E+00
         0.00000E+00
         0.00000E+00
         0.00000E+00
         0.00000E+00
         0.00000E+00
         0.00000E+00
         0.00000E+00
         0.00000E+00
         0.00000E+00
         0.00000E+00
         0.00000E+00
         0.00000E+00
         0.00000E+00
         0.00000E+00
         0.00000E+00
         0.00000E+00
         0.00000E+00
         0.00000E+00
         0.00000E+00
         0.00000E+00
         0.00000E+00
         0.00000E+00
         0.00000E+00
         0.00000E+00
         0.00000E+00
         0.00000E+00
         0.00000E+00
         0.00000E+00
         0.00000E+00
         0.00000E+00
         0.00000E+00
         0.00000E+00
         0.00000E+00
         0.00000E+00
         0.00000E+00
         0.00000E+00
         0.00000E+00
         0.00000E+00
         0.00000E+00
         0.00000E+00
         0.00000E+00
         0.00000E+00
         0.00000E+00
         0.00000E+00
         0.00000E+00
         0.00000E+00
         0.00000E+00
         0.00000E+00
         0.00000E+00
         0.00000E+00
         0.00000E+00
         0.00000E+00
         0.00000E+00
         0.00000E+00
         0.00000E+00
         0.00000E+00
         0.00000E+00
         0.00000E+00
         0.00000E+00
         0.00000E+00
         0.00000E+00
         0.00000E+00
         0.00000E+00
         0.00000E+00
         0.00000E+00
         0.00000E+00
         0.00000E+00
         0.00000E+00
         0.00000E+00
         0.00000E+00
         0.00000E+00
         0.00000E+00
         0.00000E+00
         0.00000E+00
         0.00000E+00
         0.00000E+00
         0.00000E+00
         0.00000E+00
         0.00000E+00
         0.00000E+00
         0.00000E+00
         0.00000E+00
         0.00000E+00
         0.00000E+00
         0.00000E+00
         0.00000E+00
         0.00000E+00
         0.00000E+00
         0.00000E+00
         0.00000E+00
         0.00000E+00
         0.00000E+00
         0.00000E+00
         0.00000E+00
         0.00000E+00
         0.00000E+00
         0.00000E+00
         0.00000E+00
         0.00000E+00
         0.00000E+00
         0.00000E+00
         0.00000E+00
         0.00000E+00
         0.00000E+00
         0.00000E+00
         0.00000E+00
         0.00000E+00
         0.00000E+00
         0.00000E+00
         0.00000E+00
         0.00000E+00
         0.00000E+00
         0.00000E+00
         0.00000E+00
         0.00000E+00
         0.00000E+00
         0.00000E+00
         0.00000E+00
         0.00000E+00
         0.00000E+00
         0.00000E+00
         0.00000E+00
         0.00000E+00
         0.00000E+00
         0.00000E+00
         0.00000E+00
         0.00000E+00
         0.00000E+00
         0.00000E+00
         0.00000E+00
         0.00000E+00
         0.00000E+00
         0.00000E+00
         0.00000E+00
         0.00000E+00
         0.00000E+00
         0.00000E+00
         0.00000E+00
         0.00000E+00
         0.00000E+00
         0.00000E+00
         0.00000E+00
         0.00000E+00
         0.00000E+00
         0.00000E+00
         0.00000E+00
         0.00000E+00
         0.00000E+00
         0.00000E+00
         0.00000E+00
         0.00000E+00
         0.00000E+00
         0.00000E+00
         0.00000E+00
         0.00000E+00
         0.00000E+00
         0.00000E+00
         0.00000E+00
         0.00000E+00
         0.00000E+00
         0.00000E+00
         0.00000E+00
         0.00000E+00
         0.00000E+00
         0.00000E+00
         0.00000E+00
         0.00000E+00
         0.00000E+00
         0.00000E+00
         0.00000E+00
         0.00000E+00
         0.00000E+00
         0.00000E+00
         0.00000E+00
         0.00000E+00
         0.00000E+00
         0.00000E+00
         0.00000E+00
         0.00000E+00
         0.00000E+00
         0.00000E+00
         0.00000E+00
         0.00000E+00
         0.00000E+00
         0.00000E+00
         0.00000E+00
         0.00000E+00
         0.00000E+00
         0.00000E+00
         0.00000E+00
         0.00000E+00
         0.00000E+00
         0.00000E+00
         0.00000E+00
         0.00000E+00
         0.00000E+00
         0.00000E+00
         0.00000E+00
         0.00000E+00
         0.00000E+00
         0.00000E+00
         0.00000E+00
         0.00000E+00
         0.00000E+00
         0.00000E+00
         0.00000E+00
         0.00000E+00
         0.00000E+00
         0.00000E+00
         0.00000E+00
         0.00000E+00
         0.00000E+00
         0.00000E+00
         0.00000E+00
         0.00000E+00
         0.00000E+00
         0.00000E+00
         0.00000E+00
         0.00000E+00
         0.00000E+00
         0.00000E+00
         0.00000E+00
         0.00000E+00
         0.00000E+00
         0.00000E+00
         0.00000E+00
         0.00000E+00
         0.00000E+00
         0.00000E+00
         0.00000E+00
         0.00000E+00
         0.00000E+00
         0.00000E+00
         0.00000E+00
         0.00000E+00
         0.00000E+00
         0.00000E+00
         0.00000E+00
         0.00000E+00
         0.00000E+00
         0.00000E+00
         0.00000E+00
         0.00000E+00
         0.00000E+00
         0.00000E+00
         0.00000E+00
         0.00000E+00
         0.00000E+00
         0.00000E+00
         0.00000E+00
         0.00000E+00
         0.00000E+00
         0.00000E+00
         0.00000E+00
         0.00000E+00
         0.00000E+00
         0.00000E+00
         0.00000E+00
         0.00000E+00
         0.00000E+00
         0.00000E+00
         0.00000E+00
         0.00000E+00
         0.00000E+00
         0.00000E+00
         0.00000E+00
         0.00000E+00
         0.00000E+00
         0.00000E+00
         0.00000E+00
         0.00000E+00
         0.00000E+00
         0.00000E+00
         0.00000E+00
         0.00000E+00
         0.00000E+00
         0.00000E+00
         0.00000E+00
         0.00000E+00
         0.00000E+00
         0.00000E+00
         0.00000E+00
         0.00000E+00
         0.00000E+00
         0.00000E+00
         0.00000E+00
         0.00000E+00
         0.00000E+00
         0.00000E+00
         0.00000E+00
         0.00000E+00
         0.00000E+00
         0.00000E+00
         0.00000E+00
         0.00000E+00
         0.00000E+00
         0.00000E+00
         0.00000E+00
         0.00000E+00
         0.00000E+00
         0.00000E+00
         0.00000E+00
         0.00000E+00
         0.00000E+00
         0.00000E+00
         0.00000E+00
         0.00000E+00
         0.00000E+00
         0.00000E+00
         0.00000E+00
         0.00000E+00
         0.00000E+00
         0.00000E+00
         0.00000E+00
         0.00000E+00
         0.00000E+00
         0.00000E+00
         0.00000E+00
         0.00000E+00
         0.00000E+00
         0.00000E+00
         0.00000E+00
         0.00000E+00
         0.00000E+00
         0.00000E+00
         0.00000E+00
         0.00000E+00
         0.00000E+00
         0.00000E+00
         0.00000E+00
         0.00000E+00
         0.00000E+00
         0.00000E+00
         0.00000E+00
         0.00000E+00
         0.00000E+00
         0.00000E+00
         0.00000E+00
         0.00000E+00
         0.00000E+00
         0.00000E+00
         0.00000E+00
         0.00000E+00
         0.00000E+00
         0.00000E+00
         0.00000E+00
         0.00000E+00
         0.00000E+00
         0.00000E+00
         0.00000E+00
         0.00000E+00
         0.00000E+00
         0.00000E+00
         0.00000E+00
         0.00000E+00
         0.00000E+00
         0.00000E+00
         0.00000E+00
         0.00000E+00
         0.00000E+00
         0.00000E+00
         0.00000E+00
         0.00000E+00
         0.00000E+00
         0.00000E+00
         0.00000E+00
         0.00000E+00
         0.00000E+00
         0.00000E+00
         0.00000E+00
         0.00000E+00
         0.00000E+00
         0.00000E+00
         0.00000E+00
         0.00000E+00
         0.00000E+00
         0.00000E+00
         0.00000E+00
         0.00000E+00
         0.00000E+00
         0.00000E+00
         0.00000E+00
         0.00000E+00
         0.00000E+00
         0.00000E+00
         0.00000E+00
         0.00000E+00
         0.00000E+00
         0.00000E+00
         0.00000E+00
         0.00000E+00
         0.00000E+00
         0.00000E+00
         0.00000E+00
         0.00000E+00
         0.00000E+00
         0.00000E+00
         0.00000E+00
         0.00000E+00
         0.00000E+00
         0.00000E+00
         0.00000E+00
         0.00000E+00
         0.00000E+00
         0.00000E+00
         0.00000E+00
         0.00000E+00
         0.00000E+00
         0.00000E+00
         0.00000E+00
         0.00000E+00
         0.00000E+00
         0.00000E+00
         0.00000E+00
         0.00000E+00
         0.00000E+00
         0.00000E+00
         0.00000E+00
         0.00000E+00
         0.00000E+00
         0.00000E+00
         0.00000E+00
         0.00000E+00
         0.00000E+00
         0.00000E+00
         0.00000E+00
         0.00000E+00
         0.00000E+00
         0.00000E+00
         0.00000E+00
         0.00000E+00
         0.00000E+00
         0.00000E+00
         0.00000E+00
         0.00000E+00
         0.00000E+00
         0.00000E+00
         0.00000E+00
         0.00000E+00
         0.00000E+00
         0.00000E+00
         0.00000E+00
         0.00000E+00
         0.00000E+00
         0.00000E+00
         0.00000E+00
         0.00000E+00
         0.00000E+00
         0.00000E+00
         0.00000E+00
         0.00000E+00
         0.00000E+00
         0.00000E+00
         0.00000E+00
         0.00000E+00
         0.00000E+00
         0.00000E+00
         0.00000E+00
         0.00000E+00
         0.00000E+00
         0.00000E+00
         0.00000E+00
         0.00000E+00
         0.00000E+00
         0.00000E+00
         0.00000E+00
         0.00000E+00
         0.00000E+00
         0.00000E+00
         0.00000E+00
         0.00000E+00
         0.00000E+00
         0.00000E+00
         0.00000E+00
         0.00000E+00
         0.00000E+00
         0.00000E+00
         0.00000E+00
         0.00000E+00
         0.00000E+00
         0.00000E+00
         0.00000E+00
         0.00000E+00
         0.00000E+00
         0.00000E+00
         0.00000E+00
         0.00000E+00
         0.00000E+00
         0.00000E+00
         0.00000E+00
         0.00000E+00
         0.00000E+00
         0.00000E+00
         0.00000E+00
         0.00000E+00
         0.00000E+00
         0.00000E+00
         0.00000E+00
         0.00000E+00
         0.00000E+00
         0.00000E+00
         0.00000E+00
         0.00000E+00
         0.00000E+00
         0.00000E+00
         0.00000E+00
         0.00000E+00
         0.00000E+00
         0.00000E+00
         0.00000E+00
         0.00000E+00
         0.00000E+00
         0.00000E+00
         0.00000E+00
         0.00000E+00
         0.00000E+00
         0.00000E+00
         0.00000E+00
         0.00000E+00
         0.00000E+00
         0.00000E+00
         0.00000E+00
         0.00000E+00
         0.00000E+00
         0.00000E+00
         0.00000E+00
         0.00000E+00
         0.00000E+00
         0.00000E+00
         0.00000E+00
         0.00000E+00
         0.00000E+00
         0.00000E+00
         0.00000E+00
         0.00000E+00
         0.00000E+00
         0.00000E+00
         0.00000E+00
         0.00000E+00
         0.00000E+00
         0.00000E+00
         0.00000E+00
         0.00000E+00
         0.00000E+00
         0.00000E+00
         0.00000E+00
         0.00000E+00
         0.00000E+00
         0.00000E+00
         0.00000E+00
         0.00000E+00
         0.00000E+00
         0.00000E+00
         0.00000E+00
         0.00000E+00
         0.00000E+00
         0.00000E+00
         0.00000E+00
         0.00000E+00
         0.00000E+00
         0.00000E+00
         0.00000E+00
         0.00000E+00
         0.00000E+00
         0.00000E+00
         0.00000E+00
         0.00000E+00
         0.00000E+00
         0.00000E+00
         0.00000E+00
         0.00000E+00
         0.00000E+00
         0.00000E+00
         0.00000E+00
         0.00000E+00
         0.00000E+00
         0.00000E+00
         0.00000E+00
         0.00000E+00
         0.00000E+00
         0.00000E+00
         0.00000E+00
         0.00000E+00
         0.00000E+00
         0.00000E+00
         0.00000E+00
         0.00000E+00
         0.00000E+00
         0.00000E+00
         0.00000E+00
         0.00000E+00
         0.00000E+00
         0.00000E+00
         0.00000E+00
         0.00000E+00
         0.00000E+00
         0.00000E+00
         0.00000E+00
         0.00000E+00
         0.00000E+00
         0.00000E+00
         0.00000E+00
         0.00000E+00
         0.00000E+00
         0.00000E+00
         0.00000E+00
         0.00000E+00
         0.00000E+00
         0.00000E+00
         0.00000E+00
         0.00000E+00
         0.00000E+00
         0.00000E+00
         0.00000E+00
         0.00000E+00
         0.00000E+00
         0.00000E+00
         0.00000E+00
         0.00000E+00
         0.00000E+00
         0.00000E+00
         0.00000E+00
         0.00000E+00
         0.00000E+00
         0.00000E+00
         0.00000E+00
         0.00000E+00
         0.00000E+00
         0.00000E+00
         0.00000E+00
         0.00000E+00
         0.00000E+00
         0.00000E+00
         0.00000E+00
         0.00000E+00
         0.00000E+00
         0.00000E+00
         0.00000E+00
         0.00000E+00
         0.00000E+00
         0.00000E+00
         0.00000E+00
         0.00000E+00
         0.00000E+00
         0.00000E+00
         0.00000E+00
         0.00000E+00
         0.00000E+00
         0.00000E+00
         0.00000E+00
         0.00000E+00
         0.00000E+00
         0.00000E+00
         0.00000E+00
         0.00000E+00
         0.00000E+00
         0.00000E+00
         0.00000E+00
         0.00000E+00
         0.00000E+00
         0.00000E+00
         0.00000E+00
         0.00000E+00
         0.00000E+00
         0.00000E+00
         0.00000E+00
         0.00000E+00
         0.00000E+00
         0.00000E+00
         0.00000E+00
         0.00000E+00
         0.00000E+00
         0.00000E+00
         0.00000E+00
         0.00000E+00
         0.00000E+00
         0.00000E+00
         0.00000E+00
         0.00000E+00
         0.00000E+00
         0.00000E+00
         0.00000E+00
         0.00000E+00
         0.00000E+00
         0.00000E+00
         0.00000E+00
         0.00000E+00
         0.00000E+00
         0.00000E+00
         0.00000E+00
         0.00000E+00
         0.00000E+00
         0.00000E+00
         0.00000E+00
         0.00000E+00
         0.00000E+00
         0.00000E+00
         0.00000E+00
         0.00000E+00
         0.00000E+00
         0.00000E+00
         0.00000E+00
         0.00000E+00
         0.00000E+00
         0.00000E+00
         0.00000E+00
         0.00000E+00
         0.00000E+00
         0.00000E+00
         0.00000E+00
         0.00000E+00
         0.00000E+00
         0.00000E+00
         0.00000E+00
         0.00000E+00
         0.00000E+00
         0.00000E+00
         0.00000E+00
         0.00000E+00
         0.00000E+00
         0.00000E+00
         0.00000E+00
         0.00000E+00
         0.00000E+00
         0.00000E+00
         0.00000E+00
         0.00000E+00
         0.00000E+00
         0.00000E+00
         0.00000E+00
         0.00000E+00
         0.00000E+00
         0.00000E+00
         0.00000E+00
         0.00000E+00
         0.00000E+00
         0.00000E+00
         0.00000E+00
         0.00000E+00
         0.00000E+00
         0.00000E+00
         0.00000E+00
         0.00000E+00
         0.00000E+00
         0.00000E+00
         0.00000E+00
         0.00000E+00
         0.00000E+00
         0.00000E+00
         0.00000E+00
         0.00000E+00
         0.00000E+00
         0.00000E+00
         0.00000E+00
         0.00000E+00
         0.00000E+00
         0.00000E+00
         0.00000E+00
         0.00000E+00
         0.00000E+00
         0.00000E+00
         0.00000E+00
         0.00000E+00
         0.00000E+00
         0.00000E+00
         0.00000E+00
         0.00000E+00
         0.00000E+00
         0.00000E+00
         0.00000E+00
         0.00000E+00
         0.00000E+00
         0.00000E+00
         0.00000E+00
         0.00000E+00
         0.00000E+00
         0.00000E+00
         0.00000E+00
         0.00000E+00
         0.00000E+00
         0.00000E+00
         0.00000E+00
         0.00000E+00
         0.00000E+00
         0.00000E+00
         0.00000E+00
         0.00000E+00
         0.00000E+00
         0.00000E+00
         0.00000E+00
         0.00000E+00
         0.00000E+00
         0.00000E+00
         0.00000E+00
         0.00000E+00
         0.00000E+00
         0.00000E+00
         0.00000E+00
         0.00000E+00
         0.00000E+00
         0.00000E+00
         0.00000E+00
         0.00000E+00
         0.00000E+00
         0.00000E+00
         0.00000E+00
         0.00000E+00
         0.00000E+00
         0.00000E+00
         0.00000E+00
         0.00000E+00
         0.00000E+00
         0.00000E+00
         0.00000E+00
         0.00000E+00
         0.00000E+00
         0.00000E+00
         0.00000E+00
         0.00000E+00
         0.00000E+00
         0.00000E+00
         0.00000E+00
         0.00000E+00
         0.00000E+00
         0.00000E+00
         0.00000E+00
         0.00000E+00
         0.00000E+00
         0.00000E+00
         0.00000E+00
         0.00000E+00
         0.00000E+00
         0.00000E+00
         0.00000E+00
         0.00000E+00
         0.00000E+00
         0.00000E+00
         0.00000E+00
         0.00000E+00
         0.00000E+00
         0.00000E+00
         0.00000E+00
         0.00000E+00
         0.00000E+00
         0.00000E+00
         0.00000E+00
         0.00000E+00
         0.00000E+00
         0.00000E+00
         0.00000E+00
         0.00000E+00
         0.00000E+00
         0.00000E+00
         0.00000E+00
         0.00000E+00
         0.00000E+00
         0.00000E+00
         0.00000E+00
         0.00000E+00
         0.00000E+00
         0.00000E+00
         0.00000E+00
         0.00000E+00
         0.00000E+00
         0.00000E+00
         0.00000E+00
         0.00000E+00
         0.00000E+00
         0.00000E+00
         0.00000E+00
         0.00000E+00
         0.00000E+00
         0.00000E+00
         0.00000E+00
         0.00000E+00
         0.00000E+00
         0.00000E+00
         0.00000E+00
         0.00000E+00
         0.00000E+00
         0.00000E+00
         0.00000E+00
         0.00000E+00
         0.00000E+00
         0.00000E+00
         0.00000E+00
         0.00000E+00
         0.00000E+00
         0.00000E+00
         0.00000E+00
         0.00000E+00
         0.00000E+00
         0.00000E+00
         0.00000E+00
         0.00000E+00
         0.00000E+00
         0.00000E+00
         0.00000E+00
         0.00000E+00
         0.00000E+00
         0.00000E+00
         0.00000E+00
         0.00000E+00
         0.00000E+00
         0.00000E+00
         0.00000E+00
         0.00000E+00
         0.00000E+00
         0.00000E+00
         0.00000E+00
         0.00000E+00
         0.00000E+00
         0.00000E+00
         0.00000E+00
         0.00000E+00
         0.00000E+00
         0.00000E+00
         0.00000E+00
         0.00000E+00
         0.00000E+00
         0.00000E+00
         0.00000E+00
         0.00000E+00
         0.00000E+00
         0.00000E+00
         0.00000E+00
         0.00000E+00
         0.00000E+00
         0.00000E+00
         0.00000E+00
         0.00000E+00
         0.00000E+00
         0.00000E+00
         0.00000E+00
         0.00000E+00
         0.00000E+00
         0.00000E+00
         0.00000E+00
         0.00000E+00
         0.00000E+00
         0.00000E+00
         0.00000E+00
         0.00000E+00
         0.00000E+00
         0.00000E+00
         0.00000E+00
         0.00000E+00
         0.00000E+00
         0.00000E+00
         0.00000E+00
         0.00000E+00
         0.00000E+00
         0.00000E+00
         0.00000E+00
         0.00000E+00
         0.00000E+00
         0.00000E+00
         0.00000E+00
         0.00000E+00
         0.00000E+00
         0.00000E+00
         0.00000E+00
         0.00000E+00
         0.00000E+00
         0.00000E+00
         0.00000E+00
         0.00000E+00
         0.00000E+00
         0.00000E+00
         0.00000E+00
         0.00000E+00
         0.00000E+00
         0.00000E+00
         0.00000E+00
         0.00000E+00
         0.00000E+00
         0.00000E+00
         0.00000E+00
         0.00000E+00
         0.00000E+00
         0.00000E+00
         0.00000E+00
         0.00000E+00
         0.00000E+00
         0.00000E+00
         0.00000E+00
         0.00000E+00
         0.00000E+00
         0.00000E+00
         0.00000E+00
         0.00000E+00
         0.00000E+00
         0.00000E+00
         0.00000E+00
         0.00000E+00
         0.00000E+00
         0.00000E+00
         0.00000E+00
         0.00000E+00
         0.00000E+00
         0.00000E+00
         0.00000E+00
         0.00000E+00
         0.00000E+00
         0.00000E+00
         0.00000E+00
         0.00000E+00
         0.00000E+00
         0.00000E+00
         0.00000E+00
         0.00000E+00
         0.00000E+00
         0.00000E+00
         0.00000E+00
         0.00000E+00
         0.00000E+00
         0.00000E+00
         0.00000E+00
         0.00000E+00
         0.00000E+00
         0.00000E+00
         0.00000E+00
         0.00000E+00
         0.00000E+00
         0.00000E+00
         0.00000E+00
         0.00000E+00
         0.00000E+00
         0.00000E+00
         0.00000E+00
         0.00000E+00
         0.00000E+00
         0.00000E+00
         0.00000E+00
         0.00000E+00
         0.00000E+00
         0.00000E+00
         0.00000E+00
         0.00000E+00
         0.00000E+00
         0.00000E+00
         0.00000E+00
         0.00000E+00
         0.00000E+00
         0.00000E+00
         0.00000E+00
         0.00000E+00
         0.00000E+00
         0.00000E+00
         0.00000E+00
         0.00000E+00
         0.00000E+00
         0.00000E+00
         0.00000E+00
         0.00000E+00
         0.00000E+00
         0.00000E+00
         0.00000E+00
         0.00000E+00
         0.00000E+00
         0.00000E+00
         0.00000E+00
         0.00000E+00
         0.00000E+00
         0.00000E+00
         0.00000E+00
         0.00000E+00
         0.00000E+00
         0.00000E+00
         0.00000E+00
         0.00000E+00
         0.00000E+00
         0.00000E+00
         0.00000E+00
         0.00000E+00
         0.00000E+00
         0.00000E+00
         0.00000E+00
         0.00000E+00
         0.00000E+00
         0.00000E+00
         0.00000E+00
         0.00000E+00
         0.00000E+00
         0.00000E+00
         0.00000E+00
         0.00000E+00
         0.00000E+00
         0.00000E+00
         0.00000E+00
         0.00000E+00
         0.00000E+00
         0.00000E+00
         0.00000E+00
         0.00000E+00
         0.00000E+00
         0.00000E+00
         0.00000E+00
         0.00000E+00
         0.00000E+00
         0.00000E+00
         0.00000E+00
         0.00000E+00
         0.00000E+00
         0.00000E+00
         0.00000E+00
         0.00000E+00
         0.00000E+00
         0.00000E+00
         0.00000E+00
         0.00000E+00
         0.00000E+00
         0.00000E+00
         0.00000E+00
         0.00000E+00
         0.00000E+00
         0.00000E+00
         0.00000E+00
         0.00000E+00
         0.00000E+00
         0.00000E+00
         0.00000E+00
         0.00000E+00
         0.00000E+00
         0.00000E+00
         0.00000E+00
         0.00000E+00
         0.00000E+00
         0.00000E+00
         0.00000E+00
         0.00000E+00
         0.00000E+00
         0.00000E+00
         0.00000E+00
         0.00000E+00
         0.00000E+00
         0.00000E+00
         0.00000E+00
         0.00000E+00
         0.00000E+00
         0.00000E+00
         0.00000E+00
         0.00000E+00
         0.00000E+00
         0.00000E+00
         0.00000E+00
         0.00000E+00
         0.00000E+00
         0.00000E+00
         0.00000E+00
         0.00000E+00
         0.00000E+00
         0.00000E+00
         0.00000E+00
         0.00000E+00
         0.00000E+00
         0.00000E+00
         0.00000E+00
         0.00000E+00
         0.00000E+00
         0.00000E+00
         0.00000E+00
         0.00000E+00
         0.00000E+00
         0.00000E+00
         0.00000E+00
         0.00000E+00
         0.00000E+00
         0.00000E+00
         0.00000E+00
         0.00000E+00
         0.00000E+00
         0.00000E+00
         0.00000E+00
         0.00000E+00
         0.00000E+00
         0.00000E+00
         0.00000E+00
         0.00000E+00
         0.00000E+00
         0.00000E+00
         0.00000E+00
         0.00000E+00
         0.00000E+00
         0.00000E+00
         0.00000E+00
         0.00000E+00
         0.00000E+00
         0.00000E+00
         0.00000E+00
         0.00000E+00
         0.00000E+00
         0.00000E+00
         0.00000E+00
         0.00000E+00
         0.00000E+00
         0.00000E+00
         0.00000E+00
         0.00000E+00
         0.00000E+00
         0.00000E+00
         0.00000E+00
         0.00000E+00
         0.00000E+00
         0.00000E+00
         0.00000E+00
         0.00000E+00
         0.00000E+00
         0.00000E+00
         0.00000E+00
         0.00000E+00
         0.00000E+00
         0.00000E+00
         0.00000E+00
         0.00000E+00
         0.00000E+00
         0.00000E+00
         0.00000E+00
         0.00000E+00
         0.00000E+00
         0.00000E+00
         0.00000E+00
         0.00000E+00
         0.00000E+00
         0.00000E+00
         0.00000E+00
         0.00000E+00
         0.00000E+00
         0.00000E+00
         0.00000E+00
         0.00000E+00
         0.00000E+00
         0.00000E+00
         0.00000E+00
         0.00000E+00
         0.00000E+00
         0.00000E+00
         0.00000E+00
         0.00000E+00
         0.00000E+00
         0.00000E+00
         0.00000E+00
         0.00000E+00
         0.00000E+00
         0.00000E+00
         0.00000E+00
         0.00000E+00
         0.00000E+00
         0.00000E+00
         0.00000E+00
         0.00000E+00
         0.00000E+00
         0.00000E+00
         0.00000E+00
         0.00000E+00
         0.00000E+00
         0.00000E+00
         0.00000E+00
         0.00000E+00
         0.00000E+00
         0.00000E+00
         0.00000E+00
         0.00000E+00
         0.00000E+00
         0.00000E+00
         0.00000E+00
         0.00000E+00
         0.00000E+00
         0.00000E+00
         0.00000E+00
         0.00000E+00
         0.00000E+00
         0.00000E+00
         0.00000E+00
         0.00000E+00
         0.00000E+00
         0.00000E+00
         0.00000E+00
         0.00000E+00
         0.00000E+00
         0.00000E+00
         0.00000E+00
         0.00000E+00
         0.00000E+00
         0.00000E+00
         0.00000E+00
         0.00000E+00
         0.00000E+00
         0.00000E+00
         0.00000E+00
         0.00000E+00
         0.00000E+00
         0.00000E+00
         0.00000E+00
         0.00000E+00
         0.00000E+00
         0.00000E+00
         0.00000E+00
         0.00000E+00
         0.00000E+00
         0.00000E+00
         0.00000E+00
         0.00000E+00
         0.00000E+00
         0.00000E+00
         0.00000E+00
         0.00000E+00
         0.00000E+00
         0.00000E+00
         0.00000E+00
         0.00000E+00
         0.00000E+00
         0.00000E+00
         0.00000E+00
         0.00000E+00
         0.00000E+00
         0.00000E+00
         0.00000E+00
         0.00000E+00
         0.00000E+00
         0.00000E+00
         0.00000E+00
         0.00000E+00
         0.00000E+00
         0.00000E+00
         0.00000E+00
         0.00000E+00
         0.00000E+00
         0.00000E+00
         0.00000E+00
         0.00000E+00
         0.00000E+00
         0.00000E+00
         0.00000E+00
         0.00000E+00
         0.00000E+00
         0.00000E+00
         0.00000E+00
         0.00000E+00
         0.00000E+00
         0.00000E+00
         0.00000E+00
         0.00000E+00
         0.00000E+00
         0.00000E+00
         0.00000E+00
         0.00000E+00
         0.00000E+00
         0.00000E+00
         0.00000E+00
         0.00000E+00
         0.00000E+00
         0.00000E+00
         0.00000E+00
         0.00000E+00
         0.00000E+00
         0.00000E+00
         0.00000E+00
         0.00000E+00
         0.00000E+00
         0.00000E+00
         0.00000E+00
         0.00000E+00
         0.00000E+00
         0.00000E+00
         0.00000E+00
         0.00000E+00
         0.00000E+00
         0.00000E+00
         0.00000E+00
         0.00000E+00
         0.00000E+00
         0.00000E+00
         0.00000E+00
         0.00000E+00
         0.00000E+00
         0.00000E+00
         0.00000E+00
         0.00000E+00
         0.00000E+00
         0.00000E+00
         0.00000E+00
         0.00000E+00
         0.00000E+00
         0.00000E+00
         0.00000E+00
         0.00000E+00
         0.00000E+00
         0.00000E+00
         0.00000E+00
         0.00000E+00
         0.00000E+00
         0.00000E+00
         0.00000E+00
         0.00000E+00
         0.00000E+00
         0.00000E+00
         0.00000E+00
         0.00000E+00
         0.00000E+00
         0.00000E+00
         0.00000E+00
         0.00000E+00
         0.00000E+00
         0.00000E+00
         0.00000E+00
         0.00000E+00
         0.00000E+00
         0.00000E+00
         0.00000E+00
         0.00000E+00
         0.00000E+00
         0.00000E+00
         0.00000E+00
         0.00000E+00
         0.00000E+00
         0.00000E+00
         0.00000E+00
         0.00000E+00
         0.00000E+00
         0.00000E+00
         0.00000E+00
         0.00000E+00
         0.00000E+00
         0.00000E+00
         0.00000E+00
         0.00000E+00
         0.00000E+00
         0.00000E+00
         0.00000E+00
         0.00000E+00
         0.00000E+00
         0.00000E+00
         0.00000E+00
         0.00000E+00
         0.00000E+00
         0.00000E+00
         0.00000E+00
         0.00000E+00
         0.00000E+00
         0.00000E+00
         0.00000E+00
         0.00000E+00
         0.00000E+00
         0.00000E+00
         0.00000E+00
         0.00000E+00
         0.00000E+00
         0.00000E+00
         0.00000E+00
  
SCALARS               pre_disp_force_z  double 1
LOOKUP_TABLE default
         0.00000E+00
         0.00000E+00
         0.00000E+00
         0.00000E+00
        -0.10824E+03
         0.19337E+03
         0.25271E+03
         0.38602E+03
         0.00000E+00
         0.00000E+00
        -0.24431E+02
         0.16650E+03
         0.00000E+00
         0.00000E+00
         0.24576E+03
        -0.94073E+01
         0.00000E+00
         0.00000E+00
        -0.79870E+02
        -0.13665E+03
         0.00000E+00
         0.00000E+00
         0.00000E+00
         0.97081E+02
        -0.27697E+01
         0.13736E+01
         0.00000E+00
         0.00000E+00
         0.16255E+03
        -0.75984E+02
         0.00000E+00
         0.00000E+00
         0.00000E+00
        -0.33445E+02
        -0.20043E+03
         0.84683E+02
         0.00000E+00
         0.00000E+00
         0.39404E+03
         0.14907E+03
         0.00000E+00
         0.00000E+00
        -0.18103E+03
         0.90547E+02
         0.00000E+00
         0.00000E+00
         0.85029E+02
         0.25840E+03
         0.00000E+00
        -0.57721E+02
         0.00000E+00
         0.37849E+03
         0.00000E+00
        -0.44452E+00
         0.00000E+00
         0.23914E+03
         0.00000E+00
         0.00000E+00
         0.11427E+03
         0.23605E+03
         0.00000E+00
         0.00000E+00
         0.62284E+03
        -0.29182E+02
         0.00000E+00
         0.59979E+03
         0.00000E+00
         0.34975E+03
         0.00000E+00
         0.00000E+00
        -0.42319E+02
         0.85807E+02
         0.00000E+00
        -0.16339E+03
         0.00000E+00
         0.11399E+03
         0.00000E+00
         0.80786E+01
         0.00000E+00
         0.10930E+03
         0.00000E+00
         0.00000E+00
        -0.16939E+03
         0.14853E+02
         0.00000E+00
        -0.93303E+02
         0.00000E+00
        -0.39276E+02
         0.00000E+00
         0.84916E+00
         0.00000E+00
         0.00000E+00
         0.65234E+00
        -0.20790E+02
         0.00000E+00
        -0.45139E+01
         0.00000E+00
        -0.30736E+03
         0.00000E+00
         0.31114E+02
         0.00000E+00
         0.00000E+00
        -0.58153E+02
        -0.61136E+02
         0.00000E+00
         0.00000E+00
        -0.12276E+03
        -0.48496E+02
         0.00000E+00
         0.27543E+02
         0.00000E+00
        -0.69757E+02
         0.00000E+00
         0.63937E+02
         0.00000E+00
        -0.11093E+03
         0.00000E+00
        -0.16909E+03
         0.00000E+00
        -0.73460E+02
         0.00000E+00
        -0.99306E+02
         0.00000E+00
         0.66120E+02
         0.00000E+00
        -0.99097E+02
         0.00000E+00
         0.51392E+02
         0.00000E+00
        -0.28009E+02
         0.00000E+00
        -0.11472E+03
         0.00000E+00
        -0.13201E+03
         0.00000E+00
        -0.12263E+03
         0.00000E+00
        -0.61422E+02
         0.00000E+00
        -0.80167E+02
         0.00000E+00
         0.96202E+02
         0.00000E+00
        -0.15151E+03
         0.00000E+00
        -0.83761E+01
         0.00000E+00
        -0.28621E+01
         0.00000E+00
        -0.63891E+02
         0.00000E+00
        -0.20812E+01
         0.00000E+00
        -0.82189E+02
         0.00000E+00
        -0.82059E+02
         0.00000E+00
         0.00000E+00
         0.00000E+00
         0.00000E+00
         0.00000E+00
         0.00000E+00
         0.00000E+00
         0.00000E+00
         0.00000E+00
         0.00000E+00
         0.00000E+00
         0.00000E+00
         0.00000E+00
         0.00000E+00
         0.00000E+00
         0.00000E+00
         0.00000E+00
         0.00000E+00
         0.00000E+00
         0.00000E+00
         0.00000E+00
         0.00000E+00
         0.00000E+00
         0.00000E+00
         0.00000E+00
         0.00000E+00
         0.00000E+00
         0.00000E+00
         0.00000E+00
         0.00000E+00
         0.00000E+00
         0.00000E+00
         0.00000E+00
         0.00000E+00
         0.00000E+00
         0.00000E+00
         0.00000E+00
         0.00000E+00
         0.00000E+00
         0.00000E+00
         0.00000E+00
         0.00000E+00
         0.00000E+00
         0.00000E+00
         0.00000E+00
         0.00000E+00
         0.00000E+00
         0.00000E+00
         0.00000E+00
         0.00000E+00
         0.00000E+00
         0.00000E+00
         0.00000E+00
         0.00000E+00
         0.00000E+00
         0.00000E+00
         0.00000E+00
         0.00000E+00
         0.00000E+00
         0.00000E+00
         0.00000E+00
         0.00000E+00
         0.00000E+00
         0.00000E+00
         0.00000E+00
         0.00000E+00
         0.00000E+00
         0.00000E+00
         0.00000E+00
         0.00000E+00
         0.00000E+00
         0.00000E+00
         0.00000E+00
         0.00000E+00
         0.00000E+00
         0.00000E+00
         0.00000E+00
         0.00000E+00
         0.00000E+00
         0.00000E+00
         0.00000E+00
         0.00000E+00
         0.00000E+00
         0.00000E+00
         0.00000E+00
         0.00000E+00
         0.00000E+00
         0.00000E+00
         0.00000E+00
         0.00000E+00
         0.00000E+00
         0.00000E+00
         0.00000E+00
         0.00000E+00
         0.00000E+00
         0.00000E+00
         0.00000E+00
         0.00000E+00
         0.00000E+00
         0.00000E+00
         0.00000E+00
         0.00000E+00
         0.00000E+00
         0.00000E+00
         0.00000E+00
         0.00000E+00
         0.00000E+00
         0.00000E+00
         0.00000E+00
         0.00000E+00
         0.00000E+00
         0.00000E+00
         0.00000E+00
         0.00000E+00
         0.00000E+00
         0.00000E+00
         0.00000E+00
         0.00000E+00
         0.00000E+00
         0.00000E+00
         0.00000E+00
         0.00000E+00
         0.00000E+00
         0.00000E+00
         0.00000E+00
         0.00000E+00
         0.00000E+00
         0.00000E+00
         0.00000E+00
         0.00000E+00
         0.00000E+00
         0.00000E+00
         0.00000E+00
         0.00000E+00
         0.00000E+00
         0.00000E+00
         0.00000E+00
         0.00000E+00
         0.00000E+00
         0.00000E+00
         0.00000E+00
         0.00000E+00
         0.00000E+00
         0.00000E+00
         0.00000E+00
         0.00000E+00
         0.00000E+00
         0.00000E+00
         0.00000E+00
         0.00000E+00
         0.00000E+00
         0.00000E+00
         0.00000E+00
         0.00000E+00
         0.00000E+00
         0.00000E+00
         0.00000E+00
         0.00000E+00
         0.00000E+00
         0.00000E+00
         0.00000E+00
         0.00000E+00
         0.00000E+00
         0.00000E+00
         0.00000E+00
         0.00000E+00
         0.00000E+00
         0.00000E+00
         0.00000E+00
         0.00000E+00
         0.00000E+00
         0.00000E+00
         0.00000E+00
         0.00000E+00
         0.00000E+00
         0.00000E+00
         0.00000E+00
         0.00000E+00
         0.00000E+00
         0.00000E+00
         0.00000E+00
         0.00000E+00
         0.00000E+00
         0.00000E+00
         0.00000E+00
         0.00000E+00
         0.00000E+00
         0.00000E+00
         0.00000E+00
         0.00000E+00
         0.00000E+00
         0.00000E+00
         0.00000E+00
         0.00000E+00
         0.00000E+00
         0.00000E+00
         0.00000E+00
         0.00000E+00
         0.00000E+00
         0.00000E+00
         0.00000E+00
         0.00000E+00
         0.00000E+00
         0.00000E+00
         0.00000E+00
         0.00000E+00
         0.00000E+00
         0.00000E+00
         0.00000E+00
         0.00000E+00
         0.00000E+00
         0.00000E+00
         0.00000E+00
         0.00000E+00
         0.00000E+00
         0.00000E+00
         0.00000E+00
         0.00000E+00
         0.00000E+00
         0.00000E+00
         0.00000E+00
         0.00000E+00
         0.00000E+00
         0.00000E+00
         0.00000E+00
         0.00000E+00
         0.00000E+00
         0.00000E+00
         0.00000E+00
         0.00000E+00
         0.00000E+00
         0.00000E+00
         0.00000E+00
         0.00000E+00
         0.00000E+00
         0.00000E+00
         0.00000E+00
         0.00000E+00
         0.00000E+00
         0.00000E+00
         0.00000E+00
         0.00000E+00
         0.00000E+00
         0.00000E+00
         0.00000E+00
         0.00000E+00
         0.00000E+00
         0.00000E+00
         0.00000E+00
         0.00000E+00
         0.00000E+00
         0.00000E+00
         0.00000E+00
         0.00000E+00
         0.00000E+00
         0.00000E+00
         0.00000E+00
         0.00000E+00
         0.00000E+00
         0.00000E+00
         0.00000E+00
         0.00000E+00
         0.00000E+00
         0.00000E+00
         0.00000E+00
         0.00000E+00
         0.00000E+00
         0.00000E+00
         0.00000E+00
         0.00000E+00
         0.00000E+00
         0.00000E+00
         0.00000E+00
         0.00000E+00
         0.00000E+00
         0.00000E+00
         0.00000E+00
         0.00000E+00
         0.00000E+00
         0.00000E+00
         0.00000E+00
         0.00000E+00
         0.00000E+00
         0.00000E+00
         0.00000E+00
         0.00000E+00
         0.00000E+00
         0.00000E+00
         0.00000E+00
         0.00000E+00
         0.00000E+00
         0.00000E+00
         0.00000E+00
         0.00000E+00
         0.00000E+00
         0.00000E+00
         0.00000E+00
         0.00000E+00
         0.00000E+00
         0.00000E+00
         0.00000E+00
         0.00000E+00
         0.00000E+00
         0.00000E+00
         0.00000E+00
         0.00000E+00
         0.00000E+00
         0.00000E+00
         0.00000E+00
         0.00000E+00
         0.00000E+00
         0.00000E+00
         0.00000E+00
         0.00000E+00
         0.00000E+00
         0.00000E+00
         0.00000E+00
         0.00000E+00
         0.00000E+00
         0.00000E+00
         0.00000E+00
         0.00000E+00
         0.00000E+00
         0.00000E+00
         0.00000E+00
         0.00000E+00
         0.00000E+00
         0.00000E+00
         0.00000E+00
         0.00000E+00
         0.00000E+00
         0.00000E+00
         0.00000E+00
         0.00000E+00
         0.00000E+00
         0.00000E+00
         0.00000E+00
         0.00000E+00
         0.00000E+00
         0.00000E+00
         0.00000E+00
         0.00000E+00
         0.00000E+00
         0.00000E+00
         0.00000E+00
         0.00000E+00
         0.00000E+00
         0.00000E+00
         0.00000E+00
         0.00000E+00
         0.00000E+00
         0.00000E+00
         0.00000E+00
         0.00000E+00
         0.00000E+00
         0.00000E+00
         0.00000E+00
         0.00000E+00
         0.00000E+00
         0.00000E+00
         0.00000E+00
         0.00000E+00
         0.00000E+00
         0.00000E+00
         0.00000E+00
         0.00000E+00
         0.00000E+00
         0.00000E+00
         0.00000E+00
         0.00000E+00
         0.00000E+00
         0.00000E+00
         0.00000E+00
         0.00000E+00
         0.00000E+00
         0.00000E+00
         0.00000E+00
         0.00000E+00
         0.00000E+00
         0.00000E+00
         0.00000E+00
         0.00000E+00
         0.00000E+00
         0.00000E+00
         0.00000E+00
         0.00000E+00
         0.00000E+00
         0.00000E+00
         0.00000E+00
         0.00000E+00
         0.00000E+00
         0.00000E+00
         0.00000E+00
         0.00000E+00
         0.00000E+00
         0.00000E+00
         0.00000E+00
         0.00000E+00
         0.00000E+00
         0.00000E+00
         0.00000E+00
         0.00000E+00
         0.00000E+00
         0.00000E+00
         0.00000E+00
         0.00000E+00
         0.00000E+00
         0.00000E+00
         0.00000E+00
         0.00000E+00
         0.00000E+00
         0.00000E+00
         0.00000E+00
         0.00000E+00
         0.00000E+00
         0.00000E+00
         0.00000E+00
         0.00000E+00
         0.00000E+00
         0.00000E+00
         0.00000E+00
         0.00000E+00
         0.00000E+00
         0.00000E+00
         0.00000E+00
         0.00000E+00
         0.00000E+00
         0.00000E+00
         0.00000E+00
         0.00000E+00
         0.00000E+00
         0.00000E+00
         0.00000E+00
         0.00000E+00
         0.00000E+00
         0.00000E+00
         0.00000E+00
         0.00000E+00
         0.00000E+00
         0.00000E+00
         0.00000E+00
         0.00000E+00
         0.00000E+00
         0.00000E+00
         0.00000E+00
         0.00000E+00
         0.00000E+00
         0.00000E+00
         0.00000E+00
         0.00000E+00
         0.00000E+00
         0.00000E+00
         0.00000E+00
         0.00000E+00
         0.00000E+00
         0.00000E+00
         0.00000E+00
         0.00000E+00
         0.00000E+00
         0.00000E+00
         0.00000E+00
         0.00000E+00
         0.00000E+00
         0.00000E+00
         0.00000E+00
         0.00000E+00
         0.00000E+00
         0.00000E+00
         0.00000E+00
         0.00000E+00
         0.00000E+00
         0.00000E+00
         0.00000E+00
         0.00000E+00
         0.00000E+00
         0.00000E+00
         0.00000E+00
         0.00000E+00
         0.00000E+00
         0.00000E+00
         0.00000E+00
         0.00000E+00
         0.00000E+00
         0.00000E+00
         0.00000E+00
         0.00000E+00
         0.00000E+00
         0.00000E+00
         0.00000E+00
         0.00000E+00
         0.00000E+00
         0.00000E+00
         0.00000E+00
         0.00000E+00
         0.00000E+00
         0.00000E+00
         0.00000E+00
         0.00000E+00
         0.00000E+00
         0.00000E+00
         0.00000E+00
         0.00000E+00
         0.00000E+00
         0.00000E+00
         0.00000E+00
         0.00000E+00
         0.00000E+00
         0.00000E+00
         0.00000E+00
         0.00000E+00
         0.00000E+00
         0.00000E+00
         0.00000E+00
         0.00000E+00
         0.00000E+00
         0.00000E+00
         0.00000E+00
         0.00000E+00
         0.00000E+00
         0.00000E+00
         0.00000E+00
         0.00000E+00
         0.00000E+00
         0.00000E+00
         0.00000E+00
         0.00000E+00
         0.00000E+00
         0.00000E+00
         0.00000E+00
         0.00000E+00
         0.00000E+00
         0.00000E+00
         0.00000E+00
         0.00000E+00
         0.00000E+00
         0.00000E+00
         0.00000E+00
         0.00000E+00
         0.00000E+00
         0.00000E+00
         0.00000E+00
         0.00000E+00
         0.00000E+00
         0.00000E+00
         0.00000E+00
         0.00000E+00
         0.00000E+00
         0.00000E+00
         0.00000E+00
         0.00000E+00
         0.00000E+00
         0.00000E+00
         0.00000E+00
         0.00000E+00
         0.00000E+00
         0.00000E+00
         0.00000E+00
         0.00000E+00
         0.00000E+00
         0.00000E+00
         0.00000E+00
         0.00000E+00
         0.00000E+00
         0.00000E+00
         0.00000E+00
         0.00000E+00
         0.00000E+00
         0.00000E+00
         0.00000E+00
         0.00000E+00
         0.00000E+00
         0.00000E+00
         0.00000E+00
         0.00000E+00
         0.00000E+00
         0.00000E+00
         0.00000E+00
         0.00000E+00
         0.00000E+00
         0.00000E+00
         0.00000E+00
         0.00000E+00
         0.00000E+00
         0.00000E+00
         0.00000E+00
         0.00000E+00
         0.00000E+00
         0.00000E+00
         0.00000E+00
         0.00000E+00
         0.00000E+00
         0.00000E+00
         0.00000E+00
         0.00000E+00
         0.00000E+00
         0.00000E+00
         0.00000E+00
         0.00000E+00
         0.00000E+00
         0.00000E+00
         0.00000E+00
         0.00000E+00
         0.00000E+00
         0.00000E+00
         0.00000E+00
         0.00000E+00
         0.00000E+00
         0.00000E+00
         0.00000E+00
         0.00000E+00
         0.00000E+00
         0.00000E+00
         0.00000E+00
         0.00000E+00
         0.00000E+00
         0.00000E+00
         0.00000E+00
         0.00000E+00
         0.00000E+00
         0.00000E+00
         0.00000E+00
         0.00000E+00
         0.00000E+00
         0.00000E+00
         0.00000E+00
         0.00000E+00
         0.00000E+00
         0.00000E+00
         0.00000E+00
         0.00000E+00
         0.00000E+00
         0.00000E+00
         0.00000E+00
         0.00000E+00
         0.00000E+00
         0.00000E+00
         0.00000E+00
         0.00000E+00
         0.00000E+00
         0.00000E+00
         0.00000E+00
         0.00000E+00
         0.00000E+00
         0.00000E+00
         0.00000E+00
         0.00000E+00
         0.00000E+00
         0.00000E+00
         0.00000E+00
         0.00000E+00
         0.00000E+00
         0.00000E+00
         0.00000E+00
         0.00000E+00
         0.00000E+00
         0.00000E+00
         0.00000E+00
         0.00000E+00
         0.00000E+00
         0.00000E+00
         0.00000E+00
         0.00000E+00
         0.00000E+00
         0.00000E+00
         0.00000E+00
         0.00000E+00
         0.00000E+00
         0.00000E+00
         0.00000E+00
         0.00000E+00
         0.00000E+00
         0.00000E+00
         0.00000E+00
         0.00000E+00
         0.00000E+00
         0.00000E+00
         0.00000E+00
         0.00000E+00
         0.00000E+00
         0.00000E+00
         0.00000E+00
         0.00000E+00
         0.00000E+00
         0.00000E+00
         0.00000E+00
         0.00000E+00
         0.00000E+00
         0.00000E+00
         0.00000E+00
         0.00000E+00
         0.00000E+00
         0.00000E+00
         0.00000E+00
         0.00000E+00
         0.00000E+00
         0.00000E+00
         0.00000E+00
         0.00000E+00
         0.00000E+00
         0.00000E+00
         0.00000E+00
         0.00000E+00
         0.00000E+00
         0.00000E+00
         0.00000E+00
         0.00000E+00
         0.00000E+00
         0.00000E+00
         0.00000E+00
         0.00000E+00
         0.00000E+00
         0.00000E+00
         0.00000E+00
         0.00000E+00
         0.00000E+00
         0.00000E+00
         0.00000E+00
         0.00000E+00
         0.00000E+00
         0.00000E+00
         0.00000E+00
         0.00000E+00
         0.00000E+00
         0.00000E+00
         0.00000E+00
         0.00000E+00
         0.00000E+00
         0.00000E+00
         0.00000E+00
         0.00000E+00
         0.00000E+00
         0.00000E+00
         0.00000E+00
         0.00000E+00
         0.00000E+00
         0.00000E+00
         0.00000E+00
         0.00000E+00
         0.00000E+00
         0.00000E+00
         0.00000E+00
         0.00000E+00
         0.00000E+00
         0.00000E+00
         0.00000E+00
         0.00000E+00
         0.00000E+00
         0.00000E+00
         0.00000E+00
         0.00000E+00
         0.00000E+00
         0.00000E+00
         0.00000E+00
         0.00000E+00
         0.00000E+00
         0.00000E+00
         0.00000E+00
         0.00000E+00
         0.00000E+00
         0.00000E+00
         0.00000E+00
         0.00000E+00
         0.00000E+00
         0.00000E+00
         0.00000E+00
         0.00000E+00
         0.00000E+00
         0.00000E+00
         0.00000E+00
         0.00000E+00
         0.00000E+00
         0.00000E+00
         0.00000E+00
         0.00000E+00
         0.00000E+00
         0.00000E+00
         0.00000E+00
         0.00000E+00
         0.00000E+00
         0.00000E+00
         0.00000E+00
         0.00000E+00
         0.00000E+00
         0.00000E+00
         0.00000E+00
         0.00000E+00
         0.00000E+00
         0.00000E+00
         0.00000E+00
         0.00000E+00
         0.00000E+00
         0.00000E+00
         0.00000E+00
         0.00000E+00
         0.00000E+00
         0.00000E+00
         0.00000E+00
         0.00000E+00
         0.00000E+00
         0.00000E+00
         0.00000E+00
         0.00000E+00
         0.00000E+00
         0.00000E+00
         0.00000E+00
         0.00000E+00
         0.00000E+00
         0.00000E+00
         0.00000E+00
         0.00000E+00
         0.00000E+00
         0.00000E+00
         0.00000E+00
         0.00000E+00
         0.00000E+00
         0.00000E+00
         0.00000E+00
         0.00000E+00
         0.00000E+00
         0.00000E+00
         0.00000E+00
         0.00000E+00
         0.00000E+00
         0.00000E+00
         0.00000E+00
         0.00000E+00
         0.00000E+00
         0.00000E+00
         0.00000E+00
         0.00000E+00
         0.00000E+00
         0.00000E+00
         0.00000E+00
         0.00000E+00
         0.00000E+00
         0.00000E+00
         0.00000E+00
         0.00000E+00
         0.00000E+00
         0.00000E+00
         0.00000E+00
         0.00000E+00
         0.00000E+00
         0.00000E+00
         0.00000E+00
         0.00000E+00
         0.00000E+00
         0.00000E+00
         0.00000E+00
         0.00000E+00
         0.00000E+00
         0.00000E+00
         0.00000E+00
         0.00000E+00
         0.00000E+00
         0.00000E+00
         0.00000E+00
         0.00000E+00
         0.00000E+00
         0.00000E+00
         0.00000E+00
         0.00000E+00
         0.00000E+00
         0.00000E+00
         0.00000E+00
         0.00000E+00
         0.00000E+00
         0.00000E+00
         0.00000E+00
         0.00000E+00
         0.00000E+00
         0.00000E+00
         0.00000E+00
         0.00000E+00
         0.00000E+00
         0.00000E+00
         0.00000E+00
         0.00000E+00
         0.00000E+00
         0.00000E+00
         0.00000E+00
         0.00000E+00
         0.00000E+00
         0.00000E+00
         0.00000E+00
         0.00000E+00
         0.00000E+00
         0.00000E+00
         0.00000E+00
         0.00000E+00
         0.00000E+00
         0.00000E+00
         0.00000E+00
         0.00000E+00
         0.00000E+00
         0.00000E+00
         0.00000E+00
         0.00000E+00
         0.00000E+00
         0.00000E+00
         0.00000E+00
         0.00000E+00
         0.00000E+00
         0.00000E+00
         0.00000E+00
         0.00000E+00
         0.00000E+00
         0.00000E+00
         0.00000E+00
         0.00000E+00
         0.00000E+00
         0.00000E+00
         0.00000E+00
         0.00000E+00
         0.00000E+00
         0.00000E+00
         0.00000E+00
         0.00000E+00
         0.00000E+00
         0.00000E+00
         0.00000E+00
         0.00000E+00
         0.00000E+00
         0.00000E+00
         0.00000E+00
         0.00000E+00
         0.00000E+00
         0.00000E+00
         0.00000E+00
         0.00000E+00
         0.00000E+00
         0.00000E+00
         0.00000E+00
         0.00000E+00
         0.00000E+00
         0.00000E+00
         0.00000E+00
         0.00000E+00
         0.00000E+00
         0.00000E+00
         0.00000E+00
         0.00000E+00
         0.00000E+00
         0.00000E+00
         0.00000E+00
         0.00000E+00
         0.00000E+00
         0.00000E+00
         0.00000E+00
         0.00000E+00
         0.00000E+00
         0.00000E+00
         0.00000E+00
         0.00000E+00
         0.00000E+00
         0.00000E+00
         0.00000E+00
         0.00000E+00
         0.00000E+00
         0.00000E+00
         0.00000E+00
         0.00000E+00
         0.00000E+00
         0.00000E+00
         0.00000E+00
         0.00000E+00
         0.00000E+00
         0.00000E+00
         0.00000E+00
         0.00000E+00
         0.00000E+00
         0.00000E+00
         0.00000E+00
         0.00000E+00
         0.00000E+00
         0.00000E+00
         0.00000E+00
         0.00000E+00
         0.00000E+00
         0.00000E+00
         0.00000E+00
         0.00000E+00
         0.00000E+00
         0.00000E+00
         0.00000E+00
         0.00000E+00
         0.00000E+00
         0.00000E+00
         0.00000E+00
         0.00000E+00
         0.00000E+00
         0.00000E+00
         0.00000E+00
         0.00000E+00
         0.00000E+00
         0.00000E+00
         0.00000E+00
         0.00000E+00
         0.00000E+00
         0.00000E+00
         0.00000E+00
         0.00000E+00
         0.00000E+00
         0.00000E+00
         0.00000E+00
         0.00000E+00
         0.00000E+00
         0.00000E+00
         0.00000E+00
         0.00000E+00
         0.00000E+00
         0.00000E+00
         0.00000E+00
         0.00000E+00
         0.00000E+00
         0.00000E+00
         0.00000E+00
         0.00000E+00
         0.00000E+00
         0.00000E+00
         0.00000E+00
         0.00000E+00
         0.00000E+00
         0.00000E+00
         0.00000E+00
         0.00000E+00
         0.00000E+00
         0.00000E+00
         0.00000E+00
         0.00000E+00
         0.00000E+00
         0.00000E+00
         0.00000E+00
         0.00000E+00
         0.00000E+00
         0.00000E+00
         0.00000E+00
         0.00000E+00
         0.00000E+00
         0.00000E+00
         0.00000E+00
         0.00000E+00
         0.00000E+00
         0.00000E+00
         0.00000E+00
         0.00000E+00
         0.00000E+00
         0.00000E+00
         0.00000E+00
         0.00000E+00
         0.00000E+00
         0.00000E+00
         0.00000E+00
         0.00000E+00
         0.00000E+00
         0.00000E+00
         0.00000E+00
         0.00000E+00
         0.00000E+00
         0.00000E+00
         0.00000E+00
         0.00000E+00
         0.00000E+00
         0.00000E+00
         0.00000E+00
         0.00000E+00
         0.00000E+00
         0.00000E+00
         0.00000E+00
         0.00000E+00
         0.00000E+00
         0.00000E+00
         0.00000E+00
         0.00000E+00
         0.00000E+00
         0.00000E+00
         0.00000E+00
         0.00000E+00
         0.00000E+00
         0.00000E+00
         0.00000E+00
         0.00000E+00
         0.00000E+00
         0.00000E+00
         0.00000E+00
         0.00000E+00
         0.00000E+00
         0.00000E+00
         0.00000E+00
         0.00000E+00
         0.00000E+00
         0.00000E+00
         0.00000E+00
         0.00000E+00
         0.00000E+00
         0.00000E+00
         0.00000E+00
         0.00000E+00
         0.00000E+00
         0.00000E+00
         0.00000E+00
         0.00000E+00
         0.00000E+00
         0.00000E+00
         0.00000E+00
         0.00000E+00
         0.00000E+00
         0.00000E+00
         0.00000E+00
         0.00000E+00
         0.00000E+00
         0.00000E+00
         0.00000E+00
         0.00000E+00
         0.00000E+00
         0.00000E+00
         0.00000E+00
         0.00000E+00
         0.00000E+00
         0.00000E+00
         0.00000E+00
         0.00000E+00
         0.00000E+00
         0.00000E+00
         0.00000E+00
         0.00000E+00
         0.00000E+00
         0.00000E+00
         0.00000E+00
         0.00000E+00
         0.00000E+00
         0.00000E+00
         0.00000E+00
         0.00000E+00
         0.00000E+00
         0.00000E+00
         0.00000E+00
         0.00000E+00
         0.00000E+00
         0.00000E+00
         0.00000E+00
         0.00000E+00
         0.00000E+00
         0.00000E+00
         0.00000E+00
         0.00000E+00
         0.00000E+00
         0.00000E+00
         0.00000E+00
         0.00000E+00
         0.00000E+00
         0.00000E+00
         0.00000E+00
         0.00000E+00
         0.00000E+00
         0.00000E+00
         0.00000E+00
         0.00000E+00
         0.00000E+00
         0.00000E+00
         0.00000E+00
         0.00000E+00
         0.00000E+00
         0.00000E+00
         0.00000E+00
         0.00000E+00
         0.00000E+00
         0.00000E+00
         0.00000E+00
         0.00000E+00
         0.00000E+00
         0.00000E+00
         0.00000E+00
         0.00000E+00
         0.00000E+00
         0.00000E+00
         0.00000E+00
         0.00000E+00
         0.00000E+00
         0.00000E+00
         0.00000E+00
         0.00000E+00
         0.00000E+00
         0.00000E+00
         0.00000E+00
         0.00000E+00
         0.00000E+00
         0.00000E+00
         0.00000E+00
         0.00000E+00
         0.00000E+00
         0.00000E+00
         0.00000E+00
         0.00000E+00
         0.00000E+00
         0.00000E+00
         0.00000E+00
         0.00000E+00
         0.00000E+00
         0.00000E+00
         0.00000E+00
         0.00000E+00
         0.00000E+00
         0.00000E+00
         0.00000E+00
         0.00000E+00
         0.00000E+00
         0.00000E+00
         0.00000E+00
         0.00000E+00
         0.00000E+00
         0.00000E+00
         0.00000E+00
         0.00000E+00
         0.00000E+00
         0.00000E+00
         0.00000E+00
         0.00000E+00
         0.00000E+00
         0.00000E+00
         0.00000E+00
         0.00000E+00
         0.00000E+00
         0.00000E+00
         0.00000E+00
         0.00000E+00
         0.00000E+00
         0.00000E+00
         0.00000E+00
         0.00000E+00
         0.00000E+00
         0.00000E+00
         0.00000E+00
         0.00000E+00
         0.00000E+00
         0.00000E+00
         0.00000E+00
         0.00000E+00
         0.00000E+00
         0.00000E+00
         0.00000E+00
         0.00000E+00
         0.00000E+00
         0.00000E+00
         0.00000E+00
         0.00000E+00
         0.00000E+00
         0.00000E+00
         0.00000E+00
         0.00000E+00
         0.00000E+00
         0.00000E+00
         0.00000E+00
         0.00000E+00
         0.00000E+00
         0.00000E+00
         0.00000E+00
         0.00000E+00
         0.00000E+00
         0.00000E+00
         0.00000E+00
         0.00000E+00
         0.00000E+00
         0.00000E+00
         0.00000E+00
         0.00000E+00
         0.00000E+00
         0.00000E+00
         0.00000E+00
         0.00000E+00
         0.00000E+00
         0.00000E+00
         0.00000E+00
         0.00000E+00
         0.00000E+00
         0.00000E+00
         0.00000E+00
         0.00000E+00
         0.00000E+00
         0.00000E+00
         0.00000E+00
         0.00000E+00
         0.00000E+00
         0.00000E+00
         0.00000E+00
         0.00000E+00
         0.00000E+00
         0.00000E+00
         0.00000E+00
         0.00000E+00
         0.00000E+00
         0.00000E+00
         0.00000E+00
         0.00000E+00
         0.00000E+00
         0.00000E+00
         0.00000E+00
         0.00000E+00
         0.00000E+00
         0.00000E+00
         0.00000E+00
         0.00000E+00
         0.00000E+00
         0.00000E+00
         0.00000E+00
         0.00000E+00
         0.00000E+00
         0.00000E+00
         0.00000E+00
         0.00000E+00
         0.00000E+00
         0.00000E+00
         0.00000E+00
         0.00000E+00
         0.00000E+00
         0.00000E+00
         0.00000E+00
         0.00000E+00
         0.00000E+00
         0.00000E+00
         0.00000E+00
         0.00000E+00
         0.00000E+00
         0.00000E+00
         0.00000E+00
         0.00000E+00
         0.00000E+00
         0.00000E+00
         0.00000E+00
         0.00000E+00
         0.00000E+00
         0.00000E+00
         0.00000E+00
         0.00000E+00
         0.00000E+00
         0.00000E+00
         0.00000E+00
         0.00000E+00
         0.00000E+00
         0.00000E+00
         0.00000E+00
         0.00000E+00
         0.00000E+00
         0.00000E+00
         0.00000E+00
         0.00000E+00
         0.00000E+00
         0.00000E+00
         0.00000E+00
         0.00000E+00
         0.00000E+00
         0.00000E+00
         0.00000E+00
         0.00000E+00
         0.00000E+00
         0.00000E+00
         0.00000E+00
         0.00000E+00
         0.00000E+00
         0.00000E+00
         0.00000E+00
         0.00000E+00
         0.00000E+00
         0.00000E+00
         0.00000E+00
         0.00000E+00
         0.00000E+00
         0.00000E+00
         0.00000E+00
         0.00000E+00
         0.00000E+00
         0.00000E+00
         0.00000E+00
         0.00000E+00
         0.00000E+00
         0.00000E+00
         0.00000E+00
         0.00000E+00
         0.00000E+00
         0.00000E+00
         0.00000E+00
         0.00000E+00
         0.00000E+00
         0.00000E+00
         0.00000E+00
         0.00000E+00
         0.00000E+00
         0.00000E+00
         0.00000E+00
         0.00000E+00
         0.00000E+00
         0.00000E+00
         0.00000E+00
         0.00000E+00
         0.00000E+00
         0.00000E+00
         0.00000E+00
         0.00000E+00
         0.00000E+00
         0.00000E+00
         0.00000E+00
         0.00000E+00
         0.00000E+00
         0.00000E+00
         0.00000E+00
         0.00000E+00
         0.00000E+00
         0.00000E+00
         0.00000E+00
         0.00000E+00
         0.00000E+00
         0.00000E+00
         0.00000E+00
         0.00000E+00
         0.00000E+00
         0.00000E+00
         0.00000E+00
         0.00000E+00
         0.00000E+00
         0.00000E+00
         0.00000E+00
         0.00000E+00
         0.00000E+00
         0.00000E+00
         0.00000E+00
         0.00000E+00
         0.00000E+00
         0.00000E+00
         0.00000E+00
         0.00000E+00
         0.00000E+00
         0.00000E+00
         0.00000E+00
         0.00000E+00
         0.00000E+00
         0.00000E+00
         0.00000E+00
         0.00000E+00
         0.00000E+00
         0.00000E+00
         0.00000E+00
         0.00000E+00
         0.00000E+00
         0.00000E+00
         0.00000E+00
         0.00000E+00
         0.00000E+00
         0.00000E+00
         0.00000E+00
         0.00000E+00
         0.00000E+00
         0.00000E+00
         0.00000E+00
         0.00000E+00
         0.00000E+00
         0.00000E+00
         0.00000E+00
         0.00000E+00
         0.00000E+00
         0.00000E+00
         0.00000E+00
         0.00000E+00
         0.00000E+00
         0.00000E+00
         0.00000E+00
         0.00000E+00
         0.00000E+00
         0.00000E+00
         0.00000E+00
         0.00000E+00
         0.00000E+00
         0.00000E+00
         0.00000E+00
         0.00000E+00
         0.00000E+00
         0.00000E+00
         0.00000E+00
         0.00000E+00
         0.00000E+00
         0.00000E+00
         0.00000E+00
         0.00000E+00
         0.00000E+00
         0.00000E+00
         0.00000E+00
         0.00000E+00
         0.00000E+00
         0.00000E+00
         0.00000E+00
         0.00000E+00
         0.00000E+00
         0.00000E+00
         0.00000E+00
         0.00000E+00
         0.00000E+00
         0.00000E+00
         0.00000E+00
         0.00000E+00
         0.00000E+00
         0.00000E+00
         0.00000E+00
         0.00000E+00
         0.00000E+00
         0.00000E+00
         0.00000E+00
         0.00000E+00
         0.00000E+00
         0.00000E+00
         0.00000E+00
         0.00000E+00
         0.00000E+00
         0.00000E+00
         0.00000E+00
         0.00000E+00
         0.00000E+00
         0.00000E+00
         0.00000E+00
         0.00000E+00
         0.00000E+00
         0.00000E+00
         0.00000E+00
         0.00000E+00
         0.00000E+00
         0.00000E+00
         0.00000E+00
         0.00000E+00
         0.00000E+00
         0.00000E+00
         0.00000E+00
         0.00000E+00
         0.00000E+00
         0.00000E+00
         0.00000E+00
         0.00000E+00
         0.00000E+00
         0.00000E+00
         0.00000E+00
         0.00000E+00
         0.00000E+00
         0.00000E+00
         0.00000E+00
         0.00000E+00
         0.00000E+00
         0.00000E+00
         0.00000E+00
         0.00000E+00
         0.00000E+00
         0.00000E+00
         0.00000E+00
         0.00000E+00
         0.00000E+00
         0.00000E+00
         0.00000E+00
         0.00000E+00
         0.00000E+00
         0.00000E+00
         0.00000E+00
         0.00000E+00
         0.00000E+00
         0.00000E+00
         0.00000E+00
         0.00000E+00
         0.00000E+00
         0.00000E+00
         0.00000E+00
         0.00000E+00
         0.00000E+00
         0.00000E+00
         0.00000E+00
         0.00000E+00
         0.00000E+00
         0.00000E+00
         0.00000E+00
         0.00000E+00
         0.00000E+00
         0.00000E+00
         0.00000E+00
         0.00000E+00
         0.00000E+00
         0.00000E+00
         0.00000E+00
         0.00000E+00
         0.00000E+00
         0.00000E+00
         0.00000E+00
         0.00000E+00
         0.00000E+00
         0.00000E+00
         0.00000E+00
         0.00000E+00
         0.00000E+00
         0.00000E+00
         0.00000E+00
         0.00000E+00
         0.00000E+00
         0.00000E+00
         0.00000E+00
         0.00000E+00
         0.00000E+00
         0.00000E+00
         0.00000E+00
         0.00000E+00
         0.00000E+00
         0.00000E+00
         0.00000E+00
         0.00000E+00
         0.00000E+00
         0.00000E+00
         0.00000E+00
         0.00000E+00
         0.00000E+00
         0.00000E+00
         0.00000E+00
         0.00000E+00
         0.00000E+00
         0.00000E+00
         0.00000E+00
         0.00000E+00
         0.00000E+00
         0.00000E+00
         0.00000E+00
         0.00000E+00
         0.00000E+00
         0.00000E+00
         0.00000E+00
         0.00000E+00
         0.00000E+00
         0.00000E+00
         0.00000E+00
         0.00000E+00
         0.00000E+00
         0.00000E+00
         0.00000E+00
         0.00000E+00
         0.00000E+00
         0.00000E+00
         0.00000E+00
         0.00000E+00
         0.00000E+00
         0.00000E+00
         0.00000E+00
         0.00000E+00
         0.00000E+00
         0.00000E+00
         0.00000E+00
         0.00000E+00
         0.00000E+00
         0.00000E+00
         0.00000E+00
         0.00000E+00
         0.00000E+00
         0.00000E+00
         0.00000E+00
         0.00000E+00
         0.00000E+00
         0.00000E+00
         0.00000E+00
         0.00000E+00
         0.00000E+00
         0.00000E+00
         0.00000E+00
         0.00000E+00
         0.00000E+00
         0.00000E+00
         0.00000E+00
         0.00000E+00
         0.00000E+00
         0.00000E+00
         0.00000E+00
         0.00000E+00
         0.00000E+00
         0.00000E+00
         0.00000E+00
         0.00000E+00
         0.00000E+00
         0.00000E+00
         0.00000E+00
         0.00000E+00
         0.00000E+00
         0.00000E+00
         0.00000E+00
         0.00000E+00
         0.00000E+00
         0.00000E+00
         0.00000E+00
         0.00000E+00
         0.00000E+00
         0.00000E+00
         0.00000E+00
         0.00000E+00
         0.00000E+00
         0.00000E+00
         0.00000E+00
         0.00000E+00
         0.00000E+00
         0.00000E+00
         0.00000E+00
         0.00000E+00
         0.00000E+00
         0.00000E+00
         0.00000E+00
         0.00000E+00
         0.00000E+00
         0.00000E+00
         0.00000E+00
         0.00000E+00
         0.00000E+00
         0.00000E+00
         0.00000E+00
         0.00000E+00
         0.00000E+00
         0.00000E+00
         0.00000E+00
         0.00000E+00
         0.00000E+00
         0.00000E+00
         0.00000E+00
         0.00000E+00
         0.00000E+00
         0.00000E+00
         0.00000E+00
         0.00000E+00
         0.00000E+00
         0.00000E+00
         0.00000E+00
         0.00000E+00
         0.00000E+00
         0.00000E+00
         0.00000E+00
         0.00000E+00
         0.00000E+00
         0.00000E+00
         0.00000E+00
         0.00000E+00
         0.00000E+00
         0.00000E+00
         0.00000E+00
         0.00000E+00
         0.00000E+00
         0.00000E+00
         0.00000E+00
         0.00000E+00
         0.00000E+00
         0.00000E+00
         0.00000E+00
         0.00000E+00
         0.00000E+00
         0.00000E+00
         0.00000E+00
         0.00000E+00
         0.00000E+00
         0.00000E+00
         0.00000E+00
         0.00000E+00
         0.00000E+00
         0.00000E+00
         0.00000E+00
         0.00000E+00
         0.00000E+00
         0.00000E+00
         0.00000E+00
         0.00000E+00
         0.00000E+00
         0.00000E+00
         0.00000E+00
         0.00000E+00
         0.00000E+00
         0.00000E+00
         0.00000E+00
         0.00000E+00
         0.00000E+00
         0.00000E+00
         0.00000E+00
         0.00000E+00
         0.00000E+00
         0.00000E+00
         0.00000E+00
         0.00000E+00
         0.00000E+00
         0.00000E+00
         0.00000E+00
         0.00000E+00
         0.00000E+00
         0.00000E+00
         0.00000E+00
         0.00000E+00
         0.00000E+00
         0.00000E+00
         0.00000E+00
         0.00000E+00
         0.00000E+00
         0.00000E+00
         0.00000E+00
         0.00000E+00
  
SCALARS                      stress_xx  double 1
LOOKUP_TABLE default
        -0.63531E+09
         0.41849E+09
         0.47473E+09
         0.81961E+08
        -0.91518E+09
         0.41514E+09
         0.49086E+09
        -0.23169E+09
        -0.12928E+09
         0.31478E+09
        -0.61377E+08
        -0.19106E+08
         0.34497E+09
        -0.42401E+09
         0.83164E+09
        -0.67225E+09
         0.30010E+09
        -0.43150E+09
         0.24891E+09
        -0.53665E+09
         0.35984E+09
         0.62648E+08
        -0.27074E+08
         0.12040E+10
        -0.41819E+09
        -0.34771E+09
        -0.69520E+08
        -0.68752E+08
        -0.22048E+09
        -0.32632E+09
        -0.42498E+09
        -0.88571E+08
        -0.38141E+09
        -0.91007E+09
        -0.41693E+09
        -0.67692E+09
         0.19067E+09
         0.18574E+08
         0.63690E+09
        -0.43442E+08
         0.48447E+08
         0.53540E+09
        -0.39147E+09
        -0.10553E+09
         0.17595E+09
         0.70945E+09
        -0.30940E+08
         0.52591E+09
        -0.12355E+09
        -0.10355E+10
         0.28753E+09
         0.69979E+09
         0.37335E+08
         0.20126E+09
         0.13153E+09
         0.57944E+09
         0.41188E+09
         0.31335E+09
        -0.99891E+08
         0.35402E+09
         0.12058E+09
        -0.16805E+09
         0.53876E+09
        -0.60836E+09
         0.16677E+09
         0.31431E+09
         0.10043E+09
         0.47248E+08
         0.15978E+08
         0.29939E+09
         0.40211E+09
         0.34204E+08
        -0.20329E+09
        -0.61394E+09
         0.20004E+09
        -0.12786E+09
        -0.36180E+08
        -0.34668E+09
         0.39533E+08
        -0.15952E+09
         0.29965E+09
        -0.11301E+09
         0.53503E+09
        -0.50339E+09
         0.56236E+08
         0.10288E+09
        -0.13900E+09
        -0.70145E+09
        -0.18297E+09
         0.13708E+09
        -0.30868E+08
        -0.37635E+09
        -0.68979E+09
        -0.11114E+09
        -0.26388E+09
        -0.37574E+09
        -0.27831E+09
        -0.78784E+09
         0.87255E+08
        -0.18223E+09
         0.25750E+09
         0.79690E+08
        -0.14309E+09
         0.21144E+09
        -0.20156E+09
         0.36461E+09
         0.62903E+09
         0.24243E+09
         0.16466E+09
         0.22546E+09
        -0.18595E+09
         0.62179E+09
         0.31484E+08
         0.39548E+09
        -0.18348E+09
         0.14609E+09
        -0.11603E+08
         0.17021E+09
        -0.38080E+08
         0.31389E+09
        -0.22999E+08
         0.34534E+09
         0.40205E+09
         0.14415E+09
        -0.24267E+09
         0.59763E+09
         0.39027E+09
         0.57429E+08
         0.15851E+09
         0.36718E+09
        -0.10631E+09
         0.33853E+09
        -0.25914E+08
         0.63023E+09
         0.65122E+08
         0.30156E+09
        -0.24431E+09
         0.17437E+09
        -0.22255E+09
         0.48375E+09
        -0.32234E+08
         0.49994E+09
        -0.14150E+07
         0.23891E+09
        -0.16634E+09
         0.22003E+09
        -0.13664E+09
         0.50368E+09
        -0.93208E+08
         0.64914E+09
        -0.33888E+08
         0.52873E+09
         0.41941E+08
         0.35942E+09
        -0.63337E+08
         0.35195E+09
        -0.32462E+09
         0.89599E+08
         0.34050E+09
        -0.27060E+09
         0.16953E+09
         0.30075E+09
        -0.12886E+08
        -0.17484E+09
        -0.33576E+08
        -0.61091E+09
         0.58199E+08
         0.21456E+09
         0.22857E+09
        -0.11137E+09
        -0.41414E+09
        -0.13761E+09
        -0.15036E+09
        -0.28859E+09
        -0.24591E+09
        -0.33894E+09
         0.24636E+09
         0.72463E+09
         0.84678E+08
         0.62057E+09
         0.11570E+08
         0.32276E+09
        -0.42591E+09
        -0.12163E+09
         0.35905E+09
        -0.50343E+08
        -0.23958E+09
         0.18415E+09
        -0.18107E+09
        -0.48646E+08
         0.18278E+08
         0.53135E+08
        -0.20455E+09
         0.22947E+09
         0.28908E+08
         0.53064E+08
        -0.14290E+09
        -0.35257E+08
         0.17619E+09
        -0.79682E+08
        -0.20837E+09
         0.81250E+09
        -0.99897E+08
        -0.49103E+08
         0.18644E+09
         0.22069E+09
         0.32588E+09
         0.13576E+09
         0.10761E+09
         0.22978E+09
         0.34220E+09
         0.22904E+09
         0.13668E+09
         0.13481E+09
         0.41830E+09
         0.77850E+08
         0.95099E+08
         0.10863E+09
         0.15873E+09
         0.22175E+09
         0.28679E+09
         0.22481E+09
         0.16592E+09
         0.61257E+08
         0.28560E+09
         0.31282E+08
        -0.12343E+08
         0.32383E+08
         0.32020E+08
         0.49525E+08
        -0.20380E+09
        -0.22561E+09
         0.18334E+09
         0.93907E+08
        -0.14899E+09
        -0.36826E+08
         0.29230E+09
        -0.79104E+08
         0.21645E+09
         0.17806E+09
         0.15336E+09
        -0.47131E+09
         0.10059E+09
        -0.32658E+09
         0.25959E+07
         0.32003E+09
         0.35064E+09
        -0.31399E+09
        -0.28924E+09
        -0.21309E+09
        -0.12246E+09
        -0.38561E+09
        -0.17710E+09
        -0.44560E+09
         0.35576E+09
         0.64129E+09
         0.24201E+09
         0.47838E+09
         0.62938E+08
         0.24182E+09
        -0.26280E+09
        -0.11807E+09
         0.26253E+09
        -0.19242E+09
        -0.13028E+09
        -0.57960E+08
        -0.30411E+09
         0.88747E+07
         0.62494E+07
         0.60929E+08
        -0.58061E+08
         0.38138E+09
         0.94041E+08
         0.25337E+09
         0.31074E+09
        -0.38362E+08
         0.24722E+09
        -0.27366E+09
        -0.29233E+09
         0.15809E+09
        -0.24961E+09
        -0.21533E+09
         0.56524E+07
         0.10368E+09
         0.56919E+08
         0.67660E+08
         0.65418E+08
         0.31085E+09
         0.54100E+09
         0.69264E+08
         0.19133E+08
        -0.73872E+08
         0.32484E+09
        -0.92183E+08
        -0.48045E+07
        -0.11087E+09
        -0.21399E+09
         0.29261E+09
         0.14741E+09
        -0.14269E+08
        -0.13815E+09
        -0.99572E+07
         0.22917E+08
        -0.49101E+08
        -0.30903E+09
        -0.41225E+08
        -0.83602E+07
         0.35236E+08
         0.93547E+07
         0.11672E+09
         0.29506E+09
         0.55764E+08
        -0.88113E+08
        -0.53491E+08
         0.26254E+09
        -0.88853E+08
         0.47755E+09
        -0.14893E+08
        -0.17629E+09
        -0.55332E+09
         0.92608E+08
        -0.45129E+09
        -0.18482E+09
         0.47609E+09
         0.20124E+09
        -0.44366E+09
        -0.36329E+09
        -0.26393E+09
        -0.93426E+08
        -0.29862E+09
        -0.30441E+09
        -0.60390E+09
         0.52072E+09
         0.36450E+09
         0.28909E+09
         0.38182E+09
         0.68422E+08
         0.31641E+09
        -0.36987E+09
        -0.40098E+09
        -0.33927E+09
        -0.41862E+09
        -0.13226E+07
         0.70541E+08
        -0.14124E+09
         0.21856E+09
         0.23566E+09
        -0.37118E+08
        -0.27684E+09
         0.11885E+09
         0.24124E+09
        -0.10801E+09
         0.63520E+08
         0.17425E+09
         0.26500E+09
        -0.14416E+09
        -0.16835E+08
         0.22338E+09
         0.21974E+08
        -0.76178E+08
        -0.40002E+07
         0.29554E+09
         0.12307E+09
        -0.37052E+08
        -0.33890E+09
        -0.45700E+08
         0.26980E+09
        -0.15882E+09
         0.96945E+08
        -0.26275E+09
         0.77263E+08
        -0.34250E+09
        -0.14704E+09
        -0.16152E+09
        -0.30385E+09
        -0.11188E+09
        -0.36236E+08
        -0.12651E+09
        -0.95830E+08
        -0.26726E+09
         0.20569E+09
        -0.27846E+09
         0.51714E+08
        -0.10376E+09
         0.68461E+08
        -0.68529E+08
        -0.17980E+09
        -0.45913E+09
         0.28666E+09
        -0.32100E+09
        -0.16884E+09
         0.96517E+08
         0.21208E+09
        -0.11438E+09
         0.40075E+09
         0.67428E+08
         0.23343E+08
        -0.34884E+09
        -0.26018E+08
        -0.35404E+09
         0.56694E+08
         0.18800E+09
         0.17779E+09
        -0.72713E+08
        -0.34101E+09
        -0.33996E+09
        -0.57744E+08
        -0.30795E+09
        -0.17643E+09
        -0.41705E+09
         0.23636E+09
         0.20845E+09
         0.19530E+09
         0.41089E+09
         0.34940E+08
         0.20789E+09
        -0.19387E+09
        -0.24553E+09
         0.17608E+07
        -0.27463E+09
        -0.16914E+09
         0.77386E+08
        -0.14712E+09
         0.23774E+09
         0.17255E+09
        -0.84236E+08
        -0.25051E+09
         0.63019E+08
         0.88210E+08
        -0.10780E+09
         0.73306E+08
         0.20634E+09
         0.12437E+09
        -0.24720E+09
        -0.11423E+09
         0.24947E+09
        -0.72411E+08
        -0.35071E+09
        -0.21107E+09
         0.15274E+09
         0.20513E+09
         0.11411E+09
         0.27794E+08
        -0.39634E+08
         0.34971E+09
        -0.72107E+07
         0.80101E+08
        -0.81720E+08
         0.92977E+08
        -0.65641E+08
         0.65340E+08
         0.69458E+08
         0.26041E+09
         0.36863E+09
        -0.14210E+09
         0.40313E+07
         0.13976E+09
        -0.14736E+09
         0.21069E+09
        -0.23212E+09
        -0.17055E+09
        -0.12758E+08
         0.16145E+09
         0.21725E+09
         0.56971E+08
        -0.26791E+09
         0.27516E+09
        -0.10482E+09
        -0.10259E+09
        -0.11086E+09
         0.10087E+09
        -0.17499E+08
         0.48387E+09
         0.15371E+09
        -0.25500E+09
        -0.46112E+09
        -0.17575E+09
        -0.35551E+09
        -0.20161E+09
         0.35571E+09
         0.17898E+09
        -0.23357E+09
        -0.16460E+09
        -0.29780E+09
         0.16067E+08
        -0.23546E+09
        -0.68743E+07
        -0.26353E+09
         0.31446E+09
         0.27806E+09
         0.25047E+09
         0.41006E+09
         0.47591E+08
         0.29405E+09
        -0.16949E+09
        -0.43415E+09
        -0.36798E+09
        -0.32928E+09
        -0.71538E+08
         0.13791E+09
        -0.62377E+08
         0.21890E+09
         0.37570E+09
         0.54153E+08
        -0.22226E+09
         0.14914E+09
         0.17121E+09
         0.39152E+08
         0.28879E+09
         0.18089E+09
         0.16642E+09
        -0.17675E+09
        -0.12322E+08
         0.41287E+09
         0.17216E+09
        -0.20143E+09
        -0.21232E+08
         0.20360E+09
         0.63601E+08
         0.17453E+09
        -0.29516E+09
        -0.18132E+09
         0.19031E+09
         0.71071E+08
        -0.29646E+08
        -0.25300E+09
        -0.44146E+08
        -0.32454E+09
        -0.22818E+09
        -0.15418E+09
        -0.24034E+09
        -0.19030E+09
        -0.11997E+09
         0.19003E+09
         0.31542E+08
        -0.43672E+09
         0.34485E+09
         0.57179E+08
        -0.10013E+09
         0.38338E+08
         0.92639E+08
         0.98677E+08
         0.14041E+08
        -0.48522E+09
         0.35406E+09
         0.67733E+08
        -0.16405E+09
        -0.68945E+08
        -0.59331E+08
        -0.16148E+09
         0.25287E+09
         0.17234E+09
        -0.47743E+07
        -0.15288E+09
        -0.18308E+09
        -0.40901E+09
         0.80595E+08
         0.96381E+08
         0.43307E+08
         0.17902E+09
        -0.16422E+09
        -0.30221E+09
        -0.17508E+09
        -0.10907E+09
        -0.11881E+09
        -0.30138E+09
         0.26738E+08
         0.13266E+09
        -0.78121E+07
         0.10268E+09
         0.10459E+07
         0.70342E+08
        -0.28161E+08
        -0.14941E+09
        -0.46398E+08
        -0.13340E+09
        -0.16972E+09
        -0.64437E+08
        -0.11814E+09
         0.10867E+09
         0.12991E+09
        -0.17754E+08
        -0.15160E+09
        -0.49887E+08
        -0.75282E+08
         0.32072E+08
         0.28340E+09
         0.83518E+08
         0.31922E+08
        -0.15192E+09
        -0.92952E+08
         0.32734E+07
        -0.16524E+09
        -0.37931E+09
        -0.36070E+09
        -0.93919E+08
        -0.66744E+08
         0.12804E+09
        -0.72349E+08
         0.10484E+09
         0.25687E+09
         0.76190E+08
         0.71129E+08
         0.61391E+08
        -0.11404E+09
        -0.12925E+09
         0.87201E+08
         0.16985E+09
        -0.35782E+07
         0.37176E+09
         0.10606E+09
         0.15807E+09
         0.21255E+09
         0.16399E+09
         0.49929E+09
        -0.99184E+06
         0.14003E+09
         0.22825E+09
         0.35549E+09
         0.34430E+09
         0.29514E+09
         0.14711E+09
         0.44354E+09
         0.64768E+08
        -0.11408E+09
        -0.16549E+08
         0.54250E+08
        -0.12484E+09
         0.20310E+09
         0.26000E+08
         0.84084E+08
        -0.54029E+08
        -0.35643E+08
        -0.37069E+09
         0.26892E+09
        -0.15494E+08
        -0.82688E+08
         0.32321E+09
        -0.12191E+09
        -0.20785E+09
        -0.83181E+08
        -0.46760E+08
         0.42496E+08
        -0.15768E+09
        -0.48926E+08
         0.18416E+08
        -0.14368E+09
         0.21667E+09
        -0.64742E+08
         0.38798E+08
         0.35047E+08
        -0.10886E+09
         0.45219E+08
        -0.16124E+08
        -0.44737E+08
         0.59119E+08
        -0.10625E+09
         0.29210E+08
         0.79410E+08
        -0.21051E+08
        -0.21240E+09
         0.18087E+08
        -0.77243E+08
         0.63205E+08
         0.18590E+09
        -0.50599E+08
        -0.60911E+08
        -0.30176E+09
        -0.38358E+08
         0.15954E+08
         0.58524E+07
        -0.22483E+09
        -0.34583E+09
        -0.12561E+09
        -0.11283E+08
         0.33746E+07
         0.11881E+09
        -0.10459E+08
         0.27063E+09
         0.27678E+09
         0.51300E+08
         0.57230E+08
        -0.13130E+09
         0.13327E+09
        -0.12280E+09
        -0.52680E+08
         0.13340E+09
         0.45859E+08
         0.94230E+08
         0.22451E+09
         0.18548E+09
         0.15721E+09
         0.53387E+09
         0.37985E+09
         0.17360E+09
         0.15968E+09
         0.15427E+09
         0.61765E+07
         0.29023E+09
         0.28559E+09
         0.27440E+09
         0.11042E+08
        -0.39327E+08
        -0.45245E+08
        -0.16609E+09
        -0.13540E+09
         0.10321E+09
        -0.56089E+08
         0.21849E+08
         0.12832E+09
        -0.28154E+08
        -0.33437E+09
         0.13046E+09
        -0.12882E+09
        -0.89598E+08
         0.39200E+09
        -0.10305E+09
        -0.55851E+08
        -0.50435E+08
         0.28350E+08
        -0.44852E+08
        -0.10169E+09
         0.77689E+08
         0.55604E+08
        -0.13602E+09
         0.76037E+08
        -0.19182E+09
         0.57960E+08
        -0.29181E+08
        -0.14175E+09
         0.18632E+09
         0.15230E+07
         0.23991E+08
         0.58584E+08
        -0.62707E+08
         0.10069E+09
        -0.72693E+07
        -0.12786E+09
        -0.97341E+08
        -0.97748E+08
        -0.86923E+08
         0.22526E+09
         0.15820E+09
        -0.63146E+08
        -0.12752E+09
        -0.33728E+09
        -0.82323E+08
        -0.36622E+08
        -0.11385E+09
        -0.19026E+09
        -0.23672E+09
         0.69700E+07
         0.60959E+08
         0.28335E+08
         0.45784E+09
         0.40224E+09
         0.25213E+09
         0.24319E+09
         0.53455E+08
         0.23605E+09
        -0.53406E+08
        -0.35341E+08
        -0.20281E+08
         0.24852E+09
         0.12808E+09
         0.10797E+09
         0.32243E+09
         0.21843E+09
         0.13350E+09
         0.61493E+08
         0.28116E+09
         0.62140E+08
        -0.83550E+08
        -0.43666E+08
         0.22049E+09
         0.46085E+08
         0.61670E+08
         0.10430E+08
         0.29800E+09
         0.90504E+08
        -0.78279E+08
         0.96848E+08
         0.14434E+08
        -0.97617E+08
         0.10405E+09
         0.11541E+09
         0.78226E+08
         0.17447E+09
        -0.12437E+09
        -0.17680E+09
         0.10448E+09
        -0.18909E+09
        -0.24124E+09
         0.27283E+09
        -0.92356E+07
        -0.14607E+09
        -0.13165E+09
        -0.35303E+09
        -0.72740E+08
        -0.16360E+09
        -0.13939E+09
         0.17930E+07
        -0.13112E+09
         0.15939E+09
        -0.15701E+09
         0.20582E+09
        -0.76993E+07
        -0.62851E+08
         0.18816E+08
        -0.11331E+09
         0.34696E+08
         0.92537E+08
        -0.12096E+09
         0.70916E+08
        -0.13362E+09
        -0.19561E+09
        -0.17791E+09
         0.25944E+08
        -0.77071E+08
         0.31738E+08
         0.12010E+08
        -0.51081E+08
         0.26485E+08
        -0.13010E+09
        -0.85438E+08
        -0.97627E+07
        -0.95564E+08
        -0.28627E+08
        -0.19681E+09
        -0.85528E+08
         0.10157E+09
         0.87465E+08
         0.15159E+09
         0.27059E+09
         0.13983E+09
         0.39790E+09
         0.18778E+09
         0.75994E+08
         0.76926E+08
         0.31308E+08
        -0.99192E+08
         0.38872E+08
         0.32162E+08
         0.17086E+08
        -0.98711E+07
        -0.69259E+07
         0.17056E+09
        -0.84068E+08
         0.21784E+09
         0.15072E+09
         0.22808E+09
        -0.30869E+08
         0.11179E+09
         0.16875E+09
         0.15600E+09
         0.84357E+08
         0.82010E+08
         0.86867E+08
        -0.88176E+08
         0.73460E+08
         0.59755E+08
        -0.22385E+09
         0.44893E+08
        -0.14052E+09
         0.26605E+08
         0.98519E+08
         0.76091E+08
        -0.47805E+08
        -0.16458E+08
        -0.11867E+09
        -0.76494E+08
         0.62860E+08
        -0.12826E+09
        -0.90543E+08
        -0.28510E+07
        -0.15715E+09
        -0.19744E+08
        -0.95139E+08
         0.63300E+08
         0.35836E+08
        -0.42193E+08
         0.19997E+09
        -0.78943E+08
         0.13930E+09
         0.21517E+08
        -0.84122E+08
        -0.55810E+08
        -0.93461E+08
         0.74652E+08
         0.91504E+08
        -0.22807E+08
         0.60296E+08
         0.60821E+08
         0.56503E+08
        -0.44005E+08
        -0.15456E+08
        -0.37857E+08
         0.12284E+09
         0.24962E+09
         0.11123E+09
        -0.99915E+06
        -0.14016E+09
        -0.21406E+08
         0.33870E+08
        -0.56442E+08
        -0.93740E+08
        -0.20282E+09
        -0.21868E+08
         0.18647E+09
         0.14457E+08
         0.30095E+09
         0.38349E+09
         0.65182E+08
         0.17362E+09
         0.18169E+09
         0.11177E+09
         0.50474E+08
         0.13382E+09
         0.74843E+08
         0.21893E+09
         0.35026E+08
         0.26299E+09
         0.18280E+09
         0.20608E+09
         0.40164E+09
         0.65499E+08
         0.27814E+09
         0.79269E+08
         0.10670E+09
         0.69497E+08
         0.10569E+09
         0.26336E+09
         0.19932E+08
         0.71856E+08
         0.33268E+09
         0.22036E+09
         0.16835E+08
        -0.17570E+08
        -0.20658E+07
        -0.78334E+08
         0.98090E+08
        -0.78703E+08
        -0.57011E+08
         0.60105E+08
         0.11064E+09
        -0.44270E+08
        -0.67378E+08
        -0.40672E+08
        -0.98385E+07
        -0.10140E+08
        -0.47326E+08
        -0.15263E+09
         0.39392E+08
        -0.63440E+08
        -0.44027E+08
        -0.11648E+09
         0.10455E+09
         0.25565E+08
        -0.76088E+07
         0.10418E+09
        -0.24323E+08
         0.66548E+08
        -0.55303E+08
        -0.51105E+08
        -0.87331E+08
        -0.14198E+09
         0.17373E+08
         0.52812E+08
        -0.13975E+08
         0.84571E+08
         0.10015E+09
         0.10291E+09
        -0.13381E+07
         0.48494E+08
         0.58602E+08
         0.15332E+09
         0.76392E+08
        -0.52175E+08
        -0.63977E+08
        -0.93708E+08
        -0.24362E+07
         0.78114E+07
        -0.68294E+07
         0.44369E+08
        -0.79308E+08
        -0.23608E+08
         0.73123E+08
        -0.30204E+08
         0.13161E+09
         0.17407E+09
         0.10619E+08
         0.70322E+08
         0.17302E+08
        -0.42186E+08
         0.39752E+08
         0.11083E+09
        -0.41617E+08
         0.57422E+08
        -0.28331E+08
         0.44980E+08
         0.53697E+08
         0.13684E+09
         0.96224E+08
        -0.94122E+08
         0.65119E+07
        -0.12245E+09
        -0.17164E+09
        -0.10735E+09
        -0.83123E+05
         0.86651E+08
        -0.12964E+09
        -0.42608E+08
         0.11999E+09
         0.49373E+08
        -0.29407E+08
         0.66454E+08
        -0.19760E+08
        -0.98026E+08
        -0.14006E+08
        -0.71745E+08
         0.12354E+08
         0.13363E+09
        -0.15013E+09
        -0.24470E+08
        -0.14504E+09
        -0.15634E+09
         0.53043E+08
        -0.51646E+08
        -0.13266E+09
        -0.21139E+09
        -0.38606E+08
        -0.26851E+09
        -0.77802E+08
        -0.72556E+08
        -0.35678E+08
         0.20528E+08
        -0.68787E+08
         0.22319E+08
        -0.30242E+08
         0.60536E+08
        -0.32171E+08
        -0.11488E+09
        -0.55699E+08
        -0.19533E+08
         0.35909E+08
         0.83061E+08
        -0.51794E+08
         0.42685E+08
         0.18742E+08
         0.12296E+09
         0.12994E+09
         0.14383E+09
         0.54667E+08
         0.20550E+08
         0.75760E+08
         0.17587E+09
         0.17592E+09
        -0.62450E+08
         0.21358E+08
         0.10757E+09
         0.35301E+08
         0.30427E+08
        -0.10701E+09
        -0.32464E+08
         0.12789E+09
         0.21750E+08
         0.44938E+08
        -0.32770E+08
        -0.55335E+07
         0.18196E+09
         0.19065E+09
         0.86992E+08
         0.12552E+09
         0.73421E+08
         0.35833E+08
         0.24149E+09
         0.10347E+09
        -0.20078E+09
         0.11279E+09
         0.11044E+09
         0.72479E+08
         0.12588E+09
         0.36000E+09
         0.10946E+09
        -0.23743E+08
        -0.34324E+08
         0.35591E+08
         0.23048E+09
         0.88113E+08
         0.56865E+08
         0.16616E+09
        -0.55886E+08
        -0.12632E+09
        -0.10497E+09
        -0.38252E+08
        -0.40234E+08
         0.44485E+08
        -0.39987E+08
        -0.46740E+08
         0.93467E+08
        -0.16899E+09
         0.36205E+08
         0.14453E+08
         0.17619E+09
         0.95338E+08
         0.60512E+08
         0.18242E+09
        -0.89819E+08
         0.11675E+08
        -0.17392E+09
         0.43094E+08
        -0.11445E+09
         0.12772E+09
        -0.55033E+08
         0.37307E+08
         0.14006E+09
        -0.26338E+08
         0.11394E+09
         0.28543E+08
        -0.86136E+08
        -0.33669E+08
        -0.13943E+09
         0.56358E+08
         0.85312E+08
         0.45194E+08
         0.41017E+08
         0.29618E+08
         0.22058E+08
        -0.20074E+08
         0.27883E+09
         0.16533E+09
         0.15337E+09
         0.21007E+09
         0.19322E+09
         0.50150E+08
        -0.44208E+08
         0.30175E+08
         0.94401E+08
         0.59881E+08
         0.67472E+08
        -0.36218E+07
        -0.18086E+08
         0.54946E+07
        -0.47237E+08
         0.19972E+07
        -0.16247E+09
        -0.47035E+08
        -0.28986E+08
         0.47891E+08
         0.39687E+08
         0.47981E+08
         0.10769E+09
         0.53822E+08
        -0.12779E+09
        -0.11505E+09
        -0.19645E+09
        -0.16467E+09
        -0.67797E+08
         0.41350E+08
        -0.27043E+09
        -0.16386E+09
        -0.16951E+09
        -0.22221E+09
         0.22188E+07
        -0.10009E+08
         0.41029E+08
        -0.90889E+06
        -0.53755E+08
        -0.22151E+08
        -0.22716E+09
        -0.10443E+09
        -0.81275E+08
        -0.33857E+08
        -0.53319E+08
         0.10559E+09
         0.56967E+08
        -0.10402E+09
         0.11095E+08
        -0.26258E+09
        -0.11448E+09
        -0.12450E+09
         0.12191E+08
        -0.77137E+07
        -0.10049E+09
        -0.25298E+08
        -0.12492E+09
        -0.13419E+09
        -0.21134E+09
        -0.17350E+09
        -0.15422E+09
        -0.98929E+08
         0.20628E+07
        -0.13436E+09
        -0.89373E+08
        -0.12640E+09
         0.25996E+08
        -0.13443E+09
        -0.20797E+09
        -0.58313E+08
        -0.11636E+09
        -0.62698E+08
         0.22426E+08
        -0.10704E+09
        -0.85528E+07
         0.13342E+09
         0.10261E+09
         0.35215E+08
        -0.32203E+08
        -0.10777E+09
         0.40479E+08
         0.11877E+09
         0.13407E+09
         0.11852E+09
        -0.24820E+08
         0.11984E+09
         0.22277E+09
         0.10947E+09
         0.35720E+08
        -0.39743E+08
         0.20395E+08
         0.10384E+09
         0.49995E+08
         0.39279E+08
        -0.91654E+08
        -0.53090E+08
        -0.12705E+09
        -0.55630E+08
         0.48951E+08
         0.10868E+09
        -0.17643E+07
         0.17308E+08
         0.58251E+08
        -0.21623E+09
        -0.45243E+06
        -0.87520E+08
         0.69286E+08
         0.86678E+08
         0.14904E+08
         0.10200E+09
         0.43064E+08
        -0.43133E+08
         0.16235E+09
         0.50735E+08
         0.61412E+08
         0.91122E+07
        -0.24420E+08
        -0.25797E+08
        -0.17883E+09
        -0.84954E+08
        -0.19195E+08
        -0.89363E+08
        -0.11053E+09
        -0.12064E+09
        -0.68193E+08
         0.35412E+08
         0.32926E+08
        -0.13278E+09
        -0.25579E+08
        -0.63652E+08
         0.79714E+08
         0.16674E+09
        -0.53402E+08
         0.77236E+08
        -0.54668E+07
        -0.62797E+08
        -0.71720E+08
        -0.10142E+09
        -0.12097E+09
        -0.38945E+08
        -0.52403E+08
         0.16312E+08
         0.42797E+08
        -0.28960E+08
         0.12502E+09
         0.47784E+08
         0.31730E+08
         0.78827E+08
        -0.40157E+08
         0.46152E+08
         0.30473E+08
         0.25172E+08
         0.48143E+08
        -0.10532E+09
         0.30117E+08
         0.12443E+09
         0.25372E+09
         0.19358E+09
         0.18375E+09
         0.13758E+09
         0.17883E+09
         0.58988E+08
         0.36084E+08
        -0.28561E+08
         0.23480E+08
         0.24512E+08
         0.40649E+08
         0.83206E+07
         0.95535E+08
         0.13147E+09
         0.38103E+08
        -0.31714E+09
        -0.25295E+09
        -0.14320E+09
        -0.83238E+08
        -0.11631E+09
        -0.17570E+08
         0.11932E+09
         0.36489E+08
         0.10926E+09
        -0.32065E+08
        -0.19808E+09
        -0.90581E+08
        -0.10454E+09
         0.58782E+08
        -0.41158E+08
        -0.23771E+09
        -0.11616E+09
        -0.23850E+09
        -0.24839E+09
        -0.10315E+09
         0.18377E+08
        -0.45549E+08
        -0.94551E+08
        -0.97668E+08
        -0.53089E+08
        -0.25751E+09
        -0.96991E+08
        -0.45421E+08
         0.46252E+08
        -0.29319E+06
         0.14298E+09
         0.42466E+08
        -0.31651E+08
        -0.31526E+08
        -0.14016E+09
        -0.14746E+08
        -0.42203E+08
         0.44400E+08
         0.36070E+08
        -0.89755E+08
        -0.14774E+08
        -0.66761E+08
         0.18273E+08
        -0.15904E+09
         0.32488E+08
        -0.45211E+08
         0.14993E+08
        -0.36964E+08
         0.52954E+08
         0.46225E+08
        -0.60990E+08
        -0.23224E+08
        -0.48223E+08
        -0.57012E+08
        -0.48563E+08
        -0.12001E+09
        -0.12006E+09
        -0.99942E+08
        -0.64731E+08
         0.82548E+07
         0.16339E+09
         0.58677E+08
        -0.47692E+07
        -0.56456E+08
        -0.79434E+08
         0.41543E+08
         0.10766E+09
         0.40535E+08
        -0.26277E+08
         0.54026E+08
         0.20989E+08
         0.77379E+08
         0.62087E+08
         0.61471E+08
         0.47251E+08
         0.90214E+08
         0.12053E+08
        -0.36581E+08
         0.17291E+09
         0.57730E+08
         0.65484E+06
        -0.26475E+08
         0.24135E+07
        -0.10080E+09
         0.60886E+08
        -0.95677E+08
        -0.84350E+08
        -0.29871E+08
        -0.66796E+08
        -0.15069E+09
        -0.72848E+08
         0.62429E+08
        -0.24212E+09
        -0.15732E+09
         0.79526E+07
        -0.37330E+08
         0.79996E+07
         0.17605E+08
        -0.54795E+08
         0.20027E+08
        -0.22259E+08
        -0.20139E+09
        -0.21223E+09
        -0.14735E+09
         0.12059E+09
         0.55386E+08
        -0.14513E+07
         0.14583E+09
        -0.81083E+08
        -0.28791E+08
         0.50086E+08
         0.99133E+08
         0.69396E+08
         0.14838E+09
        -0.36951E+08
         0.23564E+08
         0.76391E+08
        -0.71900E+07
        -0.33428E+07
         0.36412E+08
         0.51256E+08
         0.11069E+09
         0.91746E+08
         0.81562E+08
         0.77166E+08
         0.18355E+08
         0.46732E+08
         0.38211E+08
         0.59987E+08
         0.38304E+08
         0.16469E+09
         0.13503E+09
        -0.59864E+07
        -0.60030E+07
         0.54182E+08
         0.72998E+08
         0.21543E+08
         0.15195E+08
        -0.14229E+09
        -0.82316E+08
         0.72460E+08
         0.84677E+08
         0.71653E+08
         0.58672E+08
        -0.36157E+08
        -0.20154E+08
         0.15511E+08
         0.13569E+08
         0.51357E+08
         0.50081E+08
         0.77779E+08
         0.41273E+08
        -0.83752E+08
        -0.56742E+08
        -0.53511E+07
        -0.25007E+08
        -0.20904E+09
        -0.11481E+09
        -0.18707E+09
         0.25238E+08
         0.37225E+08
        -0.45570E+08
         0.80251E+08
         0.85234E+08
         0.71601E+08
        -0.19750E+08
        -0.58330E+08
         0.63231E+08
         0.17321E+09
        -0.51499E+08
         0.42418E+08
         0.25221E+08
        -0.15850E+09
        -0.10266E+09
        -0.19558E+09
        -0.11642E+09
         0.22397E+08
        -0.41327E+08
        -0.18161E+08
         0.68965E+08
         0.27422E+08
        -0.10421E+09
         0.83515E+08
         0.62069E+08
         0.12071E+08
         0.60277E+08
         0.40837E+08
        -0.28889E+08
         0.15317E+09
         0.12041E+09
         0.68587E+08
         0.47295E+08
         0.90911E+08
        -0.49389E+07
         0.46597E+08
         0.37014E+08
        -0.87334E+08
         0.13485E+09
         0.72956E+08
         0.17294E+09
         0.10776E+09
         0.10720E+09
         0.36662E+08
         0.33475E+08
        -0.10430E+08
         0.37979E+08
         0.32206E+08
         0.22291E+08
         0.20302E+08
         0.43642E+08
         0.39018E+08
         0.65809E+08
         0.85087E+08
        -0.90354E+07
         0.12648E+09
         0.68883E+08
         0.11408E+09
         0.26357E+08
        -0.10975E+08
        -0.10791E+09
        -0.85707E+08
         0.51525E+07
        -0.41075E+08
        -0.36096E+08
         0.10394E+08
        -0.38698E+08
        -0.46488E+08
        -0.39203E+07
        -0.18032E+08
        -0.43039E+08
        -0.42818E+08
         0.12541E+07
         0.16042E+08
        -0.19970E+08
         0.22264E+09
         0.12074E+09
         0.71818E+08
        -0.18797E+09
        -0.18677E+09
        -0.81829E+08
        -0.11900E+09
        -0.14748E+09
        -0.11108E+09
         0.63052E+08
        -0.87286E+08
        -0.91858E+08
        -0.11025E+09
        -0.78212E+08
        -0.93313E+08
        -0.96772E+08
         0.18271E+08
        -0.25686E+08
         0.80208E+08
        -0.39444E+07
        -0.27727E+08
        -0.61164E+08
        -0.72097E+08
         0.32145E+08
         0.41479E+08
        -0.96424E+07
         0.10572E+09
         0.80093E+08
         0.51626E+08
         0.85659E+08
         0.50799E+07
         0.52442E+08
         0.17766E+08
         0.64497E+08
         0.61014E+08
         0.12057E+09
        -0.50690E+08
        -0.10424E+09
        -0.17695E+08
         0.25207E+08
        -0.23666E+08
         0.18683E+09
         0.84654E+08
         0.12444E+09
         0.20335E+08
         0.12311E+09
        -0.51210E+08
         0.78315E+08
        -0.87546E+08
        -0.17144E+08
         0.13282E+09
         0.23570E+08
         0.18391E+09
         0.15289E+09
         0.76265E+08
         0.17262E+09
         0.43502E+08
        -0.40027E+08
         0.21280E+08
         0.81561E+07
        -0.14026E+07
         0.42255E+07
         0.45340E+08
         0.70724E+08
        -0.32633E+08
        -0.14177E+09
        -0.12205E+09
         0.65482E+07
         0.12003E+09
        -0.32540E+08
        -0.49846E+08
        -0.47289E+08
        -0.61011E+08
        -0.66558E+08
        -0.85922E+08
        -0.92183E+08
        -0.11629E+09
        -0.21954E+08
        -0.13560E+09
        -0.89788E+08
         0.81511E+07
         0.14916E+08
        -0.82435E+08
        -0.47226E+08
        -0.38494E+08
         0.75124E+08
        -0.57744E+08
         0.39916E+08
         0.20739E+09
        -0.36677E+08
        -0.51946E+07
         0.21395E+09
         0.17816E+09
         0.59524E+08
         0.82765E+08
        -0.24204E+08
         0.48928E+08
        -0.52677E+08
        -0.62517E+08
        -0.13757E+08
        -0.43318E+08
        -0.22828E+09
        -0.12531E+09
        -0.10820E+08
         0.10499E+09
         0.37170E+08
         0.11524E+09
         0.82066E+08
         0.92484E+07
         0.44682E+08
        -0.38029E+08
         0.49249E+08
         0.19739E+09
         0.62213E+08
         0.12270E+08
         0.26088E+08
         0.19894E+08
         0.24051E+08
         0.67445E+08
         0.13605E+09
         0.13315E+09
         0.10312E+09
         0.54357E+08
         0.32780E+08
         0.11127E+08
        -0.19710E+08
         0.26473E+08
         0.67877E+08
        -0.33000E+07
         0.10242E+09
        -0.57979E+07
        -0.70899E+06
         0.12488E+08
         0.66444E+07
         0.26808E+08
         0.38636E+08
         0.15607E+08
         0.25359E+08
        -0.12374E+08
         0.52770E+08
         0.47973E+08
        -0.62620E+07
        -0.41560E+08
        -0.16864E+08
        -0.27036E+07
         0.30907E+08
         0.44647E+08
         0.44175E+08
         0.32044E+08
        -0.55603E+08
        -0.91873E+08
        -0.45572E+08
        -0.51555E+07
         0.67981E+07
         0.34610E+08
         0.56506E+08
        -0.12387E+09
        -0.56876E+08
        -0.75247E+08
        -0.29525E+06
         0.26577E+08
        -0.72146E+08
        -0.15909E+09
        -0.77578E+08
        -0.18291E+09
        -0.13086E+09
        -0.23176E+08
        -0.10026E+09
        -0.80537E+08
        -0.17193E+09
        -0.78612E+08
        -0.77945E+08
        -0.20292E+09
        -0.46417E+08
        -0.13722E+09
        -0.15988E+09
        -0.52997E+07
        -0.79546E+07
        -0.14763E+07
         0.35647E+08
         0.79733E+07
         0.78759E+08
         0.25461E+08
         0.32947E+08
         0.43981E+08
         0.18304E+08
         0.21611E+08
         0.12367E+08
        -0.67459E+07
        -0.33811E+08
         0.14863E+08
        -0.61512E+08
        -0.20738E+08
        -0.27329E+08
        -0.18992E+08
        -0.37042E+08
        -0.41893E+08
        -0.84623E+08
         0.11034E+08
        -0.48236E+08
        -0.26705E+07
         0.41052E+08
         0.94246E+08
         0.10575E+09
         0.27359E+08
        -0.16655E+08
        -0.50501E+07
        -0.51077E+08
        -0.61673E+08
         0.56343E+08
         0.85757E+08
         0.43149E+08
        -0.40766E+07
        -0.14877E+08
         0.27261E+08
         0.46889E+08
         0.55515E+08
         0.16027E+07
        -0.10010E+08
        -0.97173E+08
         0.83645E+08
         0.16131E+09
         0.15785E+08
        -0.35927E+08
        -0.33300E+08
        -0.13381E+08
        -0.15058E+08
         0.24120E+08
         0.33552E+08
         0.24081E+08
         0.30313E+08
         0.13634E+08
         0.14689E+08
         0.40492E+08
         0.20949E+08
        -0.19626E+08
        -0.10045E+09
        -0.16782E+09
        -0.10158E+09
        -0.81496E+08
         0.26640E+07
        -0.15948E+09
         0.29133E+08
         0.37657E+08
        -0.32357E+09
         0.22190E+09
         0.51591E+08
         0.38944E+08
        -0.27734E+08
         0.15932E+08
        -0.66970E+07
        -0.78184E+08
         0.12082E+08
         0.48202E+08
        -0.43277E+07
        -0.76080E+08
        -0.42239E+08
        -0.48633E+08
        -0.35133E+08
        -0.49614E+08
        -0.41725E+08
        -0.84067E+07
        -0.72901E+08
        -0.13031E+08
        -0.20636E+08
        -0.93104E+07
        -0.52595E+08
         0.20410E+08
        -0.70742E+08
        -0.58076E+08
        -0.84071E+07
         0.22395E+08
        -0.32992E+07
         0.31448E+08
         0.68459E+08
        -0.13831E+08
        -0.43750E+08
        -0.56464E+08
         0.42937E+08
        -0.26312E+08
        -0.42661E+08
         0.38071E+08
        -0.61302E+08
         0.82042E+07
        -0.55634E+08
         0.63632E+07
        -0.48612E+08
        -0.11482E+09
        -0.40047E+08
        -0.57313E+08
        -0.56993E+08
        -0.57188E+08
        -0.43447E+08
        -0.17724E+08
        -0.74535E+08
        -0.41965E+08
         0.20908E+08
         0.39258E+08
         0.25594E+08
         0.51336E+08
         0.35224E+08
        -0.39591E+08
        -0.98446E+07
         0.43223E+08
         0.13979E+08
        -0.60991E+08
        -0.54715E+08
        -0.84345E+08
        -0.10135E+09
        -0.43607E+08
        -0.35338E+08
        -0.20685E+08
        -0.28987E+08
         0.63066E+08
         0.49026E+08
         0.12867E+09
         0.30369E+08
        -0.14278E+09
         0.49273E+08
        -0.40061E+08
        -0.39052E+08
        -0.31142E+08
         0.10116E+09
         0.30060E+08
        -0.16208E+09
         0.12762E+09
        -0.46499E+08
        -0.97599E+08
         0.82405E+07
        -0.15099E+09
        -0.15561E+09
        -0.12853E+09
        -0.10735E+09
        -0.10660E+09
        -0.10564E+09
        -0.20458E+09
        -0.15741E+09
         0.12104E+08
        -0.14393E+09
        -0.71841E+08
        -0.13895E+09
        -0.15147E+08
         0.15927E+09
         0.18348E+09
        -0.19876E+08
         0.86450E+08
        -0.17072E+09
         0.94576E+08
        -0.19568E+08
         0.11564E+09
         0.10423E+09
        -0.15281E+09
        -0.11401E+09
        -0.50974E+07
        -0.16973E+09
        -0.98452E+07
        -0.13195E+09
        -0.16111E+09
         0.78423E+08
         0.44020E+08
         0.18285E+09
        -0.11151E+09
         0.12493E+09
        -0.61317E+08
        -0.53396E+08
         0.50629E+08
         0.11105E+07
         0.74173E+07
        -0.45995E+08
        -0.42132E+08
        -0.16951E+09
        -0.72226E+08
         0.12465E+09
         0.16274E+09
         0.41348E+08
         0.54823E+08
         0.67150E+08
        -0.87402E+08
        -0.78222E+08
         0.10097E+09
         0.32909E+09
         0.11729E+09
         0.14323E+09
         0.12925E+08
        -0.83350E+07
         0.11012E+09
         0.10508E+09
         0.19912E+09
         0.18446E+09
         0.10040E+09
        -0.26100E+09
        -0.10428E+09
        -0.69663E+08
        -0.45186E+09
        -0.20051E+09
        -0.14742E+09
        -0.26900E+09
        -0.31703E+09
        -0.23328E+09
        -0.86207E+08
        -0.10439E+08
        -0.24983E+09
         0.32885E+08
        -0.39386E+09
        -0.74551E+08
        -0.14212E+08
        -0.34278E+09
        -0.11000E+09
         0.87564E+08
        -0.39111E+08
        -0.28930E+08
        -0.14961E+08
        -0.58331E+08
        -0.17015E+09
        -0.32512E+09
        -0.96704E+08
  
SCALARS                      stress_yy  double 1
LOOKUP_TABLE default
        -0.50776E+09
         0.34570E+09
         0.24622E+09
         0.10617E+09
        -0.94142E+09
         0.34854E+09
         0.24927E+09
        -0.31775E+09
        -0.48109E+09
         0.15010E+09
        -0.37784E+09
        -0.21736E+09
         0.43933E+09
        -0.18414E+09
         0.97674E+09
        -0.53374E+09
         0.24755E+09
        -0.44566E+09
         0.26044E+09
        -0.47989E+09
         0.52854E+09
         0.26783E+09
        -0.64203E+08
         0.14319E+10
        -0.28183E+09
        -0.31130E+09
         0.14380E+09
         0.19004E+09
        -0.10190E+09
        -0.84483E+08
        -0.48093E+09
        -0.11265E+09
        -0.33044E+09
        -0.10491E+10
        -0.40312E+09
        -0.65128E+09
        -0.47261E+08
        -0.72848E+08
         0.41746E+09
        -0.17356E+09
        -0.20098E+09
         0.23403E+09
        -0.68474E+09
        -0.31967E+09
         0.59521E+08
         0.67820E+09
        -0.22862E+09
         0.44474E+09
        -0.63733E+08
        -0.98428E+09
         0.33636E+09
         0.68275E+09
         0.21948E+09
         0.40280E+09
         0.11407E+09
         0.66544E+09
         0.26257E+09
         0.34615E+09
        -0.11440E+09
         0.28231E+09
         0.21487E+09
        -0.23535E+08
         0.59538E+09
        -0.55827E+09
         0.19415E+09
         0.39591E+09
         0.82861E+08
         0.39004E+08
        -0.16948E+09
         0.34909E+09
         0.15559E+09
        -0.11403E+09
        -0.25746E+09
        -0.68408E+09
         0.46459E+09
         0.14661E+09
         0.20166E+09
        -0.13039E+09
         0.33322E+08
        -0.84237E+08
         0.26011E+09
         0.59915E+07
         0.62640E+09
        -0.49237E+09
        -0.23965E+09
        -0.16573E+09
        -0.12845E+09
        -0.67884E+09
        -0.24050E+09
         0.23866E+09
         0.16817E+08
        -0.21840E+09
        -0.56231E+09
         0.61677E+08
         0.94626E+07
        -0.13473E+09
        -0.14340E+09
        -0.68167E+09
         0.13190E+09
        -0.16524E+09
         0.12608E+09
        -0.11609E+09
        -0.25422E+09
         0.10157E+09
        -0.16837E+09
         0.18276E+09
         0.54378E+09
         0.13845E+09
         0.34706E+08
         0.35611E+08
        -0.20709E+09
         0.64302E+09
         0.29952E+09
         0.44245E+09
        -0.26141E+08
         0.25499E+09
         0.69110E+08
         0.15833E+09
         0.40586E+08
         0.35081E+09
         0.18260E+09
         0.38716E+09
         0.44485E+09
         0.23276E+09
        -0.24471E+09
         0.66663E+09
         0.35606E+09
         0.58915E+08
        -0.39665E+08
         0.19735E+09
        -0.22324E+09
         0.15894E+09
        -0.21901E+09
         0.39070E+09
        -0.61627E+08
         0.15678E+09
        -0.13436E+09
         0.23446E+09
        -0.18030E+09
         0.64576E+09
         0.63609E+08
         0.61059E+09
        -0.19784E+09
         0.34303E+09
        -0.19258E+09
         0.30230E+09
        -0.40235E+08
         0.72175E+09
        -0.63882E+08
         0.63583E+09
        -0.12516E+09
         0.37335E+09
        -0.57088E+08
         0.19458E+09
        -0.19639E+09
         0.18240E+09
        -0.17297E+09
        -0.41520E+08
         0.79661E+08
        -0.34177E+09
        -0.14541E+09
         0.23090E+09
         0.39683E+08
        -0.34766E+08
        -0.13964E+09
        -0.65945E+09
         0.17405E+09
         0.26924E+09
         0.90612E+08
         0.15324E+09
        -0.24497E+09
        -0.19052E+09
        -0.18484E+09
        -0.19710E+09
        -0.42046E+09
        -0.31183E+09
         0.32045E+08
         0.27058E+09
         0.60697E+08
         0.68395E+09
         0.11979E+09
         0.44535E+09
        -0.18977E+09
        -0.21191E+09
         0.15695E+09
        -0.11090E+09
        -0.13947E+09
         0.31579E+09
        -0.15765E+09
        -0.71767E+08
        -0.11180E+09
         0.23589E+09
        -0.14741E+09
         0.41330E+09
         0.21838E+09
        -0.78304E+08
        -0.25129E+08
         0.24068E+09
        -0.15512E+09
         0.96181E+08
        -0.30080E+09
         0.85926E+09
         0.12663E+09
         0.24176E+09
         0.39655E+09
         0.41157E+09
         0.32085E+09
        -0.57790E+08
        -0.27398E+08
         0.12452E+08
         0.38125E+07
        -0.53893E+06
         0.43860E+09
         0.30122E+09
         0.44308E+09
         0.25490E+09
         0.30979E+09
         0.12483E+09
         0.53424E+08
         0.33193E+09
        -0.14747E+09
         0.83935E+08
         0.60738E+07
        -0.19692E+09
         0.31327E+09
        -0.23800E+08
         0.69288E+08
        -0.47607E+08
         0.81510E+08
         0.19319E+09
        -0.17588E+09
        -0.28702E+09
         0.40322E+08
        -0.36640E+08
        -0.15114E+09
        -0.16461E+09
        -0.98669E+08
        -0.13911E+09
        -0.43258E+08
         0.12684E+09
         0.24144E+09
        -0.31112E+09
         0.56808E+08
        -0.40061E+09
         0.17486E+09
         0.44393E+09
         0.30934E+09
        -0.38180E+08
         0.34520E+08
        -0.14895E+09
        -0.18480E+09
        -0.20921E+09
        -0.37640E+09
        -0.43695E+09
         0.47666E+08
         0.28312E+09
         0.21845E+09
         0.41417E+09
         0.58358E+08
         0.28503E+09
        -0.71918E+08
        -0.14863E+09
         0.14028E+09
        -0.20369E+09
        -0.13769E+08
         0.18721E+08
        -0.25182E+09
        -0.50945E+08
        -0.17597E+08
         0.14028E+09
         0.11195E+08
         0.62288E+09
         0.32259E+09
         0.30834E+09
         0.30499E+09
        -0.85779E+08
        -0.14678E+09
        -0.15170E+09
        -0.38203E+09
         0.36826E+09
        -0.12309E+08
         0.46334E+08
         0.21096E+09
         0.35641E+09
         0.17921E+08
        -0.66698E+08
        -0.54847E+08
         0.38260E+08
         0.14500E+09
        -0.11192E+09
         0.17853E+09
         0.38829E+08
         0.44051E+09
        -0.65461E+07
         0.17160E+09
        -0.11384E+09
        -0.14323E+09
         0.29653E+09
        -0.22590E+09
        -0.97313E+08
        -0.41585E+09
        -0.35745E+09
         0.16117E+09
         0.55778E+08
         0.42811E+08
         0.17364E+09
         0.26618E+09
         0.16800E+09
        -0.15047E+09
        -0.23180E+09
         0.11804E+09
        -0.18365E+09
        -0.54719E+08
        -0.19369E+09
        -0.18420E+09
        -0.27210E+09
         0.22897E+09
         0.40235E+08
        -0.11140E+09
        -0.42301E+09
         0.77636E+08
        -0.42269E+09
        -0.12958E+09
         0.58514E+09
         0.15683E+09
        -0.44770E+09
        -0.14480E+09
        -0.13353E+09
        -0.21056E+09
        -0.22329E+09
        -0.31840E+09
        -0.48565E+09
         0.19263E+09
         0.20307E+09
         0.30257E+09
         0.34836E+09
         0.96788E+07
         0.33694E+09
        -0.38980E+09
        -0.38343E+09
        -0.45579E+09
        -0.36604E+09
         0.15790E+09
         0.11440E+09
        -0.63275E+08
         0.18482E+09
         0.11352E+09
         0.28464E+08
        -0.19210E+09
         0.28100E+09
         0.43921E+09
         0.27324E+08
         0.45136E+08
         0.26972E+07
        -0.12730E+09
        -0.17312E+08
        -0.13585E+09
         0.32892E+09
         0.17732E+09
         0.11902E+09
         0.16766E+09
         0.65950E+09
         0.29005E+09
        -0.19673E+09
        -0.35189E+09
        -0.31486E+09
         0.28243E+08
        -0.37048E+09
         0.23156E+09
        -0.44735E+09
         0.24792E+09
        -0.46369E+08
         0.19494E+08
         0.38294E+08
        -0.18005E+09
         0.26300E+08
        -0.26586E+09
        -0.18414E+09
        -0.27997E+09
        -0.36674E+09
         0.41802E+09
        -0.18397E+09
         0.43998E+09
         0.28506E+08
         0.14678E+09
        -0.16011E+07
        -0.28716E+09
        -0.49825E+09
        -0.46526E+08
        -0.30329E+09
        -0.16335E+09
        -0.32454E+08
        -0.19777E+09
        -0.26806E+09
         0.11955E+09
         0.62236E+08
         0.95635E+08
        -0.27823E+09
        -0.41872E+08
        -0.34209E+09
         0.16425E+09
         0.42018E+09
         0.20907E+09
        -0.98954E+08
         0.10885E+08
        -0.22841E+09
        -0.20822E+09
        -0.21593E+09
        -0.12573E+09
        -0.39412E+09
        -0.88619E+08
        -0.97888E+07
         0.17700E+09
         0.27384E+09
        -0.60823E+08
         0.17671E+09
        -0.99202E+08
        -0.21040E+08
        -0.47611E+08
        -0.39484E+09
         0.29215E+08
         0.40839E+08
        -0.81698E+08
         0.13156E+09
         0.13648E+08
        -0.29505E+08
        -0.10051E+09
         0.24077E+09
         0.15149E+09
         0.29313E+08
         0.34821E+08
         0.71652E+08
        -0.15024E+09
        -0.20821E+09
        -0.32210E+09
         0.32972E+09
         0.36677E+08
        -0.17206E+09
        -0.15566E+09
         0.35989E+09
         0.18219E+09
        -0.12683E+09
        -0.43750E+08
        -0.12611E+09
        -0.45152E+07
        -0.20945E+09
         0.29092E+09
        -0.24642E+09
         0.21941E+09
         0.22878E+09
        -0.23932E+08
         0.38881E+09
         0.12893E+09
         0.30339E+09
        -0.19783E+09
        -0.18518E+09
         0.18640E+08
        -0.10305E+09
         0.33156E+09
        -0.13835E+09
         0.20753E+09
         0.28696E+09
         0.41535E+09
         0.24637E+09
         0.82783E+08
        -0.21711E+09
        -0.45358E+08
        -0.14148E+09
        -0.14261E+09
        -0.16784E+09
        -0.29073E+09
        -0.21964E+09
         0.20136E+09
         0.75108E+08
        -0.78741E+08
        -0.47303E+09
        -0.12689E+09
        -0.29318E+09
        -0.96307E+08
         0.51876E+09
         0.26007E+09
        -0.44760E+09
         0.52827E+08
        -0.17332E+09
        -0.15258E+09
        -0.15767E+09
         0.18889E+07
        -0.24465E+09
         0.13449E+09
         0.24346E+08
         0.24645E+09
         0.37438E+09
        -0.43664E+08
         0.17593E+09
        -0.28843E+09
        -0.22264E+09
        -0.38633E+09
        -0.48642E+09
         0.67438E+08
         0.95709E+08
         0.27201E+08
         0.21476E+09
         0.22907E+09
         0.38793E+08
        -0.12118E+09
         0.21404E+09
         0.36359E+09
         0.83158E+08
         0.87105E+08
         0.70246E+08
        -0.65686E+08
        -0.17104E+09
        -0.17122E+09
         0.35165E+09
         0.16506E+09
        -0.24278E+08
         0.27530E+08
         0.44203E+09
         0.14936E+09
        -0.62203E+08
        -0.23701E+09
        -0.12626E+09
        -0.52257E+08
        -0.16231E+09
         0.44181E+08
        -0.34942E+09
         0.21258E+09
        -0.12785E+09
        -0.29491E+09
         0.12466E+09
        -0.27988E+09
        -0.92654E+08
         0.29766E+07
        -0.18154E+09
        -0.10795E+09
        -0.49662E+09
         0.45028E+09
         0.35208E+09
         0.36155E+09
         0.24083E+09
         0.29733E+09
         0.11471E+09
         0.77089E+08
        -0.34121E+09
        -0.30357E+08
        -0.73204E+08
        -0.14891E+09
        -0.14252E+09
        -0.28903E+09
        -0.31495E+09
         0.35999E+08
         0.94323E+08
         0.53521E+08
        -0.19279E+09
        -0.49841E+08
        -0.29928E+09
         0.12289E+09
         0.27382E+09
         0.10480E+09
        -0.67241E+08
        -0.40152E+08
        -0.24845E+09
        -0.33642E+09
        -0.13624E+09
        -0.51197E+08
        -0.32173E+09
        -0.50052E+08
         0.41515E+08
        -0.89435E+08
         0.19800E+09
        -0.14557E+08
        -0.20270E+08
        -0.37264E+08
         0.46055E+08
        -0.75646E+08
        -0.30413E+09
        -0.76624E+08
        -0.11678E+09
        -0.86647E+08
         0.44417E+08
         0.12887E+08
         0.28624E+08
        -0.83157E+08
         0.12432E+08
         0.60607E+08
         0.22757E+08
         0.13693E+09
         0.55923E+08
        -0.19477E+09
        -0.16830E+09
        -0.19647E+09
        -0.12156E+08
        -0.18079E+09
        -0.35404E+09
        -0.25862E+09
         0.66989E+08
        -0.44228E+08
        -0.72136E+08
        -0.12495E+09
         0.15511E+09
         0.16466E+09
         0.21169E+08
         0.33955E+09
         0.15821E+09
         0.26250E+09
         0.11614E+09
         0.11190E+09
         0.34505E+09
        -0.17357E+09
         0.23413E+09
         0.44169E+08
        -0.27019E+09
         0.10003E+09
         0.67784E+08
         0.51224E+09
         0.21472E+09
         0.40446E+09
         0.28616E+09
         0.58295E+09
         0.43356E+09
         0.30464E+09
         0.16299E+09
         0.71576E+08
         0.38557E+08
        -0.14976E+09
        -0.44440E+08
        -0.43865E+08
        -0.19158E+09
        -0.11131E+08
        -0.15533E+08
         0.15085E+09
        -0.52559E+08
        -0.15615E+08
        -0.26901E+09
         0.32151E+09
         0.93468E+08
        -0.15722E+09
         0.23477E+09
        -0.79508E+08
        -0.17284E+09
        -0.19552E+09
        -0.78371E+08
         0.74979E+08
        -0.13480E+09
        -0.62483E+08
         0.23349E+08
        -0.14213E+09
         0.31782E+09
        -0.68614E+08
         0.13671E+09
         0.61904E+08
         0.50575E+08
        -0.43351E+08
        -0.12349E+09
         0.51213E+08
         0.84562E+08
        -0.47150E+08
         0.36327E+08
        -0.81754E+08
         0.38284E+08
        -0.18477E+09
        -0.69096E+08
        -0.22351E+08
         0.32674E+08
         0.15484E+09
        -0.52764E+07
        -0.10030E+09
        -0.27934E+09
        -0.86441E+08
         0.72072E+08
         0.12715E+09
        -0.78510E+08
        -0.17108E+09
        -0.74801E+07
        -0.12605E+09
        -0.15877E+09
         0.18246E+08
         0.69727E+08
         0.27570E+09
         0.20508E+09
         0.22943E+08
         0.46394E+08
         0.23988E+09
         0.23973E+09
        -0.20939E+09
        -0.37176E+08
         0.11159E+09
        -0.38941E+08
         0.10421E+09
        -0.80466E+08
        -0.35592E+08
        -0.14013E+08
         0.40328E+09
         0.53334E+09
         0.31345E+09
         0.32454E+09
         0.35131E+09
         0.16502E+09
         0.20902E+09
         0.13676E+09
         0.39088E+08
         0.15873E+08
        -0.17035E+09
        -0.81775E+08
        -0.19186E+09
        -0.14677E+09
        -0.47456E+08
        -0.83119E+08
         0.69980E+08
         0.27676E+08
         0.14082E+08
        -0.35102E+09
         0.22678E+09
        -0.70477E+07
        -0.62973E+08
         0.31385E+09
        -0.94694E+08
         0.30595E+08
        -0.40979E+08
         0.59291E+08
         0.92035E+08
        -0.66281E+08
         0.30937E+08
        -0.55170E+08
        -0.14069E+09
         0.16474E+09
        -0.21003E+09
         0.89040E+08
         0.31451E+08
         0.50327E+06
         0.11060E+09
        -0.13647E+09
         0.23860E+08
         0.38119E+08
        -0.69786E+08
         0.13383E+09
        -0.11927E+09
        -0.25443E+08
        -0.99824E+07
        -0.78350E+08
         0.71029E+08
         0.25417E+09
         0.23594E+09
         0.25227E+08
        -0.28310E+09
        -0.29719E+09
        -0.99067E+08
        -0.56673E+08
        -0.88378E+08
        -0.74759E+08
        -0.11780E+09
         0.75862E+08
        -0.13496E+08
        -0.73196E+08
         0.88986E+08
         0.27154E+09
         0.79492E+08
         0.21911E+09
         0.10247E+09
         0.29462E+09
         0.16087E+09
         0.22740E+08
         0.57527E+08
         0.27754E+09
         0.97811E+08
         0.13064E+09
         0.13656E+09
        -0.95000E+07
         0.45265E+08
        -0.61783E+08
         0.17460E+09
         0.21473E+09
         0.55615E+08
         0.51816E+08
         0.25596E+09
         0.31960E+09
        -0.63139E+08
        -0.92645E+08
         0.19571E+09
         0.50319E+07
        -0.17200E+09
         0.45689E+08
        -0.16470E+08
        -0.10103E+09
         0.32499E+08
         0.11114E+09
         0.18678E+09
         0.90239E+08
        -0.96579E+08
        -0.19006E+09
         0.22937E+09
        -0.15423E+09
        -0.26128E+09
         0.25074E+09
        -0.27252E+08
        -0.60340E+08
        -0.49413E+08
        -0.30412E+09
         0.30808E+08
        -0.67921E+08
        -0.19121E+09
         0.30987E+07
        -0.13254E+09
         0.19006E+09
        -0.12214E+09
         0.23340E+09
        -0.14318E+08
         0.16655E+08
        -0.43611E+08
        -0.19889E+09
         0.10381E+09
         0.13655E+09
        -0.11827E+09
         0.92295E+08
        -0.19014E+09
        -0.17548E+09
        -0.19987E+09
        -0.26940E+08
         0.29272E+07
         0.64190E+07
         0.24410E+07
         0.26632E+08
        -0.37158E+08
        -0.60660E+08
        -0.17477E+09
        -0.27830E+08
         0.65202E+08
         0.10245E+09
        -0.14641E+09
        -0.66662E+08
         0.38560E+08
         0.37151E+08
         0.10711E+09
         0.79852E+08
         0.17637E+09
         0.44022E+09
         0.15885E+09
        -0.16151E+08
         0.68667E+08
        -0.75669E+08
        -0.26165E+09
        -0.83250E+08
        -0.29143E+08
        -0.81846E+07
        -0.22316E+08
        -0.85856E+08
         0.51470E+08
         0.35287E+08
         0.28273E+09
         0.54035E+08
         0.35727E+09
         0.14533E+09
         0.19062E+09
         0.33589E+09
        -0.18975E+08
         0.24469E+08
         0.22085E+09
        -0.14024E+09
        -0.14208E+09
         0.20762E+08
         0.53400E+08
        -0.11877E+09
         0.16628E+08
        -0.94723E+08
         0.10765E+09
         0.74901E+07
         0.62488E+08
        -0.17840E+09
         0.16856E+09
         0.37553E+08
        -0.85279E+08
         0.10059E+09
        -0.12054E+08
        -0.88902E+08
         0.55658E+08
        -0.15323E+09
         0.17431E+08
         0.37232E+08
        -0.53324E+08
         0.46056E+08
        -0.60712E+08
         0.15537E+09
        -0.74226E+08
         0.18162E+09
        -0.38201E+08
        -0.31565E+08
        -0.13092E+09
        -0.14164E+09
         0.76498E+08
         0.15181E+09
        -0.85607E+08
         0.47808E+08
        -0.11041E+09
        -0.41356E+08
        -0.12536E+09
        -0.18139E+08
         0.16951E+09
         0.23575E+09
         0.25508E+09
         0.10106E+09
        -0.44445E+08
        -0.29934E+08
        -0.68466E+08
         0.47618E+08
         0.73937E+08
        -0.24649E+08
        -0.16135E+09
         0.35271E+08
         0.66841E+08
        -0.96006E+08
         0.39055E+08
         0.14998E+09
         0.20087E+09
         0.34108E+09
         0.22373E+09
         0.19604E+09
         0.20199E+09
         0.16364E+09
         0.12385E+09
         0.23983E+09
         0.18067E+09
         0.29279E+09
         0.48213E+08
         0.33330E+08
         0.23328E+09
         0.14389E+09
         0.22672E+09
        -0.35104E+08
         0.20438E+09
         0.10930E+09
         0.88636E+07
         0.41370E+09
         0.56679E+08
        -0.15611E+08
         0.35864E+09
         0.10618E+09
        -0.92950E+08
        -0.12465E+09
         0.32182E+07
         0.14932E+07
         0.14314E+09
         0.18960E+08
        -0.32470E+08
        -0.40910E+08
         0.15926E+09
        -0.65904E+08
         0.90131E+08
         0.32591E+08
        -0.11740E+09
         0.13318E+08
        -0.40187E+08
        -0.96909E+08
         0.94681E+08
        -0.25065E+08
        -0.71312E+08
        -0.57502E+08
         0.35391E+08
         0.90641E+08
        -0.57065E+08
         0.32523E+08
        -0.26967E+08
         0.11534E+09
        -0.12953E+09
        -0.57895E+08
        -0.18311E+09
        -0.21234E+09
        -0.45367E+07
         0.98441E+08
        -0.10860E+09
         0.82709E+08
         0.18089E+08
         0.57244E+08
        -0.10703E+09
        -0.14185E+09
         0.79491E+08
         0.17347E+09
         0.59445E+08
         0.39312E+08
        -0.77092E+07
         0.37509E+08
         0.74936E+07
        -0.46302E+08
         0.18661E+08
         0.44998E+08
        -0.93907E+08
         0.36752E+08
         0.46523E+08
        -0.68940E+08
        -0.48605E+08
        -0.12106E+08
         0.13084E+09
         0.11719E+09
        -0.83733E+07
         0.94187E+08
         0.17587E+09
         0.18002E+09
         0.25151E+08
        -0.56727E+08
        -0.14445E+09
         0.33715E+08
         0.25828E+08
         0.56402E+08
        -0.21926E+08
        -0.23893E+08
         0.77185E+08
        -0.14717E+09
        -0.19329E+09
        -0.96076E+08
         0.58905E+08
         0.11419E+09
        -0.91142E+08
        -0.15324E+07
         0.13655E+09
        -0.10640E+08
        -0.13773E+09
         0.13420E+08
        -0.36839E+08
        -0.56794E+08
         0.45907E+08
         0.18616E+08
         0.76398E+08
        -0.38023E+08
        -0.12449E+09
        -0.15254E+09
         0.10786E+09
         0.49774E+08
         0.23742E+08
         0.40346E+08
         0.17627E+08
        -0.14196E+09
         0.38107E+08
        -0.23305E+09
         0.14375E+08
        -0.61164E+08
         0.15846E+08
         0.99793E+07
        -0.12212E+09
        -0.52902E+08
        -0.32890E+08
         0.31133E+08
        -0.58285E+08
        -0.14984E+08
        -0.11152E+09
        -0.15126E+09
         0.15228E+08
         0.14936E+09
        -0.19725E+09
         0.92143E+05
        -0.39910E+08
         0.41701E+08
         0.68377E+08
         0.51908E+08
         0.12488E+09
         0.12261E+09
         0.10480E+09
         0.24337E+09
         0.14099E+09
        -0.54583E+08
         0.54285E+08
         0.40935E+08
         0.14170E+08
        -0.23244E+08
        -0.16882E+09
         0.97867E+07
         0.10777E+09
        -0.16365E+08
         0.10511E+09
         0.44051E+08
         0.90345E+08
         0.20722E+09
         0.88726E+08
         0.53334E+08
         0.55024E+08
        -0.41683E+08
        -0.59568E+08
         0.20549E+09
        -0.11118E+09
         0.80033E+07
         0.11032E+09
         0.87283E+08
         0.14321E+09
         0.22478E+09
         0.24481E+09
         0.15758E+09
        -0.95343E+08
        -0.19910E+09
         0.45069E+08
         0.25275E+09
         0.12262E+09
         0.68044E+08
         0.17068E+09
         0.80192E+08
        -0.10098E+09
        -0.55380E+08
        -0.26827E+08
         0.40638E+08
         0.92633E+08
         0.87734E+08
         0.69194E+08
         0.71476E+07
        -0.12617E+09
        -0.88016E+07
         0.20570E+09
         0.25958E+09
         0.34934E+08
         0.43831E+08
         0.17475E+09
        -0.12786E+09
         0.45220E+08
        -0.17699E+09
         0.10854E+09
        -0.77979E+08
         0.24233E+09
         0.46751E+08
         0.99873E+08
         0.96517E+08
         0.25807E+08
         0.63692E+08
        -0.84131E+08
         0.11587E+08
        -0.71146E+08
        -0.19752E+09
         0.11266E+08
         0.10761E+09
        -0.95621E+08
         0.44600E+08
        -0.17243E+08
        -0.26435E+08
        -0.61191E+08
         0.51595E+07
         0.10633E+09
         0.23428E+09
         0.16390E+09
         0.20765E+09
         0.12009E+09
         0.27980E+08
         0.10929E+08
        -0.53157E+08
         0.25936E+08
         0.40320E+08
        -0.11173E+09
        -0.33706E+08
        -0.34471E+07
         0.14201E+08
        -0.91911E+06
        -0.91112E+08
         0.73693E+08
         0.92773E+08
        -0.20136E+08
        -0.71822E+08
        -0.13961E+08
         0.58260E+07
        -0.91463E+08
        -0.67108E+08
        -0.21791E+09
         0.43211E+08
         0.93981E+08
        -0.74238E+08
         0.12425E+09
        -0.17399E+09
        -0.14529E+09
        -0.14899E+09
        -0.28835E+09
        -0.18949E+09
        -0.69914E+08
        -0.94187E+08
        -0.76982E+08
        -0.18351E+09
        -0.25545E+08
        -0.70772E+08
        -0.21411E+09
        -0.75952E+08
        -0.19085E+08
        -0.47310E+08
         0.18831E+09
         0.15843E+09
        -0.99411E+08
        -0.19184E+09
        -0.27067E+09
        -0.18776E+09
        -0.29340E+08
         0.89941E+08
        -0.92808E+06
        -0.11862E+09
         0.25911E+08
        -0.71926E+08
        -0.96472E+08
        -0.17519E+09
        -0.84608E+08
        -0.13094E+09
        -0.23354E+08
         0.88539E+08
        -0.14978E+08
        -0.45397E+08
        -0.52129E+08
        -0.21815E+08
        -0.12649E+09
        -0.70161E+08
        -0.16144E+09
        -0.15636E+09
        -0.11574E+09
        -0.10027E+09
        -0.12988E+09
         0.93161E+07
         0.14620E+09
         0.13620E+09
         0.97247E+08
        -0.99386E+08
        -0.71457E+08
         0.61084E+08
         0.45358E+07
         0.32803E+07
         0.13309E+09
         0.87637E+07
        -0.31340E+08
         0.62365E+08
         0.30724E+08
         0.65547E+06
        -0.52126E+08
         0.65600E+08
         0.72248E+08
         0.91043E+08
         0.44620E+08
        -0.60642E+08
        -0.84598E+08
        -0.67528E+08
        -0.65419E+08
        -0.47634E+08
        -0.22787E+08
        -0.54593E+08
        -0.16734E+09
         0.17915E+09
        -0.75938E+08
        -0.35560E+08
         0.34970E+08
         0.41984E+08
         0.11405E+09
         0.35321E+08
        -0.44835E+06
        -0.30590E+08
         0.82185E+07
         0.14424E+09
        -0.32049E+08
        -0.13373E+07
         0.26275E+08
        -0.22351E+09
        -0.84583E+08
        -0.78307E+08
         0.24021E+08
         0.52035E+08
        -0.63793E+08
        -0.82603E+08
        -0.19395E+08
         0.35311E+08
         0.68986E+08
         0.59565E+08
        -0.98873E+08
        -0.38918E+08
        -0.21171E+08
         0.97154E+07
         0.44457E+08
        -0.51555E+08
         0.24825E+07
        -0.68541E+08
        -0.36869E+08
        -0.56368E+08
        -0.87237E+08
        -0.30999E+08
         0.28591E+08
         0.10429E+09
         0.85393E+08
        -0.15940E+08
         0.88261E+07
         0.25882E+08
         0.40002E+07
         0.27349E+08
        -0.82629E+07
         0.12075E+08
        -0.10503E+06
        -0.16040E+08
         0.10851E+08
         0.41288E+08
         0.16775E+08
         0.57635E+08
         0.69882E+08
         0.65359E+08
         0.82284E+08
         0.67182E+08
         0.60362E+07
         0.16926E+09
         0.21992E+09
         0.75770E+08
         0.12379E+07
        -0.44891E+07
        -0.48784E+08
        -0.40193E+08
        -0.22290E+08
         0.90659E+08
         0.12916E+09
         0.11567E+09
        -0.13222E+09
        -0.20960E+09
        -0.15203E+08
        -0.11235E+09
        -0.15273E+09
         0.39463E+07
        -0.95849E+08
        -0.14172E+09
         0.25756E+08
        -0.89716E+08
        -0.18981E+09
         0.15681E+09
         0.10907E+08
         0.62847E+08
         0.62059E+08
        -0.32665E+08
        -0.96164E+08
        -0.13133E+09
        -0.69318E+08
        -0.17406E+09
        -0.15382E+09
        -0.18821E+09
        -0.15813E+09
        -0.12852E+09
         0.11821E+09
        -0.84691E+08
        -0.97012E+08
        -0.33253E+08
        -0.95170E+07
        -0.27655E+08
         0.12924E+09
         0.78780E+08
        -0.68509E+07
        -0.33715E+08
        -0.13657E+09
        -0.41341E+08
         0.61681E+07
         0.20491E+08
         0.32288E+08
        -0.22342E+08
         0.10388E+08
        -0.87693E+08
        -0.16445E+08
        -0.13776E+09
         0.32701E+08
        -0.40491E+08
         0.98166E+08
         0.40147E+08
        -0.20280E+07
        -0.58697E+08
        -0.12583E+09
        -0.10233E+09
        -0.67199E+06
        -0.48335E+08
        -0.10019E+09
        -0.17524E+09
        -0.27898E+08
        -0.30235E+08
        -0.17449E+08
         0.41669E+08
         0.15064E+09
         0.52795E+08
         0.49319E+08
        -0.28685E+08
        -0.10672E+08
         0.60841E+08
         0.12244E+09
        -0.24559E+07
        -0.67567E+08
        -0.52698E+08
         0.14233E+08
         0.92078E+08
         0.95300E+08
         0.71635E+08
         0.21290E+08
         0.79670E+08
         0.78258E+08
         0.83205E+08
         0.13553E+09
         0.43099E+08
        -0.29123E+08
        -0.67609E+07
        -0.49759E+08
        -0.18842E+09
        -0.10793E+09
        -0.19234E+09
        -0.78576E+08
        -0.19425E+09
         0.73051E+07
        -0.40117E+08
        -0.18149E+09
         0.85296E+08
        -0.10111E+09
        -0.21766E+08
        -0.12977E+08
        -0.95869E+08
        -0.20136E+08
        -0.13417E+08
        -0.67860E+08
        -0.15470E+09
        -0.87573E+08
        -0.16032E+09
        -0.91230E+08
        -0.10387E+09
         0.12599E+09
         0.66841E+08
         0.24005E+08
         0.15428E+09
        -0.30726E+08
         0.10638E+06
         0.57871E+08
         0.97118E+08
         0.73818E+08
         0.91815E+08
         0.26647E+08
         0.41844E+08
         0.42792E+08
         0.34545E+08
         0.26983E+08
         0.65518E+08
         0.66644E+08
         0.11638E+09
         0.15158E+08
         0.93557E+08
         0.63800E+07
         0.17826E+08
        -0.77090E+06
        -0.67014E+07
         0.47881E+08
         0.11528E+09
         0.58426E+08
         0.33624E+08
         0.37871E+08
         0.66730E+08
         0.11930E+09
         0.18202E+09
         0.27687E+08
         0.26582E+08
        -0.91056E+08
        -0.69806E+08
         0.50241E+08
         0.20165E+08
        -0.35756E+08
         0.37608E+08
         0.22900E+08
         0.46141E+08
         0.39914E+08
         0.77235E+08
         0.12079E+09
        -0.14406E+08
         0.45400E+08
         0.64445E+08
        -0.51981E+08
        -0.85406E+08
        -0.56461E+08
         0.40359E+07
        -0.14119E+09
        -0.59826E+08
        -0.82503E+08
         0.58974E+08
        -0.66742E+08
        -0.17383E+09
         0.65398E+08
         0.14631E+09
         0.14038E+09
        -0.42979E+08
        -0.59954E+08
        -0.10832E+09
         0.37151E+08
         0.32913E+08
         0.10462E+09
        -0.10987E+08
        -0.14823E+09
        -0.19732E+09
        -0.46294E+09
        -0.23523E+09
         0.87419E+08
         0.35783E+08
        -0.48373E+08
        -0.89758E+08
        -0.52559E+08
        -0.66800E+08
         0.62908E+08
         0.58742E+08
         0.24197E+08
         0.69966E+08
        -0.87008E+07
        -0.73919E+08
         0.10556E+09
         0.99517E+08
         0.21262E+08
         0.42651E+08
         0.54087E+08
         0.31776E+08
         0.72329E+08
         0.53145E+08
        -0.63791E+08
         0.18541E+09
         0.74644E+08
         0.17306E+09
         0.12242E+09
         0.72074E+08
         0.11313E+08
        -0.43713E+08
        -0.33478E+08
         0.66501E+08
         0.11510E+08
         0.41612E+08
         0.61628E+08
         0.70546E+07
         0.36033E+08
         0.72109E+08
         0.77852E+08
        -0.22291E+08
         0.14816E+09
         0.79371E+08
         0.50517E+08
        -0.10634E+08
        -0.13507E+08
        -0.74878E+08
        -0.11983E+09
        -0.42257E+08
        -0.28487E+08
        -0.10192E+08
        -0.30727E+08
        -0.63926E+08
        -0.72331E+08
        -0.21999E+08
        -0.18132E+08
        -0.25521E+08
        -0.55107E+07
         0.83548E+06
         0.17428E+08
        -0.56934E+07
         0.61810E+08
        -0.27818E+08
        -0.53369E+08
        -0.14498E+09
         0.11682E+08
         0.90244E+08
        -0.36085E+08
        -0.81656E+08
        -0.18834E+09
         0.11382E+09
        -0.12144E+09
        -0.31957E+08
        -0.31222E+08
        -0.35706E+08
        -0.91503E+08
        -0.18332E+09
         0.40345E+08
         0.20642E+08
         0.88993E+08
         0.14755E+09
         0.27823E+08
        -0.48257E+07
        -0.82023E+08
         0.51866E+08
         0.31981E+08
        -0.95760E+08
         0.12118E+09
         0.44240E+08
         0.24711E+08
         0.78860E+08
        -0.56505E+08
        -0.47151E+08
        -0.45313E+08
         0.66578E+08
         0.16851E+08
         0.11339E+09
        -0.12255E+09
        -0.12675E+09
        -0.96706E+08
        -0.10696E+07
        -0.23720E+07
         0.16899E+09
         0.60600E+08
         0.11586E+09
         0.59282E+08
         0.96454E+08
        -0.82298E+08
        -0.85040E+08
        -0.43800E+08
         0.26027E+08
         0.10335E+09
         0.49515E+08
         0.18616E+09
         0.17426E+09
         0.59900E+08
         0.12027E+09
         0.77432E+08
        -0.59524E+07
         0.68468E+08
         0.21523E+08
        -0.59381E+08
        -0.23268E+08
        -0.40541E+08
         0.11248E+09
         0.64884E+08
        -0.62925E+08
        -0.12770E+09
        -0.48727E+08
        -0.11893E+08
        -0.38310E+08
        -0.27024E+08
         0.10059E+08
         0.50505E+07
         0.99645E+07
         0.84711E+07
         0.38193E+07
        -0.66069E+08
        -0.56027E+08
        -0.46879E+08
        -0.11026E+09
         0.94674E+08
        -0.55758E+08
        -0.39550E+08
         0.16721E+09
         0.13001E+09
         0.15294E+09
         0.18670E+07
         0.15855E+09
         0.14466E+09
         0.85332E+08
        -0.13791E+09
        -0.13747E+08
         0.91212E+08
        -0.16009E+08
         0.33523E+08
        -0.16638E+08
         0.77610E+08
        -0.24370E+08
        -0.46358E+08
        -0.18524E+08
        -0.17859E+08
        -0.17687E+09
        -0.20018E+09
        -0.44792E+08
         0.12377E+09
         0.76959E+08
         0.41571E+08
         0.62068E+08
        -0.90176E+08
        -0.73870E+08
         0.24595E+08
         0.33917E+08
         0.18786E+09
         0.36808E+08
         0.55106E+08
         0.76277E+08
         0.63303E+08
         0.16636E+08
         0.10513E+09
         0.77167E+08
         0.11992E+09
         0.92277E+08
        -0.12000E+08
         0.16155E+08
         0.41473E+07
        -0.32794E+08
         0.12773E+08
        -0.44712E+07
        -0.37458E+07
         0.65487E+08
        -0.49980E+08
         0.52947E+07
        -0.62591E+07
        -0.15584E+08
         0.82455E+08
         0.96000E+08
         0.47567E+08
         0.72829E+07
        -0.63917E+08
         0.14842E+08
         0.51187E+08
         0.30066E+08
         0.16545E+08
         0.21927E+08
         0.18776E+08
        -0.21604E+08
        -0.40597E+08
         0.37362E+08
         0.68240E+08
         0.24693E+08
         0.47825E+08
         0.63560E+08
         0.23348E+08
         0.74252E+07
        -0.32038E+07
        -0.19076E+08
        -0.73735E+08
        -0.94265E+07
        -0.28880E+08
        -0.68403E+08
        -0.10704E+09
        -0.13624E+09
        -0.17942E+09
        -0.12061E+09
        -0.22909E+08
        -0.20510E+09
        -0.91090E+08
        -0.13640E+09
        -0.65619E+08
        -0.43169E+08
        -0.17142E+09
        -0.85949E+08
        -0.13056E+09
        -0.97185E+08
        -0.12922E+09
        -0.60659E+08
         0.61905E+08
        -0.98502E+08
        -0.96436E+08
         0.39116E+08
        -0.25282E+08
         0.11406E+08
        -0.20143E+08
         0.28107E+08
         0.37907E+08
        -0.15576E+08
         0.20891E+08
        -0.63995E+08
         0.30629E+08
        -0.17941E+08
        -0.50582E+07
        -0.33180E+08
         0.31902E+08
        -0.11572E+08
        -0.50771E+08
        -0.13084E+08
         0.55520E+08
        -0.95688E+08
         0.21315E+08
        -0.44154E+08
        -0.10037E+09
         0.43777E+08
         0.17190E+08
         0.35908E+08
        -0.20312E+08
        -0.10939E+09
         0.22934E+08
        -0.51009E+08
        -0.67338E+08
        -0.10399E+08
         0.77820E+08
         0.68922E+08
         0.45275E+08
         0.49515E+08
         0.30906E+08
         0.14463E+08
         0.50524E+08
        -0.72189E+07
        -0.51918E+08
        -0.43592E+08
        -0.41413E+06
         0.59098E+08
         0.62129E+08
         0.27308E+08
        -0.58996E+08
         0.54246E+07
         0.26452E+08
         0.69386E+08
         0.78025E+08
         0.63162E+08
         0.50881E+08
         0.47437E+08
         0.57108E+08
         0.12017E+08
         0.31741E+08
        -0.13876E+08
        -0.13505E+09
        -0.14703E+09
        -0.86428E+08
        -0.75499E+08
         0.12083E+09
        -0.31088E+08
         0.76734E+08
        -0.68674E+08
        -0.19696E+09
         0.27506E+07
        -0.68673E+08
        -0.66318E+08
        -0.59330E+08
         0.96270E+08
         0.35307E+08
        -0.79154E+08
         0.16268E+08
        -0.26552E+07
        -0.59917E+08
        -0.60111E+07
         0.30863E+08
         0.28811E+08
        -0.25568E+08
        -0.37600E+08
        -0.42616E+08
        -0.12241E+08
        -0.46814E+08
        -0.31580E+08
        -0.29093E+08
        -0.75680E+08
        -0.65604E+08
        -0.22212E+08
        -0.57831E+08
        -0.51924E+08
        -0.40592E+08
        -0.10761E+08
        -0.38678E+08
        -0.12318E+08
         0.85598E+08
         0.21821E+08
        -0.10085E+08
        -0.27581E+08
         0.42304E+08
        -0.36518E+08
        -0.69607E+08
        -0.69916E+08
        -0.53552E+08
        -0.88401E+07
        -0.43590E+08
        -0.14731E+08
        -0.11172E+08
        -0.13230E+09
        -0.58198E+08
        -0.36597E+08
        -0.68998E+08
        -0.60346E+08
        -0.93280E+08
        -0.11112E+09
        -0.11202E+08
         0.45368E+08
         0.38684E+08
         0.14996E+09
         0.75513E+08
         0.32736E+08
         0.82569E+07
        -0.42486E+07
        -0.11308E+08
        -0.10444E+08
        -0.11725E+08
        -0.54628E+08
        -0.47658E+08
        -0.37369E+08
        -0.92077E+08
        -0.72535E+08
        -0.30445E+08
        -0.71826E+08
        -0.90869E+08
        -0.28396E+08
         0.12091E+09
         0.65433E+08
        -0.39603E+07
         0.78027E+07
         0.90544E+08
        -0.10784E+09
        -0.24635E+08
         0.92533E+08
         0.43316E+08
         0.13266E+08
        -0.10402E+09
         0.10639E+08
        -0.40387E+08
        -0.73919E+08
         0.27939E+08
        -0.13940E+09
        -0.76292E+08
        -0.10664E+09
        -0.65942E+08
        -0.59464E+08
        -0.49483E+08
        -0.69504E+08
         0.74215E+06
         0.90015E+07
        -0.16761E+09
        -0.79101E+08
        -0.16172E+09
         0.31814E+08
         0.76927E+08
         0.75008E+08
         0.13203E+09
         0.19357E+09
        -0.24011E+09
         0.10894E+09
         0.25267E+08
        -0.23622E+08
         0.12971E+09
        -0.16527E+09
        -0.22421E+09
         0.15822E+09
        -0.17187E+09
        -0.11401E+08
        -0.25243E+08
        -0.20619E+09
         0.16948E+09
         0.95180E+08
         0.12789E+09
        -0.89164E+08
         0.13665E+09
        -0.91652E+08
        -0.14267E+09
        -0.26982E+08
         0.88181E+08
        -0.29003E+08
        -0.75804E+08
        -0.19987E+09
        -0.54877E+08
        -0.14541E+08
        -0.16171E+07
         0.17348E+09
         0.75785E+08
         0.96482E+08
        -0.14021E+08
         0.44242E+07
         0.20915E+08
         0.21770E+08
         0.16082E+09
         0.11202E+09
         0.98712E+08
         0.59416E+08
         0.17835E+08
         0.12398E+09
         0.12498E+09
         0.24831E+09
         0.21565E+09
         0.45223E+08
        -0.43256E+09
        -0.10684E+09
        -0.18805E+09
        -0.46862E+09
        -0.35161E+09
        -0.96715E+08
        -0.94401E+08
        -0.50993E+08
        -0.16530E+09
        -0.15147E+09
         0.10316E+09
        -0.42170E+09
        -0.20097E+09
        -0.31811E+09
        -0.17730E+09
        -0.15288E+09
        -0.17805E+09
        -0.21485E+08
         0.14905E+09
         0.19886E+09
         0.13436E+09
        -0.11202E+09
        -0.11276E+09
        -0.37838E+08
        -0.33410E+09
        -0.16872E+09
  
SCALARS                      stress_zz  double 1
LOOKUP_TABLE default
        -0.51950E+09
         0.24916E+09
         0.32830E+09
         0.20006E+09
        -0.79590E+09
         0.48422E+09
         0.11417E+09
        -0.69571E+07
        -0.40505E+09
         0.24584E+09
        -0.34959E+09
         0.93112E+07
         0.42521E+09
         0.52992E+08
         0.89678E+09
        -0.28689E+09
         0.17031E+09
        -0.20564E+09
         0.23270E+09
        -0.45080E+08
         0.42527E+09
         0.14442E+09
         0.10299E+09
         0.12423E+10
        -0.46356E+09
        -0.67803E+09
        -0.84419E+08
         0.16299E+09
        -0.44684E+09
         0.13389E+08
        -0.14775E+09
        -0.99481E+08
        -0.18917E+09
        -0.84850E+09
        -0.36650E+09
        -0.45608E+09
         0.21002E+09
         0.13659E+09
         0.78019E+09
        -0.10675E+09
        -0.14392E+08
         0.33828E+09
        -0.62067E+09
        -0.14208E+09
         0.67175E+08
         0.73186E+09
        -0.14251E+09
         0.33414E+09
         0.11487E+09
        -0.77866E+09
         0.21991E+09
         0.88415E+09
        -0.63382E+08
         0.29029E+08
         0.18788E+09
         0.65272E+09
         0.31695E+09
         0.32434E+09
        -0.21873E+09
         0.35149E+09
         0.17974E+09
        -0.18546E+09
         0.91655E+09
        -0.87024E+09
         0.31927E+09
         0.56291E+09
         0.16147E+09
         0.18486E+09
        -0.11459E+09
         0.42013E+09
         0.48889E+09
        -0.11644E+09
        -0.60046E+08
        -0.89715E+09
         0.30114E+09
        -0.12384E+09
         0.95642E+08
        -0.26518E+09
        -0.23141E+08
        -0.32040E+09
         0.22960E+09
         0.91408E+07
         0.79991E+09
        -0.61664E+09
        -0.22962E+09
        -0.71689E+08
         0.50408E+08
        -0.88418E+09
        -0.72096E+08
         0.45581E+09
        -0.12169E+08
        -0.26670E+09
        -0.10434E+10
         0.10932E+09
        -0.44704E+08
        -0.53991E+08
        -0.24764E+09
        -0.93574E+09
         0.25131E+09
        -0.16402E+09
         0.13330E+09
        -0.19926E+09
        -0.39080E+09
         0.28760E+08
        -0.39981E+09
         0.26154E+09
         0.25071E+09
        -0.11340E+09
        -0.11890E+09
         0.12045E+09
        -0.44869E+09
         0.71631E+09
         0.12536E+09
         0.45102E+09
        -0.30962E+09
        -0.18114E+08
        -0.11451E+09
        -0.97883E+08
        -0.42277E+08
         0.84630E+08
        -0.12599E+09
         0.11480E+09
         0.22433E+09
        -0.21896E+09
        -0.34243E+09
         0.32274E+09
         0.12257E+09
        -0.16069E+09
        -0.68558E+08
         0.33250E+08
        -0.27474E+09
         0.68735E+08
        -0.18012E+09
         0.24744E+09
        -0.15808E+09
         0.18106E+08
        -0.29805E+09
         0.35089E+09
        -0.41407E+09
         0.74496E+09
        -0.96403E+08
         0.64564E+09
        -0.11448E+09
         0.13470E+09
        -0.10894E+08
         0.18369E+09
        -0.22543E+09
         0.55362E+09
        -0.24454E+09
         0.29879E+09
        -0.20141E+09
         0.28316E+09
        -0.86611E+08
         0.12820E+09
        -0.26239E+09
         0.15442E+09
        -0.12915E+09
         0.56260E+08
         0.38230E+09
        -0.10193E+09
         0.90007E+08
         0.36237E+09
         0.31550E+09
         0.33125E+09
        -0.94976E+08
        -0.54315E+09
         0.22969E+09
        -0.89442E+08
         0.24566E+09
         0.38767E+09
        -0.54129E+09
         0.51997E+08
        -0.44477E+07
        -0.69477E+08
        -0.10733E+09
        -0.21148E+09
        -0.13602E+08
         0.51435E+09
         0.94619E+08
         0.76838E+09
         0.18858E+08
         0.33314E+09
        -0.26693E+09
        -0.70304E+08
         0.52069E+09
        -0.81658E+08
        -0.28267E+09
         0.17723E+09
         0.15133E+09
         0.17471E+09
         0.62604E+08
         0.28424E+09
        -0.63951E+08
         0.41887E+09
         0.72527E+08
         0.15566E+09
        -0.55296E+08
         0.14642E+09
         0.14932E+09
         0.30731E+09
        -0.17943E+09
         0.12370E+10
        -0.17085E+08
         0.24234E+09
         0.38470E+09
         0.29433E+09
         0.21921E+09
        -0.59095E+08
         0.60150E+08
        -0.83744E+07
        -0.17377E+09
         0.35665E+08
        -0.77713E+08
        -0.10213E+09
         0.21103E+09
        -0.22119E+09
        -0.46096E+07
        -0.70642E+08
        -0.89896E+07
        -0.16968E+08
         0.50477E+07
        -0.43627E+08
        -0.31368E+08
        -0.13874E+09
         0.15343E+09
         0.47696E+08
        -0.13744E+09
        -0.66192E+08
         0.19195E+09
        -0.16221E+09
        -0.10227E+09
        -0.36147E+09
         0.35581E+09
        -0.19910E+09
        -0.18601E+09
        -0.40609E+08
         0.12893E+09
         0.33501E+08
         0.21994E+09
         0.27084E+09
         0.29320E+09
        -0.43963E+09
         0.33860E+09
        -0.40519E+09
         0.14967E+09
         0.38990E+09
         0.46522E+09
         0.51279E+08
        -0.13075E+09
        -0.14545E+09
         0.16078E+08
        -0.30043E+09
        -0.18722E+09
        -0.24247E+09
         0.26350E+09
         0.24193E+09
         0.41033E+09
         0.49164E+09
        -0.11717E+09
         0.26099E+09
        -0.43007E+07
        -0.27079E+09
         0.26940E+09
         0.17025E+09
        -0.10031E+09
         0.56535E+08
        -0.32747E+09
         0.34197E+08
        -0.12372E+09
        -0.16989E+08
         0.12081E+09
         0.66729E+09
         0.18453E+09
         0.20805E+09
         0.71913E+08
        -0.12689E+09
         0.18248E+09
        -0.12198E+09
        -0.14688E+09
         0.34699E+09
        -0.12514E+09
        -0.15725E+07
         0.24377E+09
         0.31122E+09
         0.53547E+08
        -0.91379E+08
        -0.22649E+09
         0.16277E+09
         0.89054E+08
        -0.17130E+09
        -0.28686E+09
        -0.26678E+09
        -0.26596E+08
        -0.21123E+09
        -0.49910E+08
         0.92229E+08
         0.21910E+07
         0.29589E+08
        -0.16220E+09
        -0.20399E+09
        -0.29225E+09
        -0.31911E+09
        -0.15764E+09
        -0.20948E+09
        -0.27984E+09
        -0.15266E+09
        -0.38124E+08
        -0.25372E+09
        -0.62206E+08
        -0.11452E+09
         0.13483E+09
        -0.38479E+09
         0.10655E+09
         0.37721E+08
         0.16836E+09
        -0.96174E+08
         0.42169E+09
         0.70847E+08
        -0.15721E+09
        -0.23647E+09
         0.24015E+09
        -0.58845E+09
        -0.83381E+08
         0.61582E+09
         0.15518E+09
        -0.16001E+09
        -0.14444E+09
        -0.14841E+09
        -0.81891E+08
        -0.49937E+08
        -0.23091E+09
        -0.41970E+09
         0.58281E+09
         0.25127E+09
         0.21882E+09
         0.33775E+09
         0.13058E+09
         0.43220E+09
        -0.20014E+09
        -0.25008E+09
        -0.14433E+09
        -0.13836E+09
         0.11289E+09
         0.13608E+09
        -0.55795E+08
         0.24207E+09
         0.21141E+09
         0.17201E+09
         0.16844E+08
         0.28623E+08
         0.30654E+09
         0.70555E+08
        -0.81820E+08
         0.34152E+09
         0.17083E+08
         0.75483E+08
         0.21522E+09
         0.43439E+09
         0.84113E+08
         0.26422E+09
         0.19827E+09
         0.46256E+09
         0.37766E+09
        -0.60770E+08
        -0.41356E+09
        -0.10800E+09
         0.14795E+09
        -0.37554E+09
        -0.48790E+08
        -0.47675E+09
        -0.73967E+08
        -0.39093E+09
        -0.38243E+09
        -0.18895E+09
        -0.23556E+09
        -0.11254E+09
        -0.18821E+09
        -0.11175E+09
        -0.80345E+08
        -0.47380E+09
         0.27156E+09
        -0.28603E+09
         0.45931E+09
        -0.11105E+09
         0.40953E+08
        -0.15033E+09
        -0.24660E+09
        -0.48893E+09
         0.26901E+09
        -0.26130E+09
         0.11184E+09
         0.16331E+09
         0.14042E+09
        -0.97574E+08
         0.89508E+08
        -0.54431E+08
         0.94358E+08
        -0.18703E+09
         0.10960E+09
        -0.30604E+09
         0.14634E+09
         0.31598E+09
         0.50288E+08
        -0.33446E+08
         0.31538E+08
        -0.22629E+09
         0.24884E+08
        -0.22394E+09
        -0.49198E+08
        -0.32839E+09
         0.25346E+08
         0.26610E+09
         0.11121E+09
         0.44753E+09
         0.18065E+09
         0.27692E+09
        -0.16922E+09
         0.74057E+08
         0.11102E+09
        -0.30496E+09
         0.37798E+08
        -0.43358E+08
        -0.59676E+08
         0.54342E+08
        -0.76305E+08
         0.39475E+07
        -0.21652E+09
         0.28780E+09
         0.18446E+09
        -0.32706E+08
         0.89123E+08
         0.12357E+09
         0.30816E+08
        -0.14328E+09
        -0.27913E+08
         0.28048E+09
        -0.70845E+08
        -0.21277E+09
        -0.12059E+09
         0.59563E+08
         0.24651E+09
         0.13931E+08
        -0.12971E+09
         0.38645E+08
         0.21756E+09
        -0.19841E+09
         0.20427E+09
        -0.22392E+09
         0.62019E+08
        -0.13722E+09
         0.20278E+08
         0.34766E+09
         0.15470E+09
         0.16495E+09
        -0.24481E+08
        -0.91493E+08
        -0.24988E+08
        -0.37793E+09
         0.20856E+09
        -0.29212E+09
         0.23589E+08
         0.84143E+07
         0.48334E+08
         0.22322E+09
        -0.53788E+08
        -0.11289E+09
         0.81009E+08
         0.29009E+08
         0.18126E+09
         0.75209E+08
         0.10028E+08
        -0.10132E+09
         0.24912E+09
         0.23986E+08
        -0.37462E+06
        -0.24776E+09
        -0.18597E+09
        -0.35600E+09
        -0.40977E+08
         0.40867E+09
         0.20224E+09
        -0.23636E+09
        -0.17324E+09
        -0.10125E+09
        -0.44895E+08
        -0.19169E+09
         0.97364E+08
        -0.46955E+07
         0.30206E+09
         0.19663E+08
         0.21600E+09
         0.40054E+09
         0.10365E+09
         0.33091E+09
        -0.11755E+09
        -0.61783E+08
        -0.38496E+09
        -0.19830E+09
         0.13577E+09
         0.27707E+09
        -0.26084E+07
         0.32571E+09
         0.36231E+09
         0.24510E+09
        -0.18734E+09
         0.14589E+09
         0.27194E+09
         0.17034E+08
         0.23555E+09
         0.13164E+09
        -0.32552E+08
        -0.22648E+09
        -0.46696E+08
         0.48561E+09
         0.23067E+09
         0.49441E+08
         0.62415E+08
         0.29391E+09
         0.30431E+09
         0.19255E+09
        -0.28341E+09
        -0.61889E+08
         0.87226E+08
        -0.12802E+09
        -0.74934E+08
        -0.27007E+09
         0.16586E+09
        -0.26929E+09
        -0.33453E+09
        -0.35399E+09
         0.10549E+09
        -0.11878E+09
        -0.65438E+08
         0.54549E+08
         0.13405E+09
        -0.33407E+09
         0.40590E+09
         0.12329E+09
         0.80253E+08
         0.80966E+08
         0.36326E+08
         0.59895E+08
        -0.29395E+08
        -0.26575E+09
         0.11609E+09
        -0.32639E+08
         0.13204E+09
         0.55309E+08
        -0.25617E+09
        -0.21100E+09
         0.55990E+08
         0.63007E+08
         0.18528E+09
         0.20634E+08
         0.40304E+08
        -0.37979E+09
         0.16485E+09
         0.16133E+09
         0.29339E+08
         0.59785E+08
        -0.50894E+08
        -0.89894E+08
        -0.17241E+09
        -0.18114E+09
        -0.74543E+08
        -0.23038E+09
         0.64809E+08
         0.20229E+09
        -0.23919E+09
         0.16559E+09
         0.13720E+09
         0.13773E+09
        -0.49641E+07
         0.19046E+09
         0.18679E+08
        -0.13736E+09
        -0.16130E+09
        -0.63260E+08
        -0.74370E+08
         0.19085E+09
         0.93427E+08
         0.71876E+08
        -0.15352E+09
         0.74968E+08
         0.53643E+08
         0.16239E+09
         0.22638E+09
        -0.65290E+08
        -0.21040E+09
        -0.51802E+08
         0.12709E+09
         0.17466E+09
        -0.86740E+08
        -0.24837E+09
        -0.13386E+09
        -0.90472E+08
        -0.13723E+09
         0.52582E+08
        -0.48202E+08
         0.22740E+09
         0.19474E+09
         0.32128E+08
         0.10658E+09
        -0.47388E+07
        -0.19403E+08
        -0.11778E+09
         0.16541E+07
         0.22511E+09
        -0.83254E+08
         0.23397E+09
         0.57455E+08
         0.61852E+08
         0.11358E+09
         0.26146E+08
         0.18580E+09
         0.87401E+08
         0.24892E+09
         0.21102E+09
         0.34871E+09
         0.32484E+09
         0.23961E+09
         0.12799E+09
         0.15171E+09
         0.50604E+08
        -0.99285E+08
        -0.29339E+08
         0.76941E+08
        -0.95870E+08
         0.29327E+09
         0.16991E+09
         0.15307E+09
        -0.72020E+07
         0.62297E+08
        -0.32412E+09
         0.31571E+09
         0.40394E+08
        -0.76595E+08
         0.16225E+09
        -0.13246E+09
         0.21719E+08
        -0.73481E+08
        -0.10433E+09
         0.13991E+09
        -0.12406E+09
        -0.59200E+08
         0.18228E+09
        -0.14792E+09
         0.44268E+09
        -0.91733E+08
         0.25498E+09
         0.13286E+09
         0.88538E+08
        -0.14500E+09
        -0.17996E+08
        -0.17192E+08
         0.90391E+08
        -0.40227E+08
         0.15838E+09
         0.68919E+08
        -0.64537E+08
        -0.36009E+09
         0.42771E+08
         0.20583E+08
        -0.12601E+09
        -0.44166E+08
        -0.14633E+09
         0.11108E+09
        -0.27962E+09
         0.29933E+07
        -0.35730E+08
        -0.30544E+08
        -0.10064E+09
        -0.76927E+08
         0.76200E+08
        -0.16621E+09
        -0.64628E+08
        -0.27392E+08
        -0.84853E+08
         0.11003E+09
         0.30515E+09
         0.51728E+08
         0.29088E+08
         0.21768E+09
         0.11747E+09
        -0.21952E+09
         0.13606E+09
         0.18285E+09
         0.63301E+08
        -0.46667E+07
         0.59948E+08
         0.95848E+08
         0.16957E+09
         0.27087E+09
         0.36644E+09
         0.79224E+08
         0.15185E+09
         0.18420E+09
         0.11288E+09
         0.27894E+09
         0.23986E+08
         0.33954E+09
         0.30325E+08
        -0.17451E+08
         0.43857E+08
        -0.12128E+09
        -0.71349E+08
         0.56026E+08
        -0.37739E+07
         0.11533E+09
         0.82601E+08
         0.75725E+08
        -0.19916E+09
         0.56740E+08
        -0.16133E+09
         0.55970E+08
         0.19805E+09
        -0.16975E+09
         0.86105E+08
         0.17016E+08
         0.21913E+08
         0.14244E+08
        -0.20627E+08
        -0.80078E+08
         0.31865E+07
        -0.17572E+09
         0.15850E+09
        -0.16743E+09
         0.23088E+09
         0.12436E+09
        -0.69348E+07
         0.17008E+08
         0.43612E+08
        -0.90043E+08
         0.61285E+08
        -0.36825E+08
         0.10131E+09
        -0.10171E+09
        -0.15771E+09
        -0.20688E+08
         0.14108E+08
         0.65922E+08
         0.12241E+09
         0.13738E+09
        -0.13889E+09
        -0.40016E+08
        -0.28680E+09
        -0.60805E+07
         0.81834E+08
        -0.16391E+09
        -0.98993E+08
         0.23388E+08
         0.15119E+08
        -0.63808E+08
        -0.16037E+09
         0.24275E+09
         0.26927E+09
         0.54209E+07
         0.18106E+09
         0.11795E+09
         0.15888E+09
         0.51842E+08
         0.75815E+08
        -0.22612E+07
         0.33777E+09
         0.85196E+08
         0.19857E+09
         0.24781E+08
         0.67562E+08
         0.15102E+09
         0.10630E+09
         0.10337E+09
         0.86940E+08
        -0.35100E+08
         0.18893E+09
         0.20026E+09
         0.10646E+09
         0.99785E+08
         0.21735E+08
         0.24938E+09
        -0.35546E+08
        -0.12977E+09
         0.78912E+08
         0.18290E+09
        -0.62634E+07
         0.18146E+09
         0.14146E+09
         0.10585E+09
         0.85478E+08
        -0.32923E+08
        -0.88278E+08
         0.67395E+08
        -0.10624E+09
        -0.18856E+09
         0.76009E+08
        -0.68557E+08
        -0.14349E+09
         0.10892E+09
        -0.41681E+09
        -0.63674E+08
        -0.12351E+09
        -0.21308E+09
         0.11967E+09
        -0.10158E+09
         0.19889E+09
         0.12300E+09
         0.27002E+09
        -0.90422E+08
        -0.24810E+08
        -0.69055E+08
        -0.10369E+09
         0.58337E+08
         0.11862E+09
        -0.10711E+09
         0.15230E+09
        -0.55545E+08
        -0.15001E+09
        -0.25102E+09
         0.58775E+08
        -0.13148E+08
        -0.40600E+08
        -0.43525E+08
        -0.10543E+09
         0.44902E+08
         0.35739E+08
        -0.11059E+09
        -0.23128E+08
         0.74035E+08
         0.12222E+09
        -0.82116E+08
         0.30134E+08
         0.10414E+09
         0.64173E+08
         0.11185E+09
         0.75334E+08
        -0.53766E+08
         0.25674E+09
         0.24215E+09
         0.65203E+08
         0.13769E+09
         0.10443E+09
        -0.59825E+08
         0.53347E+08
         0.28068E+08
        -0.73696E+08
         0.53761E+08
         0.97054E+08
         0.17546E+09
         0.62413E+08
         0.44146E+09
        -0.14938E+09
         0.11361E+09
         0.47671E+08
        -0.11623E+08
         0.15705E+09
         0.17669E+09
         0.12226E+09
         0.20973E+09
        -0.27534E+08
        -0.76475E+08
         0.12856E+09
         0.22337E+09
        -0.10383E+09
        -0.38315E+08
        -0.24568E+09
         0.13081E+09
         0.84445E+07
        -0.29915E+08
        -0.81137E+08
         0.18205E+09
        -0.43148E+08
        -0.19596E+09
         0.13283E+09
        -0.46846E+08
        -0.38523E+08
         0.39644E+08
        -0.51674E+08
         0.49369E+07
        -0.99842E+08
         0.48386E+08
         0.91290E+07
        -0.86510E+08
         0.19470E+09
         0.14753E+08
         0.15169E+09
         0.93123E+08
        -0.53852E+07
        -0.82390E+08
        -0.94090E+08
         0.16701E+09
         0.19883E+09
         0.37400E+08
         0.11869E+09
        -0.12520E+08
         0.59584E+08
        -0.24150E+09
        -0.99159E+07
        -0.21027E+09
        -0.89599E+08
         0.53472E+08
        -0.33359E+08
        -0.60175E+08
        -0.28245E+09
        -0.20616E+09
         0.42047E+07
         0.10452E+09
        -0.71176E+08
        -0.27149E+09
        -0.39743E+08
         0.29304E+08
        -0.13489E+09
         0.63306E+08
         0.11490E+09
         0.38722E+08
         0.17448E+09
         0.96255E+08
         0.11697E+09
         0.80100E+08
         0.16325E+09
         0.14610E+09
         0.34450E+09
         0.26274E+09
         0.21799E+09
         0.13586E+09
         0.57481E+08
         0.18835E+09
         0.36244E+08
         0.28587E+09
        -0.43458E+08
         0.64986E+08
         0.11993E+09
         0.51733E+08
         0.32335E+09
        -0.43470E+08
        -0.26783E+08
         0.44709E+09
         0.10709E+09
        -0.64260E+08
        -0.10691E+09
         0.50445E+08
         0.56945E+08
         0.13487E+09
         0.11210E+08
        -0.91289E+08
         0.71173E+08
         0.16921E+08
        -0.11617E+09
        -0.31151E+08
         0.13161E+09
         0.19181E+08
         0.25406E+08
         0.33979E+08
        -0.10649E+09
        -0.20473E+08
        -0.10384E+09
        -0.48183E+08
        -0.13755E+09
         0.65089E+08
         0.62353E+08
         0.16908E+08
         0.13395E+09
        -0.99805E+08
         0.11527E+09
        -0.47357E+07
         0.49081E+07
        -0.24191E+07
        -0.10044E+09
        -0.76265E+08
         0.75798E+08
        -0.24543E+08
         0.23283E+09
         0.41283E+08
         0.68875E+08
        -0.61171E+08
         0.77934E+08
         0.50491E+08
         0.21949E+09
         0.19276E+09
         0.75000E+08
         0.46390E+08
        -0.98173E+08
         0.54110E+08
         0.10856E+09
         0.50508E+08
        -0.18559E+08
        -0.76359E+08
         0.12684E+09
         0.11666E+09
        -0.52845E+08
        -0.50823E+08
        -0.76949E+06
        -0.36625E+08
         0.98719E+08
         0.63649E+08
         0.32105E+08
        -0.41604E+07
         0.17875E+09
        -0.19716E+08
        -0.75416E+08
        -0.11678E+09
        -0.12765E+09
        -0.66713E+08
        -0.67733E+08
         0.57923E+08
        -0.10345E+09
         0.42517E+08
         0.27772E+08
        -0.10424E+09
        -0.79294E+08
        -0.11785E+09
         0.24921E+08
         0.41185E+08
         0.33702E+08
         0.17311E+09
        -0.93911E+08
        -0.10344E+09
        -0.31332E+08
        -0.37619E+08
         0.50791E+07
         0.87471E+08
        -0.79251E+07
        -0.25535E+08
         0.17024E+09
        -0.18309E+09
         0.76933E+07
        -0.37395E+08
        -0.11050E+09
        -0.14257E+09
         0.11122E+08
        -0.13801E+09
        -0.11475E+09
        -0.18341E+08
        -0.21881E+09
         0.63887E+08
        -0.66683E+08
         0.45692E+08
        -0.58006E+08
        -0.20771E+08
         0.12969E+09
         0.10552E+09
         0.82398E+08
        -0.42086E+08
        -0.10828E+09
        -0.15562E+09
        -0.86851E+08
         0.14915E+09
         0.19193E+09
         0.34137E+08
         0.14372E+09
         0.50783E+08
         0.65557E+08
        -0.69643E+08
        -0.30722E+08
        -0.12692E+09
        -0.10308E+09
         0.21557E+08
         0.13526E+09
         0.95233E+08
        -0.22770E+09
         0.68182E+07
         0.13671E+09
         0.17904E+09
         0.35942E+08
        -0.22297E+09
        -0.87228E+08
         0.25250E+08
        -0.51418E+08
        -0.28899E+08
         0.93916E+07
         0.34494E+08
         0.12154E+09
         0.40570E+08
         0.69771E+08
         0.22278E+09
         0.36943E+08
         0.63406E+08
         0.22410E+09
         0.12284E+09
         0.18088E+08
         0.16194E+09
         0.67456E+08
         0.10509E+09
         0.11828E+09
         0.82240E+08
        -0.18117E+07
        -0.18018E+08
        -0.74452E+08
         0.69827E+08
         0.10940E+09
        -0.10098E+08
        -0.81459E+08
         0.16401E+09
        -0.14701E+08
        -0.13971E+09
        -0.42428E+08
         0.11061E+08
         0.62947E+08
         0.13125E+09
         0.89227E+07
         0.11754E+09
         0.72741E+08
        -0.13114E+09
        -0.50345E+08
         0.14657E+09
         0.26256E+09
         0.95020E+08
        -0.33734E+08
         0.13854E+07
        -0.10344E+09
         0.28690E+08
        -0.15427E+09
         0.40543E+08
        -0.21368E+09
         0.13903E+09
        -0.25526E+08
         0.96298E+08
         0.16658E+09
         0.72139E+08
         0.81578E+08
        -0.84803E+08
        -0.76136E+07
        -0.57394E+08
        -0.24404E+09
         0.78633E+08
         0.94920E+08
         0.79182E+08
         0.94942E+08
         0.80889E+08
         0.91062E+08
        -0.29122E+08
         0.74407E+08
         0.17521E+09
         0.22250E+09
         0.59920E+08
         0.93139E+08
         0.45243E+08
        -0.15148E+08
         0.12283E+09
         0.88369E+08
         0.87821E+08
         0.86961E+08
         0.10358E+08
         0.12285E+09
         0.64009E+08
        -0.14299E+09
        -0.23956E+08
        -0.14780E+09
        -0.12042E+09
        -0.49025E+08
        -0.95700E+08
        -0.76359E+08
         0.57296E+08
        -0.20243E+08
         0.17030E+09
        -0.25755E+08
        -0.18928E+09
        -0.92420E+08
         0.78324E+08
        -0.19501E+09
        -0.10182E+09
        -0.33624E+09
        -0.13939E+09
        -0.72237E+08
        -0.32359E+09
        -0.10293E+09
        -0.15687E+09
        -0.31420E+08
         0.90635E+08
         0.66134E+07
         0.18101E+09
        -0.11421E+09
        -0.12658E+09
        -0.25633E+08
         0.66082E+08
        -0.42020E+08
         0.21487E+09
         0.13003E+09
        -0.14796E+09
        -0.19227E+08
        -0.25070E+09
        -0.21946E+08
        -0.26669E+09
        -0.61391E+08
        -0.15046E+08
        -0.15726E+09
        -0.16475E+09
        -0.36881E+08
        -0.52996E+08
        -0.16253E+09
        -0.43256E+08
        -0.58479E+08
         0.47449E+08
         0.13728E+09
         0.42888E+08
         0.61938E+06
         0.23622E+08
         0.17244E+08
        -0.25853E+08
         0.39733E+08
        -0.12423E+09
        -0.12905E+09
         0.19472E+03
         0.22879E+08
        -0.56092E+08
         0.49476E+07
         0.17900E+09
         0.24939E+09
         0.14213E+09
        -0.53780E+08
        -0.11631E+08
         0.90239E+08
         0.17996E+08
         0.59592E+08
         0.17207E+09
         0.48762E+08
         0.98670E+08
         0.12334E+09
         0.11250E+09
         0.14144E+09
         0.38497E+08
         0.90799E+08
         0.96768E+08
         0.20983E+08
        -0.12316E+09
        -0.12622E+09
        -0.97226E+08
        -0.31647E+08
        -0.11077E+09
        -0.10876E+09
         0.78899E+08
        -0.57086E+08
        -0.14850E+09
        -0.41040E+08
        -0.90201E+08
        -0.31496E+07
        -0.33458E+08
        -0.15826E+08
         0.63043E+08
         0.35701E+08
         0.73603E+08
        -0.80118E+08
         0.10089E+08
         0.49172E+07
        -0.92362E+08
        -0.21850E+08
        -0.41867E+08
        -0.28606E+09
         0.17035E+08
        -0.26937E+09
         0.51308E+08
         0.23616E+08
        -0.12867E+09
        -0.11544E+09
         0.37179E+08
        -0.20521E+08
         0.63195E+08
         0.10506E+09
         0.43747E+08
         0.29026E+08
         0.14761E+08
         0.11510E+09
         0.88141E+08
        -0.36934E+08
         0.86184E+08
         0.87507E+08
         0.35532E+08
         0.67155E+08
        -0.82612E+08
        -0.96530E+08
         0.10500E+09
         0.69286E+08
         0.11771E+09
         0.25053E+08
         0.22387E+08
         0.63477E+08
        -0.60010E+08
        -0.74111E+08
        -0.40151E+08
        -0.77347E+08
         0.10927E+09
         0.69862E+08
        -0.34239E+07
        -0.80113E+08
         0.67519E+08
         0.11120E+09
         0.12263E+09
         0.14925E+09
         0.23378E+08
         0.72203E+08
         0.13547E+09
         0.10417E+09
         0.78319E+08
         0.63772E+08
         0.71314E+08
         0.74414E+08
         0.11950E+09
         0.12249E+09
        -0.30316E+08
         0.49850E+08
         0.15153E+09
         0.23198E+06
        -0.20083E+09
        -0.12450E+09
        -0.16793E+09
        -0.15639E+09
         0.26656E+08
        -0.24234E+08
         0.62877E+08
         0.93232E+08
         0.15607E+09
         0.56680E+08
        -0.12688E+09
        -0.33650E+08
        -0.19060E+09
        -0.42820E+08
        -0.12705E+09
        -0.27545E+09
        -0.20184E+09
        -0.14446E+09
        -0.17974E+09
        -0.13943E+09
        -0.54721E+08
        -0.56610E+08
        -0.66342E+08
        -0.18752E+08
         0.43772E+08
        -0.10880E+09
        -0.76805E+08
        -0.18029E+09
        -0.67665E+08
         0.51368E+07
         0.13346E+09
         0.35798E+08
        -0.10444E+09
        -0.19577E+08
         0.29325E+08
         0.16829E+08
        -0.47066E+08
         0.12336E+09
         0.30422E+07
        -0.81842E+08
        -0.23341E+08
        -0.69636E+08
         0.52053E+08
         0.15710E+08
        -0.31730E+07
        -0.82993E+08
         0.83580E+08
        -0.12700E+08
         0.12408E+09
        -0.18180E+08
        -0.61351E+08
        -0.11384E+09
        -0.14503E+09
        -0.13934E+09
        -0.39380E+08
        -0.15889E+09
        -0.74644E+08
        -0.86437E+08
        -0.40671E+08
         0.20140E+06
         0.20870E+09
         0.61142E+08
        -0.82414E+08
        -0.17484E+09
        -0.16612E+09
         0.30078E+08
         0.44121E+08
         0.11643E+09
         0.14626E+08
         0.29601E+08
         0.42190E+08
         0.16806E+09
         0.14470E+09
         0.10244E+09
         0.95603E+05
         0.46400E+08
         0.70029E+08
         0.94186E+07
         0.18750E+09
        -0.10100E+08
        -0.35728E+08
        -0.10589E+09
        -0.68990E+08
        -0.21493E+09
        -0.68761E+08
        -0.28781E+09
        -0.23324E+08
        -0.14012E+09
        -0.23581E+09
        -0.32690E+08
        -0.56636E+08
         0.12226E+09
        -0.67181E+08
         0.43312E+08
         0.12668E+08
        -0.10911E+09
         0.79044E+08
        -0.21441E+07
        -0.11169E+09
         0.66454E+07
        -0.39313E+08
        -0.19261E+09
        -0.43637E+08
        -0.24017E+09
         0.58317E+08
        -0.31857E+07
        -0.85005E+07
         0.14215E+09
        -0.92528E+08
        -0.58745E+08
        -0.96490E+08
        -0.51644E+08
        -0.20129E+08
         0.76552E+08
        -0.70033E+08
        -0.63289E+08
        -0.77582E+08
         0.80729E+08
         0.14127E+09
         0.47378E+08
         0.10655E+09
         0.10869E+09
         0.11247E+09
         0.12052E+09
        -0.21643E+08
        -0.61004E+08
        -0.74621E+08
         0.14547E+08
         0.17794E+08
         0.31490E+08
         0.12769E+09
        -0.18996E+08
        -0.21021E+08
         0.11988E+08
         0.33742E+08
         0.60111E+08
        -0.20446E+08
        -0.48336E+08
        -0.12658E+09
        -0.49270E+08
        -0.16644E+08
         0.87740E+08
        -0.49217E+08
        -0.23583E+08
         0.70881E+08
        -0.82011E+07
        -0.64795E+08
        -0.94055E+06
         0.11976E+09
         0.68381E+08
         0.48044E+08
         0.14758E+08
        -0.93444E+08
        -0.80468E+08
        -0.32621E+08
        -0.75840E+08
        -0.23495E+09
        -0.59427E+08
        -0.92180E+08
         0.80088E+08
        -0.10242E+09
        -0.21114E+09
         0.14457E+09
         0.19018E+09
         0.11030E+09
        -0.11496E+09
         0.99148E+08
        -0.47040E+08
         0.77314E+08
        -0.94574E+08
        -0.79860E+08
        -0.14822E+09
        -0.19521E+09
        -0.47355E+08
        -0.19895E+09
        -0.12233E+09
         0.83939E+07
        -0.20244E+08
        -0.38860E+08
         0.68779E+08
         0.11042E+08
        -0.40690E+08
         0.53965E+08
         0.49399E+08
         0.39576E+08
         0.38097E+08
         0.28535E+08
        -0.10268E+09
         0.11672E+09
         0.11521E+09
         0.95016E+07
         0.13728E+09
         0.64987E+08
         0.23858E+07
         0.47034E+08
         0.66997E+08
        -0.12403E+09
         0.25912E+08
        -0.85660E+08
         0.15043E+09
         0.51106E+08
         0.51972E+08
         0.69105E+08
        -0.33312E+08
         0.10043E+08
         0.18510E+08
        -0.13632E+08
        -0.34159E+08
         0.10857E+09
         0.17940E+08
         0.41832E+08
         0.67538E+08
         0.60002E+08
        -0.70806E+08
         0.12024E+09
         0.58743E+08
         0.14306E+09
         0.10757E+09
         0.49564E+08
        -0.16825E+09
        -0.15468E+09
        -0.23371E+08
         0.18689E+08
         0.39105E+08
        -0.31385E+08
        -0.37116E+08
        -0.28975E+08
         0.89074E+07
        -0.53213E+07
         0.39405E+08
         0.23887E+08
         0.51297E+08
        -0.20703E+07
        -0.96593E+08
         0.76357E+07
         0.22401E+08
        -0.13680E+09
        -0.24958E+09
        -0.80236E+08
        -0.79568E+08
        -0.28181E+09
        -0.36856E+09
        -0.27685E+09
         0.10961E+09
        -0.75404E+08
        -0.10201E+09
        -0.16484E+09
        -0.90132E+08
        -0.12632E+08
        -0.11484E+09
         0.28207E+07
        -0.41937E+08
         0.33675E+08
         0.74436E+08
        -0.36912E+08
        -0.90083E+08
        -0.64980E+08
         0.28898E+08
        -0.90254E+08
        -0.11208E+09
         0.12267E+09
         0.33662E+08
        -0.69420E+08
         0.33467E+08
        -0.20870E+09
        -0.53812E+08
        -0.66632E+07
         0.29928E+08
         0.73036E+08
         0.57785E+08
        -0.15162E+09
        -0.16368E+09
        -0.33712E+08
        -0.77804E+08
        -0.14530E+09
         0.13505E+09
         0.39943E+08
         0.11970E+09
         0.25951E+08
        -0.14419E+08
        -0.17374E+09
        -0.40991E+08
        -0.14982E+09
        -0.28762E+08
         0.14987E+09
        -0.83021E+07
         0.77836E+08
         0.16623E+09
         0.30319E+08
         0.12734E+09
        -0.86630E+06
        -0.89023E+08
        -0.41603E+08
        -0.48385E+08
        -0.24149E+09
        -0.11067E+09
         0.54948E+07
         0.51408E+08
         0.40179E+06
        -0.22360E+09
        -0.31590E+09
        -0.85962E+08
         0.66964E+08
        -0.78357E+08
        -0.13296E+09
        -0.13256E+09
        -0.91208E+08
        -0.45914E+08
        -0.12444E+09
        -0.13238E+09
        -0.99074E+08
        -0.40025E+08
        -0.77283E+08
        -0.16574E+09
         0.80556E+08
        -0.25285E+08
        -0.19766E+09
        -0.13801E+09
         0.28976E+08
         0.18484E+09
         0.18730E+08
        -0.61403E+08
        -0.48624E+08
         0.42967E+06
        -0.21899E+07
         0.30618E+08
        -0.98741E+08
        -0.98285E+08
         0.81624E+08
        -0.38233E+08
        -0.32958E+08
        -0.98269E+08
         0.37723E+08
         0.35184E+08
        -0.43148E+08
        -0.88100E+08
        -0.88999E+08
        -0.67307E+08
         0.11995E+09
        -0.19414E+08
         0.33341E+08
         0.12916E+09
        -0.25689E+08
        -0.24639E+08
         0.84077E+07
         0.17409E+07
         0.31344E+09
         0.89415E+08
         0.25826E+08
         0.88224E+08
         0.24996E+08
         0.23805E+08
         0.47740E+08
         0.20728E+09
         0.18176E+09
         0.25026E+09
         0.84413E+08
         0.20745E+07
         0.39125E+08
         0.31131E+08
         0.57657E+08
         0.83117E+08
         0.53751E+08
         0.10755E+09
        -0.47939E+07
         0.78391E+07
         0.58600E+08
        -0.11547E+06
         0.88251E+08
         0.90545E+08
         0.33818E+08
         0.65305E+08
        -0.14078E+08
         0.21621E+07
         0.10090E+08
        -0.37140E+08
        -0.50320E+08
         0.34346E+08
         0.25569E+08
        -0.11741E+08
        -0.76501E+07
         0.44864E+08
         0.86041E+07
        -0.89580E+08
        -0.54310E+08
        -0.36737E+08
        -0.61589E+08
        -0.49048E+08
        -0.52563E+08
        -0.49166E+08
         0.14682E+08
         0.69055E+08
        -0.10396E+08
         0.14131E+08
         0.20767E+08
        -0.59009E+08
        -0.17887E+09
        -0.17871E+09
        -0.21598E+09
        -0.12384E+09
        -0.30887E+08
        -0.16026E+09
        -0.79427E+08
        -0.18388E+09
        -0.16141E+09
        -0.15083E+09
        -0.22384E+09
        -0.88256E+08
        -0.14053E+09
         0.12756E+08
        -0.34183E+08
        -0.11178E+09
        -0.21390E+08
         0.82170E+07
        -0.10825E+09
         0.49776E+08
        -0.69739E+08
         0.29566E+08
         0.77860E+08
        -0.23977E+08
        -0.40824E+07
        -0.37705E+08
        -0.25705E+08
        -0.26931E+08
        -0.66155E+08
        -0.96292E+08
         0.24148E+07
        -0.29274E+08
        -0.30381E+08
         0.78695E+08
         0.33752E+08
        -0.16196E+09
        -0.25762E+08
        -0.10663E+09
         0.15952E+08
         0.10686E+09
         0.87312E+08
         0.12049E+09
        -0.11531E+09
        -0.69499E+08
        -0.30837E+08
        -0.13692E+09
        -0.22649E+08
         0.38399E+07
         0.59491E+08
         0.64287E+08
        -0.22944E+07
        -0.81474E+08
         0.80883E+08
         0.31683E+08
         0.76354E+07
        -0.36021E+08
        -0.51773E+08
        -0.70376E+07
         0.43733E+08
         0.71142E+08
        -0.28262E+08
        -0.64412E+08
        -0.59592E+08
        -0.15576E+09
        -0.12193E+09
        -0.44233E+08
        -0.77661E+07
        -0.98644E+07
         0.13250E+08
        -0.67922E+08
        -0.10461E+09
        -0.63036E+08
        -0.28775E+08
        -0.10060E+09
        -0.20877E+09
        -0.18007E+09
        -0.23925E+08
        -0.16895E+09
        -0.39874E+07
        -0.16209E+09
        -0.10189E+09
         0.70338E+08
        -0.15378E+09
         0.62517E+08
        -0.11235E+09
        -0.16195E+08
         0.27329E+08
        -0.26168E+08
        -0.33608E+08
        -0.40849E+07
         0.44985E+08
        -0.53244E+08
        -0.10671E+09
         0.12071E+08
        -0.42957E+08
        -0.16459E+09
        -0.17955E+09
        -0.13585E+09
         0.10297E+09
         0.15202E+09
        -0.31835E+08
         0.98610E+08
        -0.50483E+08
        -0.18477E+08
         0.92892E+08
         0.31737E+08
        -0.12229E+08
         0.71349E+08
         0.30585E+08
         0.21638E+08
         0.95184E+08
         0.43055E+07
         0.55109E+08
         0.18913E+09
         0.67936E+08
         0.27123E+08
         0.21474E+09
         0.76995E+08
        -0.53637E+08
        -0.52084E+08
        -0.18877E+08
         0.12836E+09
        -0.33516E+08
         0.22300E+09
         0.31934E+08
        -0.64655E+08
        -0.24830E+08
        -0.46758E+08
         0.12246E+09
         0.89009E+08
         0.44807E+08
         0.53104E+08
        -0.65055E+08
         0.45813E+08
         0.12568E+09
         0.14817E+09
         0.10278E+08
        -0.67100E+08
         0.63482E+08
         0.79042E+08
         0.12574E+08
         0.13382E+09
         0.13401E+09
        -0.81221E+08
        -0.40248E+08
        -0.51617E+08
        -0.10010E+09
        -0.32180E+08
         0.87011E+07
         0.79709E+07
        -0.17015E+08
         0.19725E+08
         0.11838E+09
         0.17544E+09
        -0.33648E+07
        -0.64708E+08
         0.11835E+09
        -0.14537E+08
         0.98797E+08
        -0.11840E+09
         0.13590E+09
         0.10889E+09
        -0.15310E+09
         0.24644E+07
        -0.23132E+09
        -0.16645E+09
         0.48841E+08
        -0.14683E+09
        -0.12195E+09
        -0.77337E+08
        -0.45169E+08
        -0.53595E+08
        -0.65492E+08
        -0.11826E+08
         0.12864E+09
         0.29352E+07
        -0.20529E+09
        -0.10380E+09
        -0.83859E+08
         0.13008E+09
         0.29911E+09
         0.76919E+08
        -0.13786E+08
        -0.10043E+08
        -0.83244E+07
         0.31260E+09
         0.33531E+08
         0.25049E+09
         0.24941E+09
        -0.29930E+09
        -0.62146E+08
        -0.38637E+08
        -0.89612E+08
         0.29997E+07
        -0.14179E+09
        -0.29385E+09
         0.16019E+09
         0.10628E+09
         0.20940E+09
        -0.19980E+09
         0.36839E+09
        -0.56237E+08
        -0.12756E+09
         0.51632E+08
         0.89481E+08
        -0.60579E+08
        -0.55194E+08
        -0.68199E+08
        -0.10997E+09
         0.98018E+07
         0.10835E+09
         0.18172E+09
         0.71763E+08
         0.29653E+08
        -0.23419E+08
         0.13951E+08
         0.22916E+08
         0.26175E+09
         0.41500E+09
         0.18861E+09
         0.17101E+09
        -0.31555E+08
         0.37847E+08
         0.12031E+09
         0.13807E+09
         0.31225E+09
         0.14233E+09
        -0.58947E+08
        -0.58875E+09
        -0.71035E+08
        -0.38254E+09
        -0.62423E+09
        -0.42507E+09
        -0.26828E+09
        -0.32300E+09
        -0.39030E+09
        -0.27739E+08
        -0.13529E+09
        -0.31505E+08
        -0.61878E+09
        -0.26943E+09
        -0.29892E+09
        -0.10198E+09
        -0.82467E+08
        -0.37683E+09
        -0.36398E+09
         0.19352E+08
         0.17680E+09
        -0.53890E+08
        -0.23675E+09
        -0.14651E+09
        -0.17472E+09
        -0.41734E+09
        -0.35153E+09
  
SCALARS                      stress_yz  double 1
LOOKUP_TABLE default
         0.31347E+08
        -0.28156E+08
        -0.17042E+09
         0.11646E+09
        -0.10985E+09
         0.12987E+09
        -0.10283E+08
         0.90480E+08
         0.77689E+08
        -0.56091E+08
        -0.20790E+08
        -0.45251E+08
         0.40123E+08
        -0.72281E+08
         0.14604E+09
         0.51787E+08
         0.11577E+09
        -0.36226E+08
         0.17502E+09
        -0.57953E+08
        -0.44028E+08
        -0.11132E+08
        -0.10298E+09
        -0.55653E+08
         0.33103E+08
        -0.97341E+07
        -0.90709E+08
        -0.18439E+08
         0.61895E+07
        -0.45996E+08
         0.41554E+08
         0.46563E+08
        -0.88666E+08
         0.18929E+08
         0.91932E+08
         0.15675E+08
         0.12014E+09
         0.60415E+08
         0.12402E+09
        -0.12742E+09
        -0.84941E+08
         0.14764E+09
        -0.10099E+09
         0.82781E+08
        -0.30189E+08
         0.27335E+08
        -0.10117E+08
         0.55989E+08
         0.63939E+08
         0.42759E+08
         0.24599E+08
        -0.86358E+08
        -0.14336E+09
         0.11311E+08
        -0.38553E+08
         0.47959E+08
        -0.35147E+07
         0.52982E+07
         0.12861E+09
         0.49850E+07
         0.86268E+08
        -0.10152E+09
         0.48366E+08
        -0.12049E+09
         0.11912E+09
        -0.51911E+08
         0.15648E+09
        -0.60623E+08
        -0.37783E+08
         0.58305E+08
        -0.12733E+09
         0.16728E+09
         0.13868E+09
         0.95068E+08
        -0.70044E+06
        -0.39928E+08
        -0.16967E+08
         0.65711E+08
        -0.10263E+09
         0.54197E+08
         0.12186E+09
        -0.14132E+08
         0.10129E+09
        -0.28264E+08
        -0.72466E+08
         0.12039E+08
        -0.19718E+09
        -0.12784E+09
        -0.58741E+08
        -0.31886E+08
         0.10404E+09
        -0.24772E+09
         0.19885E+08
        -0.21424E+09
        -0.15708E+09
        -0.70598E+08
        -0.64445E+07
        -0.41824E+08
        -0.75109E+08
        -0.14582E+09
        -0.36710E+08
        -0.66462E+08
        -0.17190E+08
        -0.10545E+09
         0.15782E+09
         0.29791E+08
        -0.65760E+08
        -0.45281E+08
         0.51493E+08
        -0.80552E+08
         0.16877E+08
        -0.95436E+08
        -0.22797E+08
        -0.14956E+09
         0.70053E+08
         0.18365E+09
        -0.87693E+08
         0.23807E+09
         0.63430E+07
         0.96310E+08
         0.79980E+08
         0.57221E+07
        -0.14282E+08
         0.28382E+08
         0.99064E+08
         0.11348E+09
         0.61158E+08
        -0.11609E+09
         0.13355E+07
        -0.56792E+07
        -0.78020E+08
        -0.20988E+08
         0.41862E+08
        -0.98595E+08
         0.43290E+08
        -0.10918E+09
        -0.72794E+08
        -0.12928E+09
        -0.79724E+08
         0.49437E+08
        -0.20132E+09
         0.27634E+09
        -0.79360E+08
         0.20502E+09
         0.42886E+08
         0.13167E+09
        -0.16406E+09
        -0.48618E+08
        -0.11163E+09
         0.29235E+08
        -0.24297E+08
         0.28705E+08
        -0.17529E+08
        -0.21567E+08
        -0.59037E+08
        -0.55768E+07
         0.85563E+08
        -0.12017E+08
        -0.43426E+08
        -0.82843E+07
         0.66196E+08
        -0.12682E+09
        -0.36612E+08
        -0.70650E+08
         0.83609E+08
        -0.12146E+08
        -0.53272E+08
         0.92389E+08
         0.39589E+08
        -0.29032E+08
         0.12585E+09
         0.59713E+08
         0.50662E+08
         0.14906E+08
         0.46272E+08
        -0.23652E+08
        -0.30154E+08
         0.11929E+08
        -0.50638E+08
         0.80490E+08
         0.26831E+08
         0.11924E+09
        -0.13729E+09
        -0.86531E+08
        -0.81376E+08
         0.95258E+07
         0.37002E+08
         0.55994E+07
         0.11577E+09
         0.60908E+08
         0.83401E+08
         0.55755E+08
         0.12967E+09
         0.92080E+08
         0.16319E+09
         0.74709E+08
         0.83423E+08
         0.28035E+08
        -0.57405E+07
        -0.13096E+09
         0.70911E+07
         0.97866E+08
        -0.18425E+09
        -0.15267E+09
        -0.12614E+08
        -0.11857E+09
        -0.11981E+08
        -0.33996E+08
         0.28842E+08
        -0.14997E+09
        -0.46967E+08
        -0.51224E+08
        -0.15583E+08
        -0.55481E+08
         0.13950E+09
        -0.57838E+08
         0.70746E+07
        -0.21899E+08
         0.26683E+08
         0.30429E+08
        -0.15391E+08
        -0.27300E+08
         0.50395E+08
        -0.73542E+08
        -0.40870E+08
        -0.64238E+08
        -0.76269E+07
         0.17484E+09
         0.13654E+09
         0.11043E+08
        -0.16565E+09
        -0.47870E+08
         0.38886E+06
         0.62815E+08
         0.18326E+08
        -0.42892E+08
         0.16858E+08
        -0.55897E+08
        -0.26494E+07
        -0.57715E+08
        -0.80125E+08
         0.89769E+08
         0.10375E+09
         0.11489E+09
        -0.12000E+09
         0.65907E+08
         0.25205E+08
        -0.40466E+08
        -0.34221E+08
         0.11359E+08
         0.11818E+09
         0.25047E+08
         0.32228E+08
         0.20027E+08
        -0.24332E+06
         0.12024E+08
        -0.65036E+08
        -0.49651E+08
         0.58224E+08
        -0.63310E+08
         0.48075E+07
        -0.30976E+08
        -0.50075E+08
         0.60199E+08
         0.52566E+08
        -0.13206E+08
         0.93621E+08
         0.67575E+08
         0.14510E+09
         0.13384E+09
         0.58467E+08
        -0.16317E+08
         0.38567E+08
        -0.66112E+08
         0.48586E+07
         0.21869E+08
         0.28295E+08
        -0.40634E+08
        -0.17744E+08
        -0.14462E+09
        -0.18480E+09
        -0.18988E+09
        -0.15035E+09
        -0.11643E+09
        -0.34055E+08
         0.52771E+08
        -0.35279E+07
        -0.55182E+08
         0.20224E+07
        -0.75889E+08
         0.30761E+07
        -0.14613E+08
         0.52762E+07
        -0.20184E+09
         0.85793E+08
        -0.11764E+09
        -0.47162E+08
         0.29468E+08
        -0.26753E+08
        -0.83765E+08
         0.13767E+07
         0.99343E+08
         0.11211E+09
        -0.63309E+08
        -0.69037E+08
         0.99779E+08
         0.89572E+08
         0.11577E+08
        -0.39102E+08
         0.56179E+08
        -0.28716E+08
         0.44011E+08
         0.42322E+08
         0.22576E+08
        -0.23081E+08
        -0.75189E+08
        -0.17095E+08
        -0.48720E+08
        -0.38901E+08
         0.59588E+08
         0.13544E+08
         0.78687E+08
        -0.13354E+09
         0.46768E+08
         0.46818E+08
        -0.10482E+09
        -0.10694E+08
         0.12674E+08
        -0.10440E+08
        -0.17764E+08
         0.51459E+08
         0.70600E+08
         0.99850E+08
        -0.27340E+08
        -0.24314E+08
        -0.74838E+08
        -0.68846E+08
        -0.38515E+08
         0.11028E+08
        -0.87168E+08
        -0.12026E+09
         0.19076E+08
         0.84056E+08
         0.72513E+08
         0.15045E+08
         0.99946E+08
         0.11217E+09
         0.12693E+09
         0.31212E+08
        -0.17421E+08
         0.58439E+08
         0.69806E+08
         0.55634E+08
        -0.11571E+08
         0.46144E+08
        -0.62462E+08
        -0.66382E+08
        -0.13368E+09
        -0.69554E+06
        -0.92848E+08
        -0.82422E+08
         0.28263E+08
        -0.84418E+08
         0.27731E+08
        -0.85912E+08
        -0.46888E+08
        -0.47871E+08
        -0.56121E+08
        -0.25125E+07
         0.87751E+08
         0.64813E+08
         0.15199E+09
        -0.65714E+08
        -0.17937E+09
         0.13141E+09
         0.57981E+07
        -0.92337E+08
        -0.39746E+07
         0.11589E+09
        -0.11131E+09
        -0.80837E+07
         0.42374E+08
         0.11713E+09
         0.15396E+09
         0.17871E+09
         0.15440E+06
        -0.31852E+08
        -0.12440E+09
        -0.94850E+08
        -0.13580E+07
         0.48178E+08
         0.33942E+08
         0.51317E+08
        -0.41146E+08
        -0.85966E+08
        -0.68529E+08
        -0.41393E+08
         0.36726E+08
         0.60567E+08
         0.11135E+09
        -0.74255E+08
         0.50841E+08
         0.88771E+07
        -0.61060E+07
         0.26539E+08
         0.56660E+08
         0.16483E+08
         0.13873E+08
         0.62469E+08
         0.32503E+08
         0.64417E+08
        -0.80967E+08
        -0.10677E+09
        -0.70134E+08
         0.32585E+07
        -0.20106E+08
         0.11111E+09
        -0.38086E+08
        -0.73651E+08
         0.66229E+08
        -0.33332E+07
         0.75243E+08
        -0.41219E+08
        -0.62774E+07
         0.76279E+08
         0.12619E+09
         0.37200E+08
         0.17073E+08
         0.24436E+08
         0.30464E+08
        -0.17113E+07
         0.13043E+07
        -0.49246E+08
        -0.38756E+08
        -0.44757E+08
        -0.12961E+09
        -0.63410E+08
        -0.10261E+09
        -0.55957E+08
         0.76669E+08
        -0.25425E+08
         0.12352E+08
        -0.38303E+08
        -0.27348E+08
        -0.71337E+08
         0.73860E+07
         0.51109E+08
         0.17264E+08
        -0.20348E+08
         0.68326E+08
        -0.41646E+08
         0.39273E+08
         0.34774E+08
        -0.91385E+08
         0.41581E+06
        -0.32337E+08
        -0.41011E+08
        -0.26467E+08
         0.22217E+09
        -0.49355E+08
        -0.55753E+08
        -0.46005E+07
         0.33054E+08
        -0.78185E+08
        -0.67158E+08
         0.33658E+08
         0.77630E+07
         0.14057E+09
        -0.30411E+08
         0.35436E+08
         0.43025E+08
        -0.53326E+08
        -0.14670E+08
        -0.83050E+08
         0.41113E+08
         0.79303E+08
        -0.23371E+08
         0.12297E+09
        -0.68450E+08
         0.19515E+08
         0.14591E+08
        -0.46317E+08
        -0.80275E+08
         0.42684E+08
         0.11612E+07
        -0.46673E+08
         0.13284E+09
         0.44415E+07
         0.15563E+08
        -0.18178E+08
        -0.99453E+08
        -0.70136E+08
         0.45588E+08
        -0.91568E+08
         0.86533E+08
         0.24245E+08
        -0.33179E+08
         0.69168E+08
        -0.96870E+07
         0.40064E+08
        -0.36765E+08
        -0.11768E+08
         0.50366E+08
         0.10785E+09
        -0.10378E+08
         0.12183E+08
        -0.65512E+08
        -0.14406E+09
        -0.76504E+08
        -0.32728E+08
         0.55574E+07
         0.14075E+08
        -0.11994E+08
        -0.43020E+08
         0.23618E+08
        -0.40842E+08
        -0.14201E+08
         0.12650E+09
        -0.47782E+07
         0.26542E+08
        -0.58936E+08
         0.19197E+08
        -0.71242E+08
        -0.61796E+08
         0.66877E+08
         0.48971E+08
         0.35810E+08
         0.14822E+09
         0.48152E+08
         0.31730E+08
         0.78452E+08
        -0.11117E+09
         0.68517E+08
        -0.20870E+07
         0.53253E+08
        -0.77985E+06
         0.55609E+08
        -0.56572E+08
         0.72402E+08
         0.12841E+09
         0.14402E+09
        -0.35033E+08
        -0.12982E+09
        -0.13626E+09
        -0.87867E+08
         0.77591E+08
         0.83204E+07
         0.51446E+08
         0.67228E+08
        -0.72926E+08
        -0.60129E+08
        -0.10017E+09
        -0.64151E+07
         0.18174E+08
        -0.13388E+08
         0.86037E+08
        -0.75953E+08
         0.21832E+08
         0.18406E+08
        -0.24290E+08
        -0.26228E+08
         0.91014E+08
        -0.46085E+08
         0.47714E+08
         0.69063E+08
        -0.27308E+08
        -0.21489E+08
        -0.10866E+09
        -0.24500E+08
        -0.10559E+09
         0.15681E+08
        -0.55016E+08
         0.15947E+09
         0.91354E+08
        -0.72597E+08
         0.52863E+08
        -0.18090E+08
         0.90242E+08
        -0.81441E+07
        -0.81184E+08
         0.81140E+08
         0.14699E+09
         0.27636E+07
        -0.49192E+08
        -0.29409E+08
        -0.40180E+08
        -0.20890E+08
        -0.11744E+07
         0.28539E+07
         0.40002E+08
         0.19393E+08
        -0.23373E+08
        -0.17045E+08
        -0.61039E+08
         0.74420E+08
         0.18667E+09
         0.36089E+08
         0.21423E+08
        -0.23509E+08
        -0.61196E+08
        -0.15631E+09
        -0.41396E+08
         0.46467E+08
        -0.42053E+08
         0.86179E+08
         0.72357E+08
         0.11438E+09
         0.50268E+08
         0.11971E+09
        -0.19012E+09
         0.92347E+08
         0.50331E+08
        -0.40490E+07
        -0.78097E+08
         0.32003E+08
         0.88456E+07
         0.36638E+08
        -0.98981E+08
        -0.21227E+08
        -0.12027E+09
        -0.83170E+08
        -0.34285E+08
         0.41230E+08
         0.89778E+08
         0.24817E+08
         0.18152E+08
         0.60456E+08
        -0.34338E+07
        -0.42785E+08
        -0.83157E+08
        -0.26454E+08
        -0.40238E+08
         0.34272E+08
         0.19240E+08
        -0.60762E+08
         0.14779E+08
         0.78864E+08
        -0.44546E+08
         0.38413E+07
         0.49998E+08
        -0.75801E+07
         0.43888E+08
         0.78363E+08
        -0.16383E+08
         0.47515E+08
        -0.38985E+08
        -0.30951E+08
        -0.97494E+08
         0.65815E+08
        -0.74458E+08
         0.12200E+09
         0.23383E+08
        -0.94701E+08
         0.67999E+08
        -0.56512E+08
        -0.66925E+08
        -0.66053E+08
        -0.71028E+08
         0.93788E+08
         0.83813E+08
        -0.16460E+08
         0.74927E+07
        -0.84176E+08
        -0.96251E+08
        -0.42665E+08
        -0.11610E+08
        -0.23633E+08
         0.16482E+08
        -0.30738E+08
         0.12482E+08
         0.52351E+08
         0.38293E+08
         0.62371E+08
         0.87284E+08
        -0.52793E+08
        -0.21170E+08
         0.37177E+08
        -0.15451E+08
        -0.16229E+09
        -0.54449E+08
         0.10291E+09
        -0.61450E+08
         0.72234E+08
         0.31983E+08
         0.80991E+08
         0.42538E+08
         0.10412E+09
        -0.12955E+09
         0.47597E+08
        -0.39170E+08
         0.86766E+07
         0.68460E+07
         0.13231E+09
        -0.34447E+08
         0.64011E+08
         0.88362E+08
         0.21161E+09
        -0.27851E+08
        -0.36994E+07
        -0.74716E+08
         0.22397E+08
         0.12594E+09
        -0.18453E+08
         0.55804E+08
         0.71074E+08
         0.18111E+08
        -0.27813E+08
        -0.75050E+08
        -0.19936E+08
        -0.60301E+07
        -0.79467E+08
         0.50913E+08
        -0.86049E+08
        -0.32451E+06
         0.45854E+08
        -0.60350E+08
        -0.37831E+08
        -0.44640E+08
        -0.40222E+08
         0.81853E+08
         0.78696E+07
         0.37244E+08
         0.41685E+08
        -0.62643E+08
        -0.89504E+08
        -0.16674E+09
         0.10739E+09
        -0.63582E+08
         0.15645E+09
         0.11954E+09
        -0.58537E+08
         0.11628E+09
        -0.39609E+08
         0.29354E+08
        -0.13097E+09
        -0.94760E+08
         0.95350E+08
         0.11563E+09
         0.24402E+07
        -0.10634E+09
        -0.29762E+08
        -0.20563E+08
        -0.46743E+08
        -0.41729E+08
        -0.35711E+08
         0.45936E+08
         0.12808E+08
         0.31627E+08
         0.26672E+08
         0.35510E+08
         0.23293E+08
         0.69407E+08
         0.33189E+08
         0.28669E+08
        -0.35991E+08
        -0.24449E+07
        -0.17239E+09
        -0.71305E+08
         0.29347E+08
        -0.79515E+08
         0.17166E+09
         0.11600E+09
         0.31141E+08
         0.80488E+08
        -0.69153E+07
         0.51482E+08
         0.16108E+08
        -0.36450E+08
         0.90397E+08
        -0.68628E+08
         0.16531E+08
         0.11814E+08
         0.91715E+08
        -0.80514E+08
        -0.14750E+08
        -0.53191E+08
         0.33084E+08
        -0.82329E+08
        -0.22570E+08
         0.81781E+08
         0.57447E+08
         0.45555E+08
         0.28984E+08
         0.56065E+07
        -0.47265E+08
        -0.65791E+08
         0.12581E+07
         0.58126E+08
        -0.26497E+08
         0.20318E+08
        -0.22137E+08
         0.61478E+08
         0.40653E+08
         0.31948E+08
         0.39130E+08
         0.54834E+08
        -0.67498E+08
         0.12733E+09
         0.32934E+08
         0.30442E+08
         0.25371E+08
        -0.72671E+08
        -0.36486E+08
        -0.13497E+09
         0.11039E+07
        -0.42913E+08
         0.15682E+09
         0.36314E+08
        -0.68852E+08
         0.89874E+08
        -0.26527E+08
         0.24220E+08
        -0.11230E+09
        -0.54196E+08
         0.12278E+09
         0.10506E+09
        -0.32298E+08
        -0.18413E+08
        -0.40576E+08
        -0.12398E+08
         0.11298E+08
         0.22383E+07
        -0.46161E+08
         0.80999E+08
        -0.24266E+08
        -0.50258E+08
         0.92157E+07
         0.38041E+08
        -0.19527E+08
         0.40336E+08
         0.32303E+08
         0.55299E+08
         0.17230E+08
        -0.68126E+08
        -0.60058E+08
        -0.93136E+08
         0.98333E+07
        -0.15993E+09
        -0.11868E+08
        -0.51380E+08
        -0.96865E+08
        -0.67122E+08
         0.66891E+08
        -0.98559E+08
        -0.33130E+08
         0.46131E+08
         0.55148E+07
         0.66726E+08
         0.11394E+09
        -0.32263E+08
        -0.16143E+08
        -0.41064E+08
         0.22336E+09
         0.52913E+08
         0.54579E+08
        -0.19496E+08
        -0.48292E+08
         0.11808E+09
        -0.30238E+07
        -0.21545E+08
         0.88141E+07
        -0.92631E+07
         0.50172E+07
        -0.49172E+08
        -0.43846E+08
         0.81652E+08
        -0.42539E+08
         0.43039E+08
        -0.83291E+08
         0.27740E+08
         0.39506E+08
         0.44170E+08
        -0.82165E+06
        -0.89603E+06
        -0.77018E+08
         0.75416E+08
         0.13608E+08
        -0.65894E+07
         0.63715E+08
        -0.50549E+08
        -0.49368E+08
        -0.12800E+09
        -0.22835E+08
        -0.65408E+08
         0.17258E+09
        -0.11057E+08
        -0.70302E+08
         0.77484E+08
        -0.53218E+08
        -0.32323E+08
        -0.85247E+08
        -0.92354E+08
         0.12024E+09
         0.87855E+08
        -0.25473E+08
         0.12776E+08
         0.42999E+08
         0.26319E+08
        -0.39179E+08
         0.39484E+08
        -0.71980E+07
         0.67761E+08
        -0.17302E+08
        -0.55989E+08
        -0.76286E+08
        -0.29131E+08
         0.17074E+07
         0.50118E+07
        -0.52228E+08
         0.76987E+07
        -0.24174E+08
         0.53692E+08
        -0.10139E+09
        -0.98494E+08
         0.50136E+08
        -0.14711E+08
        -0.37990E+08
        -0.57978E+08
        -0.99429E+08
         0.36290E+08
         0.49373E+08
        -0.28672E+08
        -0.16735E+08
        -0.74937E+08
         0.10632E+09
        -0.53798E+08
         0.12183E+09
         0.96585E+08
         0.86701E+08
        -0.40238E+07
         0.13357E+09
         0.47272E+08
         0.29748E+07
        -0.46761E+08
         0.20844E+08
         0.10197E+09
         0.11570E+08
         0.93134E+07
         0.33636E+08
         0.36462E+08
         0.98876E+07
         0.18959E+08
        -0.19562E+08
         0.50075E+08
        -0.14326E+08
         0.94125E+08
        -0.60468E+08
         0.55262E+08
         0.61750E+08
        -0.10485E+08
         0.55428E+08
         0.56914E+08
         0.10230E+08
         0.10463E+09
         0.67008E+08
         0.91473E+08
         0.83697E+08
         0.83927E+07
        -0.11280E+09
        -0.17703E+09
         0.54578E+08
        -0.67986E+08
         0.17520E+09
         0.60601E+08
        -0.60490E+08
         0.10331E+09
        -0.69865E+08
        -0.38981E+08
        -0.87389E+08
        -0.13088E+08
         0.10548E+09
         0.11132E+09
         0.80864E+07
         0.16272E+08
         0.12658E+08
         0.50644E+08
        -0.17325E+07
        -0.29256E+08
        -0.39086E+08
         0.70017E+08
         0.27663E+07
        -0.66408E+08
        -0.84901E+08
        -0.74183E+08
        -0.22878E+08
         0.12840E+08
        -0.76627E+08
         0.50958E+08
        -0.60463E+08
        -0.98013E+07
        -0.49121E+08
        -0.75862E+08
         0.46773E+08
        -0.23719E+09
        -0.29662E+08
        -0.10694E+08
        -0.11558E+09
         0.72198E+08
         0.92802E+07
        -0.69721E+08
         0.23770E+08
        -0.25921E+08
         0.86166E+08
        -0.29294E+07
         0.16502E+09
        -0.16481E+07
         0.22685E+08
         0.37551E+08
         0.15283E+09
         0.91558E+08
         0.45028E+08
        -0.16941E+08
        -0.84906E+08
         0.41937E+08
         0.54569E+08
         0.43897E+08
        -0.19264E+08
        -0.58220E+08
        -0.31472E+08
        -0.23366E+08
         0.50161E+08
         0.10357E+09
        -0.65150E+08
         0.10234E+09
        -0.11967E+08
         0.10156E+09
         0.12099E+09
        -0.32317E+08
        -0.18250E+08
         0.19420E+08
        -0.12421E+09
        -0.99405E+07
         0.39829E+08
         0.21450E+08
         0.55313E+08
        -0.38287E+08
        -0.79512E+08
        -0.11858E+09
         0.50621E+07
         0.12192E+08
         0.10741E+09
        -0.43220E+08
        -0.10788E+09
         0.77267E+08
        -0.30333E+08
         0.90444E+07
        -0.93888E+08
        -0.30418E+08
         0.12175E+09
         0.10538E+09
        -0.21370E+08
        -0.68028E+08
        -0.26592E+08
        -0.49183E+07
        -0.26775E+07
         0.50423E+08
         0.76354E+07
         0.41966E+08
        -0.38083E+08
        -0.92978E+08
        -0.87889E+08
        -0.95119E+08
        -0.61855E+08
         0.14946E+08
        -0.87612E+08
         0.27172E+08
         0.33653E+08
         0.77697E+08
        -0.57236E+08
        -0.15669E+09
         0.10224E+09
        -0.15563E+09
        -0.17152E+09
        -0.82816E+08
        -0.21612E+08
         0.19757E+07
         0.88996E+08
        -0.37662E+08
        -0.32810E+08
        -0.27657E+08
         0.97615E+08
         0.26433E+08
         0.76191E+08
         0.14750E+08
         0.63067E+08
         0.14994E+09
         0.23454E+09
        -0.69627E+07
         0.11672E+08
        -0.58528E+08
        -0.63583E+08
         0.12236E+09
         0.33200E+08
        -0.22555E+08
        -0.63711E+08
         0.46159E+07
        -0.71181E+08
         0.44148E+07
        -0.54214E+08
         0.10209E+09
        -0.19807E+07
         0.10062E+09
        -0.13359E+09
         0.21590E+08
         0.33680E+08
        -0.53590E+08
         0.23167E+07
         0.63878E+08
        -0.46957E+08
         0.78376E+08
         0.64145E+08
         0.20859E+08
        -0.11837E+07
        -0.75694E+08
        -0.67595E+08
        -0.10143E+09
         0.29264E+08
        -0.39468E+08
         0.10444E+09
        -0.38381E+08
        -0.96138E+08
         0.11492E+09
        -0.88838E+07
        -0.30224E+08
         0.20464E+08
         0.62510E+08
         0.91137E+08
         0.84821E+08
        -0.57087E+08
         0.32817E+08
         0.30968E+08
        -0.26362E+07
        -0.16700E+08
         0.28063E+08
         0.23004E+08
        -0.19350E+08
        -0.63273E+08
         0.14777E+08
        -0.39833E+08
        -0.94245E+08
        -0.57840E+08
         0.12771E+08
        -0.10336E+09
         0.52341E+08
         0.12327E+08
         0.34523E+08
        -0.15521E+08
        -0.12569E+09
         0.78621E+08
        -0.13308E+09
         0.32773E+08
        -0.49364E+08
        -0.98133E+07
         0.22923E+07
         0.90433E+08
        -0.11451E+09
         0.12248E+08
        -0.40828E+08
         0.64962E+08
         0.89761E+08
         0.34470E+08
         0.52600E+07
         0.13228E+09
         0.76907E+08
         0.15669E+09
         0.12654E+08
         0.73971E+08
        -0.70718E+07
        -0.38332E+08
         0.67586E+08
         0.89844E+08
         0.53426E+08
        -0.42299E+08
        -0.66185E+08
        -0.77359E+08
         0.11607E+08
        -0.44147E+08
         0.11157E+09
         0.82451E+07
         0.11508E+09
        -0.13450E+09
         0.36869E+08
         0.45187E+08
        -0.12773E+09
         0.37669E+07
         0.22258E+08
        -0.65602E+08
        -0.87741E+07
         0.57361E+08
         0.13143E+08
         0.60362E+08
        -0.26026E+08
         0.12582E+08
        -0.15748E+08
         0.61431E+08
         0.61798E+08
         0.33759E+08
        -0.91065E+08
        -0.93727E+08
         0.11028E+09
        -0.23247E+07
         0.47443E+08
        -0.10294E+07
         0.89570E+08
         0.10194E+09
         0.15309E+09
        -0.21664E+07
        -0.14956E+08
        -0.62318E+08
        -0.68140E+08
        -0.75461E+08
         0.21023E+07
         0.39281E+08
         0.96338E+08
        -0.45220E+07
        -0.58715E+08
        -0.95304E+08
        -0.13828E+09
        -0.42572E+08
         0.10686E+09
        -0.22889E+07
         0.11051E+09
        -0.25105E+08
         0.87018E+08
        -0.19732E+08
        -0.70696E+08
         0.87598E+08
        -0.13845E+09
         0.18727E+08
        -0.13859E+09
        -0.87843E+08
        -0.31643E+08
         0.34335E+08
        -0.32186E+08
         0.77548E+08
        -0.50851E+08
         0.57454E+08
         0.60125E+08
         0.12906E+09
         0.57335E+08
        -0.30647E+08
         0.88028E+08
         0.21490E+09
         0.66707E+08
         0.89622E+08
        -0.65923E+08
        -0.74810E+08
         0.57158E+08
         0.38513E+08
        -0.38294E+06
        -0.59252E+08
        -0.60782E+08
        -0.98760E+08
         0.37296E+08
        -0.72841E+08
         0.38179E+08
        -0.35216E+08
         0.62669E+08
        -0.14493E+09
         0.27503E+08
        -0.10742E+08
        -0.14440E+09
        -0.68833E+07
         0.16209E+08
        -0.12465E+09
        -0.47030E+08
         0.17084E+08
        -0.28796E+08
         0.22300E+08
        -0.59692E+08
        -0.99858E+08
        -0.87331E+08
        -0.63947E+06
         0.68058E+08
         0.53134E+08
        -0.75171E+08
        -0.10309E+09
         0.60127E+08
         0.10863E+09
         0.91448E+08
         0.31167E+08
         0.47038E+08
         0.11385E+09
         0.15565E+09
        -0.64698E+08
         0.19311E+08
         0.29258E+08
         0.64925E+08
         0.72910E+08
         0.27162E+08
        -0.39831E+08
        -0.10891E+08
        -0.60630E+08
        -0.80946E+08
        -0.69046E+08
        -0.11104E+09
        -0.98579E+08
        -0.13108E+08
        -0.10061E+09
         0.10029E+09
        -0.18580E+08
         0.38314E+08
        -0.57446E+08
        -0.17803E+09
         0.37794E+08
        -0.98938E+08
        -0.11520E+08
        -0.11562E+09
        -0.62028E+08
        -0.25260E+08
         0.20594E+09
        -0.34002E+08
        -0.13198E+08
        -0.30858E+08
         0.56146E+08
         0.26621E+08
         0.28382E+08
        -0.10107E+07
        -0.12491E+08
         0.10206E+09
         0.20630E+09
         0.24390E+08
         0.91246E+06
        -0.77320E+08
         0.13485E+08
         0.11478E+09
         0.88582E+08
        -0.92234E+07
        -0.75741E+08
        -0.27945E+08
        -0.97470E+08
         0.75452E+07
        -0.99224E+08
         0.33749E+08
         0.74543E+08
         0.76938E+08
        -0.18537E+09
        -0.50525E+06
        -0.17578E+07
        -0.18180E+09
        -0.14773E+08
         0.86311E+08
         0.47941E+07
         0.53276E+08
         0.84520E+08
         0.27843E+08
         0.51108E+08
        -0.66418E+08
        -0.27521E+08
         0.96815E+07
         0.49563E+08
         0.98275E+08
        -0.41042E+08
        -0.12855E+09
        -0.14662E+09
         0.85828E+08
         0.10894E+09
         0.50218E+08
         0.10063E+09
         0.10133E+09
         0.10438E+09
         0.13091E+09
        -0.60840E+08
         0.25862E+08
        -0.52580E+08
        -0.93879E+08
        -0.12573E+09
        -0.40888E+08
        -0.69478E+07
         0.31936E+08
        -0.47883E+08
        -0.39995E+08
        -0.80366E+08
        -0.12544E+09
        -0.43459E+08
         0.83460E+08
        -0.71378E+08
         0.69620E+08
        -0.55172E+08
        -0.14051E+08
        -0.10928E+09
        -0.13401E+09
         0.10887E+09
        -0.16088E+09
        -0.29180E+08
        -0.12414E+09
        -0.11060E+09
         0.40170E+08
        -0.13508E+08
        -0.16085E+09
         0.85146E+08
        -0.20791E+08
         0.54973E+08
         0.45970E+08
         0.17199E+09
         0.12078E+09
         0.97721E+08
         0.18692E+09
         0.21579E+09
         0.10655E+09
         0.14453E+09
         0.14030E+08
        -0.10218E+09
         0.28648E+08
         0.22908E+08
         0.41987E+07
        -0.10200E+09
        -0.73968E+08
        -0.11502E+09
         0.83798E+07
        -0.43737E+08
        -0.27886E+07
        -0.28243E+08
         0.34715E+08
        -0.75257E+08
        -0.33994E+08
        -0.31915E+08
        -0.10781E+09
         0.15132E+08
        -0.57077E+07
        -0.55845E+08
        -0.43004E+08
         0.13757E+08
        -0.45236E+08
         0.30788E+08
        -0.12336E+09
        -0.59662E+08
        -0.27212E+08
         0.35454E+07
         0.48252E+08
        -0.12232E+07
        -0.11550E+09
        -0.56465E+08
         0.76451E+08
         0.54942E+08
         0.20958E+08
         0.59176E+08
         0.88709E+08
         0.88909E+08
         0.14186E+09
        -0.30052E+08
         0.48892E+08
        -0.19319E+07
        -0.14086E+08
        -0.70060E+07
         0.95437E+08
        -0.79751E+07
        -0.26719E+08
        -0.11708E+09
        -0.92350E+08
        -0.11349E+09
        -0.17284E+09
        -0.96833E+08
         0.55235E+08
        -0.84229E+08
         0.76790E+08
        -0.67153E+08
         0.78114E+08
        -0.36534E+08
        -0.13049E+09
         0.17105E+08
        -0.18303E+09
        -0.14105E+09
        -0.16323E+09
        -0.10926E+09
         0.15332E+08
         0.62590E+08
         0.34378E+08
         0.59145E+08
        -0.10479E+08
         0.35147E+08
         0.14835E+08
         0.15346E+09
         0.39907E+08
         0.77986E+08
         0.18495E+09
         0.20741E+09
         0.10669E+09
         0.88392E+08
        -0.91686E+08
        -0.15423E+08
         0.15476E+09
         0.72906E+08
         0.38939E+08
        -0.58340E+08
         0.26753E+08
        -0.80259E+08
         0.61622E+08
        -0.39976E+08
         0.71933E+08
         0.36824E+08
         0.56645E+08
        -0.16358E+09
         0.87043E+07
        -0.16346E+08
        -0.18298E+09
        -0.25577E+08
         0.38599E+08
        -0.27470E+08
         0.21875E+08
         0.70901E+08
        -0.35131E+07
         0.50681E+08
        -0.88985E+08
        -0.10241E+09
        -0.25550E+08
         0.27137E+08
         0.57196E+08
        -0.21574E+08
        -0.12918E+09
        -0.10078E+09
         0.85380E+08
         0.11549E+09
         0.80509E+08
         0.11385E+09
         0.13363E+09
         0.81213E+08
         0.11185E+09
        -0.25776E+08
         0.52785E+08
         0.85719E+07
        -0.46955E+08
        -0.82720E+08
         0.20616E+08
        -0.15942E+08
        -0.95417E+08
        -0.61119E+08
        -0.17747E+08
        -0.48229E+08
        -0.12953E+09
        -0.13971E+09
        -0.23494E+08
        -0.15699E+09
         0.73696E+08
        -0.80117E+08
         0.23842E+08
        -0.23739E+08
        -0.12859E+09
         0.10901E+09
        -0.49407E+08
        -0.78666E+08
        -0.41297E+08
         0.17547E+08
        -0.54200E+08
         0.40058E+07
        -0.17054E+09
         0.31336E+07
         0.40746E+08
         0.10015E+08
         0.51197E+08
         0.18061E+09
         0.10885E+09
         0.16606E+09
         0.16740E+09
         0.13671E+09
         0.72330E+08
         0.14899E+09
        -0.70438E+08
        -0.93612E+08
         0.46106E+08
         0.73522E+08
         0.41806E+08
        -0.10460E+09
        -0.14130E+08
        -0.12127E+09
         0.32030E+08
         0.16001E+08
         0.66406E+08
         0.14439E+08
         0.63574E+08
        -0.15249E+09
         0.65393E+07
        -0.24228E+06
        -0.13449E+09
         0.37165E+06
        -0.24702E+08
        -0.17011E+08
        -0.37548E+08
         0.21811E+08
        -0.41292E+08
         0.64810E+08
        -0.67363E+08
         0.63045E+07
         0.21879E+08
         0.24916E+08
         0.84630E+08
         0.14740E+08
        -0.11935E+09
        -0.69674E+08
         0.12997E+09
         0.70169E+08
         0.36930E+08
         0.23616E+08
         0.35881E+08
         0.43043E+08
         0.71573E+08
        -0.39401E+08
         0.73734E+08
        -0.19690E+07
        -0.68022E+08
        -0.97368E+08
         0.69405E+08
         0.64997E+08
         0.22135E+08
        -0.97087E+08
        -0.90847E+08
        -0.11949E+09
        -0.11982E+09
        -0.71268E+08
         0.34806E+08
        -0.10395E+09
         0.52132E+08
        -0.91467E+08
         0.33943E+07
        -0.75618E+08
        -0.13394E+09
         0.66583E+08
        -0.38993E+08
        -0.10082E+09
        -0.11540E+09
        -0.22615E+08
         0.69242E+07
         0.97041E+08
        -0.51127E+08
         0.59175E+08
        -0.26660E+08
        -0.32201E+07
        -0.36998E+08
         0.15407E+09
         0.68903E+08
         0.15059E+09
         0.17114E+09
         0.17278E+09
         0.14702E+09
         0.19524E+09
         0.17854E+08
        -0.51131E+08
         0.10726E+09
         0.29762E+08
         0.57325E+08
        -0.70664E+08
        -0.81472E+07
        -0.89114E+08
         0.16542E+07
         0.10263E+08
         0.14876E+08
         0.43521E+08
         0.93707E+08
        -0.10122E+09
         0.73234E+08
         0.22584E+08
        -0.11738E+09
         0.11953E+09
        -0.26616E+08
        -0.20697E+08
        -0.10502E+08
        -0.46157E+08
        -0.59426E+08
        -0.25001E+08
        -0.45703E+08
        -0.80328E+08
        -0.54085E+08
         0.88105E+08
         0.88413E+07
         0.49663E+08
        -0.72398E+08
        -0.34858E+08
         0.13900E+09
        -0.63646E+07
        -0.46436E+08
        -0.28699E+08
         0.17530E+07
         0.96729E+08
         0.14401E+09
         0.14206E+08
         0.11359E+09
         0.50913E+08
         0.32162E+08
        -0.35840E+08
         0.64958E+08
         0.77048E+08
        -0.47861E+08
        -0.11046E+09
        -0.91275E+08
        -0.14466E+09
        -0.14737E+09
        -0.12390E+09
        -0.45546E+08
        -0.16221E+09
        -0.34821E+07
        -0.76633E+07
         0.25259E+08
        -0.15493E+08
        -0.17313E+09
         0.16845E+06
        -0.41894E+08
         0.18975E+08
        -0.14757E+09
        -0.94202E+08
         0.19623E+08
         0.11871E+09
        -0.10566E+09
         0.80359E+08
         0.28299E+08
         0.48135E+08
         0.25612E+08
         0.17152E+09
         0.12893E+09
         0.16166E+09
         0.14321E+09
         0.17412E+09
         0.12820E+09
         0.17479E+09
        -0.67488E+08
        -0.18421E+08
         0.14553E+09
         0.67763E+08
         0.69665E+08
        -0.72034E+08
         0.21654E+08
        -0.94280E+08
         0.75064E+07
         0.49685E+08
         0.45702E+08
         0.44811E+07
         0.52646E+08
        -0.10643E+09
        -0.10774E+08
         0.65254E+08
        -0.83051E+08
         0.24894E+08
        -0.27558E+08
        -0.23506E+08
         0.18538E+08
        -0.77258E+07
        -0.52894E+08
        -0.26359E+08
        -0.13041E+09
        -0.40435E+08
        -0.45035E+08
         0.63536E+08
        -0.73222E+07
         0.35848E+07
        -0.31217E+08
         0.14616E+08
         0.11802E+09
        -0.32054E+08
        -0.85098E+08
        -0.70720E+07
         0.23008E+08
         0.45390E+08
         0.96446E+08
         0.33238E+08
         0.12465E+09
         0.79315E+08
         0.25499E+08
        -0.78884E+08
         0.33896E+08
        -0.18435E+08
        -0.22912E+08
        -0.14522E+09
        -0.79435E+08
        -0.14313E+09
        -0.15848E+09
        -0.10999E+09
        -0.15374E+08
        -0.12240E+09
         0.10687E+08
        -0.11246E+09
         0.47549E+06
        -0.55452E+08
        -0.12231E+09
         0.16116E+08
        -0.11379E+09
        -0.60729E+08
        -0.10840E+09
        -0.10131E+09
        -0.41413E+08
         0.58563E+08
        -0.12903E+09
        -0.32688E+08
        -0.17155E+08
        -0.85055E+07
         0.29250E+08
         0.14814E+09
         0.92194E+08
         0.16470E+09
         0.16346E+09
         0.15257E+09
         0.12557E+09
         0.15070E+09
        -0.14724E+08
        -0.70040E+08
         0.81285E+08
         0.36575E+08
         0.20189E+08
        -0.93185E+08
        -0.47062E+07
        -0.89169E+08
         0.61764E+07
         0.17825E+08
         0.61493E+08
         0.10483E+08
         0.32771E+08
        -0.12321E+09
         0.41599E+07
         0.41040E+08
        -0.87014E+08
        -0.15196E+08
        -0.25167E+08
        -0.96268E+07
         0.12534E+08
         0.65310E+08
        -0.33224E+08
         0.17901E+08
        -0.78313E+08
        -0.37724E+08
        -0.22509E+08
         0.70901E+08
        -0.21626E+07
         0.47277E+08
        -0.70409E+08
        -0.42862E+08
         0.12271E+09
        -0.18427E+08
        -0.45218E+08
        -0.33021E+08
        -0.17939E+08
         0.35795E+08
         0.80486E+08
         0.31081E+07
         0.11686E+09
         0.78543E+08
         0.34776E+08
        -0.51755E+08
         0.94848E+08
         0.66885E+08
        -0.27205E+08
        -0.12890E+09
        -0.64766E+08
        -0.87418E+08
        -0.10900E+09
        -0.10572E+09
        -0.46820E+08
        -0.12887E+09
        -0.37981E+08
        -0.91462E+08
         0.52005E+08
        -0.97336E+08
        -0.89579E+08
         0.28002E+08
        -0.75285E+08
        -0.62801E+08
        -0.85409E+08
        -0.13092E+09
        -0.24538E+08
         0.69459E+08
         0.22883E+08
         0.91362E+08
         0.79431E+07
         0.98150E+08
         0.23901E+08
         0.96903E+08
         0.52297E+08
         0.15234E+09
         0.16918E+09
         0.17782E+09
         0.12305E+09
         0.17744E+09
         0.15718E+08
         0.16851E+08
         0.11517E+09
        -0.11077E+09
         0.64350E+08
        -0.10605E+09
        -0.86437E+07
        -0.63878E+08
         0.68182E+08
         0.34973E+08
        -0.69688E+07
         0.12405E+09
        -0.29071E+08
         0.21192E+07
         0.36478E+08
        -0.30669E+08
        -0.95482E+08
         0.34552E+08
        -0.50420E+08
         0.61846E+08
         0.30866E+08
         0.15781E+08
        -0.71056E+08
        -0.30155E+08
        -0.10787E+09
        -0.14493E+09
        -0.55241E+08
         0.11901E+08
         0.13347E+08
        -0.64752E+08
        -0.12272E+09
        -0.10748E+09
         0.10272E+09
        -0.48434E+08
        -0.39846E+08
        -0.41935E+08
        -0.10483E+08
         0.90231E+08
         0.12919E+09
        -0.85585E+08
         0.42288E+08
         0.22011E+08
        -0.42118E+08
        -0.13536E+09
         0.87245E+07
        -0.43310E+07
        -0.73476E+08
        -0.93427E+08
        -0.10753E+09
        -0.12922E+09
        -0.12260E+09
        -0.14383E+09
        -0.11719E+09
        -0.15257E+09
         0.55129E+07
        -0.81803E+08
        -0.37446E+08
         0.35404E+08
        -0.17095E+09
        -0.37379E+07
         0.29593E+08
        -0.43553E+08
        -0.12349E+09
        -0.14024E+09
         0.96257E+08
         0.39240E+08
        -0.98955E+08
        -0.12538E+09
        -0.67850E+08
         0.20117E+07
         0.35764E+08
         0.11560E+09
        -0.18851E+07
        -0.52178E+08
         0.41968E+08
         0.12772E+09
         0.60057E+08
         0.13713E+09
         0.75290E+08
        -0.41387E+08
         0.46913E+08
  
SCALARS                      stress_xz  double 1
LOOKUP_TABLE default
        -0.11264E+09
        -0.83389E+08
        -0.65050E+07
        -0.18703E+09
        -0.40298E+08
        -0.50797E+08
         0.12894E+09
        -0.12200E+09
         0.31334E+08
         0.35013E+08
         0.14875E+09
         0.13123E+09
         0.29488E+07
        -0.84779E+08
        -0.85697E+08
        -0.68593E+08
         0.75940E+08
         0.18333E+08
        -0.10587E+07
         0.52782E+08
         0.58303E+06
        -0.14792E+08
         0.63782E+08
        -0.63200E+08
         0.31313E+08
         0.22872E+08
         0.33217E+08
        -0.17541E+08
         0.27347E+08
        -0.57833E+07
         0.11221E+08
        -0.15159E+09
         0.13194E+09
         0.13802E+09
        -0.47671E+08
         0.19223E+08
         0.78327E+08
         0.41173E+08
         0.16333E+08
         0.97791E+08
        -0.10772E+08
        -0.30245E+08
        -0.32594E+08
        -0.38636E+08
        -0.45194E+08
         0.54067E+08
        -0.35465E+08
        -0.13379E+09
         0.25633E+08
         0.32535E+08
        -0.12526E+07
        -0.69748E+08
         0.49959E+08
         0.51684E+08
         0.10285E+09
         0.83172E+08
        -0.60900E+08
        -0.40035E+08
        -0.84709E+07
         0.60132E+08
        -0.24520E+08
        -0.39039E+07
         0.27026E+07
        -0.89701E+07
        -0.38920E+08
        -0.74522E+08
        -0.82405E+08
         0.72036E+08
         0.98099E+08
        -0.19979E+08
         0.14238E+09
         0.38156E+07
        -0.14216E+08
         0.46644E+08
        -0.44798E+08
        -0.67549E+08
         0.35390E+07
        -0.41910E+08
         0.34317E+08
         0.60877E+08
        -0.50906E+08
        -0.84278E+08
         0.21629E+08
        -0.69187E+08
         0.19718E+08
         0.27099E+08
        -0.71363E+08
        -0.11554E+09
        -0.87382E+08
         0.10759E+09
         0.38691E+08
        -0.11195E+08
        -0.61828E+08
        -0.70609E+08
         0.41857E+08
         0.25688E+08
         0.82421E+08
         0.23911E+08
         0.49813E+08
        -0.19039E+08
         0.67006E+08
         0.13873E+09
        -0.15988E+08
         0.10185E+09
         0.28093E+08
         0.16149E+09
         0.72042E+08
        -0.40562E+08
         0.12236E+09
        -0.22219E+08
         0.59565E+08
         0.28380E+08
         0.69845E+07
         0.12897E+09
        -0.11764E+09
         0.84212E+08
         0.21587E+08
         0.31057E+08
         0.10692E+09
         0.84608E+07
        -0.40765E+08
        -0.48274E+08
         0.17114E+08
        -0.73958E+08
        -0.52017E+08
        -0.11112E+09
        -0.45069E+08
        -0.75901E+08
        -0.97927E+08
        -0.12528E+09
        -0.17569E+09
        -0.11592E+09
        -0.11710E+09
        -0.12679E+09
        -0.14312E+09
        -0.40957E+08
        -0.37120E+08
         0.22248E+08
        -0.36855E+08
         0.10372E+09
        -0.77815E+08
         0.91103E+07
        -0.31690E+08
        -0.29889E+08
        -0.93011E+07
         0.60797E+08
         0.35201E+08
        -0.22934E+08
         0.19392E+08
        -0.25792E+08
         0.52728E+08
         0.88147E+08
         0.17114E+08
         0.79550E+08
         0.55436E+08
        -0.13384E+09
        -0.84019E+08
         0.35440E+08
         0.12332E+09
        -0.67220E+08
         0.75029E+08
        -0.12035E+08
        -0.64511E+08
        -0.37614E+08
         0.14616E+08
         0.42489E+08
        -0.11561E+09
        -0.59832E+08
         0.10434E+09
         0.49440E+08
        -0.48689E+08
         0.57917E+08
         0.19346E+08
        -0.71312E+08
         0.10964E+09
         0.93244E+08
        -0.37216E+08
         0.47167E+07
        -0.70595E+08
         0.87957E+07
        -0.34240E+08
         0.95946E+07
         0.10306E+09
         0.54508E+08
         0.11419E+09
         0.12066E+09
         0.41123E+08
        -0.98484E+07
        -0.31241E+08
        -0.10341E+08
         0.10158E+09
         0.19734E+08
        -0.37923E+08
         0.20175E+08
        -0.25525E+08
         0.79914E+07
        -0.83348E+07
        -0.30814E+07
        -0.39880E+08
        -0.50303E+08
        -0.44846E+08
         0.46917E+07
        -0.30393E+08
         0.18471E+08
        -0.14394E+08
         0.14011E+08
        -0.72166E+08
         0.42500E+08
        -0.17870E+08
         0.14295E+08
         0.63158E+08
        -0.64808E+07
        -0.12905E+08
         0.48892E+08
         0.20456E+08
         0.68885E+07
        -0.36380E+08
         0.85139E+06
        -0.17465E+09
         0.10772E+08
        -0.36231E+08
        -0.70355E+08
        -0.85365E+08
        -0.65872E+08
         0.20459E+08
         0.12758E+08
        -0.33989E+08
         0.35359E+08
         0.37786E+08
        -0.71349E+08
         0.15042E+09
         0.56903E+08
         0.21398E+09
        -0.49780E+08
        -0.20472E+09
         0.74032E+08
        -0.42977E+07
         0.97549E+07
         0.50020E+08
         0.94190E+06
         0.23097E+08
        -0.82049E+08
        -0.43835E+08
         0.53052E+08
        -0.70670E+08
        -0.34374E+08
         0.74711E+08
         0.11279E+08
        -0.38457E+08
         0.42375E+08
        -0.23365E+08
        -0.59523E+08
         0.47796E+08
        -0.16941E+08
        -0.12246E+09
        -0.73724E+08
        -0.14854E+09
         0.32706E+07
         0.44046E+07
         0.38708E+08
         0.70720E+08
        -0.10820E+09
         0.43346E+07
         0.34205E+08
         0.47711E+08
        -0.46479E+07
         0.18854E+08
         0.44274E+08
         0.52635E+08
         0.33165E+08
         0.14396E+08
         0.80715E+08
        -0.96533E+08
        -0.47840E+08
         0.15976E+09
        -0.16973E+08
        -0.65155E+08
        -0.12250E+09
        -0.12325E+09
        -0.96793E+08
         0.11701E+08
         0.95204E+08
         0.13334E+08
        -0.69377E+07
        -0.69657E+08
        -0.24632E+08
         0.13391E+08
        -0.32261E+08
        -0.10402E+08
         0.60001E+08
        -0.11884E+09
        -0.51700E+08
         0.27016E+07
         0.84169E+08
         0.33380E+08
         0.19833E+08
        -0.20986E+08
        -0.76278E+08
         0.11556E+08
        -0.79380E+08
        -0.19297E+08
        -0.44270E+08
         0.47058E+06
         0.97926E+08
        -0.11398E+08
         0.89633E+08
         0.10290E+08
        -0.13223E+09
         0.13313E+09
        -0.83665E+08
         0.17987E+09
         0.14207E+08
        -0.72548E+08
         0.76224E+08
        -0.26381E+08
         0.59153E+08
         0.97889E+08
        -0.18382E+08
        -0.12820E+08
        -0.56753E+08
         0.93485E+08
         0.70732E+08
        -0.98833E+08
        -0.67039E+08
         0.25436E+08
        -0.67206E+08
        -0.54285E+08
        -0.28488E+08
        -0.47325E+08
         0.12996E+08
         0.23840E+08
        -0.18908E+08
         0.29775E+08
         0.35964E+08
        -0.56069E+08
         0.55281E+07
         0.19951E+08
         0.32742E+08
         0.50400E+08
         0.56003E+08
         0.11274E+09
         0.84967E+07
         0.30028E+08
         0.42984E+07
        -0.18716E+08
        -0.40747E+07
         0.10460E+08
        -0.48393E+08
        -0.15291E+08
         0.45513E+08
        -0.30915E+08
         0.33915E+08
         0.14074E+09
         0.17964E+08
        -0.60502E+08
         0.29036E+07
        -0.11785E+09
        -0.17201E+09
        -0.58983E+07
         0.34737E+08
        -0.10883E+07
         0.50646E+08
        -0.21167E+07
        -0.98874E+08
        -0.34095E+08
        -0.33379E+08
        -0.86367E+08
         0.83730E+08
        -0.61409E+06
         0.77131E+08
         0.33180E+08
         0.92576E+07
         0.25926E+08
        -0.18461E+08
        -0.57546E+08
         0.57452E+07
         0.63306E+07
        -0.11115E+09
        -0.10213E+09
         0.43708E+07
         0.58611E+08
         0.93324E+08
        -0.15723E+08
         0.13131E+09
        -0.14127E+08
        -0.81060E+08
         0.16858E+09
        -0.46004E+08
         0.11444E+09
        -0.22552E+08
        -0.53102E+08
         0.77830E+08
         0.16121E+07
         0.49376E+08
         0.12976E+09
        -0.30347E+08
        -0.11103E+08
        -0.39773E+08
         0.25520E+08
         0.31323E+08
        -0.79079E+08
         0.53667E+08
         0.12467E+09
        -0.73547E+08
        -0.77215E+08
        -0.82282E+07
         0.54954E+07
        -0.27331E+08
         0.33418E+08
        -0.47460E+08
        -0.58490E+08
        -0.12994E+08
        -0.93571E+08
        -0.41543E+08
        -0.96154E+08
         0.51371E+07
        -0.33647E+08
        -0.83593E+08
         0.31242E+07
        -0.35805E+08
         0.36892E+08
         0.17669E+08
        -0.11964E+08
        -0.19639E+08
         0.16205E+09
         0.34284E+08
        -0.26001E+08
         0.75826E+08
         0.10192E+08
        -0.64946E+07
         0.81513E+08
        -0.13982E+08
        -0.84556E+08
        -0.44522E+08
        -0.84131E+08
        -0.92046E+08
         0.30941E+08
         0.68848E+08
        -0.61339E+08
         0.15896E+08
         0.13870E+08
        -0.78130E+08
         0.37527E+08
        -0.89297E+08
        -0.61459E+08
         0.80986E+08
        -0.13914E+09
         0.33929E+08
        -0.20724E+08
         0.22107E+08
         0.67959E+07
        -0.30222E+08
        -0.39493E+08
        -0.22711E+08
        -0.73207E+08
         0.34456E+08
        -0.51675E+08
        -0.37211E+08
        -0.62349E+08
         0.12393E+09
         0.35033E+08
         0.13740E+09
        -0.15193E+08
        -0.13547E+09
         0.12311E+09
        -0.15171E+08
         0.18738E+09
        -0.97419E+08
        -0.38032E+08
         0.22808E+08
        -0.51070E+08
         0.69441E+08
         0.70569E+08
         0.21060E+08
        -0.45573E+08
        -0.15164E+08
         0.17589E+08
         0.32486E+08
        -0.43512E+08
         0.83237E+08
         0.26072E+08
        -0.65869E+07
        -0.35005E+08
        -0.68118E+08
        -0.70197E+08
         0.40729E+08
        -0.53786E+08
        -0.42535E+08
        -0.25125E+08
        -0.39114E+08
        -0.77074E+07
        -0.45692E+08
         0.10776E+08
        -0.39299E+08
         0.61369E+07
        -0.93450E+08
        -0.16902E+08
         0.11982E+08
        -0.29514E+07
        -0.51869E+08
         0.11031E+09
         0.78431E+08
         0.38105E+08
        -0.63090E+08
        -0.39056E+08
         0.38167E+06
         0.42677E+08
         0.24786E+08
         0.10434E+09
         0.35413E+08
        -0.92993E+08
         0.28446E+07
        -0.39947E+08
        -0.65861E+08
        -0.12860E+08
         0.30599E+08
         0.63127E+08
         0.12860E+08
        -0.56610E+08
        -0.10645E+09
        -0.11830E+09
         0.26598E+07
        -0.88533E+08
         0.82208E+08
         0.63423E+07
         0.43384E+08
        -0.32938E+08
         0.58587E+08
         0.23214E+08
         0.18980E+08
         0.23235E+08
         0.13421E+09
         0.17541E+08
         0.53823E+08
        -0.81207E+08
        -0.27590E+08
        -0.12081E+08
         0.95444E+08
        -0.22945E+08
         0.48282E+08
        -0.38389E+08
        -0.51325E+08
         0.12811E+09
        -0.15836E+09
        -0.45990E+08
        -0.41847E+08
         0.43510E+08
         0.11334E+09
        -0.82257E+07
         0.95518E+08
         0.70205E+08
        -0.17573E+08
        -0.59477E+08
        -0.34542E+08
         0.80208E+08
         0.10929E+08
        -0.14572E+09
        -0.25689E+08
         0.64863E+08
        -0.85543E+08
        -0.12771E+09
        -0.69508E+08
        -0.94975E+08
         0.66940E+08
        -0.14953E+08
         0.13981E+08
         0.81207E+07
         0.37567E+08
         0.67223E+08
        -0.63626E+08
        -0.10772E+09
        -0.63728E+08
         0.28546E+08
         0.18562E+08
        -0.23449E+07
         0.38294E+08
        -0.53965E+08
        -0.12913E+08
         0.97676E+07
         0.12005E+08
         0.77714E+08
         0.21866E+08
         0.15173E+09
         0.11669E+08
         0.10974E+09
        -0.40453E+07
         0.31398E+08
        -0.31826E+08
        -0.59745E+08
         0.10236E+09
         0.84619E+08
        -0.40960E+08
        -0.33232E+08
         0.45199E+08
        -0.83938E+08
        -0.95916E+08
        -0.30151E+08
        -0.10935E+09
        -0.12394E+09
         0.73520E+08
        -0.12123E+09
         0.58962E+08
        -0.16659E+09
         0.45744E+08
         0.53325E+08
        -0.37698E+07
        -0.13672E+09
         0.88597E+07
        -0.93501E+08
        -0.22080E+08
        -0.12287E+09
         0.11108E+09
        -0.10074E+09
        -0.43378E+08
        -0.78320E+08
         0.55698E+08
        -0.28696E+08
         0.15195E+09
         0.34781E+08
        -0.67617E+08
         0.10937E+09
         0.14044E+09
         0.68456E+08
         0.30634E+08
        -0.10286E+08
         0.58618E+08
         0.11282E+08
         0.56095E+08
        -0.39292E+08
        -0.63330E+08
        -0.68450E+08
         0.38298E+08
        -0.23686E+08
        -0.27483E+08
        -0.52604E+08
         0.79661E+08
         0.67065E+07
         0.15808E+08
        -0.44958E+08
        -0.51096E+08
        -0.53909E+08
         0.97463E+06
         0.18763E+08
         0.55294E+08
        -0.10965E+09
        -0.72895E+08
        -0.50641E+08
        -0.62494E+08
        -0.12547E+09
        -0.24517E+08
        -0.29275E+08
        -0.82823E+08
         0.49545E+07
         0.40772E+08
         0.10217E+08
        -0.28364E+07
         0.39947E+08
         0.47726E+08
        -0.29978E+08
         0.23357E+08
         0.84351E+08
         0.18119E+08
         0.10615E+09
         0.12282E+07
         0.46065E+08
         0.23144E+08
        -0.57565E+08
         0.67418E+08
         0.45330E+08
        -0.44734E+08
        -0.20542E+08
         0.68398E+08
        -0.33919E+08
        -0.62078E+08
        -0.84124E+08
        -0.86749E+08
        -0.15546E+09
        -0.11040E+09
        -0.14630E+09
         0.41484E+08
        -0.65422E+08
         0.51818E+07
        -0.79565E+08
         0.58207E+08
        -0.67728E+08
         0.41388E+08
        -0.16175E+08
         0.20423E+09
         0.13011E+08
         0.13283E+09
         0.64425E+08
        -0.52648E+08
        -0.18577E+08
         0.88719E+08
        -0.43484E+08
         0.58215E+08
        -0.47437E+08
        -0.52344E+08
         0.52690E+08
        -0.63023E+08
         0.46368E+08
        -0.35297E+08
         0.50703E+08
         0.38650E+08
        -0.43033E+07
         0.95043E+08
         0.33704E+08
         0.30543E+08
        -0.44187E+08
         0.96844E+08
         0.49037E+08
        -0.52550E+07
        -0.29845E+08
         0.77760E+08
        -0.16125E+08
         0.22312E+08
        -0.66247E+08
        -0.26387E+08
         0.74885E+07
         0.49236E+07
         0.17904E+08
         0.42563E+08
        -0.96062E+08
        -0.10461E+09
        -0.37290E+07
        -0.41364E+08
        -0.17207E+09
        -0.28409E+08
        -0.37061E+08
        -0.85476E+08
         0.15740E+07
         0.78644E+08
        -0.36575E+08
        -0.51790E+08
         0.81193E+08
         0.11728E+09
         0.83944E+08
         0.10009E+09
         0.72677E+08
        -0.37642E+08
         0.10078E+09
         0.38344E+08
         0.28901E+08
         0.43938E+08
         0.83321E+07
         0.56470E+06
        -0.34512E+07
        -0.75571E+08
        -0.48573E+08
         0.28709E+08
         0.13851E+08
        -0.21463E+08
        -0.61307E+08
        -0.30389E+08
        -0.48159E+08
        -0.53657E+08
        -0.11899E+09
        -0.16284E+08
        -0.16102E+09
         0.73704E+08
         0.10036E+08
         0.65976E+08
        -0.16038E+09
        -0.55317E+08
        -0.96965E+08
        -0.13767E+09
        -0.30352E+08
         0.15201E+09
         0.39966E+08
        -0.59594E+08
         0.13919E+08
         0.92442E+08
         0.70757E+08
         0.60498E+08
        -0.12075E+09
        -0.85528E+08
         0.60083E+08
         0.24118E+08
         0.41495E+08
        -0.85518E+07
         0.61820E+08
        -0.23184E+08
        -0.81674E+08
         0.71562E+08
        -0.59801E+07
        -0.34669E+08
        -0.53410E+08
         0.13648E+09
         0.33474E+08
        -0.23341E+08
        -0.41225E+08
         0.55391E+08
        -0.29213E+08
         0.15713E+07
        -0.12408E+09
        -0.44541E+08
        -0.12593E+09
         0.21798E+08
         0.18636E+08
        -0.39918E+08
        -0.77400E+08
        -0.64460E+08
         0.35503E+08
         0.81068E+07
        -0.19598E+09
        -0.58650E+08
        -0.52596E+08
        -0.33520E+08
         0.35147E+08
         0.69650E+08
        -0.28948E+08
        -0.68611E+08
         0.35551E+08
         0.74350E+08
         0.96883E+08
         0.63894E+08
         0.28203E+08
        -0.57380E+08
         0.13459E+09
         0.25714E+08
         0.45940E+08
         0.37333E+08
         0.11259E+08
         0.42302E+08
         0.23943E+08
        -0.82723E+08
        -0.23450E+08
         0.45124E+08
        -0.60089E+08
        -0.70615E+08
        -0.94078E+08
        -0.55545E+08
        -0.16641E+09
        -0.17133E+09
        -0.17888E+09
         0.85899E+08
        -0.92179E+08
         0.29445E+08
        -0.95024E+06
         0.64036E+08
         0.77016E+07
        -0.14968E+07
         0.11106E+09
        -0.32887E+08
         0.10864E+09
         0.13019E+09
         0.88462E+08
        -0.17211E+07
        -0.41998E+08
         0.93104E+08
        -0.81253E+08
         0.14003E+09
        -0.54295E+08
        -0.83846E+08
         0.54918E+08
        -0.50251E+08
         0.11979E+09
        -0.99305E+08
         0.10101E+09
         0.36816E+08
         0.10007E+08
         0.61085E+08
         0.69961E+08
        -0.54389E+08
        -0.38781E+08
         0.14131E+09
         0.54613E+08
         0.11411E+08
        -0.21274E+08
         0.62976E+08
        -0.45167E+08
         0.28772E+08
        -0.68759E+08
        -0.42897E+08
        -0.45067E+08
         0.43301E+07
        -0.27506E+08
         0.44021E+06
        -0.14568E+09
        -0.12271E+09
        -0.93860E+07
        -0.88649E+07
        -0.13861E+09
        -0.46161E+08
        -0.25519E+08
        -0.62226E+08
        -0.37325E+08
         0.94957E+08
        -0.30012E+08
        -0.90067E+08
         0.69609E+08
         0.70033E+08
         0.17018E+09
         0.13489E+09
         0.52493E+08
        -0.23419E+07
         0.89268E+08
        -0.90923E+08
        -0.41682E+08
        -0.25129E+08
        -0.21297E+08
         0.22773E+08
        -0.42354E+07
        -0.12508E+09
        -0.73607E+08
         0.75435E+08
         0.75314E+08
         0.38655E+08
        -0.98708E+08
        -0.91953E+08
        -0.67166E+08
        -0.95203E+08
        -0.19071E+09
        -0.53885E+08
        -0.37714E+08
         0.58340E+08
        -0.67857E+08
         0.10710E+09
        -0.43558E+08
        -0.81283E+08
         0.41805E+07
        -0.16489E+08
         0.49728E+08
         0.20740E+09
         0.98044E+08
        -0.28945E+07
         0.76222E+08
         0.20438E+09
         0.46075E+07
         0.39433E+08
        -0.93065E+08
        -0.10445E+09
         0.17960E+08
        -0.58881E+07
         0.11749E+09
        -0.51382E+08
         0.45585E+08
         0.25070E+08
        -0.62099E+07
         0.36733E+08
         0.92886E+08
         0.33268E+07
        -0.16184E+08
         0.11105E+09
         0.94843E+07
        -0.57412E+08
         0.66042E+07
         0.10410E+09
        -0.31810E+08
        -0.51216E+08
        -0.13543E+09
        -0.16429E+08
        -0.44553E+08
        -0.53294E+08
         0.57243E+08
        -0.79425E+07
        -0.13151E+09
        -0.16076E+09
         0.22084E+08
         0.20686E+08
        -0.15281E+09
        -0.25994E+08
        -0.10909E+09
        -0.17177E+08
         0.44788E+08
         0.89546E+08
        -0.28661E+08
        -0.10862E+09
         0.38179E+08
         0.21789E+08
         0.14385E+09
         0.11679E+09
         0.30342E+08
        -0.71858E+08
         0.13260E+09
         0.14135E+07
         0.75095E+08
         0.82920E+08
        -0.25020E+08
        -0.48536E+06
        -0.63693E+08
        -0.16586E+09
        -0.10059E+09
         0.55428E+08
         0.48463E+08
         0.67490E+05
        -0.11320E+09
        -0.81066E+08
        -0.18424E+09
        -0.31912E+08
        -0.17283E+09
         0.69715E+08
        -0.16479E+09
         0.11637E+08
        -0.43589E+08
         0.98999E+08
        -0.34687E+08
        -0.14541E+09
         0.55559E+08
         0.32538E+08
        -0.23688E+08
         0.20070E+09
         0.16103E+09
         0.81757E+08
        -0.79152E+08
         0.52796E+07
         0.18074E+08
         0.72158E+08
        -0.76956E+08
        -0.12242E+09
         0.10263E+08
        -0.11257E+09
         0.11963E+09
         0.16528E+08
         0.63222E+08
        -0.51976E+08
        -0.78923E+08
         0.81708E+08
         0.87158E+08
        -0.36146E+08
        -0.64096E+08
         0.14746E+09
         0.62166E+08
        -0.12348E+08
         0.63719E+07
         0.84615E+08
        -0.47448E+08
         0.43667E+07
        -0.11954E+09
        -0.75125E+08
        -0.12801E+09
         0.33657E+08
         0.13484E+08
         0.25646E+08
        -0.86863E+08
        -0.51858E+08
        -0.56299E+08
        -0.57935E+08
        -0.20581E+09
        -0.74297E+08
        -0.29889E+08
        -0.10829E+08
         0.35980E+08
         0.11682E+09
        -0.30529E+08
        -0.66811E+08
         0.95053E+08
         0.82967E+08
         0.15190E+09
         0.80514E+08
         0.17143E+08
        -0.12859E+08
         0.14769E+09
        -0.42383E+08
         0.26487E+08
         0.58492E+07
        -0.27053E+08
        -0.20343E+08
         0.32888E+08
        -0.69063E+08
        -0.34421E+08
         0.40713E+08
         0.19207E+08
         0.30939E+08
        -0.10592E+09
        -0.11402E+09
        -0.12050E+09
        -0.88142E+08
        -0.19002E+09
         0.27458E+08
        -0.17234E+09
        -0.34734E+05
        -0.81069E+08
         0.63577E+08
        -0.59811E+07
        -0.77738E+08
         0.35476E+08
        -0.11990E+08
        -0.32388E+08
         0.14938E+09
         0.37618E+08
         0.37657E+08
        -0.16037E+08
         0.22641E+09
         0.82941E+08
         0.93787E+08
        -0.21784E+08
        -0.12773E+09
         0.26225E+08
        -0.97834E+07
         0.15995E+09
        -0.78183E+08
         0.29697E+08
        -0.37893E+08
        -0.60198E+08
         0.36435E+08
         0.70376E+08
        -0.53892E+08
        -0.80981E+08
         0.12298E+09
        -0.10864E+07
        -0.10300E+08
         0.16783E+08
         0.10392E+09
        -0.39227E+08
         0.32920E+08
        -0.12184E+09
        -0.17757E+08
        -0.82825E+08
         0.34357E+08
         0.54145E+08
         0.58631E+08
        -0.48562E+08
        -0.80368E+08
         0.13006E+08
        -0.91397E+07
        -0.14083E+09
        -0.34392E+08
        -0.31079E+08
        -0.10796E+08
         0.36180E+08
         0.14506E+09
        -0.69529E+07
        -0.35111E+08
         0.41958E+08
         0.13187E+07
         0.14758E+09
         0.10637E+09
         0.63930E+08
        -0.42906E+08
         0.15329E+09
        -0.57495E+08
         0.14710E+08
         0.28804E+08
        -0.36686E+08
        -0.25341E+08
        -0.14084E+08
        -0.62612E+08
        -0.24420E+07
         0.49487E+08
         0.16157E+08
         0.39876E+08
        -0.93204E+08
        -0.13738E+09
        -0.12881E+09
        -0.14348E+08
        -0.11000E+09
         0.83777E+08
        -0.13868E+09
        -0.19497E+08
        -0.91957E+07
         0.76724E+08
        -0.25719E+08
        -0.81477E+08
         0.39915E+08
         0.57708E+08
         0.44322E+08
         0.14356E+09
         0.56286E+08
         0.14837E+09
        -0.58309E+08
         0.58634E+07
        -0.29195E+08
        -0.48864E+07
        -0.89954E+08
        -0.82817E+08
         0.55402E+08
        -0.12070E+09
         0.13333E+09
        -0.13390E+07
         0.13828E+08
        -0.10688E+09
        -0.89363E+08
         0.69112E+08
         0.63671E+08
        -0.10194E+09
        -0.99428E+08
         0.82465E+08
         0.13096E+08
        -0.47838E+08
         0.58938E+07
         0.13751E+09
        -0.10555E+09
         0.12583E+08
        -0.90164E+08
        -0.71193E+08
        -0.16712E+09
         0.34705E+08
         0.88236E+08
         0.59965E+08
        -0.27832E+08
        -0.59307E+08
         0.46375E+07
         0.63345E+08
        -0.17933E+09
         0.22566E+08
        -0.58408E+08
         0.11311E+08
         0.66539E+08
         0.11488E+09
        -0.20541E+08
        -0.82566E+08
         0.74422E+08
         0.11850E+08
         0.12306E+09
         0.82340E+08
         0.82463E+07
        -0.75402E+08
         0.16319E+09
         0.20741E+08
         0.78827E+08
         0.53647E+08
        -0.20419E+08
        -0.18574E+08
        -0.43406E+08
        -0.10628E+09
        -0.54786E+08
         0.66976E+08
         0.57115E+08
         0.38520E+08
        -0.12344E+09
        -0.14222E+09
        -0.19787E+09
        -0.14689E+09
        -0.13412E+09
         0.11878E+09
        -0.17132E+09
        -0.35587E+08
        -0.29484E+08
         0.65367E+08
        -0.53640E+08
        -0.33270E+08
         0.15633E+08
         0.60746E+08
         0.13140E+09
         0.10182E+09
         0.39581E+07
         0.18969E+08
        -0.52933E+08
         0.11100E+09
         0.67066E+08
         0.10060E+09
        -0.65807E+08
        -0.59877E+08
         0.18714E+08
        -0.39729E+08
         0.21485E+09
        -0.11349E+07
         0.26802E+08
        -0.70591E+08
        -0.99031E+08
         0.27934E+08
         0.33757E+08
        -0.99883E+08
        -0.20363E+08
         0.11992E+09
         0.42082E+08
         0.57165E+08
         0.43907E+08
         0.13125E+09
        -0.35156E+08
         0.20526E+08
        -0.11458E+09
        -0.15562E+08
        -0.97979E+08
         0.87130E+07
         0.10049E+09
         0.73298E+08
        -0.52176E+08
        -0.58704E+08
        -0.22891E+08
         0.42641E+08
        -0.13094E+09
         0.64634E+08
        -0.11723E+08
         0.23772E+08
         0.54825E+08
         0.10725E+09
        -0.57641E+08
        -0.42377E+08
        -0.93590E+06
         0.20818E+08
         0.13151E+09
         0.86597E+08
         0.58628E+08
        -0.48915E+08
         0.15362E+09
        -0.43082E+08
         0.31377E+08
        -0.10118E+08
        -0.66828E+08
         0.22352E+08
        -0.94285E+07
        -0.13378E+09
        -0.52706E+08
         0.14138E+08
         0.58755E+07
         0.10726E+09
        -0.74579E+08
        -0.13732E+09
        -0.11059E+09
        -0.51396E+08
        -0.19268E+09
        -0.10003E+08
        -0.14696E+09
        -0.33683E+08
         0.35661E+08
         0.97004E+08
         0.30766E+07
         0.69332E+06
        -0.98959E+08
        -0.38610E+08
         0.34008E+08
         0.21312E+09
         0.12631E+08
         0.26568E+08
        -0.20228E+08
         0.12623E+09
        -0.27804E+08
         0.55605E+08
        -0.42880E+08
        -0.12150E+09
         0.42800E+08
        -0.62002E+08
         0.15658E+09
         0.19890E+08
        -0.61507E+08
        -0.11678E+09
        -0.69186E+08
         0.57452E+08
         0.70536E+08
        -0.52271E+08
        -0.97833E+08
         0.47991E+08
         0.11450E+08
         0.22481E+07
         0.17701E+08
         0.11017E+09
        -0.66154E+08
         0.16934E+08
        -0.12112E+09
        -0.33627E+07
        -0.52438E+08
        -0.14233E+08
         0.12593E+09
         0.13703E+09
        -0.19958E+08
        -0.73837E+08
         0.15569E+08
         0.83122E+08
        -0.11145E+09
         0.99147E+08
        -0.26000E+08
        -0.10601E+07
         0.84383E+08
         0.16231E+09
        -0.46877E+08
        -0.33831E+07
        -0.81319E+07
         0.10559E+08
         0.11365E+09
         0.97905E+08
         0.78708E+08
        -0.67707E+08
         0.13880E+09
        -0.16683E+08
         0.12506E+09
         0.13503E+09
         0.45613E+07
        -0.66849E+07
        -0.62433E+07
        -0.45590E+08
         0.42276E+08
         0.53203E+08
         0.90668E+07
         0.70303E+08
        -0.13847E+09
        -0.15744E+09
        -0.21129E+09
        -0.13234E+09
        -0.19190E+09
         0.44129E+08
        -0.14886E+09
        -0.38735E+08
        -0.75119E+08
         0.77215E+08
        -0.74332E+07
         0.29807E+08
        -0.34035E+08
         0.65316E+08
         0.97636E+08
         0.15116E+09
         0.13237E+09
         0.17823E+09
        -0.37894E+08
         0.59892E+08
        -0.28364E+07
         0.10074E+09
         0.16237E+08
        -0.94328E+08
         0.18754E+07
        -0.15297E+09
         0.17429E+09
        -0.57191E+08
        -0.32894E+08
        -0.12690E+09
        -0.93840E+08
         0.55388E+08
        -0.60395E+06
        -0.99518E+08
        -0.48976E+08
         0.38620E+08
         0.48839E+08
         0.24893E+08
         0.63598E+08
         0.12722E+09
        -0.11092E+09
         0.43385E+08
        -0.87827E+06
        -0.26305E+08
        -0.39432E+08
         0.11465E+08
         0.11971E+09
         0.99064E+08
         0.55812E+07
        -0.90918E+08
        -0.68288E+07
         0.47741E+08
        -0.70611E+08
         0.23789E+08
         0.14545E+08
        -0.32235E+08
         0.26520E+08
         0.10643E+09
        -0.80298E+08
        -0.88625E+08
         0.19181E+06
         0.45197E+08
         0.11228E+09
         0.10493E+09
         0.52645E+08
         0.16494E+08
         0.11149E+09
        -0.10883E+09
         0.49959E+08
         0.36446E+08
        -0.77877E+08
        -0.66198E+08
        -0.69755E+08
        -0.11293E+09
        -0.13418E+08
         0.56241E+08
         0.31009E+08
         0.10267E+09
        -0.11801E+09
        -0.14664E+09
        -0.16642E+09
        -0.19192E+09
        -0.12918E+09
         0.32033E+08
        -0.14998E+09
        -0.69817E+08
         0.15398E+08
         0.12752E+09
        -0.77434E+08
         0.10159E+08
         0.22474E+07
         0.65379E+08
         0.17656E+09
         0.13327E+09
         0.73401E+08
         0.10573E+09
         0.32648E+08
         0.19413E+09
         0.25449E+08
         0.14155E+08
        -0.74891E+07
        -0.10203E+09
        -0.52056E+07
        -0.90285E+08
         0.20758E+09
        -0.87178E+08
        -0.24777E+07
        -0.47544E+08
        -0.73085E+08
         0.41167E+08
         0.55297E+08
        -0.62079E+08
        -0.49937E+08
         0.58665E+08
         0.83356E+08
         0.38097E+08
         0.24664E+08
         0.14840E+09
         0.42223E+07
         0.19045E+08
        -0.10444E+09
        -0.10905E+08
        -0.63932E+08
         0.18710E+08
         0.10270E+09
         0.13133E+09
         0.49840E+08
        -0.60455E+07
        -0.22497E+08
         0.50209E+08
        -0.41036E+08
         0.83518E+08
         0.83887E+07
         0.29638E+08
         0.30125E+08
         0.13166E+09
        -0.37911E+08
        -0.24707E+08
        -0.22837E+08
         0.35999E+07
         0.12994E+09
         0.10550E+09
         0.12382E+09
        -0.20057E+08
         0.13989E+09
        -0.78217E+08
         0.76151E+08
         0.18685E+08
        -0.51930E+08
        -0.50461E+08
        -0.17758E+08
        -0.82683E+08
        -0.16153E+07
         0.23476E+08
         0.30212E+08
         0.14129E+09
        -0.53465E+08
        -0.12964E+09
        -0.14176E+09
        -0.62590E+08
        -0.17535E+09
         0.27367E+08
        -0.10239E+09
        -0.54118E+08
         0.25573E+08
         0.88143E+08
        -0.24791E+08
         0.54526E+08
         0.46684E+08
         0.68528E+08
         0.30088E+08
         0.12167E+09
         0.54323E+08
         0.74118E+08
         0.39480E+08
         0.17016E+09
         0.30115E+08
         0.62093E+08
         0.20339E+08
        -0.10839E+09
         0.44927E+08
        -0.14012E+09
         0.86705E+08
        -0.12259E+08
        -0.26590E+08
        -0.28517E+08
        -0.84942E+06
         0.12260E+09
         0.38295E+08
        -0.52215E+08
        -0.86597E+08
         0.37245E+08
         0.67058E+08
        -0.26277E+08
         0.66171E+08
         0.16379E+09
        -0.80847E+08
         0.61787E+08
        -0.94907E+08
         0.19042E+08
        -0.12312E+09
         0.15868E+08
        -0.52835E+07
         0.11126E+08
         0.41366E+08
        -0.54723E+08
         0.95027E+07
        -0.12095E+08
        -0.12817E+09
         0.45532E+08
        -0.38586E+08
        -0.76769E+08
         0.89269E+05
         0.11434E+09
        -0.62324E+07
        -0.51409E+07
        -0.30953E+07
         0.40041E+08
         0.63152E+08
         0.71180E+08
         0.59720E+08
        -0.70898E+08
         0.95503E+08
        -0.89495E+08
         0.89493E+08
         0.40046E+08
        -0.53287E+08
        -0.39083E+08
        -0.35549E+08
        -0.73607E+08
         0.32483E+08
         0.48587E+08
         0.22252E+08
         0.10438E+09
        -0.12287E+09
        -0.16453E+09
        -0.16522E+09
        -0.14833E+09
        -0.17755E+09
         0.13180E+08
        -0.12358E+09
        -0.79111E+08
        -0.25657E+08
         0.63035E+08
        -0.80751E+08
         0.45390E+07
        -0.45129E+07
         0.97387E+08
         0.14979E+09
         0.12052E+09
         0.54271E+08
         0.78059E+08
         0.37735E+08
         0.15264E+09
         0.51396E+08
         0.51466E+08
        -0.18337E+07
        -0.92058E+08
         0.45448E+07
        -0.12814E+09
         0.10339E+09
        -0.97621E+08
        -0.20281E+08
         0.23542E+08
         0.63407E+08
         0.13308E+09
         0.11421E+09
         0.74393E+08
        -0.50299E+08
         0.47222E+08
         0.89449E+08
         0.41501E+07
         0.63355E+08
         0.14126E+09
        -0.15696E+08
         0.68868E+08
        -0.56758E+08
         0.20564E+08
        -0.98623E+08
         0.14211E+08
        -0.78286E+07
        -0.12782E+07
        -0.63547E+08
        -0.14048E+09
        -0.22457E+08
        -0.92578E+07
        -0.61655E+08
         0.90814E+07
        -0.14641E+08
        -0.32307E+07
         0.37592E+08
         0.74097E+08
        -0.26534E+08
        -0.46653E+08
        -0.21805E+07
         0.12013E+09
         0.13713E+09
         0.10100E+09
         0.92643E+08
        -0.14441E+08
         0.14581E+09
        -0.74573E+08
        -0.17310E+08
        -0.80664E+08
        -0.12730E+09
        -0.75963E+08
        -0.83785E+08
        -0.11483E+09
        -0.25823E+08
        -0.20767E+07
         0.37769E+08
         0.13660E+09
         0.14026E+08
        -0.13794E+08
        -0.61389E+08
        -0.13905E+09
        -0.12904E+09
        -0.12856E+08
        -0.18046E+09
        -0.88484E+07
         0.13372E+07
         0.67387E+08
         0.84109E+06
        -0.10790E+08
        -0.99840E+08
         0.31983E+08
         0.16687E+09
         0.14899E+09
         0.43050E+08
         0.11639E+09
         0.63151E+08
         0.13496E+09
         0.14438E+08
         0.51611E+08
        -0.43949E+07
        -0.11746E+09
         0.45818E+07
        -0.10202E+09
         0.82176E+08
        -0.95605E+08
        -0.20363E+08
         0.43963E+08
         0.61623E+08
         0.96230E+08
         0.76541E+08
         0.19401E+08
        -0.67934E+08
         0.61905E+08
         0.97046E+08
        -0.64998E+07
         0.22954E+08
         0.16270E+09
        -0.29045E+08
         0.12833E+09
        -0.53922E+08
         0.56382E+07
        -0.60469E+08
        -0.28924E+08
        -0.52549E+08
        -0.72069E+07
        -0.59990E+08
        -0.10379E+09
        -0.91612E+08
        -0.83818E+08
        -0.80493E+08
        -0.33914E+08
        -0.41703E+08
        -0.65620E+08
         0.93766E+06
         0.12327E+09
        -0.33121E+08
        -0.48774E+08
        -0.49855E+08
         0.85677E+08
         0.10949E+09
         0.11535E+09
         0.14264E+09
        -0.45738E+08
         0.73797E+08
        -0.10104E+09
         0.10538E+09
        -0.12008E+08
        -0.85821E+08
        -0.13099E+09
        -0.49774E+08
        -0.91913E+08
        -0.26912E+08
         0.48892E+08
         0.82391E+08
         0.15871E+09
        -0.68764E+08
        -0.89938E+08
        -0.13197E+09
        -0.17044E+09
        -0.17541E+09
        -0.10202E+08
        -0.15191E+09
        -0.59999E+08
         0.49947E+07
         0.94797E+08
        -0.68575E+08
        -0.23831E+06
         0.58275E+08
         0.52639E+08
         0.11126E+09
         0.12199E+09
         0.14953E+09
         0.16165E+09
         0.90364E+08
         0.13874E+09
        -0.26710E+07
         0.29948E+08
        -0.43385E+08
        -0.96777E+08
        -0.44355E+08
        -0.15410E+09
         0.14808E+08
        -0.13244E+09
        -0.40300E+08
        -0.31285E+08
        -0.27904E+08
         0.82687E+08
         0.54241E+08
         0.67416E+08
        -0.99088E+08
         0.47196E+08
         0.61065E+08
        -0.15119E+08
        -0.12178E+08
         0.11968E+09
        -0.44709E+08
         0.66463E+08
        -0.98328E+08
        -0.12770E+08
        -0.63648E+08
         0.21233E+08
        -0.38711E+08
         0.98287E+07
        -0.39460E+08
        -0.59736E+08
        -0.43478E+08
        -0.87706E+08
        -0.10489E+09
        -0.30430E+08
        -0.57981E+08
        -0.48351E+08
         0.52376E+08
         0.93170E+08
         0.68576E+07
         0.78319E+07
        -0.22817E+08
         0.84303E+08
         0.94110E+08
         0.77556E+08
         0.82281E+08
        -0.10061E+09
         0.84336E+08
        -0.58168E+08
         0.56266E+08
        -0.29549E+08
        -0.90598E+08
        -0.10402E+09
        -0.15808E+08
        -0.66751E+08
        -0.23446E+08
         0.23648E+08
         0.50563E+08
         0.11581E+09
        -0.12049E+08
         0.21597E+08
        -0.15181E+09
        -0.15556E+09
        -0.12722E+09
         0.19691E+08
        -0.14296E+09
        -0.95998E+08
        -0.28668E+08
         0.14147E+09
        -0.21486E+08
         0.85602E+08
        -0.24917E+08
         0.30628E+08
         0.72253E+08
         0.13490E+09
         0.56549E+08
         0.86896E+08
         0.55396E+08
         0.10509E+09
         0.35236E+08
         0.49356E+08
        -0.13713E+08
        -0.10889E+09
        -0.13402E+08
        -0.14318E+09
         0.73150E+08
        -0.10486E+09
        -0.87030E+08
        -0.20427E+08
        -0.63382E+07
         0.10684E+09
         0.47203E+08
         0.48861E+08
         0.12558E+08
         0.38528E+08
         0.80646E+07
        -0.50733E+08
         0.13078E+09
         0.12813E+09
        -0.65806E+08
         0.13303E+09
        -0.23550E+08
        -0.64486E+08
        -0.91544E+08
         0.10648E+09
        -0.33815E+08
         0.13859E+08
         0.31511E+08
        -0.12648E+09
         0.47939E+07
        -0.48732E+08
         0.38198E+08
         0.18432E+08
         0.45152E+07
         0.45977E+08
        -0.43275E+08
         0.72287E+08
         0.90282E+07
        -0.10580E+08
         0.31841E+08
         0.29322E+08
         0.57966E+08
         0.42850E+08
         0.70064E+08
         0.14736E+08
         0.16164E+09
        -0.17147E+09
         0.36292E+08
         0.25905E+08
        -0.13282E+09
        -0.92294E+08
        -0.10742E+09
        -0.10933E+09
         0.81128E+07
         0.19399E+08
         0.30253E+08
         0.10574E+09
        -0.58787E+08
        -0.61781E+08
         0.81007E+08
        -0.57668E+08
        -0.13322E+09
        -0.54599E+07
        -0.47645E+08
        -0.11159E+09
         0.26521E+07
         0.22575E+08
        -0.84969E+08
        -0.45248E+07
        -0.26776E+08
         0.70699E+08
         0.36905E+08
         0.18779E+09
        -0.72068E+08
         0.86147E+08
         0.66285E+08
        -0.13325E+08
         0.33387E+08
         0.80147E+08
        -0.17875E+08
        -0.90831E+08
        -0.68723E+07
        -0.10438E+09
         0.47984E+08
        -0.13199E+09
  
SCALARS                      stress_xy  double 1
LOOKUP_TABLE default
         0.12047E+07
         0.10217E+09
         0.28654E+08
        -0.76096E+07
         0.72647E+08
         0.75845E+08
         0.47050E+08
        -0.12971E+08
         0.29626E+08
        -0.75747E+08
         0.39626E+08
        -0.14490E+08
         0.11632E+09
         0.37363E+08
         0.10779E+09
         0.72978E+08
        -0.15894E+08
         0.10873E+08
        -0.52733E+07
        -0.11564E+08
         0.92243E+08
         0.96273E+08
         0.94684E+08
         0.90557E+08
         0.27085E+08
         0.55640E+08
         0.38504E+08
         0.22027E+08
         0.37109E+08
         0.39406E+08
        -0.39134E+08
         0.83930E+07
         0.41871E+08
         0.23551E+08
        -0.34942E+08
         0.22781E+08
         0.31975E+08
        -0.40485E+08
         0.45884E+08
        -0.26417E+08
         0.37744E+08
        -0.18492E+08
         0.26948E+08
        -0.11668E+08
         0.12559E+09
         0.94659E+08
         0.11379E+09
         0.99013E+08
        -0.73045E+08
        -0.14319E+09
         0.93359E+08
         0.11237E+09
        -0.75186E+08
        -0.31653E+08
        -0.83677E+08
        -0.84826E+08
        -0.60849E+08
        -0.54488E+08
        -0.72518E+08
        -0.83594E+08
         0.70397E+08
         0.93638E+08
         0.50764E+08
         0.35019E+08
        -0.20243E+08
        -0.44927E+08
        -0.38928E+08
        -0.11428E+09
         0.50085E+08
         0.61587E+08
         0.10168E+09
         0.12137E+09
         0.11187E+09
         0.11134E+09
        -0.40502E+08
        -0.96450E+07
        -0.69091E+08
        -0.67586E+08
        -0.90706E+08
        -0.43811E+08
        -0.10012E+09
        -0.86393E+08
        -0.69240E+08
        -0.11684E+09
        -0.99228E+08
        -0.14826E+09
         0.63785E+08
         0.58717E+08
         0.10801E+09
         0.96734E+08
        -0.58022E+08
        -0.34252E+08
         0.48256E+08
         0.10779E+08
        -0.15065E+08
        -0.22090E+08
        -0.13506E+09
        -0.91142E+08
        -0.11085E+09
        -0.14070E+09
        -0.12502E+09
        -0.86253E+08
        -0.13335E+09
        -0.71135E+08
         0.68679E+08
         0.48309E+08
         0.75066E+08
         0.41891E+08
         0.53347E+08
         0.15382E+09
         0.10044E+09
         0.79055E+08
        -0.61170E+08
         0.17758E+08
        -0.34477E+08
         0.77358E+07
         0.14370E+08
         0.11955E+08
        -0.19859E+08
         0.10124E+08
        -0.49218E+08
        -0.43925E+08
        -0.16114E+09
        -0.52877E+08
        -0.41231E+08
        -0.89632E+08
        -0.10161E+09
        -0.80709E+08
        -0.92625E+08
        -0.99943E+08
         0.23526E+08
        -0.49730E+08
        -0.67133E+08
        -0.24587E+08
         0.80888E+08
         0.70183E+08
         0.15395E+08
        -0.13019E+08
         0.82981E+08
         0.83896E+08
         0.71529E+08
         0.40193E+08
         0.18251E+08
         0.45624E+08
         0.42289E+08
         0.65317E+07
        -0.26945E+08
        -0.10112E+09
        -0.81974E+08
        -0.98852E+08
         0.28432E+08
        -0.11770E+09
        -0.36627E+08
        -0.87349E+08
        -0.52520E+08
         0.23073E+08
        -0.54918E+07
         0.57570E+08
         0.21768E+08
        -0.45233E+08
         0.60096E+08
        -0.11037E+09
         0.96203E+08
        -0.66971E+07
        -0.98303E+07
         0.45421E+08
         0.88691E+08
         0.53475E+08
         0.18169E+09
         0.64796E+08
        -0.78632E+06
        -0.55651E+08
         0.50146E+07
         0.56975E+08
         0.76063E+08
        -0.40131E+08
         0.40343E+08
        -0.66943E+08
         0.15111E+09
         0.11154E+09
        -0.74473E+08
         0.83870E+08
        -0.71188E+08
        -0.79936E+08
        -0.83204E+08
        -0.38706E+08
         0.68434E+08
         0.92399E+08
        -0.10647E+08
        -0.81370E+08
         0.63915E+08
         0.35673E+08
         0.15935E+09
        -0.25188E+08
        -0.37657E+08
        -0.59861E+08
        -0.13855E+09
        -0.87778E+08
        -0.79252E+08
         0.12874E+09
         0.12460E+09
        -0.10019E+09
        -0.91621E+07
         0.79822E+08
        -0.17238E+09
        -0.14904E+09
        -0.11411E+09
        -0.11972E+09
         0.36796E+08
        -0.52280E+08
         0.77253E+07
         0.23866E+09
         0.79047E+08
         0.79074E+08
        -0.97070E+07
         0.67071E+08
         0.26688E+08
        -0.63217E+08
        -0.96197E+08
        -0.29155E+08
        -0.60774E+08
         0.36740E+08
        -0.92942E+08
         0.13880E+09
        -0.35738E+07
         0.11161E+09
         0.93410E+08
         0.69125E+08
         0.25615E+08
        -0.20370E+08
        -0.62895E+08
        -0.33691E+06
        -0.19900E+08
        -0.97834E+08
         0.46860E+07
         0.54952E+08
         0.23500E+08
        -0.74617E+08
         0.81079E+08
        -0.12585E+09
         0.24211E+08
         0.37526E+08
        -0.16615E+07
         0.48251E+08
         0.44146E+08
         0.10459E+09
         0.12916E+09
         0.37292E+08
        -0.18552E+08
        -0.28143E+08
        -0.20112E+08
         0.26049E+08
         0.97197E+08
        -0.43130E+08
         0.92569E+08
        -0.25940E+08
         0.12591E+09
         0.12114E+09
        -0.64381E+08
         0.12145E+09
        -0.33807E+08
        -0.86187E+08
        -0.73675E+08
        -0.30780E+08
         0.37413E+08
         0.42932E+08
        -0.13354E+08
        -0.11641E+09
         0.51850E+08
         0.52980E+08
         0.55643E+08
        -0.12966E+09
        -0.82781E+08
        -0.14148E+09
        -0.98880E+08
        -0.97966E+08
        -0.49105E+08
         0.16528E+09
         0.46953E+08
        -0.11850E+09
         0.59997E+07
         0.82341E+08
        -0.12886E+09
        -0.97742E+08
        -0.51291E+08
        -0.40335E+08
        -0.15601E+07
        -0.83500E+07
        -0.39788E+07
         0.16334E+09
         0.57340E+08
         0.11598E+09
         0.29678E+08
         0.54298E+08
         0.17486E+08
        -0.43456E+08
        -0.89414E+08
        -0.66566E+08
        -0.83183E+08
        -0.36268E+08
        -0.34232E+08
         0.12856E+09
         0.22623E+08
         0.99327E+08
         0.84022E+08
         0.52484E+08
        -0.82031E+08
        -0.89489E+08
        -0.58785E+08
        -0.50280E+08
        -0.49160E+08
        -0.72911E+08
        -0.42009E+07
         0.10807E+09
         0.56066E+08
        -0.91783E+08
         0.46816E+08
        -0.10201E+09
         0.38404E+08
         0.36472E+08
        -0.22823E+08
         0.27822E+08
         0.34592E+08
         0.12881E+09
         0.70338E+08
         0.39118E+08
        -0.18670E+08
        -0.30947E+08
        -0.32470E+08
         0.37914E+08
         0.22516E+08
        -0.63422E+08
         0.63427E+08
         0.42312E+07
         0.91777E+08
         0.35827E+08
        -0.76745E+08
         0.72259E+08
        -0.48538E+07
        -0.90822E+08
        -0.64227E+08
        -0.58155E+08
         0.40652E+08
         0.94613E+08
        -0.34163E+08
        -0.15231E+09
         0.11183E+09
         0.11018E+09
         0.75593E+08
        -0.12448E+09
        -0.10131E+09
        -0.66005E+08
        -0.78622E+08
        -0.57293E+08
        -0.28013E+08
         0.13294E+09
         0.14088E+09
        -0.44952E+08
         0.13836E+09
         0.93221E+08
        -0.59968E+08
        -0.11419E+09
        -0.23319E+08
        -0.65321E+08
        -0.63691E+08
        -0.43729E+08
         0.67108E+08
         0.16596E+09
        -0.93181E+07
         0.18871E+09
         0.54409E+08
        -0.73032E+08
         0.10807E+09
        -0.15623E+09
        -0.91424E+08
        -0.39972E+08
        -0.11930E+09
        -0.32554E+08
         0.33755E+07
         0.17691E+09
         0.40097E+08
         0.64450E+08
         0.41723E+08
         0.10216E+09
        -0.13492E+09
        -0.15460E+09
        -0.14376E+08
        -0.48136E+08
        -0.47148E+07
         0.68952E+08
        -0.15702E+07
         0.10768E+09
         0.43776E+08
        -0.64064E+08
         0.83187E+06
        -0.98961E+08
         0.40011E+08
        -0.73310E+07
         0.14026E+08
        -0.73064E+07
        -0.14712E+08
         0.13312E+09
         0.14460E+09
         0.26447E+07
         0.35898E+08
        -0.79579E+07
        -0.37675E+08
         0.18644E+08
         0.34475E+08
        -0.49112E+08
         0.56140E+08
        -0.11254E+08
         0.97914E+08
         0.63244E+08
        -0.47564E+08
         0.95445E+08
         0.12050E+08
        -0.28628E+08
        -0.69268E+08
        -0.92640E+07
         0.85330E+07
         0.83537E+08
        -0.30186E+08
        -0.86545E+08
         0.74253E+08
         0.11526E+09
         0.96949E+08
        -0.90270E+08
        -0.11635E+09
        -0.12071E+09
        -0.97571E+08
        -0.45059E+08
        -0.96892E+07
         0.12315E+09
         0.12961E+09
        -0.44054E+08
         0.87962E+08
         0.59150E+08
        -0.45579E+08
        -0.10325E+09
        -0.11477E+09
        -0.12211E+09
        -0.13288E+09
         0.24650E+07
        -0.98263E+07
         0.13912E+09
        -0.98273E+08
         0.13766E+09
         0.55451E+08
        -0.13225E+09
         0.39108E+08
        -0.88031E+08
        -0.78390E+08
        -0.28101E+08
        -0.17278E+09
        -0.68168E+08
         0.16210E+09
         0.18423E+09
         0.25677E+08
        -0.58980E+07
        -0.64755E+08
        -0.14235E+08
        -0.15880E+09
        -0.14913E+09
        -0.48145E+08
        -0.14341E+09
         0.30803E+08
         0.82725E+08
         0.38668E+08
         0.58276E+08
         0.68586E+07
        -0.42950E+08
        -0.94590E+06
        -0.10808E+09
         0.60939E+08
        -0.10451E+08
         0.47862E+07
        -0.38330E+08
        -0.15149E+08
         0.65834E+08
         0.12256E+09
        -0.20350E+08
         0.30982E+08
         0.17137E+08
        -0.95699E+07
        -0.83088E+07
         0.29057E+07
        -0.50385E+08
         0.65158E+08
        -0.38185E+07
         0.81071E+08
         0.39813E+08
        -0.54800E+08
         0.10160E+09
         0.28310E+08
        -0.29009E+08
        -0.65068E+08
         0.28815E+08
         0.39539E+07
         0.73758E+08
        -0.18976E+08
        -0.57741E+08
         0.90428E+08
         0.79548E+08
         0.84676E+08
        -0.41483E+08
        -0.79231E+08
        -0.12692E+09
        -0.11789E+09
        -0.81355E+08
        -0.40741E+08
         0.10736E+09
         0.14255E+09
        -0.43528E+07
         0.11191E+09
         0.11759E+09
        -0.29299E+08
        -0.57817E+08
        -0.35779E+08
        -0.95291E+08
        -0.98476E+08
         0.74329E+08
         0.42791E+08
         0.20590E+09
        -0.88418E+08
         0.17320E+08
         0.20467E+08
        -0.17332E+09
        -0.19288E+08
        -0.10132E+09
         0.22465E+08
        -0.91039E+06
        -0.11350E+09
        -0.38204E+07
         0.82522E+08
         0.15289E+09
        -0.42990E+08
         0.92651E+08
         0.40511E+07
         0.62536E+08
        -0.82621E+08
        -0.10241E+09
         0.26723E+08
        -0.11230E+09
         0.82608E+07
         0.50734E+08
         0.45338E+08
         0.79179E+08
        -0.14365E+08
         0.25773E+07
        -0.95531E+07
        -0.81170E+08
         0.61820E+08
        -0.11706E+07
        -0.62338E+07
        -0.69707E+08
        -0.26673E+08
         0.75344E+08
         0.64213E+08
        -0.35190E+08
         0.31226E+08
         0.24413E+08
        -0.36217E+08
        -0.19420E+08
        -0.57787E+07
        -0.33826E+08
         0.30672E+08
         0.24687E+07
         0.66863E+08
         0.29671E+08
        -0.74218E+08
         0.85370E+08
         0.58324E+07
        -0.41552E+08
        -0.35353E+08
         0.22470E+08
        -0.48536E+05
         0.38331E+08
        -0.10242E+08
         0.17435E+08
         0.28872E+08
         0.25394E+08
         0.78404E+08
         0.39883E+07
        -0.74292E+08
        -0.10770E+09
        -0.11860E+09
        -0.10862E+09
        -0.48314E+08
         0.76870E+08
         0.90993E+08
        -0.60660E+08
         0.14160E+08
         0.99623E+08
         0.65383E+07
        -0.60617E+08
        -0.80580E+08
        -0.92509E+08
        -0.10605E+09
         0.23145E+08
         0.11253E+08
         0.18044E+09
        -0.11298E+09
         0.89850E+08
         0.78223E+08
        -0.17257E+09
         0.43424E+08
        -0.20023E+09
        -0.29993E+08
        -0.41628E+08
        -0.66531E+08
        -0.41541E+08
         0.48939E+08
         0.16168E+09
        -0.18702E+08
         0.11777E+09
         0.44910E+08
        -0.58325E+08
        -0.80789E+08
        -0.58161E+08
        -0.14388E+09
        -0.16158E+09
        -0.21831E+08
         0.60389E+08
         0.34565E+08
         0.41662E+08
        -0.20855E+08
         0.16609E+08
         0.10245E+07
        -0.44274E+08
         0.73870E+08
         0.25314E+08
        -0.13110E+08
        -0.79920E+08
        -0.11317E+08
        -0.19350E+08
         0.66770E+08
        -0.29137E+08
         0.43424E+08
         0.41248E+08
        -0.11823E+08
        -0.14891E+08
         0.25536E+08
        -0.55710E+08
         0.24007E+08
        -0.39842E+07
         0.13976E+07
         0.25467E+08
        -0.27674E+08
         0.69685E+08
         0.85269E+07
        -0.22624E+08
         0.10968E+08
         0.12024E+08
         0.19901E+08
         0.67129E+08
         0.12137E+07
         0.45170E+08
         0.79740E+08
         0.85639E+08
         0.90998E+08
         0.49305E+08
        -0.69501E+08
        -0.95649E+08
        -0.85756E+08
        -0.58453E+08
        -0.49979E+08
         0.43827E+08
         0.66173E+08
         0.56568E+08
         0.59131E+08
         0.10442E+09
         0.19392E+08
        -0.93257E+08
        -0.10790E+09
        -0.48312E+08
         0.14618E+09
         0.57419E+08
         0.37220E+08
         0.14079E+09
        -0.99049E+08
        -0.71658E+07
         0.98046E+08
        -0.85918E+08
         0.11265E+09
        -0.11381E+08
         0.44918E+08
        -0.36588E+08
        -0.10708E+09
         0.97117E+08
         0.23467E+08
         0.10345E+09
         0.38807E+08
         0.12280E+09
         0.73002E+08
         0.84641E+08
         0.32473E+08
        -0.87831E+08
        -0.10754E+09
        -0.13243E+09
         0.19191E+08
        -0.60930E+08
         0.25249E+08
         0.27973E+08
        -0.51767E+08
         0.17436E+08
        -0.35389E+08
        -0.45087E+08
         0.10583E+09
         0.43770E+08
        -0.14946E+08
        -0.70609E+08
         0.59537E+08
        -0.88201E+07
         0.26919E+08
        -0.33537E+07
         0.14416E+08
         0.12181E+08
         0.27256E+08
         0.11818E+08
         0.23497E+08
        -0.42555E+08
         0.48910E+08
        -0.41629E+08
        -0.28532E+08
        -0.16610E+07
        -0.38679E+08
        -0.16993E+07
        -0.17950E+08
        -0.27922E+08
         0.25973E+08
        -0.13183E+08
        -0.59157E+07
         0.92903E+07
         0.39283E+08
         0.45934E+08
         0.40554E+08
        -0.11463E+08
         0.19365E+08
         0.20679E+08
        -0.34251E+08
        -0.90628E+08
        -0.14226E+09
        -0.68744E+08
        -0.67420E+08
         0.24980E+08
         0.34297E+08
        -0.24289E+08
         0.10472E+08
         0.85464E+08
         0.43653E+08
        -0.66486E+08
        -0.64795E+08
        -0.36139E+08
         0.16512E+09
         0.79685E+08
        -0.54563E+07
         0.79456E+08
        -0.37532E+08
         0.58833E+08
         0.10522E+09
        -0.69241E+08
         0.38773E+08
        -0.92427E+08
        -0.14776E+09
        -0.22544E+08
        -0.73866E+08
         0.93943E+08
         0.61780E+08
         0.44244E+08
         0.53859E+08
         0.38073E+08
         0.59749E+08
         0.90382E+08
         0.30828E+08
        -0.10495E+09
        -0.10591E+09
        -0.15066E+09
         0.12446E+08
         0.94110E+07
         0.47612E+08
         0.50799E+08
        -0.16524E+08
         0.25229E+07
        -0.84697E+08
        -0.73122E+08
         0.66643E+08
         0.41312E+08
        -0.34380E+08
        -0.77296E+08
         0.24916E+08
        -0.59604E+08
        -0.42047E+08
        -0.19839E+08
        -0.28668E+06
         0.28898E+08
        -0.32463E+08
         0.18663E+08
         0.37498E+08
        -0.42755E+08
         0.18294E+08
        -0.10519E+08
         0.16262E+08
         0.38083E+08
        -0.55329E+08
         0.32375E+08
        -0.21655E+08
        -0.34570E+07
         0.67713E+07
        -0.18654E+08
         0.25624E+08
         0.21339E+08
         0.38582E+08
         0.53575E+08
         0.31487E+08
         0.49203E+08
         0.15895E+08
         0.25015E+08
         0.10885E+08
        -0.18830E+08
        -0.10307E+09
        -0.26163E+08
         0.12166E+07
         0.52152E+08
         0.60505E+08
         0.12017E+08
         0.17430E+08
         0.58867E+08
         0.36356E+08
         0.18903E+07
        -0.51385E+08
        -0.29228E+08
         0.10457E+09
        -0.46111E+08
         0.18067E+08
         0.64058E+08
         0.82361E+08
         0.80021E+08
         0.60148E+08
        -0.22927E+08
         0.47471E+08
        -0.54131E+08
         0.84812E+07
        -0.18435E+08
        -0.12136E+09
         0.21646E+08
        -0.67297E+08
         0.16829E+08
         0.67021E+08
         0.59560E+08
         0.82896E+07
         0.68438E+08
        -0.11723E+08
        -0.12753E+09
        -0.45843E+08
        -0.14589E+09
         0.75276E+08
         0.40865E+08
        -0.12811E+08
        -0.32488E+07
         0.90453E+06
        -0.77986E+07
        -0.41535E+08
        -0.67496E+08
        -0.27132E+07
        -0.95521E+07
        -0.18416E+07
         0.27229E+08
         0.71098E+07
         0.10144E+08
        -0.24272E+08
        -0.21104E+08
         0.35904E+07
        -0.33073E+08
         0.13706E+08
         0.24741E+08
        -0.17822E+08
        -0.14484E+08
         0.15996E+08
        -0.12934E+07
         0.11761E+08
        -0.24827E+08
         0.17493E+08
        -0.34874E+08
         0.39788E+08
         0.25682E+08
        -0.75020E+08
        -0.33523E+08
         0.21562E+08
        -0.60922E+07
         0.41830E+08
         0.36009E+08
         0.69196E+08
         0.80761E+08
         0.97329E+07
        -0.97248E+07
         0.28272E+08
        -0.20047E+08
        -0.14019E+09
        -0.43531E+08
         0.61374E+07
        -0.64489E+07
         0.17772E+08
         0.10462E+08
        -0.14629E+08
         0.26054E+08
         0.26932E+08
         0.27191E+08
        -0.47126E+08
        -0.49925E+08
         0.55098E+08
        -0.50229E+08
        -0.16003E+08
         0.18388E+08
         0.16334E+08
         0.50738E+08
         0.75182E+08
        -0.13891E+09
        -0.65860E+08
        -0.51720E+08
        -0.87366E+07
         0.48940E+08
        -0.75513E+08
        -0.32304E+08
        -0.38550E+08
         0.11384E+09
         0.47844E+08
         0.65602E+08
         0.77083E+08
         0.52589E+08
        -0.63089E+08
        -0.16027E+09
         0.16328E+08
        -0.28934E+08
         0.24258E+08
         0.51287E+08
        -0.13796E+08
         0.11446E+08
         0.28994E+08
         0.13912E+08
        -0.13245E+08
        -0.35474E+08
         0.72723E+06
        -0.30977E+08
        -0.64497E+07
        -0.33135E+07
        -0.20330E+07
         0.15240E+08
        -0.21618E+08
        -0.44861E+08
        -0.18833E+08
         0.94546E+06
         0.34758E+08
         0.21224E+08
        -0.59854E+07
        -0.25928E+08
        -0.25755E+08
        -0.87585E+07
        -0.11119E+08
        -0.21987E+08
        -0.26526E+07
        -0.26370E+08
        -0.32998E+07
         0.24071E+08
        -0.28096E+08
        -0.32233E+08
         0.52133E+08
         0.13138E+08
         0.10639E+08
         0.13351E+08
         0.63160E+08
         0.28831E+08
        -0.44339E+08
        -0.19663E+08
         0.53260E+08
         0.22481E+08
        -0.76490E+08
         0.28778E+08
         0.49129E+08
        -0.22352E+08
        -0.20357E+08
        -0.42427E+08
        -0.54082E+07
         0.54160E+08
         0.46714E+07
        -0.19209E+08
        -0.11910E+08
        -0.51344E+07
         0.83367E+08
        -0.34124E+08
        -0.28867E+08
        -0.58478E+07
        -0.82355E+07
         0.48682E+07
        -0.11280E+08
        -0.11873E+09
         0.48120E+08
         0.36168E+08
        -0.10544E+09
        -0.28461E+08
        -0.10693E+09
         0.34499E+08
         0.16671E+07
         0.72995E+08
         0.72871E+07
        -0.19291E+08
        -0.45383E+08
        -0.20155E+08
         0.53034E+08
        -0.10084E+08
         0.39369E+07
        -0.84226E+08
         0.33965E+08
         0.34849E+07
        -0.29519E+08
         0.10181E+08
        -0.61499E+07
        -0.33514E+07
        -0.55306E+08
        -0.23056E+08
         0.33402E+08
        -0.16852E+08
        -0.21101E+08
         0.18882E+08
         0.41958E+08
         0.17260E+08
        -0.11910E+08
        -0.86197E+07
         0.33013E+08
        -0.24932E+08
         0.44650E+08
        -0.13545E+08
        -0.28529E+08
        -0.11950E+08
        -0.26491E+08
        -0.10746E+08
        -0.39495E+08
        -0.44489E+08
         0.43520E+08
        -0.40725E+08
        -0.22706E+08
        -0.14528E+08
        -0.32478E+08
        -0.24312E+08
         0.23472E+08
         0.17016E+07
         0.16229E+08
         0.57033E+08
        -0.79933E+07
        -0.18364E+08
        -0.38801E+08
         0.58436E+07
        -0.18848E+07
         0.11668E+08
         0.70093E+07
         0.69840E+08
         0.31641E+08
        -0.45929E+08
        -0.10894E+08
        -0.36730E+08
        -0.26161E+08
         0.28983E+08
         0.23271E+08
         0.13502E+08
         0.26569E+08
         0.45936E+08
         0.69733E+07
        -0.69470E+08
        -0.44245E+08
         0.31689E+08
         0.20068E+08
        -0.33446E+08
        -0.47004E+08
        -0.38999E+08
         0.54154E+07
         0.37132E+08
        -0.21489E+08
         0.10038E+09
        -0.15530E+08
         0.39851E+08
         0.26633E+07
         0.58978E+08
         0.10081E+08
         0.26988E+07
        -0.55056E+08
        -0.91590E+08
        -0.57836E+08
        -0.21669E+08
        -0.34957E+08
        -0.94482E+08
        -0.25214E+08
        -0.28456E+08
         0.95034E+07
        -0.10288E+08
        -0.25137E+08
        -0.20581E+07
        -0.50260E+08
        -0.17930E+08
         0.29599E+07
         0.22438E+08
         0.83500E+07
         0.26494E+08
        -0.17482E+07
        -0.30647E+08
        -0.68653E+08
        -0.28234E+08
        -0.35940E+08
         0.88058E+07
         0.42595E+08
         0.19288E+08
        -0.63145E+07
        -0.19280E+08
        -0.30312E+08
        -0.22789E+08
        -0.48735E+08
        -0.16916E+08
         0.92322E+07
        -0.34369E+08
        -0.22705E+08
        -0.18091E+08
        -0.37269E+08
        -0.44318E+08
         0.18075E+08
        -0.94428E+07
         0.99803E+07
         0.47591E+08
        -0.79925E+07
        -0.36913E+08
        -0.79253E+08
        -0.13366E+08
         0.12374E+08
         0.38928E+08
         0.59740E+08
         0.52804E+08
         0.56893E+07
        -0.98903E+08
        -0.56609E+08
        -0.35596E+08
        -0.86955E+07
         0.31545E+08
         0.19502E+08
         0.31555E+08
         0.82870E+08
         0.75604E+08
         0.58229E+08
        -0.24512E+08
         0.46327E+08
         0.53354E+08
        -0.77583E+07
         0.22855E+08
         0.11353E+08
         0.19381E+07
         0.52971E+08
         0.13672E+09
         0.52934E+08
         0.54694E+08
        -0.38014E+08
         0.46632E+08
        -0.17942E+08
        -0.82439E+08
        -0.13878E+09
         0.22007E+08
         0.29702E+08
        -0.33483E+08
        -0.35820E+08
         0.13364E+08
         0.77129E+08
         0.75077E+08
         0.12337E+09
         0.21239E+08
        -0.15517E+08
         0.10121E+08
        -0.43941E+08
        -0.19181E+08
        -0.73447E+08
        -0.44647E+08
         0.39635E+08
         0.29550E+07
        -0.13570E+08
         0.19124E+08
         0.19242E+08
        -0.39740E+08
        -0.33166E+08
        -0.21923E+08
        -0.31032E+08
        -0.87135E+07
         0.48558E+08
         0.70264E+07
        -0.10765E+08
         0.12647E+08
        -0.49082E+08
        -0.15615E+08
        -0.27951E+08
        -0.11897E+08
         0.48393E+08
        -0.28472E+08
        -0.67725E+07
        -0.50589E+06
        -0.28496E+07
         0.10763E+08
        -0.45028E+07
        -0.29313E+08
         0.16072E+08
         0.35983E+08
        -0.42220E+08
        -0.65546E+08
        -0.66645E+08
         0.19640E+08
         0.22825E+08
         0.37620E+08
         0.76338E+08
         0.37110E+08
         0.18738E+08
        -0.67903E+08
        -0.49918E+08
        -0.41693E+08
        -0.41550E+08
        -0.13195E+08
         0.18887E+08
         0.49424E+08
         0.88773E+08
         0.48026E+08
        -0.13165E+07
         0.14489E+08
         0.37211E+08
        -0.91448E+07
        -0.65275E+08
        -0.60894E+08
         0.15031E+08
         0.72786E+08
         0.41712E+08
         0.60272E+07
         0.10181E+09
         0.55973E+08
         0.70809E+07
         0.34458E+06
        -0.36192E+08
         0.37097E+08
        -0.27353E+08
         0.45856E+08
         0.55263E+08
        -0.25399E+08
        -0.70060E+07
         0.65009E+07
         0.43000E+08
        -0.13652E+08
         0.28203E+08
        -0.83926E+07
         0.15340E+08
        -0.39567E+07
        -0.19810E+08
         0.62305E+07
        -0.31656E+08
        -0.45759E+07
        -0.18920E+07
         0.11598E+08
         0.36796E+08
         0.41129E+08
         0.16981E+08
        -0.19805E+08
        -0.46138E+08
         0.24962E+07
        -0.12183E+08
        -0.12566E+08
         0.11345E+08
         0.37125E+08
        -0.48884E+08
        -0.39259E+08
        -0.23053E+08
        -0.11842E+08
        -0.41870E+08
        -0.46394E+08
         0.19105E+08
        -0.49926E+08
         0.18393E+08
         0.29215E+08
         0.18245E+08
        -0.24401E+08
         0.86971E+07
        -0.24716E+08
         0.23816E+08
         0.36966E+08
        -0.58383E+08
        -0.68338E+08
        -0.63476E+08
        -0.11119E+08
         0.22623E+08
         0.56374E+08
         0.40709E+08
         0.47231E+08
         0.12664E+08
        -0.99681E+08
        -0.78302E+08
        -0.73357E+08
        -0.42447E+08
        -0.60707E+07
         0.38114E+08
         0.72826E+08
         0.91770E+08
         0.46931E+08
         0.69954E+07
         0.73057E+06
         0.78406E+07
        -0.37156E+08
        -0.72310E+08
         0.26922E+07
        -0.32917E+08
        -0.86201E+08
         0.14017E+08
         0.50791E+08
        -0.17660E+08
         0.19835E+08
        -0.15912E+08
         0.40815E+08
         0.44733E+08
         0.41097E+08
        -0.41390E+08
        -0.87581E+07
        -0.38503E+08
        -0.47955E+08
        -0.37702E+08
         0.31538E+08
         0.49031E+08
         0.25937E+08
         0.68115E+08
         0.33310E+08
         0.19556E+08
         0.23238E+08
         0.15967E+08
         0.11167E+08
         0.67600E+07
         0.31960E+07
        -0.85485E+07
        -0.11111E+07
         0.14521E+08
         0.17754E+08
        -0.87058E+07
        -0.26086E+08
        -0.66762E+08
        -0.40081E+07
         0.17449E+08
         0.14742E+07
         0.11392E+08
        -0.87182E+07
        -0.58455E+07
        -0.70490E+06
        -0.30434E+07
         0.19773E+08
        -0.43720E+08
        -0.12393E+08
         0.19490E+08
         0.22339E+07
         0.99009E+07
         0.22444E+08
         0.14148E+07
         0.42059E+07
         0.14088E+08
         0.37467E+08
        -0.34746E+08
        -0.19844E+08
        -0.30708E+08
        -0.48922E+08
        -0.67948E+08
         0.65922E+07
         0.13233E+08
         0.28063E+08
         0.46812E+08
         0.41275E+08
         0.31302E+08
        -0.53783E+08
         0.43204E+07
         0.76197E+07
         0.41016E+07
        -0.93968E+07
        -0.17624E+08
        -0.11906E+07
         0.24907E+08
         0.67628E+07
        -0.10806E+08
         0.21310E+08
        -0.37054E+07
        -0.15623E+08
        -0.32690E+08
        -0.94423E+07
         0.25949E+08
         0.19543E+07
         0.60791E+08
         0.10276E+09
         0.86660E+08
         0.10653E+09
         0.18581E+08
        -0.11391E+08
        -0.84951E+08
        -0.74787E+08
        -0.68340E+07
         0.70320E+08
        -0.28493E+08
        -0.67345E+08
        -0.44230E+08
         0.34612E+08
         0.63047E+08
         0.52535E+08
         0.30588E+08
         0.17070E+08
        -0.26759E+08
        -0.14239E+08
        -0.73156E+07
         0.51034E+07
        -0.43780E+07
         0.10200E+08
        -0.17049E+08
        -0.19240E+08
        -0.16756E+08
         0.95884E+07
        -0.38052E+08
        -0.19207E+08
        -0.13349E+08
        -0.99994E+07
         0.13751E+08
        -0.16119E+08
         0.82498E+07
        -0.33256E+08
        -0.12270E+08
         0.13289E+08
         0.50987E+07
         0.34558E+08
         0.12741E+08
        -0.18551E+07
         0.26097E+08
        -0.10971E+08
         0.23057E+08
         0.19425E+08
        -0.27487E+08
         0.90183E+07
         0.15065E+08
        -0.15178E+07
         0.26312E+07
         0.11755E+08
        -0.26585E+08
        -0.20861E+08
        -0.12469E+08
         0.19592E+08
         0.41860E+07
        -0.52862E+08
        -0.80511E+08
        -0.83532E+07
         0.61925E+08
        -0.26188E+08
        -0.48915E+08
        -0.23327E+08
         0.24620E+08
         0.44055E+08
         0.17526E+08
        -0.46422E+07
         0.88584E+07
         0.97904E+07
        -0.90542E+07
        -0.26288E+08
         0.19906E+08
         0.26614E+08
         0.55553E+08
        -0.34050E+07
         0.56039E+07
         0.81227E+06
        -0.14066E+08
        -0.27608E+08
        -0.36121E+08
        -0.13524E+08
         0.15923E+08
         0.38038E+08
         0.46504E+08
         0.16565E+08
         0.22319E+08
        -0.38110E+08
        -0.55900E+08
        -0.87477E+07
         0.39578E+08
         0.22390E+08
        -0.58676E+08
        -0.27698E+08
        -0.28518E+08
        -0.17218E+08
         0.50862E+06
         0.48037E+08
         0.42677E+08
         0.70184E+07
         0.65405E+07
        -0.18874E+08
        -0.14704E+08
        -0.27182E+08
        -0.22770E+08
        -0.37386E+08
        -0.22052E+08
        -0.94391E+07
         0.94113E+07
        -0.56608E+07
         0.11369E+08
         0.28051E+08
         0.13553E+08
         0.17173E+07
         0.82012E+07
         0.22957E+08
        -0.15000E+08
         0.51306E+07
        -0.22233E+08
         0.29986E+07
        -0.95701E+07
         0.26994E+08
        -0.10744E+08
        -0.18495E+08
        -0.16316E+07
         0.21686E+08
         0.61907E+07
         0.12116E+08
         0.82044E+07
         0.39571E+07
         0.22127E+08
         0.33357E+08
         0.53879E+08
         0.10963E+08
        -0.16707E+08
        -0.40193E+07
         0.18295E+07
        -0.21415E+08
         0.18529E+06
        -0.13126E+07
         0.42145E+07
         0.53278E+07
        -0.49874E+07
        -0.57798E+07
        -0.83201E+07
        -0.12132E+08
        -0.22143E+08
        -0.19881E+08
         0.19942E+08
         0.39940E+07
        -0.13833E+08
        -0.50528E+08
        -0.33575E+06
         0.31059E+08
        -0.27410E+08
        -0.20107E+08
        -0.58083E+08
         0.14271E+07
         0.62050E+08
        -0.94725E+08
         0.27645E+07
        -0.24319E+08
         0.18387E+08
        -0.29104E+08
        -0.13499E+08
         0.24531E+08
         0.27639E+08
         0.34503E+08
         0.23976E+08
        -0.32742E+08
        -0.70663E+08
        -0.36151E+08
        -0.15429E+07
        -0.56408E+07
         0.20956E+08
         0.61857E+07
        -0.98831E+07
         0.43627E+07
        -0.97799E+07
        -0.45416E+08
         0.23658E+08
         0.30720E+08
         0.19269E+08
        -0.28745E+08
         0.25660E+08
         0.16429E+08
         0.36412E+08
         0.14618E+08
        -0.14272E+08
         0.21325E+08
         0.48160E+07
         0.41598E+08
         0.31291E+08
         0.59705E+07
         0.39006E+08
        -0.29389E+08
         0.66149E+08
         0.55450E+08
        -0.43755E+08
         0.43994E+08
        -0.37742E+08
        -0.53923E+08
        -0.13666E+07
        -0.10393E+08
        -0.21932E+07
         0.10863E+08
         0.76915E+07
        -0.89555E+07
         0.68710E+07
         0.35498E+07
         0.30019E+08
        -0.12575E+08
        -0.10779E+08
         0.24032E+08
         0.31079E+08
         0.17715E+08
        -0.76764E+07
         0.51888E+08
         0.51695E+08
         0.45363E+08
        -0.77610E+07
        -0.39636E+08
        -0.25959E+08
        -0.14058E+08
        -0.27193E+08
        -0.61704E+08
        -0.41014E+07
        -0.16331E+08
         0.43841E+08
         0.32151E+08
        -0.67292E+07
         0.17616E+08
        -0.42913E+08
         0.20940E+08
         0.42710E+07
        -0.10770E+09
        -0.96997E+08
        -0.10155E+09
        -0.28828E+08
        -0.64936E+08
         0.51585E+08
         0.66573E+08
         0.15418E+08
         0.10911E+09
         0.63425E+08
        -0.30864E+08
        -0.32206E+08
         0.57173E+07
         0.76711E+07
        -0.48575E+07
        -0.43552E+08
        -0.35253E+08
        -0.25974E+08
        -0.13904E+08
        -0.20705E+07
         0.59189E+07
         0.32002E+08
         0.10026E+07
        -0.18525E+07
        -0.11733E+08
        -0.23987E+08
        -0.89734E+07
         0.13272E+08
         0.24479E+08
         0.34555E+08
         0.21064E+08
         0.21633E+08
        -0.10195E+08
        -0.78643E+07
        -0.12971E+08
        -0.11859E+08
        -0.12641E+08
         0.32822E+07
        -0.25306E+08
         0.25345E+08
         0.87158E+07
         0.72297E+07
         0.31752E+08
         0.64086E+07
        -0.85602E+07
        -0.35659E+08
        -0.12018E+08
         0.23508E+08
         0.33596E+08
         0.38111E+07
         0.44120E+07
         0.35181E+08
        -0.16139E+08
         0.40642E+06
         0.62090E+07
        -0.16206E+08
        -0.30188E+08
        -0.48238E+08
        -0.57637E+08
        -0.39122E+08
         0.56281E+08
         0.24147E+08
         0.87590E+07
         0.28576E+08
         0.87211E+07
        -0.23887E+08
        -0.22947E+08
        -0.25756E+08
        -0.27948E+08
         0.49114E+08
         0.32200E+08
         0.10842E+08
         0.17372E+08
         0.32162E+06
         0.10496E+08
         0.13692E+08
        -0.18385E+08
         0.25515E+08
        -0.32739E+08
        -0.65284E+08
         0.22476E+08
        -0.24501E+08
         0.45723E+08
         0.47761E+08
        -0.39201E+08
         0.95440E+07
        -0.27157E+08
        -0.27668E+08
        -0.25614E+08
        -0.25143E+08
        -0.29253E+08
        -0.33461E+08
        -0.27659E+08
        -0.35943E+08
         0.93024E+07
        -0.10229E+08
         0.16557E+08
         0.20516E+08
         0.21031E+08
        -0.12837E+08
        -0.24342E+08
        -0.16843E+08
        -0.16231E+08
        -0.91692E+07
         0.72206E+07
        -0.24964E+08
        -0.14495E+08
         0.17605E+07
        -0.51418E+07
         0.22331E+08
        -0.45087E+07
         0.42396E+08
        -0.13668E+08
        -0.13120E+08
         0.24808E+08
        -0.25815E+08
         0.58742E+07
         0.23612E+08
        -0.49568E+07
         0.40566E+08
         0.21395E+08
         0.15511E+08
         0.11087E+08
        -0.20962E+08
         0.65525E+07
         0.19024E+08
         0.36680E+08
         0.23690E+07
         0.25366E+08
         0.17903E+08
         0.43605E+07
         0.21471E+08
         0.22597E+08
        -0.17630E+08
        -0.34126E+08
        -0.27153E+08
        -0.32969E+08
        -0.62631E+07
         0.58034E+08
         0.28833E+08
        -0.60945E+06
         0.37823E+08
         0.13401E+08
        -0.98328E+07
        -0.70338E+06
         0.49578E+07
        -0.17465E+07
         0.19952E+08
        -0.24976E+07
        -0.48368E+08
         0.13324E+08
         0.75104E+08
         0.51183E+08
         0.37965E+08
        -0.17324E+07
        -0.24347E+08
        -0.57729E+08
         0.65484E+08
         0.24760E+08
        -0.40345E+08
         0.36943E+08
        -0.24655E+08
         0.27911E+08
         0.63459E+08
        -0.39800E+08
         0.13221E+08
         0.29987E+08
        -0.65809E+08
        -0.54030E+08
         0.28318E+08
        -0.18815E+08
        -0.26762E+08
        -0.65741E+08
        -0.49525E+07
         0.38318E+08
         0.25080E+08
        -0.60911E+07
         0.35898E+06
        -0.44545E+07
         0.13144E+08
        -0.21894E+07
        -0.34015E+07
         0.66488E+07
        -0.31736E+08
        -0.60854E+08
         0.81500E+07
        -0.16067E+08
        -0.36601E+08
         0.85116E+07
         0.34210E+08
        -0.57764E+07
        -0.15082E+08
         0.10322E+08
        -0.32955E+08
        -0.11859E+08
         0.10976E+08
        -0.32167E+08
        -0.59241E+07
        -0.28677E+08
        -0.48381E+07
        -0.21047E+08
         0.44012E+07
        -0.34666E+07
         0.17201E+08
         0.12732E+08
        -0.45279E+07
        -0.24652E+08
         0.93200E+07
         0.11382E+08
         0.21557E+08
        -0.95969E+07
        -0.15621E+08
         0.31750E+08
         0.86888E+07
        -0.55290E+08
        -0.23152E+08
         0.14923E+08
         0.16563E+08
         0.11368E+08
         0.12377E+07
        -0.42562E+05
         0.52183E+07
        -0.13448E+08
        -0.37689E+07
        -0.63280E+07
        -0.17936E+08
         0.29305E+08
        -0.64131E+07
         0.27027E+08
         0.14471E+08
         0.41525E+08
         0.82819E+08
        -0.46897E+08
        -0.45219E+08
         0.19520E+08
        -0.38181E+08
        -0.11049E+09
         0.40445E+08
         0.46322E+08
         0.34591E+08
         0.12241E+09
         0.28011E+08
         0.70552E+07
        -0.51451E+08
        -0.17837E+08
         0.29226E+08
         0.58264E+08
         0.20928E+08
        -0.10061E+08
         0.20514E+08
         0.44094E+08
        -0.53913E+05
         0.22493E+08
        -0.23914E+08
        -0.81674E+07
        -0.51791E+08
        -0.34647E+07
         0.36009E+08
         0.29333E+08
        -0.33001E+08
         0.34391E+08
        -0.22582E+08
         0.83717E+07
        -0.26121E+08
         0.13145E+08
         0.79574E+06
         0.10688E+07
         0.25294E+08
        -0.86140E+08
        -0.40731E+07
         0.33035E+08
        -0.12340E+08
        -0.62300E+08
         0.71220E+07
        -0.38223E+08
        -0.52492E+08
        -0.84881E+08
         0.12780E+08
        -0.10190E+09
         0.36793E+08
        -0.35044E+08
         0.19877E+08
        -0.28120E+08
         0.15532E+08
        -0.20009E+07
         0.64179E+08
        -0.33324E+07
        -0.58047E+07
        -0.30892E+07
        -0.51861E+08
         0.24660E+08
         0.44249E+08
         0.12329E+08
        -0.43746E+08
         0.39393E+08
         0.38670E+08
         0.26863E+08
        -0.25188E+08
         0.13163E+08
        -0.59977E+06
        -0.17023E+08
         0.17250E+08
         0.10711E+08
         0.42049E+08
        -0.97441E+07
        -0.52661E+08
         0.38657E+08
        -0.19762E+07
         0.94462E+08
         0.35123E+08
        -0.13309E+08
         0.67632E+08
        -0.11700E+08
        -0.16590E+09
         0.36489E+08
        -0.12110E+07
        -0.40159E+08
         0.11319E+09
        -0.62748E+08
        -0.34797E+08
         0.32678E+08
        -0.33154E+08
        -0.47558E+08
        -0.95454E+07
        -0.23950E+08
        -0.10012E+09
         0.24698E+08
        -0.37190E+07
        -0.68544E+08
  
SCALARS                      strain_xx  double 1
LOOKUP_TABLE default
         0.55487E+00
         0.56171E+00
         0.57026E+00
         0.55666E+00
         0.61493E+00
         0.62743E+00
         0.66540E+00
         0.64258E+00
         0.61652E+00
         0.59925E+00
         0.66497E+00
         0.66704E+00
         0.56687E+00
         0.55844E+00
         0.62242E+00
         0.60756E+00
         0.56429E+00
         0.55929E+00
         0.64144E+00
         0.62739E+00
         0.56797E+00
         0.57441E+00
         0.57157E+00
         0.61232E+00
         0.61901E+00
         0.62074E+00
         0.55838E+00
         0.56468E+00
         0.60566E+00
         0.61751E+00
         0.57319E+00
         0.55804E+00
         0.57094E+00
         0.66441E+00
         0.61327E+00
         0.65092E+00
         0.55875E+00
         0.54293E+00
         0.64668E+00
         0.58365E+00
         0.58434E+00
         0.56657E+00
         0.66514E+00
         0.58647E+00
         0.60528E+00
         0.58028E+00
         0.72290E+00
         0.70990E+00
         0.55142E+00
         0.60262E+00
         0.58986E+00
         0.72443E+00
         0.54885E+00
         0.62237E+00
         0.54305E+00
         0.60836E+00
         0.53563E+00
         0.53309E+00
         0.57599E+00
         0.56641E+00
         0.58371E+00
         0.59151E+00
         0.69795E+00
         0.72103E+00
         0.58499E+00
         0.69676E+00
         0.58678E+00
         0.70932E+00
         0.61958E+00
         0.58699E+00
         0.65465E+00
         0.64583E+00
         0.56707E+00
         0.61533E+00
         0.54691E+00
         0.61435E+00
         0.54149E+00
         0.61098E+00
         0.55358E+00
         0.60313E+00
         0.56091E+00
         0.54628E+00
         0.58027E+00
         0.56174E+00
         0.55190E+00
         0.55731E+00
         0.61532E+00
         0.75856E+00
         0.61871E+00
         0.74864E+00
         0.62312E+00
         0.60768E+00
         0.72536E+00
         0.74655E+00
         0.59564E+00
         0.73414E+00
         0.60527E+00
         0.74659E+00
         0.62737E+00
         0.78114E+00
         0.64358E+00
         0.61850E+00
         0.75572E+00
         0.71609E+00
         0.63878E+00
         0.67685E+00
         0.61809E+00
         0.59782E+00
         0.63241E+00
         0.60814E+00
         0.61963E+00
         0.60450E+00
         0.59275E+00
         0.60810E+00
         0.58337E+00
         0.61751E+00
         0.57509E+00
         0.62205E+00
         0.55923E+00
         0.62175E+00
         0.56088E+00
         0.60915E+00
         0.59274E+00
         0.60138E+00
         0.58639E+00
         0.57237E+00
         0.60392E+00
         0.54984E+00
         0.59086E+00
         0.53616E+00
         0.62279E+00
         0.54744E+00
         0.67873E+00
         0.64201E+00
         0.68801E+00
         0.71516E+00
         0.66151E+00
         0.72927E+00
         0.63667E+00
         0.71841E+00
         0.61514E+00
         0.68804E+00
         0.62702E+00
         0.72061E+00
         0.62520E+00
         0.74182E+00
         0.63283E+00
         0.71956E+00
         0.62702E+00
         0.70541E+00
         0.62427E+00
         0.68270E+00
         0.65778E+00
         0.62052E+00
         0.66903E+00
         0.58499E+00
         0.50826E+00
         0.50349E+00
         0.48515E+00
         0.49446E+00
         0.48008E+00
         0.47627E+00
         0.50910E+00
         0.51129E+00
         0.51744E+00
         0.51490E+00
         0.50688E+00
         0.49860E+00
         0.49151E+00
         0.50495E+00
         0.49672E+00
         0.51678E+00
         0.51377E+00
         0.51964E+00
         0.48982E+00
         0.49035E+00
         0.46664E+00
         0.47479E+00
         0.46990E+00
         0.49091E+00
         0.50910E+00
         0.50653E+00
         0.50250E+00
         0.49762E+00
         0.47487E+00
         0.48305E+00
         0.50992E+00
         0.50084E+00
         0.51335E+00
         0.50044E+00
         0.46762E+00
         0.46554E+00
         0.47730E+00
         0.48473E+00
         0.48026E+00
         0.47559E+00
         0.45258E+00
         0.45114E+00
         0.46909E+00
         0.48998E+00
         0.49514E+00
         0.49685E+00
         0.49408E+00
         0.49817E+00
         0.50171E+00
         0.49879E+00
         0.49749E+00
         0.48764E+00
         0.44148E+00
         0.48943E+00
         0.45165E+00
         0.46718E+00
         0.45699E+00
         0.47313E+00
         0.49073E+00
         0.48128E+00
         0.46355E+00
         0.45973E+00
         0.42155E+00
         0.42651E+00
         0.40842E+00
         0.41514E+00
         0.46024E+00
         0.48119E+00
         0.50454E+00
         0.50307E+00
         0.50261E+00
         0.49867E+00
         0.49256E+00
         0.50012E+00
         0.49363E+00
         0.48673E+00
         0.49266E+00
         0.49355E+00
         0.46109E+00
         0.45988E+00
         0.44155E+00
         0.44224E+00
         0.43228E+00
         0.42477E+00
         0.46573E+00
         0.46961E+00
         0.46252E+00
         0.46976E+00
         0.46652E+00
         0.45802E+00
         0.44694E+00
         0.46928E+00
         0.46562E+00
         0.45677E+00
         0.46282E+00
         0.45472E+00
         0.44158E+00
         0.45236E+00
         0.41896E+00
         0.44252E+00
         0.41306E+00
         0.43390E+00
         0.46495E+00
         0.44401E+00
         0.46809E+00
         0.46516E+00
         0.45472E+00
         0.45445E+00
         0.43814E+00
         0.43050E+00
         0.44213E+00
         0.43851E+00
         0.42605E+00
         0.42590E+00
         0.43623E+00
         0.45877E+00
         0.45860E+00
         0.46276E+00
         0.44953E+00
         0.44196E+00
         0.45065E+00
         0.42489E+00
         0.42242E+00
         0.41775E+00
         0.41770E+00
         0.42450E+00
         0.42955E+00
         0.42699E+00
         0.42771E+00
         0.42933E+00
         0.41530E+00
         0.44675E+00
         0.41595E+00
         0.43009E+00
         0.41957E+00
         0.44368E+00
         0.47072E+00
         0.47118E+00
         0.46429E+00
         0.47554E+00
         0.44788E+00
         0.43844E+00
         0.42226E+00
         0.41820E+00
         0.43004E+00
         0.43373E+00
         0.43351E+00
         0.41642E+00
         0.42056E+00
         0.42312E+00
         0.42113E+00
         0.42745E+00
         0.41267E+00
         0.41452E+00
         0.42683E+00
         0.42921E+00
         0.41618E+00
         0.41553E+00
         0.39987E+00
         0.39900E+00
         0.38442E+00
         0.37955E+00
         0.41714E+00
         0.42255E+00
         0.41195E+00
         0.42161E+00
         0.41636E+00
         0.40873E+00
         0.40046E+00
         0.42188E+00
         0.41711E+00
         0.40743E+00
         0.41463E+00
         0.40514E+00
         0.39662E+00
         0.40862E+00
         0.37266E+00
         0.39495E+00
         0.36437E+00
         0.38709E+00
         0.41940E+00
         0.39505E+00
         0.42331E+00
         0.42028E+00
         0.40640E+00
         0.40937E+00
         0.39105E+00
         0.38346E+00
         0.39542E+00
         0.39129E+00
         0.37778E+00
         0.38480E+00
         0.39491E+00
         0.41457E+00
         0.41057E+00
         0.40552E+00
         0.38162E+00
         0.38011E+00
         0.39579E+00
         0.37508E+00
         0.37515E+00
         0.37484E+00
         0.37404E+00
         0.37935E+00
         0.38472E+00
         0.38024E+00
         0.37603E+00
         0.37973E+00
         0.35137E+00
         0.38073E+00
         0.36707E+00
         0.38492E+00
         0.37455E+00
         0.40043E+00
         0.42399E+00
         0.41525E+00
         0.39558E+00
         0.38853E+00
         0.35460E+00
         0.34016E+00
         0.34367E+00
         0.34820E+00
         0.35712E+00
         0.36919E+00
         0.37739E+00
         0.36785E+00
         0.38086E+00
         0.37805E+00
         0.36979E+00
         0.37770E+00
         0.36504E+00
         0.36442E+00
         0.37934E+00
         0.37925E+00
         0.38024E+00
         0.37777E+00
         0.36331E+00
         0.36382E+00
         0.34429E+00
         0.33837E+00
         0.37700E+00
         0.38422E+00
         0.37622E+00
         0.38400E+00
         0.37532E+00
         0.36881E+00
         0.36139E+00
         0.38362E+00
         0.37778E+00
         0.37031E+00
         0.37613E+00
         0.37302E+00
         0.35951E+00
         0.37060E+00
         0.34026E+00
         0.35917E+00
         0.33261E+00
         0.34984E+00
         0.37874E+00
         0.35685E+00
         0.38734E+00
         0.38170E+00
         0.36887E+00
         0.37080E+00
         0.36251E+00
         0.35186E+00
         0.36826E+00
         0.35753E+00
         0.33919E+00
         0.34865E+00
         0.35744E+00
         0.37928E+00
         0.37914E+00
         0.37509E+00
         0.35800E+00
         0.35417E+00
         0.36391E+00
         0.33851E+00
         0.34005E+00
         0.34442E+00
         0.34755E+00
         0.35355E+00
         0.35941E+00
         0.35179E+00
         0.33924E+00
         0.33816E+00
         0.30779E+00
         0.33241E+00
         0.32236E+00
         0.33629E+00
         0.33202E+00
         0.36350E+00
         0.38393E+00
         0.37531E+00
         0.36344E+00
         0.36558E+00
         0.33562E+00
         0.32698E+00
         0.32599E+00
         0.31534E+00
         0.32042E+00
         0.32868E+00
         0.33588E+00
         0.32679E+00
         0.34903E+00
         0.35056E+00
         0.33738E+00
         0.34480E+00
         0.33533E+00
         0.32691E+00
         0.33570E+00
         0.33552E+00
         0.35585E+00
         0.34648E+00
         0.33834E+00
         0.34067E+00
         0.32114E+00
         0.31480E+00
         0.34096E+00
         0.35751E+00
         0.35716E+00
         0.36367E+00
         0.33899E+00
         0.33411E+00
         0.32919E+00
         0.35525E+00
         0.34763E+00
         0.34729E+00
         0.35442E+00
         0.35226E+00
         0.33271E+00
         0.34002E+00
         0.31516E+00
         0.32709E+00
         0.31175E+00
         0.32486E+00
         0.35314E+00
         0.33191E+00
         0.36203E+00
         0.35246E+00
         0.33683E+00
         0.33909E+00
         0.34298E+00
         0.32987E+00
         0.34793E+00
         0.33436E+00
         0.31730E+00
         0.32636E+00
         0.33072E+00
         0.35309E+00
         0.35055E+00
         0.34188E+00
         0.32660E+00
         0.32277E+00
         0.33022E+00
         0.31564E+00
         0.31594E+00
         0.32069E+00
         0.32748E+00
         0.33606E+00
         0.34031E+00
         0.32949E+00
         0.31447E+00
         0.31375E+00
         0.28460E+00
         0.30666E+00
         0.30199E+00
         0.31392E+00
         0.30982E+00
         0.33720E+00
         0.35650E+00
         0.35307E+00
         0.34285E+00
         0.33986E+00
         0.31728E+00
         0.30266E+00
         0.30035E+00
         0.29863E+00
         0.30308E+00
         0.30858E+00
         0.31497E+00
         0.30240E+00
         0.32223E+00
         0.32764E+00
         0.31763E+00
         0.32525E+00
         0.31235E+00
         0.29996E+00
         0.31329E+00
         0.31360E+00
         0.33424E+00
         0.32517E+00
         0.31988E+00
         0.32355E+00
         0.29575E+00
         0.29086E+00
         0.31444E+00
         0.33145E+00
         0.33214E+00
         0.33886E+00
         0.30966E+00
         0.30584E+00
         0.30429E+00
         0.32815E+00
         0.31991E+00
         0.32765E+00
         0.33217E+00
         0.33007E+00
         0.31837E+00
         0.32254E+00
         0.29499E+00
         0.30339E+00
         0.29267E+00
         0.30996E+00
         0.33082E+00
         0.31435E+00
         0.33956E+00
         0.33042E+00
         0.31148E+00
         0.31806E+00
         0.32493E+00
         0.31152E+00
         0.32950E+00
         0.31666E+00
         0.29050E+00
         0.30464E+00
         0.30936E+00
         0.32900E+00
         0.32475E+00
         0.31157E+00
         0.29374E+00
         0.29323E+00
         0.30397E+00
         0.29424E+00
         0.29398E+00
         0.29938E+00
         0.30922E+00
         0.31920E+00
         0.32215E+00
         0.31019E+00
         0.29177E+00
         0.28986E+00
         0.24689E+00
         0.26565E+00
         0.27143E+00
         0.28675E+00
         0.28638E+00
         0.31452E+00
         0.32927E+00
         0.32394E+00
         0.31031E+00
         0.29926E+00
         0.27509E+00
         0.26349E+00
         0.26197E+00
         0.25611E+00
         0.25953E+00
         0.27148E+00
         0.27912E+00
         0.27295E+00
         0.29972E+00
         0.30428E+00
         0.29059E+00
         0.29772E+00
         0.28717E+00
         0.26975E+00
         0.27435E+00
         0.27430E+00
         0.30369E+00
         0.30254E+00
         0.30614E+00
         0.30325E+00
         0.28682E+00
         0.28282E+00
         0.28657E+00
         0.29678E+00
         0.29751E+00
         0.30447E+00
         0.27921E+00
         0.28127E+00
         0.28494E+00
         0.29361E+00
         0.28866E+00
         0.29506E+00
         0.29808E+00
         0.29680E+00
         0.30222E+00
         0.30244E+00
         0.29523E+00
         0.29884E+00
         0.29023E+00
         0.29838E+00
         0.30009E+00
         0.29379E+00
         0.30729E+00
         0.30327E+00
         0.29181E+00
         0.29734E+00
         0.29573E+00
         0.28913E+00
         0.30161E+00
         0.29910E+00
         0.28099E+00
         0.29276E+00
         0.29295E+00
         0.29850E+00
         0.29908E+00
         0.29094E+00
         0.27827E+00
         0.28184E+00
         0.29507E+00
         0.28366E+00
         0.27911E+00
         0.28454E+00
         0.29071E+00
         0.29686E+00
         0.29978E+00
         0.29492E+00
         0.28315E+00
         0.28164E+00
         0.23827E+00
         0.25552E+00
         0.25659E+00
         0.27044E+00
         0.27587E+00
         0.29814E+00
         0.30138E+00
         0.29258E+00
         0.28509E+00
         0.27664E+00
         0.25963E+00
         0.25896E+00
         0.26585E+00
         0.26302E+00
         0.25925E+00
         0.26390E+00
         0.26777E+00
         0.25955E+00
         0.28790E+00
         0.28820E+00
         0.27091E+00
         0.27692E+00
         0.27337E+00
         0.26522E+00
         0.26649E+00
         0.26488E+00
         0.27870E+00
         0.27626E+00
         0.27901E+00
         0.27716E+00
         0.26406E+00
         0.25938E+00
         0.26118E+00
         0.27102E+00
         0.27578E+00
         0.28120E+00
         0.25235E+00
         0.25513E+00
         0.26168E+00
         0.26489E+00
         0.26143E+00
         0.26632E+00
         0.27146E+00
         0.27433E+00
         0.26814E+00
         0.26850E+00
         0.26576E+00
         0.26705E+00
         0.26356E+00
         0.26598E+00
         0.27498E+00
         0.26306E+00
         0.28076E+00
         0.27849E+00
         0.26498E+00
         0.26623E+00
         0.26981E+00
         0.26233E+00
         0.27695E+00
         0.27362E+00
         0.26189E+00
         0.27099E+00
         0.27083E+00
         0.27321E+00
         0.27450E+00
         0.26585E+00
         0.25400E+00
         0.25457E+00
         0.26464E+00
         0.25845E+00
         0.25761E+00
         0.26460E+00
         0.26618E+00
         0.26961E+00
         0.27213E+00
         0.26994E+00
         0.26234E+00
         0.25959E+00
         0.23128E+00
         0.24216E+00
         0.24444E+00
         0.25462E+00
         0.25798E+00
         0.27582E+00
         0.28082E+00
         0.27499E+00
         0.26709E+00
         0.25860E+00
         0.24709E+00
         0.24559E+00
         0.25687E+00
         0.25119E+00
         0.24622E+00
         0.24722E+00
         0.24855E+00
         0.24700E+00
         0.27255E+00
         0.26481E+00
         0.24581E+00
         0.25113E+00
         0.25135E+00
         0.24975E+00
         0.25133E+00
         0.24942E+00
         0.25444E+00
         0.25230E+00
         0.25111E+00
         0.25009E+00
         0.23324E+00
         0.22956E+00
         0.23992E+00
         0.24703E+00
         0.25324E+00
         0.25543E+00
         0.23095E+00
         0.23325E+00
         0.23915E+00
         0.23873E+00
         0.23628E+00
         0.24514E+00
         0.25067E+00
         0.25186E+00
         0.24495E+00
         0.24563E+00
         0.23550E+00
         0.23628E+00
         0.23455E+00
         0.24048E+00
         0.25209E+00
         0.23831E+00
         0.25256E+00
         0.25454E+00
         0.24466E+00
         0.24437E+00
         0.24632E+00
         0.23738E+00
         0.25353E+00
         0.24624E+00
         0.23038E+00
         0.24239E+00
         0.24613E+00
         0.24547E+00
         0.25021E+00
         0.24585E+00
         0.23418E+00
         0.23234E+00
         0.23682E+00
         0.23175E+00
         0.23339E+00
         0.24021E+00
         0.24023E+00
         0.24393E+00
         0.24622E+00
         0.24161E+00
         0.23269E+00
         0.22960E+00
         0.20015E+00
         0.21332E+00
         0.21423E+00
         0.23101E+00
         0.23516E+00
         0.25104E+00
         0.25557E+00
         0.24814E+00
         0.24490E+00
         0.24049E+00
         0.22657E+00
         0.21996E+00
         0.21863E+00
         0.21355E+00
         0.21364E+00
         0.21575E+00
         0.21999E+00
         0.22711E+00
         0.25030E+00
         0.23927E+00
         0.22053E+00
         0.22479E+00
         0.22362E+00
         0.22232E+00
         0.22132E+00
         0.22081E+00
         0.22159E+00
         0.22662E+00
         0.22751E+00
         0.22283E+00
         0.20899E+00
         0.20583E+00
         0.21241E+00
         0.21134E+00
         0.21416E+00
         0.21449E+00
         0.20195E+00
         0.20638E+00
         0.21394E+00
         0.20298E+00
         0.20199E+00
         0.21524E+00
         0.21624E+00
         0.21768E+00
         0.22199E+00
         0.22108E+00
         0.21187E+00
         0.21224E+00
         0.21162E+00
         0.21840E+00
         0.21531E+00
         0.21388E+00
         0.21442E+00
         0.21784E+00
         0.21300E+00
         0.21721E+00
         0.21653E+00
         0.21030E+00
         0.22398E+00
         0.21958E+00
         0.20545E+00
         0.21738E+00
         0.22032E+00
         0.20856E+00
         0.21445E+00
         0.21114E+00
         0.20190E+00
         0.20420E+00
         0.21117E+00
         0.20948E+00
         0.20911E+00
         0.21418E+00
         0.21341E+00
         0.21686E+00
         0.21967E+00
         0.21593E+00
         0.20910E+00
         0.20605E+00
         0.17717E+00
         0.19100E+00
         0.18866E+00
         0.20286E+00
         0.21013E+00
         0.22260E+00
         0.21779E+00
         0.20582E+00
         0.20607E+00
         0.20212E+00
         0.19094E+00
         0.18779E+00
         0.18849E+00
         0.18554E+00
         0.18256E+00
         0.18730E+00
         0.19842E+00
         0.20657E+00
         0.22568E+00
         0.21617E+00
         0.19604E+00
         0.19967E+00
         0.19984E+00
         0.20127E+00
         0.20013E+00
         0.19772E+00
         0.18539E+00
         0.19229E+00
         0.19464E+00
         0.18760E+00
         0.18770E+00
         0.18388E+00
         0.18274E+00
         0.17947E+00
         0.17612E+00
         0.17873E+00
         0.17558E+00
         0.17927E+00
         0.18461E+00
         0.17433E+00
         0.17482E+00
         0.17730E+00
         0.17940E+00
         0.17810E+00
         0.18827E+00
         0.18625E+00
         0.19131E+00
         0.18977E+00
         0.19031E+00
         0.18759E+00
         0.17991E+00
         0.18061E+00
         0.18113E+00
         0.18295E+00
         0.17984E+00
         0.18283E+00
         0.17898E+00
         0.17713E+00
         0.18580E+00
         0.18675E+00
         0.18606E+00
         0.19027E+00
         0.18929E+00
         0.17882E+00
         0.18195E+00
         0.18001E+00
         0.17931E+00
         0.18146E+00
         0.18759E+00
         0.18396E+00
         0.18123E+00
         0.18529E+00
         0.18251E+00
         0.18356E+00
         0.18559E+00
         0.18510E+00
         0.18419E+00
         0.18328E+00
         0.17325E+00
         0.18844E+00
         0.17602E+00
         0.18083E+00
         0.18449E+00
         0.19007E+00
         0.18459E+00
         0.17896E+00
         0.18000E+00
         0.18311E+00
         0.19003E+00
         0.19965E+00
         0.20269E+00
         0.19778E+00
         0.19302E+00
         0.18854E+00
         0.18455E+00
         0.18535E+00
         0.19697E+00
         0.18722E+00
         0.17026E+00
         0.17342E+00
         0.17575E+00
         0.18205E+00
         0.18927E+00
         0.19174E+00
         0.15020E+00
         0.15402E+00
         0.15357E+00
         0.14866E+00
         0.15161E+00
         0.14830E+00
         0.15033E+00
         0.14738E+00
         0.14394E+00
         0.14356E+00
         0.14489E+00
         0.14607E+00
         0.15092E+00
         0.14064E+00
         0.13911E+00
         0.14680E+00
         0.14747E+00
         0.14469E+00
         0.15036E+00
         0.14815E+00
         0.14867E+00
         0.14756E+00
         0.15068E+00
         0.14995E+00
         0.14522E+00
         0.14770E+00
         0.14214E+00
         0.14492E+00
         0.14355E+00
         0.14555E+00
         0.14572E+00
         0.14532E+00
         0.14919E+00
         0.14851E+00
         0.15235E+00
         0.15329E+00
         0.15247E+00
         0.13976E+00
         0.14251E+00
         0.14234E+00
         0.14054E+00
         0.14079E+00
         0.14543E+00
         0.15001E+00
         0.15046E+00
         0.15459E+00
         0.14959E+00
         0.14774E+00
         0.14840E+00
         0.14869E+00
         0.15113E+00
         0.14941E+00
         0.15137E+00
         0.16369E+00
         0.15390E+00
         0.15461E+00
         0.15305E+00
         0.15154E+00
         0.14363E+00
         0.13925E+00
         0.13893E+00
         0.14348E+00
         0.14840E+00
         0.15598E+00
         0.16952E+00
         0.16914E+00
         0.16181E+00
         0.15893E+00
         0.15935E+00
         0.16185E+00
         0.16774E+00
         0.15473E+00
         0.13666E+00
         0.14184E+00
         0.14815E+00
         0.15702E+00
         0.16490E+00
         0.16548E+00
         0.11106E+00
         0.11753E+00
         0.12104E+00
         0.11229E+00
         0.12920E+00
         0.12319E+00
         0.11371E+00
         0.10861E+00
         0.10231E+00
         0.10171E+00
         0.10960E+00
         0.11229E+00
         0.11697E+00
         0.10447E+00
         0.10492E+00
         0.10909E+00
         0.10654E+00
         0.10578E+00
         0.11472E+00
         0.11243E+00
         0.12303E+00
         0.12126E+00
         0.12399E+00
         0.11651E+00
         0.10471E+00
         0.11390E+00
         0.10366E+00
         0.10702E+00
         0.11196E+00
         0.11155E+00
         0.10935E+00
         0.11201E+00
         0.11096E+00
         0.11265E+00
         0.13216E+00
         0.12641E+00
         0.12054E+00
         0.10556E+00
         0.11007E+00
         0.11394E+00
         0.11860E+00
         0.11823E+00
         0.11975E+00
         0.12150E+00
         0.12064E+00
         0.12316E+00
         0.11618E+00
         0.11283E+00
         0.11343E+00
         0.11597E+00
         0.12330E+00
         0.12239E+00
         0.14246E+00
         0.15566E+00
         0.13651E+00
         0.12912E+00
         0.12418E+00
         0.12051E+00
         0.10991E+00
         0.10886E+00
         0.11553E+00
         0.12176E+00
         0.13358E+00
         0.14430E+00
         0.15286E+00
         0.15634E+00
         0.15463E+00
         0.14821E+00
         0.14046E+00
         0.13492E+00
         0.13585E+00
         0.12569E+00
         0.11299E+00
         0.11768E+00
         0.12475E+00
         0.13732E+00
         0.14879E+00
         0.15305E+00
         0.74652E-01
         0.79546E-01
         0.85796E-01
         0.77256E-01
         0.10022E+00
         0.93946E-01
         0.77960E-01
         0.74871E-01
         0.69940E-01
         0.70211E-01
         0.77207E-01
         0.80277E-01
         0.82827E-01
         0.73453E-01
         0.73939E-01
         0.74699E-01
         0.73386E-01
         0.71974E-01
         0.80345E-01
         0.78615E-01
         0.92978E-01
         0.91233E-01
         0.93360E-01
         0.82630E-01
         0.71756E-01
         0.80839E-01
         0.70927E-01
         0.72331E-01
         0.78222E-01
         0.77652E-01
         0.76375E-01
         0.81145E-01
         0.76477E-01
         0.79847E-01
         0.10524E+00
         0.95817E-01
         0.86848E-01
         0.71896E-01
         0.74545E-01
         0.80148E-01
         0.88596E-01
         0.88492E-01
         0.89470E-01
         0.91875E-01
         0.92455E-01
         0.93933E-01
         0.85076E-01
         0.80137E-01
         0.80382E-01
         0.85199E-01
         0.95190E-01
         0.93799E-01
         0.12348E+00
         0.13318E+00
         0.11637E+00
         0.10514E+00
         0.95548E-01
         0.88199E-01
         0.74801E-01
         0.71778E-01
         0.79456E-01
         0.88718E-01
         0.10529E+00
         0.12037E+00
         0.12929E+00
         0.13211E+00
         0.13013E+00
         0.12324E+00
         0.11534E+00
         0.11114E+00
         0.10682E+00
         0.94110E-01
         0.85636E-01
         0.90765E-01
         0.98526E-01
         0.11195E+00
         0.12339E+00
         0.12827E+00
         0.41145E-01
         0.48662E-01
         0.56860E-01
         0.45617E-01
         0.75454E-01
         0.69534E-01
         0.48149E-01
         0.42468E-01
         0.40957E-01
         0.41390E-01
         0.47530E-01
         0.52478E-01
         0.56328E-01
         0.42049E-01
         0.45491E-01
         0.45198E-01
         0.44867E-01
         0.40491E-01
         0.52805E-01
         0.49808E-01
         0.70074E-01
         0.67234E-01
         0.71047E-01
         0.57453E-01
         0.43499E-01
         0.53701E-01
         0.40676E-01
         0.43490E-01
         0.51396E-01
         0.49417E-01
         0.45777E-01
         0.52128E-01
         0.45253E-01
         0.51351E-01
         0.80954E-01
         0.70103E-01
         0.60185E-01
         0.44027E-01
         0.47525E-01
         0.54789E-01
         0.66931E-01
         0.66980E-01
         0.66055E-01
         0.67383E-01
         0.64179E-01
         0.63094E-01
         0.54795E-01
         0.50683E-01
         0.52907E-01
         0.60696E-01
         0.72493E-01
         0.70037E-01
         0.99428E-01
         0.10687E+00
         0.92060E-01
         0.79216E-01
         0.67025E-01
         0.58983E-01
         0.50784E-01
         0.49246E-01
         0.56128E-01
         0.66351E-01
         0.84202E-01
         0.10024E+00
         0.10520E+00
         0.10850E+00
         0.10603E+00
         0.97996E-01
         0.89250E-01
         0.80986E-01
         0.73679E-01
         0.62713E-01
         0.58968E-01
         0.68306E-01
         0.78737E-01
         0.91204E-01
         0.10117E+00
         0.10432E+00
         0.21308E-01
         0.27583E-01
         0.33959E-01
         0.24984E-01
         0.49076E-01
         0.45520E-01
         0.27239E-01
         0.21898E-01
         0.18994E-01
         0.19297E-01
         0.27166E-01
         0.30365E-01
         0.32290E-01
         0.22283E-01
         0.25483E-01
         0.22576E-01
         0.21921E-01
         0.18629E-01
         0.30972E-01
         0.27701E-01
         0.46629E-01
         0.43263E-01
         0.49355E-01
         0.36261E-01
         0.21239E-01
         0.31691E-01
         0.19994E-01
         0.22273E-01
         0.29349E-01
         0.27482E-01
         0.22666E-01
         0.29678E-01
         0.22262E-01
         0.29111E-01
         0.51991E-01
         0.42591E-01
         0.34691E-01
         0.23704E-01
         0.26186E-01
         0.32355E-01
         0.41079E-01
         0.41304E-01
         0.41679E-01
         0.45963E-01
         0.42147E-01
         0.40815E-01
         0.32620E-01
         0.28000E-01
         0.29875E-01
         0.37496E-01
         0.47861E-01
         0.46007E-01
         0.67117E-01
         0.74636E-01
         0.58447E-01
         0.47830E-01
         0.40394E-01
         0.34805E-01
         0.29582E-01
         0.29645E-01
         0.31817E-01
         0.39111E-01
         0.50529E-01
         0.60519E-01
         0.70073E-01
         0.75435E-01
         0.74453E-01
         0.70603E-01
         0.65036E-01
         0.57723E-01
         0.50902E-01
         0.39817E-01
         0.34654E-01
         0.42571E-01
         0.52898E-01
         0.63000E-01
         0.72025E-01
         0.74435E-01
         0.10058E-01
         0.13294E-01
         0.17967E-01
         0.11958E-01
         0.29272E-01
         0.26401E-01
         0.13113E-01
         0.10546E-01
         0.91487E-02
         0.99352E-02
         0.13589E-01
         0.16902E-01
         0.18375E-01
         0.11434E-01
         0.13958E-01
         0.91875E-02
         0.91127E-02
         0.83387E-02
         0.15792E-01
         0.13627E-01
         0.30305E-01
         0.27526E-01
         0.30418E-01
         0.19354E-01
         0.99341E-02
         0.15604E-01
         0.11140E-01
         0.12150E-01
         0.15206E-01
         0.13379E-01
         0.10710E-01
         0.15994E-01
         0.96767E-02
         0.14558E-01
         0.32325E-01
         0.25370E-01
         0.19933E-01
         0.13861E-01
         0.16066E-01
         0.19076E-01
         0.23841E-01
         0.23660E-01
         0.25185E-01
         0.25679E-01
         0.23768E-01
         0.24241E-01
         0.18971E-01
         0.14280E-01
         0.14187E-01
         0.20450E-01
         0.29225E-01
         0.27324E-01
         0.44479E-01
         0.47025E-01
         0.37922E-01
         0.31084E-01
         0.27644E-01
         0.23726E-01
         0.18912E-01
         0.18444E-01
         0.21335E-01
         0.26940E-01
         0.32726E-01
         0.38124E-01
         0.45067E-01
         0.49986E-01
         0.51206E-01
         0.47034E-01
         0.37434E-01
         0.31378E-01
         0.30075E-01
         0.24860E-01
         0.20702E-01
         0.23060E-01
         0.32087E-01
         0.41239E-01
         0.45682E-01
         0.45362E-01
         0.43558E-02
         0.64406E-02
         0.84365E-02
         0.51144E-02
         0.14551E-01
         0.12841E-01
         0.68934E-02
         0.45313E-02
         0.42093E-02
         0.37831E-02
         0.62865E-02
         0.80156E-02
         0.99524E-02
         0.38546E-02
         0.45899E-02
         0.43446E-02
         0.40790E-02
         0.40105E-02
         0.77751E-02
         0.70471E-02
         0.15730E-01
         0.14435E-01
         0.15854E-01
         0.97064E-02
         0.43722E-02
         0.78577E-02
         0.34375E-02
         0.54311E-02
         0.94481E-02
         0.76373E-02
         0.56378E-02
         0.86085E-02
         0.49944E-02
         0.76513E-02
         0.17199E-01
         0.13223E-01
         0.10157E-01
         0.43609E-02
         0.73810E-02
         0.12608E-01
         0.17358E-01
         0.15139E-01
         0.14026E-01
         0.13413E-01
         0.12709E-01
         0.12877E-01
         0.95436E-02
         0.65153E-02
         0.70226E-02
         0.11035E-01
         0.15180E-01
         0.13791E-01
         0.24863E-01
         0.23339E-01
         0.20680E-01
         0.14659E-01
         0.12390E-01
         0.10530E-01
         0.70087E-02
         0.64084E-02
         0.10056E-01
         0.19133E-01
         0.25265E-01
         0.22855E-01
         0.21491E-01
         0.24040E-01
         0.24587E-01
         0.22927E-01
         0.19234E-01
         0.16332E-01
         0.15582E-01
         0.10394E-01
         0.80364E-02
         0.11375E-01
         0.16314E-01
         0.19402E-01
         0.21510E-01
         0.22005E-01
         0.13762E-02
         0.23563E-02
         0.37604E-02
         0.14585E-02
         0.70340E-02
         0.60687E-02
         0.24214E-02
         0.18560E-02
         0.18662E-02
         0.18965E-02
         0.26210E-02
         0.31896E-02
         0.38622E-02
         0.23635E-02
         0.29283E-02
         0.18040E-02
         0.20961E-02
         0.14429E-02
         0.16886E-02
         0.20303E-02
         0.53371E-02
         0.56824E-02
         0.62891E-02
         0.27506E-02
         0.23440E-02
         0.23910E-02
         0.21403E-02
         0.20771E-02
         0.31835E-02
         0.29916E-02
         0.17868E-02
         0.28316E-02
         0.15975E-02
         0.27803E-02
         0.83886E-02
         0.65821E-02
         0.46274E-02
         0.29961E-02
         0.23932E-02
         0.34278E-02
         0.66276E-02
         0.62592E-02
         0.61408E-02
         0.57378E-02
         0.52893E-02
         0.54997E-02
         0.37579E-02
         0.25943E-02
         0.32482E-02
         0.49102E-02
         0.65520E-02
         0.60782E-02
         0.11969E-01
         0.11423E-01
         0.10925E-01
         0.86073E-02
         0.61464E-02
         0.45945E-02
         0.28379E-02
         0.46506E-02
         0.55358E-02
         0.75845E-02
         0.13262E-01
         0.11491E-01
         0.13362E-01
         0.15504E-01
         0.13702E-01
         0.12750E-01
         0.11424E-01
         0.85753E-02
         0.76735E-02
         0.45232E-02
         0.33669E-02
         0.60407E-02
         0.79515E-02
         0.78330E-02
         0.98518E-02
         0.11433E-01
         0.35887E-03
         0.45409E-03
         0.17109E-02
         0.43284E-03
         0.23424E-02
         0.23498E-02
        -0.70040E-04
         0.66158E-03
         0.94204E-03
         0.90510E-03
         0.34910E-03
         0.69442E-03
         0.82805E-03
         0.98228E-03
         0.10149E-02
         0.98206E-03
         0.73646E-03
         0.19515E-03
         0.14310E-02
         0.74308E-03
         0.22041E-02
         0.21465E-02
         0.29139E-02
         0.19973E-02
         0.31417E-03
         0.13715E-02
         0.78472E-03
         0.57354E-03
         0.16120E-02
         0.98039E-03
         0.45845E-04
         0.74496E-03
         0.11648E-03
         0.11891E-02
         0.27748E-02
         0.27776E-02
         0.16983E-02
         0.10674E-02
         0.84392E-03
         0.19863E-02
         0.34250E-02
         0.32659E-02
         0.28891E-02
         0.23029E-02
         0.19176E-02
         0.13590E-02
         0.27392E-03
         0.17688E-03
         0.13778E-02
         0.28434E-02
         0.41189E-02
         0.31526E-02
         0.32126E-02
         0.31236E-02
         0.41209E-02
         0.42354E-02
         0.36150E-02
         0.28330E-02
         0.13185E-02
         0.16765E-02
         0.13464E-02
         0.26981E-02
         0.44899E-02
         0.39930E-02
         0.34356E-02
         0.27753E-02
         0.29537E-02
         0.36208E-02
         0.24554E-02
         0.20108E-02
         0.15682E-02
         0.71728E-03
         0.12671E-02
         0.25310E-02
         0.52860E-02
         0.56321E-02
         0.49635E-02
         0.38815E-02
         0.64002E-03
         0.35281E-03
         0.31865E-03
         0.36758E-03
         0.96153E-03
         0.10406E-02
         0.21620E-03
         0.28582E-03
         0.23660E-03
        -0.55457E-03
         0.10142E-03
         0.50344E-03
         0.87183E-03
        -0.25284E-03
        -0.30689E-03
        -0.21113E-04
        -0.13472E-03
         0.13049E-04
         0.46905E-03
        -0.59255E-04
         0.11606E-02
         0.12943E-02
         0.12517E-02
         0.77586E-03
        -0.12304E-03
         0.36543E-03
        -0.67948E-03
         0.83319E-03
         0.99944E-03
         0.10228E-04
        -0.26782E-03
         0.22984E-03
        -0.11125E-03
         0.56860E-03
         0.14862E-02
         0.10575E-02
         0.88681E-03
        -0.43317E-03
         0.13778E-02
         0.20778E-02
         0.25425E-03
         0.46445E-03
         0.11403E-02
         0.11280E-02
         0.11974E-02
         0.10163E-02
         0.50413E-03
         0.35786E-03
         0.37848E-03
         0.66181E-03
         0.13035E-02
         0.13270E-02
         0.35209E-02
         0.22355E-02
         0.29900E-02
         0.25029E-02
         0.22615E-02
         0.24364E-02
         0.18256E-02
        -0.14244E-03
         0.24047E-02
         0.25726E-02
        -0.89541E-03
         0.69339E-02
         0.50841E-02
         0.26290E-02
         0.16943E-02
         0.12886E-02
         0.13784E-02
         0.11903E-02
         0.86817E-03
         0.84680E-03
         0.65155E-03
        -0.34276E-03
         0.10434E-02
         0.82191E-03
         0.99379E-03
         0.19948E-02
        -0.14231E-03
         0.27583E-04
        -0.24516E-03
        -0.38202E-04
         0.78325E-04
         0.39989E-03
         0.48459E-04
         0.30563E-03
        -0.10541E-02
        -0.10091E-02
         0.60698E-03
         0.28701E-03
        -0.62016E-04
         0.72644E-03
         0.33109E-03
        -0.98279E-03
        -0.11806E-02
        -0.82763E-03
        -0.74255E-03
        -0.41700E-03
        -0.12206E-03
         0.11309E-02
        -0.50111E-03
        -0.50796E-03
        -0.59951E-03
        -0.64469E-03
        -0.61012E-03
        -0.97479E-04
         0.14204E-03
        -0.28895E-03
        -0.10374E-02
        -0.97244E-03
        -0.49012E-03
         0.21374E-03
        -0.70146E-03
        -0.84576E-03
        -0.34785E-03
        -0.53319E-03
        -0.26331E-03
         0.44042E-03
        -0.55554E-04
        -0.60555E-03
         0.10080E-03
         0.70281E-04
        -0.43027E-03
        -0.37548E-03
        -0.25718E-03
        -0.50271E-03
        -0.64936E-03
        -0.30842E-03
        -0.25290E-03
         0.83737E-04
        -0.45937E-04
        -0.13814E-03
         0.11381E-03
         0.77416E-03
         0.14607E-03
        -0.13646E-02
         0.17761E-02
         0.30646E-02
         0.64355E-03
         0.18129E-02
         0.17370E-02
         0.17097E-02
        -0.71540E-04
         0.29876E-02
         0.86575E-03
        -0.37575E-03
         0.63165E-03
        -0.12541E-02
        -0.84163E-03
        -0.44371E-03
        -0.13895E-02
        -0.24710E-02
        -0.15473E-02
        -0.25565E-02
        -0.27221E-02
        -0.10712E-02
         0.36450E-03
        -0.17449E-02
        -0.24184E-02
        -0.52779E-03
        -0.50152E-03
         0.93693E-03
        -0.24363E-02
        -0.14152E-02
        -0.25541E-02
        -0.30579E-02
        -0.16526E-02
        -0.59336E-03
        -0.19703E-02
        -0.94892E-03
        -0.86384E-03
        -0.20383E-02
        -0.37757E-02
         0.24037E-03
        -0.17244E-02
        -0.80101E-03
         0.78529E-03
         0.10310E-02
         0.14626E-02
        -0.11279E-02
        -0.20016E-02
        -0.22227E-02
        -0.66367E-03
        -0.51762E-03
        -0.24367E-02
        -0.83754E-03
        -0.44190E-03
        -0.14218E-02
        -0.13191E-02
        -0.19019E-02
        -0.89275E-03
        -0.18044E-02
        -0.19229E-02
         0.73924E-04
         0.70691E-03
        -0.27040E-02
        -0.24524E-02
         0.40502E-03
         0.23766E-02
         0.58634E-05
        -0.53509E-03
        -0.72443E-03
        -0.13542E-02
        -0.11967E-02
        -0.12926E-02
        -0.62473E-03
         0.55186E-03
         0.72719E-03
         0.34678E-02
         0.38443E-02
         0.48906E-02
         0.16157E-02
         0.15429E-02
         0.18644E-02
         0.15051E-02
         0.44028E-02
         0.65699E-02
         0.45156E-02
         0.11247E-02
         0.43872E-02
         0.35191E-02
        -0.19702E-02
         0.17360E-02
         0.31309E-02
        -0.12803E-02
         0.15832E-03
        -0.41109E-03
        -0.21394E-02
         0.18182E-02
         0.19282E-02
         0.17538E-02
        -0.11407E-02
         0.64580E-03
         0.39492E-02
  
SCALARS                      strain_yy  double 1
LOOKUP_TABLE default
         0.57029E+00
         0.55400E+00
         0.56275E+00
         0.57619E+00
         0.65455E+00
         0.62520E+00
         0.64813E+00
         0.67250E+00
         0.56150E+00
         0.57116E+00
         0.65641E+00
         0.67420E+00
         0.55075E+00
         0.56005E+00
         0.59475E+00
         0.58411E+00
         0.58509E+00
         0.56521E+00
         0.68162E+00
         0.59733E+00
         0.54021E+00
         0.53353E+00
         0.54589E+00
         0.56538E+00
         0.54200E+00
         0.57215E+00
         0.54000E+00
         0.52218E+00
         0.53783E+00
         0.52387E+00
         0.58540E+00
         0.58771E+00
         0.58211E+00
         0.66053E+00
         0.67276E+00
         0.66636E+00
         0.59526E+00
         0.58347E+00
         0.65813E+00
         0.67009E+00
         0.59705E+00
         0.58139E+00
         0.67551E+00
         0.66954E+00
         0.59097E+00
         0.59337E+00
         0.65944E+00
         0.64941E+00
         0.57437E+00
         0.62743E+00
         0.58800E+00
         0.68809E+00
         0.53900E+00
         0.52686E+00
         0.54287E+00
         0.55360E+00
         0.55376E+00
         0.56933E+00
         0.57787E+00
         0.64376E+00
         0.58009E+00
         0.60157E+00
         0.70892E+00
         0.75542E+00
         0.57155E+00
         0.67849E+00
         0.58307E+00
         0.68317E+00
         0.56542E+00
         0.56568E+00
         0.61136E+00
         0.60863E+00
         0.54935E+00
         0.59128E+00
         0.52948E+00
         0.51107E+00
         0.53506E+00
         0.52197E+00
         0.54496E+00
         0.53712E+00
         0.56451E+00
         0.56988E+00
         0.56326E+00
         0.62139E+00
         0.56655E+00
         0.65234E+00
         0.58310E+00
         0.69004E+00
         0.61497E+00
         0.75771E+00
         0.65111E+00
         0.64571E+00
         0.79143E+00
         0.79816E+00
         0.63287E+00
         0.78856E+00
         0.61764E+00
         0.76428E+00
         0.61434E+00
         0.74155E+00
         0.60947E+00
         0.58748E+00
         0.70079E+00
         0.68587E+00
         0.56306E+00
         0.55498E+00
         0.59501E+00
         0.63020E+00
         0.58772E+00
         0.57982E+00
         0.58130E+00
         0.56056E+00
         0.59661E+00
         0.55826E+00
         0.58831E+00
         0.54261E+00
         0.58015E+00
         0.51059E+00
         0.58283E+00
         0.50495E+00
         0.58438E+00
         0.51977E+00
         0.57441E+00
         0.51787E+00
         0.56196E+00
         0.54799E+00
         0.57731E+00
         0.59625E+00
         0.58232E+00
         0.62031E+00
         0.59304E+00
         0.65343E+00
         0.58400E+00
         0.67006E+00
         0.60651E+00
         0.68111E+00
         0.62149E+00
         0.69135E+00
         0.62101E+00
         0.72484E+00
         0.61403E+00
         0.74658E+00
         0.68066E+00
         0.74119E+00
         0.73041E+00
         0.75741E+00
         0.70757E+00
         0.74814E+00
         0.64654E+00
         0.71092E+00
         0.60687E+00
         0.67440E+00
         0.60662E+00
         0.67872E+00
         0.58228E+00
         0.66916E+00
         0.52232E+00
         0.49723E+00
         0.49868E+00
         0.51904E+00
         0.48565E+00
         0.49723E+00
         0.49333E+00
         0.51818E+00
         0.53481E+00
         0.52717E+00
         0.48428E+00
         0.45325E+00
         0.46176E+00
         0.49892E+00
         0.45433E+00
         0.52051E+00
         0.53258E+00
         0.52742E+00
         0.53353E+00
         0.52561E+00
         0.52021E+00
         0.50561E+00
         0.50771E+00
         0.52077E+00
         0.52979E+00
         0.49951E+00
         0.50551E+00
         0.50208E+00
         0.50186E+00
         0.51571E+00
         0.48775E+00
         0.48218E+00
         0.48936E+00
         0.49850E+00
         0.48264E+00
         0.49010E+00
         0.47525E+00
         0.46613E+00
         0.47133E+00
         0.47313E+00
         0.48505E+00
         0.50052E+00
         0.49487E+00
         0.47567E+00
         0.46680E+00
         0.46543E+00
         0.46556E+00
         0.46111E+00
         0.45623E+00
         0.47040E+00
         0.47798E+00
         0.48882E+00
         0.47843E+00
         0.46371E+00
         0.49636E+00
         0.47866E+00
         0.47497E+00
         0.42908E+00
         0.39858E+00
         0.39406E+00
         0.40897E+00
         0.40932E+00
         0.43343E+00
         0.47554E+00
         0.49926E+00
         0.50854E+00
         0.48381E+00
         0.46972E+00
         0.45830E+00
         0.43318E+00
         0.40746E+00
         0.42587E+00
         0.47091E+00
         0.46148E+00
         0.46022E+00
         0.45944E+00
         0.47663E+00
         0.48009E+00
         0.47358E+00
         0.46098E+00
         0.44873E+00
         0.45460E+00
         0.43482E+00
         0.43669E+00
         0.47895E+00
         0.49102E+00
         0.47796E+00
         0.48874E+00
         0.48794E+00
         0.46998E+00
         0.46048E+00
         0.50041E+00
         0.48250E+00
         0.44912E+00
         0.47373E+00
         0.45761E+00
         0.46431E+00
         0.47078E+00
         0.45655E+00
         0.45739E+00
         0.43235E+00
         0.44164E+00
         0.48657E+00
         0.41907E+00
         0.49926E+00
         0.49194E+00
         0.49090E+00
         0.47580E+00
         0.41439E+00
         0.39953E+00
         0.41795E+00
         0.42469E+00
         0.43736E+00
         0.45015E+00
         0.45281E+00
         0.49487E+00
         0.49386E+00
         0.49077E+00
         0.49623E+00
         0.48759E+00
         0.46009E+00
         0.39873E+00
         0.38304E+00
         0.37942E+00
         0.38301E+00
         0.38308E+00
         0.38097E+00
         0.39484E+00
         0.40200E+00
         0.41853E+00
         0.43820E+00
         0.41989E+00
         0.45671E+00
         0.46293E+00
         0.49075E+00
         0.48195E+00
         0.48199E+00
         0.48503E+00
         0.47936E+00
         0.46863E+00
         0.48027E+00
         0.48428E+00
         0.47544E+00
         0.46832E+00
         0.43748E+00
         0.40941E+00
         0.39453E+00
         0.37298E+00
         0.35618E+00
         0.36502E+00
         0.39532E+00
         0.38057E+00
         0.38733E+00
         0.39448E+00
         0.41611E+00
         0.42775E+00
         0.42453E+00
         0.41445E+00
         0.40036E+00
         0.40544E+00
         0.39033E+00
         0.39296E+00
         0.43189E+00
         0.44111E+00
         0.42507E+00
         0.43653E+00
         0.43680E+00
         0.41521E+00
         0.41306E+00
         0.44711E+00
         0.42525E+00
         0.40119E+00
         0.41905E+00
         0.40627E+00
         0.41037E+00
         0.41783E+00
         0.40168E+00
         0.40879E+00
         0.38178E+00
         0.39284E+00
         0.43471E+00
         0.37824E+00
         0.44746E+00
         0.44147E+00
         0.43851E+00
         0.42589E+00
         0.37606E+00
         0.36367E+00
         0.37542E+00
         0.37965E+00
         0.39183E+00
         0.40219E+00
         0.40706E+00
         0.43650E+00
         0.43310E+00
         0.42633E+00
         0.42958E+00
         0.43085E+00
         0.41219E+00
         0.36020E+00
         0.34981E+00
         0.34372E+00
         0.34810E+00
         0.35184E+00
         0.34847E+00
         0.35625E+00
         0.36057E+00
         0.37594E+00
         0.39636E+00
         0.37705E+00
         0.41541E+00
         0.41541E+00
         0.42172E+00
         0.38879E+00
         0.38106E+00
         0.38360E+00
         0.39174E+00
         0.38848E+00
         0.40718E+00
         0.42107E+00
         0.41971E+00
         0.41393E+00
         0.38133E+00
         0.35793E+00
         0.35791E+00
         0.34647E+00
         0.31986E+00
         0.32476E+00
         0.35727E+00
         0.34546E+00
         0.34962E+00
         0.35357E+00
         0.36989E+00
         0.38096E+00
         0.38070E+00
         0.37118E+00
         0.36186E+00
         0.37105E+00
         0.35709E+00
         0.36275E+00
         0.38736E+00
         0.39327E+00
         0.38364E+00
         0.39011E+00
         0.39483E+00
         0.37813E+00
         0.37297E+00
         0.40123E+00
         0.38629E+00
         0.36793E+00
         0.37835E+00
         0.37181E+00
         0.37165E+00
         0.37736E+00
         0.36123E+00
         0.36871E+00
         0.34942E+00
         0.35865E+00
         0.38977E+00
         0.35127E+00
         0.39957E+00
         0.39650E+00
         0.39631E+00
         0.38425E+00
         0.35048E+00
         0.34102E+00
         0.34954E+00
         0.35383E+00
         0.35343E+00
         0.35849E+00
         0.36354E+00
         0.39410E+00
         0.39152E+00
         0.38876E+00
         0.39310E+00
         0.39229E+00
         0.37507E+00
         0.33642E+00
         0.32944E+00
         0.32103E+00
         0.32447E+00
         0.32862E+00
         0.32640E+00
         0.33337E+00
         0.33696E+00
         0.34997E+00
         0.35762E+00
         0.34524E+00
         0.36495E+00
         0.36565E+00
         0.37684E+00
         0.34281E+00
         0.33450E+00
         0.35192E+00
         0.36335E+00
         0.36041E+00
         0.37406E+00
         0.37971E+00
         0.37482E+00
         0.36924E+00
         0.34819E+00
         0.33014E+00
         0.32620E+00
         0.32169E+00
         0.29431E+00
         0.29690E+00
         0.33312E+00
         0.32320E+00
         0.32372E+00
         0.32803E+00
         0.34338E+00
         0.34870E+00
         0.35392E+00
         0.34093E+00
         0.33295E+00
         0.34650E+00
         0.33130E+00
         0.34151E+00
         0.35325E+00
         0.35919E+00
         0.36537E+00
         0.35999E+00
         0.35517E+00
         0.34520E+00
         0.34294E+00
         0.35527E+00
         0.34706E+00
         0.34866E+00
         0.36146E+00
         0.35229E+00
         0.34667E+00
         0.35256E+00
         0.33518E+00
         0.34016E+00
         0.32670E+00
         0.33390E+00
         0.36260E+00
         0.33120E+00
         0.35275E+00
         0.35465E+00
         0.35856E+00
         0.35608E+00
         0.33221E+00
         0.32440E+00
         0.33098E+00
         0.33507E+00
         0.32472E+00
         0.32744E+00
         0.33331E+00
         0.35169E+00
         0.34824E+00
         0.34621E+00
         0.35146E+00
         0.35564E+00
         0.34466E+00
         0.32000E+00
         0.31451E+00
         0.30397E+00
         0.30694E+00
         0.31098E+00
         0.30876E+00
         0.31547E+00
         0.31951E+00
         0.33271E+00
         0.32798E+00
         0.31892E+00
         0.33412E+00
         0.33584E+00
         0.34562E+00
         0.31751E+00
         0.31896E+00
         0.33748E+00
         0.33762E+00
         0.33434E+00
         0.34276E+00
         0.34678E+00
         0.34707E+00
         0.34408E+00
         0.32843E+00
         0.31179E+00
         0.31409E+00
         0.31134E+00
         0.27637E+00
         0.27936E+00
         0.31233E+00
         0.30182E+00
         0.30004E+00
         0.30644E+00
         0.32592E+00
         0.32733E+00
         0.32839E+00
         0.31693E+00
         0.31147E+00
         0.32749E+00
         0.31075E+00
         0.32283E+00
         0.32435E+00
         0.32790E+00
         0.33911E+00
         0.32868E+00
         0.32228E+00
         0.31127E+00
         0.31288E+00
         0.31888E+00
         0.30921E+00
         0.33462E+00
         0.33806E+00
         0.33496E+00
         0.32814E+00
         0.33180E+00
         0.31667E+00
         0.32145E+00
         0.30751E+00
         0.31864E+00
         0.33429E+00
         0.32031E+00
         0.31549E+00
         0.31951E+00
         0.32462E+00
         0.33053E+00
         0.32367E+00
         0.31230E+00
         0.32027E+00
         0.32105E+00
         0.30237E+00
         0.30279E+00
         0.30652E+00
         0.30953E+00
         0.30614E+00
         0.30649E+00
         0.31344E+00
         0.32089E+00
         0.31868E+00
         0.30160E+00
         0.29135E+00
         0.27104E+00
         0.28143E+00
         0.29111E+00
         0.29088E+00
         0.29664E+00
         0.29968E+00
         0.31539E+00
         0.30433E+00
         0.29814E+00
         0.30519E+00
         0.30088E+00
         0.30407E+00
         0.27372E+00
         0.27344E+00
         0.28753E+00
         0.28695E+00
         0.28408E+00
         0.29798E+00
         0.30890E+00
         0.31710E+00
         0.31989E+00
         0.30869E+00
         0.28837E+00
         0.28076E+00
         0.26777E+00
         0.22584E+00
         0.23051E+00
         0.26840E+00
         0.26516E+00
         0.26708E+00
         0.27820E+00
         0.29743E+00
         0.30222E+00
         0.29722E+00
         0.29153E+00
         0.28757E+00
         0.30052E+00
         0.29020E+00
         0.30330E+00
         0.29764E+00
         0.29721E+00
         0.30502E+00
         0.29771E+00
         0.29651E+00
         0.28689E+00
         0.28779E+00
         0.29171E+00
         0.28482E+00
         0.30287E+00
         0.30533E+00
         0.30257E+00
         0.29620E+00
         0.30290E+00
         0.29430E+00
         0.29884E+00
         0.29198E+00
         0.29629E+00
         0.30588E+00
         0.30473E+00
         0.28720E+00
         0.29128E+00
         0.29641E+00
         0.30439E+00
         0.30938E+00
         0.30488E+00
         0.30158E+00
         0.30217E+00
         0.28230E+00
         0.28010E+00
         0.28292E+00
         0.28206E+00
         0.27754E+00
         0.27624E+00
         0.28266E+00
         0.29350E+00
         0.29494E+00
         0.29300E+00
         0.28485E+00
         0.26728E+00
         0.28123E+00
         0.29044E+00
         0.28674E+00
         0.28694E+00
         0.28721E+00
         0.29983E+00
         0.28663E+00
         0.28507E+00
         0.27864E+00
         0.27233E+00
         0.27128E+00
         0.24806E+00
         0.24995E+00
         0.26592E+00
         0.26897E+00
         0.25666E+00
         0.26717E+00
         0.28244E+00
         0.29075E+00
         0.30010E+00
         0.29519E+00
         0.27779E+00
         0.26898E+00
         0.25528E+00
         0.22549E+00
         0.23530E+00
         0.26756E+00
         0.26504E+00
         0.26390E+00
         0.26695E+00
         0.27992E+00
         0.28498E+00
         0.27232E+00
         0.26746E+00
         0.26677E+00
         0.27588E+00
         0.26803E+00
         0.27589E+00
         0.27036E+00
         0.26732E+00
         0.28265E+00
         0.27125E+00
         0.27355E+00
         0.27033E+00
         0.26555E+00
         0.26867E+00
         0.27151E+00
         0.27225E+00
         0.28436E+00
         0.27736E+00
         0.26503E+00
         0.27789E+00
         0.26182E+00
         0.27076E+00
         0.26037E+00
         0.26038E+00
         0.28264E+00
         0.26549E+00
         0.26358E+00
         0.26763E+00
         0.27333E+00
         0.28156E+00
         0.26835E+00
         0.26434E+00
         0.26660E+00
         0.27143E+00
         0.26366E+00
         0.26089E+00
         0.26122E+00
         0.26671E+00
         0.25910E+00
         0.25536E+00
         0.26211E+00
         0.27188E+00
         0.27184E+00
         0.26157E+00
         0.25590E+00
         0.24751E+00
         0.25376E+00
         0.25948E+00
         0.25795E+00
         0.26018E+00
         0.26122E+00
         0.27119E+00
         0.26761E+00
         0.26177E+00
         0.25966E+00
         0.25245E+00
         0.25275E+00
         0.24058E+00
         0.24004E+00
         0.25396E+00
         0.25467E+00
         0.24409E+00
         0.25499E+00
         0.26744E+00
         0.27191E+00
         0.27351E+00
         0.26656E+00
         0.25703E+00
         0.25219E+00
         0.24676E+00
         0.22864E+00
         0.23354E+00
         0.25711E+00
         0.25343E+00
         0.25035E+00
         0.24751E+00
         0.25467E+00
         0.25905E+00
         0.24635E+00
         0.24244E+00
         0.24233E+00
         0.25118E+00
         0.24433E+00
         0.24807E+00
         0.24720E+00
         0.24398E+00
         0.25481E+00
         0.24503E+00
         0.25038E+00
         0.24417E+00
         0.24082E+00
         0.24658E+00
         0.24813E+00
         0.24902E+00
         0.25541E+00
         0.25362E+00
         0.23819E+00
         0.24776E+00
         0.23220E+00
         0.24148E+00
         0.23132E+00
         0.23392E+00
         0.25327E+00
         0.23876E+00
         0.24170E+00
         0.24580E+00
         0.25101E+00
         0.25282E+00
         0.23997E+00
         0.23341E+00
         0.24003E+00
         0.24430E+00
         0.24210E+00
         0.23733E+00
         0.23670E+00
         0.24610E+00
         0.24148E+00
         0.23929E+00
         0.24416E+00
         0.25053E+00
         0.24600E+00
         0.23215E+00
         0.22318E+00
         0.21474E+00
         0.22097E+00
         0.22638E+00
         0.22577E+00
         0.22925E+00
         0.23013E+00
         0.24104E+00
         0.24856E+00
         0.23515E+00
         0.23975E+00
         0.23153E+00
         0.22925E+00
         0.21572E+00
         0.22191E+00
         0.23357E+00
         0.22980E+00
         0.22347E+00
         0.23505E+00
         0.24582E+00
         0.24273E+00
         0.24313E+00
         0.23775E+00
         0.22833E+00
         0.22343E+00
         0.21405E+00
         0.20235E+00
         0.20808E+00
         0.22710E+00
         0.22297E+00
         0.22128E+00
         0.21784E+00
         0.22354E+00
         0.22789E+00
         0.21265E+00
         0.21136E+00
         0.21259E+00
         0.22118E+00
         0.21737E+00
         0.22046E+00
         0.21573E+00
         0.21183E+00
         0.21717E+00
         0.21064E+00
         0.21693E+00
         0.20924E+00
         0.20976E+00
         0.21308E+00
         0.20878E+00
         0.22064E+00
         0.21793E+00
         0.22198E+00
         0.20896E+00
         0.21438E+00
         0.20467E+00
         0.21115E+00
         0.20776E+00
         0.21003E+00
         0.21512E+00
         0.21787E+00
         0.20927E+00
         0.21084E+00
         0.21037E+00
         0.21509E+00
         0.21930E+00
         0.21403E+00
         0.21692E+00
         0.21850E+00
         0.21468E+00
         0.20808E+00
         0.20698E+00
         0.20717E+00
         0.20634E+00
         0.20190E+00
         0.20112E+00
         0.20788E+00
         0.21040E+00
         0.21112E+00
         0.20263E+00
         0.19459E+00
         0.20036E+00
         0.20475E+00
         0.20406E+00
         0.20688E+00
         0.20614E+00
         0.21396E+00
         0.22372E+00
         0.20963E+00
         0.21367E+00
         0.20273E+00
         0.19922E+00
         0.18352E+00
         0.18057E+00
         0.19030E+00
         0.19163E+00
         0.18733E+00
         0.19212E+00
         0.19847E+00
         0.19950E+00
         0.20957E+00
         0.21045E+00
         0.20459E+00
         0.19853E+00
         0.19128E+00
         0.18553E+00
         0.18712E+00
         0.20266E+00
         0.20157E+00
         0.20248E+00
         0.19671E+00
         0.19721E+00
         0.20127E+00
         0.17796E+00
         0.18090E+00
         0.18030E+00
         0.18376E+00
         0.18554E+00
         0.18639E+00
         0.18733E+00
         0.18188E+00
         0.18027E+00
         0.18100E+00
         0.19170E+00
         0.19108E+00
         0.18610E+00
         0.18743E+00
         0.19084E+00
         0.18121E+00
         0.18103E+00
         0.18131E+00
         0.17401E+00
         0.17924E+00
         0.17350E+00
         0.17823E+00
         0.17783E+00
         0.17598E+00
         0.18343E+00
         0.18258E+00
         0.18289E+00
         0.18325E+00
         0.18141E+00
         0.18224E+00
         0.18391E+00
         0.18348E+00
         0.18047E+00
         0.18365E+00
         0.18647E+00
         0.18141E+00
         0.18112E+00
         0.18601E+00
         0.18370E+00
         0.17980E+00
         0.17920E+00
         0.18062E+00
         0.18000E+00
         0.18239E+00
         0.17929E+00
         0.17910E+00
         0.18286E+00
         0.18433E+00
         0.17987E+00
         0.18072E+00
         0.17995E+00
         0.18245E+00
         0.19793E+00
         0.18444E+00
         0.19052E+00
         0.17798E+00
         0.18138E+00
         0.18267E+00
         0.18608E+00
         0.19473E+00
         0.19296E+00
         0.18707E+00
         0.18486E+00
         0.18308E+00
         0.17925E+00
         0.18015E+00
         0.18203E+00
         0.18274E+00
         0.18048E+00
         0.17954E+00
         0.18026E+00
         0.18661E+00
         0.20094E+00
         0.19130E+00
         0.18792E+00
         0.17834E+00
         0.17057E+00
         0.17581E+00
         0.14351E+00
         0.14679E+00
         0.14580E+00
         0.14721E+00
         0.14916E+00
         0.14830E+00
         0.15137E+00
         0.14557E+00
         0.14398E+00
         0.14399E+00
         0.15505E+00
         0.15550E+00
         0.15153E+00
         0.15094E+00
         0.15544E+00
         0.14677E+00
         0.14337E+00
         0.14543E+00
         0.14024E+00
         0.13999E+00
         0.13771E+00
         0.13798E+00
         0.14389E+00
         0.14287E+00
         0.14550E+00
         0.14781E+00
         0.14589E+00
         0.14643E+00
         0.14602E+00
         0.14399E+00
         0.14773E+00
         0.14901E+00
         0.14327E+00
         0.14595E+00
         0.15215E+00
         0.14852E+00
         0.14853E+00
         0.14852E+00
         0.14441E+00
         0.14290E+00
         0.14433E+00
         0.14574E+00
         0.14178E+00
         0.14918E+00
         0.14900E+00
         0.15083E+00
         0.15131E+00
         0.15125E+00
         0.14669E+00
         0.14749E+00
         0.14748E+00
         0.14653E+00
         0.16402E+00
         0.14967E+00
         0.16184E+00
         0.15364E+00
         0.15489E+00
         0.15250E+00
         0.15658E+00
         0.16481E+00
         0.15816E+00
         0.15213E+00
         0.14772E+00
         0.14405E+00
         0.13951E+00
         0.13831E+00
         0.14102E+00
         0.14866E+00
         0.15485E+00
         0.16045E+00
         0.15875E+00
         0.16100E+00
         0.17634E+00
         0.16865E+00
         0.16576E+00
         0.15316E+00
         0.14172E+00
         0.14384E+00
         0.10525E+00
         0.10982E+00
         0.10895E+00
         0.10901E+00
         0.11371E+00
         0.11335E+00
         0.11396E+00
         0.10867E+00
         0.10159E+00
         0.10638E+00
         0.11770E+00
         0.12376E+00
         0.11867E+00
         0.11431E+00
         0.12394E+00
         0.10800E+00
         0.10087E+00
         0.10497E+00
         0.10446E+00
         0.10124E+00
         0.10714E+00
         0.10333E+00
         0.11711E+00
         0.11170E+00
         0.10620E+00
         0.11721E+00
         0.11115E+00
         0.11204E+00
         0.11124E+00
         0.10591E+00
         0.11731E+00
         0.12402E+00
         0.11016E+00
         0.11156E+00
         0.11649E+00
         0.11320E+00
         0.11456E+00
         0.11886E+00
         0.11698E+00
         0.11540E+00
         0.11455E+00
         0.11214E+00
         0.10731E+00
         0.12439E+00
         0.12878E+00
         0.13637E+00
         0.13608E+00
         0.13238E+00
         0.12400E+00
         0.12129E+00
         0.11953E+00
         0.11440E+00
         0.12863E+00
         0.11961E+00
         0.12884E+00
         0.12821E+00
         0.13637E+00
         0.14002E+00
         0.14577E+00
         0.15256E+00
         0.14801E+00
         0.13667E+00
         0.12354E+00
         0.11805E+00
         0.10961E+00
         0.10822E+00
         0.11712E+00
         0.12736E+00
         0.13564E+00
         0.14352E+00
         0.14863E+00
         0.15556E+00
         0.16675E+00
         0.15703E+00
         0.14971E+00
         0.13057E+00
         0.11649E+00
         0.11781E+00
         0.71760E-01
         0.76847E-01
         0.76228E-01
         0.73626E-01
         0.80405E-01
         0.78921E-01
         0.80177E-01
         0.75314E-01
         0.69133E-01
         0.73991E-01
         0.84144E-01
         0.93041E-01
         0.87957E-01
         0.80806E-01
         0.91663E-01
         0.72798E-01
         0.69300E-01
         0.70127E-01
         0.71877E-01
         0.70573E-01
         0.74993E-01
         0.73196E-01
         0.84205E-01
         0.77641E-01
         0.73312E-01
         0.82537E-01
         0.77708E-01
         0.77520E-01
         0.76126E-01
         0.72817E-01
         0.83510E-01
         0.91897E-01
         0.77757E-01
         0.78287E-01
         0.84475E-01
         0.82497E-01
         0.83995E-01
         0.85828E-01
         0.83922E-01
         0.84096E-01
         0.83949E-01
         0.77572E-01
         0.75102E-01
         0.93529E-01
         0.10224E+00
         0.11445E+00
         0.11123E+00
         0.10591E+00
         0.98001E-01
         0.93985E-01
         0.90831E-01
         0.81961E-01
         0.94905E-01
         0.87407E-01
         0.97418E-01
         0.99560E-01
         0.10904E+00
         0.11492E+00
         0.11847E+00
         0.12068E+00
         0.11562E+00
         0.11336E+00
         0.10207E+00
         0.86669E-01
         0.77799E-01
         0.76113E-01
         0.83985E-01
         0.96323E-01
         0.11019E+00
         0.12590E+00
         0.13467E+00
         0.14066E+00
         0.14577E+00
         0.13539E+00
         0.12667E+00
         0.10576E+00
         0.89537E-01
         0.87733E-01
         0.41853E-01
         0.46701E-01
         0.45907E-01
         0.42123E-01
         0.49502E-01
         0.48164E-01
         0.49603E-01
         0.43627E-01
         0.41243E-01
         0.42243E-01
         0.53960E-01
         0.65928E-01
         0.60455E-01
         0.49805E-01
         0.65430E-01
         0.43851E-01
         0.42126E-01
         0.40302E-01
         0.45073E-01
         0.42873E-01
         0.49620E-01
         0.46231E-01
         0.59531E-01
         0.51261E-01
         0.41989E-01
         0.55265E-01
         0.46680E-01
         0.46290E-01
         0.46291E-01
         0.42814E-01
         0.55081E-01
         0.65181E-01
         0.50068E-01
         0.50304E-01
         0.54658E-01
         0.53365E-01
         0.55338E-01
         0.61835E-01
         0.60463E-01
         0.59468E-01
         0.59758E-01
         0.51340E-01
         0.47809E-01
         0.68418E-01
         0.77271E-01
         0.89150E-01
         0.85542E-01
         0.81061E-01
         0.75320E-01
         0.71229E-01
         0.67879E-01
         0.55001E-01
         0.63400E-01
         0.55553E-01
         0.66578E-01
         0.71269E-01
         0.82652E-01
         0.89248E-01
         0.92449E-01
         0.95379E-01
         0.96676E-01
         0.91033E-01
         0.80730E-01
         0.68727E-01
         0.55354E-01
         0.51546E-01
         0.60868E-01
         0.74065E-01
         0.85006E-01
         0.98308E-01
         0.10726E+00
         0.11267E+00
         0.11769E+00
         0.11131E+00
         0.10335E+00
         0.85619E-01
         0.66624E-01
         0.57208E-01
         0.19101E-01
         0.24133E-01
         0.23671E-01
         0.20735E-01
         0.27630E-01
         0.27301E-01
         0.27506E-01
         0.21442E-01
         0.18140E-01
         0.18678E-01
         0.31719E-01
         0.41292E-01
         0.37119E-01
         0.27840E-01
         0.40900E-01
         0.24099E-01
         0.19890E-01
         0.19487E-01
         0.26777E-01
         0.22054E-01
         0.32141E-01
         0.26783E-01
         0.39416E-01
         0.32468E-01
         0.17824E-01
         0.35116E-01
         0.24356E-01
         0.23482E-01
         0.24114E-01
         0.19861E-01
         0.34511E-01
         0.43740E-01
         0.29870E-01
         0.30011E-01
         0.30739E-01
         0.29448E-01
         0.32098E-01
         0.38194E-01
         0.36811E-01
         0.35764E-01
         0.36063E-01
         0.28912E-01
         0.25658E-01
         0.46007E-01
         0.54031E-01
         0.63993E-01
         0.60573E-01
         0.56071E-01
         0.50987E-01
         0.47599E-01
         0.45287E-01
         0.34348E-01
         0.36381E-01
         0.34041E-01
         0.38482E-01
         0.46064E-01
         0.54702E-01
         0.57116E-01
         0.60002E-01
         0.62455E-01
         0.61898E-01
         0.53209E-01
         0.46678E-01
         0.38832E-01
         0.32013E-01
         0.34042E-01
         0.40772E-01
         0.51192E-01
         0.59802E-01
         0.70387E-01
         0.78332E-01
         0.82100E-01
         0.84103E-01
         0.77893E-01
         0.70563E-01
         0.58413E-01
         0.43810E-01
         0.36042E-01
         0.91805E-02
         0.11903E-01
         0.12222E-01
         0.88126E-02
         0.14800E-01
         0.12800E-01
         0.13809E-01
         0.10412E-01
         0.88166E-02
         0.92145E-02
         0.17304E-01
         0.26118E-01
         0.21632E-01
         0.14671E-01
         0.26016E-01
         0.11061E-01
         0.93302E-02
         0.83785E-02
         0.11729E-01
         0.10349E-01
         0.16993E-01
         0.13456E-01
         0.22632E-01
         0.16698E-01
         0.93262E-02
         0.19937E-01
         0.12454E-01
         0.12531E-01
         0.14108E-01
         0.10842E-01
         0.18803E-01
         0.26609E-01
         0.14221E-01
         0.14150E-01
         0.18067E-01
         0.16513E-01
         0.17507E-01
         0.23558E-01
         0.21976E-01
         0.21550E-01
         0.21525E-01
         0.16966E-01
         0.13847E-01
         0.27950E-01
         0.33544E-01
         0.39065E-01
         0.36963E-01
         0.33728E-01
         0.29794E-01
         0.27346E-01
         0.26420E-01
         0.17959E-01
         0.22186E-01
         0.19493E-01
         0.22632E-01
         0.27752E-01
         0.35684E-01
         0.40697E-01
         0.45476E-01
         0.44336E-01
         0.41722E-01
         0.35344E-01
         0.26861E-01
         0.22090E-01
         0.18725E-01
         0.20636E-01
         0.27391E-01
         0.32777E-01
         0.35554E-01
         0.41277E-01
         0.45468E-01
         0.50363E-01
         0.54558E-01
         0.51317E-01
         0.45412E-01
         0.37516E-01
         0.25701E-01
         0.18838E-01
         0.38252E-02
         0.49954E-02
         0.58601E-02
         0.40936E-02
         0.72150E-02
         0.61053E-02
         0.55602E-02
         0.44057E-02
         0.35321E-02
         0.36469E-02
         0.70777E-02
         0.10788E-01
         0.91431E-02
         0.63158E-02
         0.10352E-01
         0.60140E-02
         0.43288E-02
         0.45046E-02
         0.61124E-02
         0.46748E-02
         0.85410E-02
         0.57489E-02
         0.12167E-01
         0.89871E-02
         0.40703E-02
         0.10235E-01
         0.54335E-02
         0.58202E-02
         0.79001E-02
         0.52546E-02
         0.92760E-02
         0.13361E-01
         0.75617E-02
         0.76427E-02
         0.89536E-02
         0.74626E-02
         0.72176E-02
         0.97156E-02
         0.97587E-02
         0.11789E-01
         0.13595E-01
         0.10082E-01
         0.66788E-02
         0.15257E-01
         0.18635E-01
         0.22237E-01
         0.19325E-01
         0.16508E-01
         0.15016E-01
         0.14797E-01
         0.15257E-01
         0.10095E-01
         0.10669E-01
         0.86305E-02
         0.98219E-02
         0.12259E-01
         0.17193E-01
         0.18595E-01
         0.17928E-01
         0.16779E-01
         0.17144E-01
         0.20087E-01
         0.18070E-01
         0.14991E-01
         0.99046E-02
         0.88416E-02
         0.12926E-01
         0.17091E-01
         0.21917E-01
         0.26096E-01
         0.28059E-01
         0.27987E-01
         0.26904E-01
         0.25539E-01
         0.22715E-01
         0.22036E-01
         0.15855E-01
         0.85928E-02
         0.15704E-02
         0.17040E-02
         0.24885E-02
         0.12559E-02
         0.32659E-02
         0.19218E-02
         0.96985E-03
         0.13272E-02
         0.11272E-02
         0.16178E-02
         0.13136E-02
         0.41155E-02
         0.31732E-02
         0.17859E-02
         0.46917E-02
         0.15914E-02
         0.17365E-02
         0.14010E-02
         0.20800E-02
         0.17642E-02
         0.30167E-02
         0.16083E-02
         0.43880E-02
         0.26455E-02
         0.19181E-02
         0.26580E-02
         0.24690E-02
         0.25940E-02
         0.30862E-02
         0.20314E-02
         0.27400E-02
         0.45012E-02
         0.29023E-02
         0.29091E-02
         0.43190E-02
         0.34479E-02
         0.27675E-02
         0.55570E-02
         0.53522E-02
         0.53736E-02
         0.59203E-02
         0.40752E-02
         0.24797E-02
         0.56073E-02
         0.83110E-02
         0.11641E-01
         0.90539E-02
         0.70002E-02
         0.69320E-02
         0.72582E-02
         0.64374E-02
         0.32664E-02
         0.53275E-02
         0.46725E-02
         0.57199E-02
         0.64127E-02
         0.96924E-02
         0.12207E-01
         0.12631E-01
         0.13071E-01
         0.11798E-01
         0.12704E-01
         0.10566E-01
         0.88076E-02
         0.45057E-02
         0.28291E-02
         0.59297E-02
         0.76986E-02
         0.10248E-01
         0.14350E-01
         0.17072E-01
         0.15614E-01
         0.12588E-01
         0.12308E-01
         0.11598E-01
         0.94326E-02
         0.52776E-02
         0.41249E-02
         0.68952E-03
         0.10394E-02
         0.49701E-03
         0.12515E-03
         0.11467E-03
         0.51741E-04
         0.12214E-02
         0.43974E-03
         0.85717E-03
         0.28210E-03
         0.15477E-02
         0.27231E-02
         0.23295E-02
         0.80479E-03
         0.24029E-02
         0.12157E-03
         0.83773E-03
         0.24725E-03
         0.84374E-03
         0.54005E-03
         0.21066E-02
         0.90207E-03
         0.22848E-02
         0.11167E-02
         0.34302E-03
         0.13134E-02
         0.36545E-03
         0.69452E-03
         0.14099E-02
         0.13718E-03
         0.11771E-02
         0.23176E-02
         0.84233E-03
         0.11792E-02
         0.84277E-03
         0.12596E-02
         0.17394E-02
         0.22226E-02
         0.21465E-02
         0.22177E-02
         0.29946E-02
         0.21889E-02
         0.66000E-03
         0.24157E-02
         0.31514E-02
         0.37731E-02
         0.31374E-02
         0.23964E-02
         0.22282E-02
         0.29684E-02
         0.34742E-02
         0.16864E-02
         0.11495E-02
         0.14018E-02
         0.17913E-02
         0.19648E-02
         0.27467E-02
         0.25029E-02
         0.27268E-02
         0.34814E-02
         0.45917E-02
         0.20543E-02
         0.24870E-02
         0.21616E-02
         0.14763E-02
         0.15785E-02
         0.13127E-02
         0.32502E-02
         0.24636E-02
         0.25271E-02
         0.37117E-02
         0.45378E-02
         0.48118E-02
         0.32950E-02
         0.31002E-02
         0.50949E-02
         0.29882E-02
         0.16242E-02
        -0.20156E-03
         0.15859E-03
         0.17698E-03
        -0.27589E-03
         0.57567E-03
        -0.38539E-03
         0.71750E-03
         0.42927E-03
        -0.46068E-04
         0.59807E-04
         0.73793E-03
         0.77315E-03
         0.37745E-03
         0.30246E-03
         0.93438E-03
        -0.20252E-03
         0.96030E-04
         0.81612E-04
        -0.11451E-02
        -0.90347E-06
        -0.41417E-03
        -0.11418E-03
         0.45095E-03
        -0.68365E-03
         0.55943E-03
         0.42764E-03
        -0.56842E-03
        -0.19257E-03
         0.97596E-03
         0.64242E-03
         0.63882E-03
         0.12984E-02
         0.52321E-04
         0.20655E-03
         0.12569E-02
         0.56907E-03
         0.32951E-03
         0.30656E-03
        -0.21798E-03
         0.26534E-03
         0.13945E-02
         0.10177E-02
        -0.15670E-03
         0.15604E-02
         0.19801E-02
         0.26389E-02
         0.20491E-02
         0.12354E-02
         0.84128E-03
         0.14166E-02
         0.21326E-02
         0.68580E-03
         0.22284E-02
         0.23304E-02
         0.46557E-03
         0.12844E-02
         0.21583E-02
         0.25085E-02
         0.53964E-02
         0.46880E-02
         0.47457E-02
         0.19617E-02
         0.11389E-02
        -0.38233E-03
        -0.78204E-03
        -0.80308E-04
         0.58939E-03
         0.25300E-02
         0.15528E-02
         0.16555E-02
         0.32434E-02
         0.30470E-02
         0.18242E-02
         0.23185E-02
         0.24641E-02
         0.34428E-02
         0.13002E-02
         0.10060E-03
        -0.27184E-03
        -0.20702E-03
         0.18967E-03
        -0.60880E-03
        -0.13781E-03
        -0.91131E-03
        -0.50341E-03
        -0.32914E-03
        -0.73500E-03
        -0.76763E-03
        -0.31711E-03
        -0.21514E-03
        -0.62020E-03
         0.21917E-03
         0.63638E-03
        -0.38856E-03
        -0.34631E-03
        -0.49363E-03
        -0.69413E-03
        -0.61773E-03
        -0.68803E-03
        -0.10803E-02
        -0.41240E-03
        -0.11817E-02
        -0.15190E-03
        -0.15378E-02
         0.45391E-03
        -0.49789E-04
         0.68984E-04
         0.12416E-03
        -0.12394E-02
        -0.12894E-02
        -0.15004E-02
        -0.17648E-02
        -0.11477E-03
         0.18075E-03
        -0.11082E-03
         0.16534E-02
         0.95053E-03
         0.24595E-03
        -0.73956E-03
        -0.91381E-03
        -0.50739E-03
        -0.64774E-03
        -0.50020E-03
        -0.29210E-04
        -0.27999E-04
         0.37353E-03
        -0.12124E-03
        -0.76494E-03
        -0.29278E-03
        -0.87663E-03
        -0.11129E-02
        -0.17799E-04
         0.63665E-03
         0.79940E-03
         0.11641E-02
         0.16137E-02
         0.21971E-02
        -0.22861E-03
         0.62895E-03
         0.38639E-02
         0.14128E-02
         0.48208E-03
         0.11408E-02
         0.73137E-04
         0.16600E-02
         0.63358E-03
        -0.10402E-02
        -0.89323E-03
        -0.15587E-02
        -0.25691E-02
        -0.14495E-02
        -0.28127E-03
        -0.40843E-03
         0.20517E-03
        -0.10368E-02
        -0.27406E-03
        -0.15685E-02
        -0.24023E-02
        -0.27174E-02
        -0.74670E-03
        -0.24961E-02
        -0.16959E-02
        -0.15720E-02
         0.77925E-04
        -0.42118E-02
        -0.10267E-02
        -0.25953E-02
        -0.24612E-02
        -0.63807E-03
        -0.24570E-02
        -0.37304E-02
         0.12999E-02
        -0.32497E-02
        -0.84315E-03
        -0.27035E-03
        -0.25522E-02
         0.11028E-02
        -0.16348E-02
        -0.49290E-04
        -0.56869E-03
        -0.14754E-02
        -0.15079E-02
        -0.11552E-02
        -0.21358E-02
        -0.23642E-02
        -0.25843E-02
        -0.77167E-03
        -0.30208E-02
         0.49302E-03
        -0.14252E-02
        -0.28809E-02
        -0.21585E-02
        -0.19736E-02
         0.56043E-03
        -0.53269E-03
        -0.91446E-03
        -0.18776E-02
        -0.49044E-02
        -0.47573E-02
        -0.29302E-03
        -0.13758E-02
        -0.79892E-04
        -0.24572E-03
         0.16838E-02
         0.26459E-02
         0.15120E-02
         0.18662E-02
        -0.48359E-03
        -0.40435E-02
        -0.11360E-03
         0.68070E-04
        -0.15782E-02
         0.49506E-02
         0.58400E-02
         0.25783E-02
         0.29192E-02
         0.22258E-02
         0.44989E-02
         0.34343E-02
         0.15220E-02
         0.26089E-02
         0.20951E-02
         0.30617E-02
         0.14980E-02
         0.88403E-03
        -0.17579E-02
        -0.13193E-02
        -0.66476E-03
         0.81593E-03
        -0.99817E-04
        -0.31759E-05
         0.38899E-02
        -0.49410E-03
         0.81196E-03
  
SCALARS                      strain_zz  double 1
LOOKUP_TABLE default
        -0.11337E+01
        -0.11105E+01
        -0.11277E+01
        -0.11309E+01
        -0.12830E+01
        -0.12462E+01
        -0.13092E+01
        -0.13179E+01
        -0.11832E+01
        -0.11668E+01
        -0.13254E+01
        -0.13424E+01
        -0.11114E+01
        -0.11213E+01
        -0.12033E+01
        -0.11993E+01
        -0.11457E+01
        -0.11300E+01
        -0.13193E+01
        -0.12301E+01
        -0.11015E+01
        -0.11055E+01
        -0.11174E+01
        -0.11579E+01
        -0.11670E+01
        -0.11997E+01
        -0.10984E+01
        -0.10854E+01
        -0.11474E+01
        -0.11434E+01
        -0.11640E+01
        -0.11473E+01
        -0.11577E+01
        -0.13393E+01
        -0.12921E+01
        -0.13264E+01
        -0.11522E+01
        -0.11260E+01
        -0.12954E+01
        -0.12554E+01
        -0.11822E+01
        -0.11423E+01
        -0.13493E+01
        -0.12589E+01
        -0.11947E+01
        -0.11628E+01
        -0.13844E+01
        -0.13526E+01
        -0.11262E+01
        -0.12444E+01
        -0.11735E+01
        -0.14009E+01
        -0.10869E+01
        -0.11460E+01
        -0.10837E+01
        -0.11523E+01
        -0.10843E+01
        -0.10974E+01
        -0.11561E+01
        -0.12051E+01
        -0.11612E+01
        -0.11950E+01
        -0.13964E+01
        -0.14869E+01
        -0.11531E+01
        -0.13687E+01
        -0.11681E+01
        -0.13911E+01
        -0.11864E+01
        -0.11472E+01
        -0.12607E+01
        -0.12555E+01
        -0.11191E+01
        -0.12178E+01
        -0.10715E+01
        -0.11260E+01
        -0.10752E+01
        -0.11367E+01
        -0.10983E+01
        -0.11431E+01
        -0.11214E+01
        -0.11167E+01
        -0.11335E+01
        -0.11914E+01
        -0.11206E+01
        -0.12103E+01
        -0.11995E+01
        -0.14602E+01
        -0.12362E+01
        -0.15021E+01
        -0.12744E+01
        -0.12578E+01
        -0.15285E+01
        -0.15444E+01
        -0.12300E+01
        -0.15256E+01
        -0.12263E+01
        -0.15232E+01
        -0.12393E+01
        -0.15253E+01
        -0.12504E+01
        -0.12072E+01
        -0.14605E+01
        -0.14002E+01
        -0.12058E+01
        -0.12277E+01
        -0.12058E+01
        -0.12267E+01
        -0.12197E+01
        -0.11860E+01
        -0.12052E+01
        -0.11549E+01
        -0.11870E+01
        -0.11598E+01
        -0.11743E+01
        -0.11582E+01
        -0.11555E+01
        -0.11315E+01
        -0.11423E+01
        -0.11229E+01
        -0.11451E+01
        -0.11246E+01
        -0.11617E+01
        -0.11184E+01
        -0.11526E+01
        -0.11122E+01
        -0.11768E+01
        -0.11463E+01
        -0.11729E+01
        -0.11534E+01
        -0.12189E+01
        -0.11980E+01
        -0.12649E+01
        -0.13056E+01
        -0.12953E+01
        -0.13938E+01
        -0.12865E+01
        -0.14167E+01
        -0.12619E+01
        -0.14337E+01
        -0.12295E+01
        -0.14256E+01
        -0.13093E+01
        -0.14581E+01
        -0.13575E+01
        -0.14956E+01
        -0.13425E+01
        -0.14586E+01
        -0.12756E+01
        -0.14082E+01
        -0.12330E+01
        -0.13510E+01
        -0.12649E+01
        -0.12957E+01
        -0.12540E+01
        -0.12506E+01
        -0.10338E+01
        -0.10002E+01
        -0.97972E+00
        -0.10172E+01
        -0.96514E+00
        -0.96893E+00
        -0.10007E+01
        -0.10289E+01
        -0.10536E+01
        -0.10513E+01
        -0.98880E+00
        -0.94983E+00
        -0.95039E+00
        -0.10017E+01
        -0.95719E+00
        -0.10387E+01
        -0.10481E+01
        -0.10499E+01
        -0.10273E+01
        -0.10204E+01
        -0.98550E+00
        -0.97267E+00
        -0.97638E+00
        -0.10011E+01
        -0.10381E+01
        -0.10004E+01
        -0.10125E+01
        -0.10018E+01
        -0.97143E+00
        -0.10000E+01
        -0.10011E+01
        -0.97956E+00
        -0.10037E+01
        -0.99866E+00
        -0.95041E+00
        -0.95271E+00
        -0.95468E+00
        -0.94542E+00
        -0.94995E+00
        -0.94805E+00
        -0.93878E+00
        -0.94986E+00
        -0.96309E+00
        -0.96399E+00
        -0.96546E+00
        -0.94740E+00
        -0.95958E+00
        -0.95706E+00
        -0.95299E+00
        -0.96445E+00
        -0.97104E+00
        -0.97637E+00
        -0.91920E+00
        -0.95194E+00
        -0.94712E+00
        -0.94449E+00
        -0.92941E+00
        -0.90050E+00
        -0.88383E+00
        -0.87476E+00
        -0.87048E+00
        -0.86823E+00
        -0.85395E+00
        -0.89930E+00
        -0.90695E+00
        -0.92233E+00
        -0.94332E+00
        -0.95232E+00
        -0.95900E+00
        -0.93597E+00
        -0.91049E+00
        -0.92496E+00
        -0.96191E+00
        -0.96119E+00
        -0.95631E+00
        -0.95064E+00
        -0.96632E+00
        -0.97437E+00
        -0.93716E+00
        -0.92210E+00
        -0.88864E+00
        -0.89778E+00
        -0.86509E+00
        -0.85852E+00
        -0.94116E+00
        -0.96688E+00
        -0.93795E+00
        -0.96430E+00
        -0.95279E+00
        -0.92209E+00
        -0.90166E+00
        -0.97123E+00
        -0.95009E+00
        -0.90849E+00
        -0.93804E+00
        -0.91690E+00
        -0.90967E+00
        -0.92889E+00
        -0.87210E+00
        -0.89394E+00
        -0.84095E+00
        -0.86847E+00
        -0.95150E+00
        -0.85906E+00
        -0.96909E+00
        -0.95985E+00
        -0.94219E+00
        -0.93140E+00
        -0.85378E+00
        -0.82994E+00
        -0.86460E+00
        -0.86324E+00
        -0.86410E+00
        -0.87511E+00
        -0.88866E+00
        -0.94509E+00
        -0.94939E+00
        -0.94960E+00
        -0.94224E+00
        -0.93083E+00
        -0.90929E+00
        -0.82642E+00
        -0.80966E+00
        -0.79270E+00
        -0.80269E+00
        -0.80845E+00
        -0.80816E+00
        -0.81789E+00
        -0.82906E+00
        -0.84833E+00
        -0.85461E+00
        -0.86402E+00
        -0.86869E+00
        -0.89412E+00
        -0.91078E+00
        -0.92718E+00
        -0.94893E+00
        -0.95780E+00
        -0.94305E+00
        -0.94485E+00
        -0.92997E+00
        -0.91956E+00
        -0.89894E+00
        -0.88813E+00
        -0.87185E+00
        -0.84665E+00
        -0.82791E+00
        -0.79044E+00
        -0.77953E+00
        -0.78824E+00
        -0.81533E+00
        -0.80828E+00
        -0.80103E+00
        -0.81018E+00
        -0.84015E+00
        -0.85959E+00
        -0.84090E+00
        -0.83105E+00
        -0.79898E+00
        -0.80678E+00
        -0.76898E+00
        -0.77202E+00
        -0.85130E+00
        -0.86986E+00
        -0.83492E+00
        -0.86563E+00
        -0.85520E+00
        -0.81536E+00
        -0.81089E+00
        -0.87437E+00
        -0.84569E+00
        -0.81141E+00
        -0.83565E+00
        -0.81433E+00
        -0.81135E+00
        -0.83416E+00
        -0.76771E+00
        -0.79955E+00
        -0.74201E+00
        -0.77446E+00
        -0.85305E+00
        -0.76774E+00
        -0.87568E+00
        -0.86704E+00
        -0.84972E+00
        -0.83998E+00
        -0.76573E+00
        -0.74549E+00
        -0.77217E+00
        -0.76763E+00
        -0.76674E+00
        -0.78616E+00
        -0.80427E+00
        -0.84888E+00
        -0.83862E+00
        -0.83190E+00
        -0.81106E+00
        -0.80830E+00
        -0.80719E+00
        -0.73571E+00
        -0.72464E+00
        -0.71351E+00
        -0.72069E+00
        -0.72962E+00
        -0.73134E+00
        -0.72924E+00
        -0.73256E+00
        -0.75717E+00
        -0.75338E+00
        -0.76018E+00
        -0.78019E+00
        -0.80495E+00
        -0.79483E+00
        -0.79529E+00
        -0.80377E+00
        -0.80284E+00
        -0.78993E+00
        -0.77861E+00
        -0.76546E+00
        -0.76224E+00
        -0.76589E+00
        -0.76429E+00
        -0.74078E+00
        -0.73279E+00
        -0.73072E+00
        -0.71815E+00
        -0.69586E+00
        -0.70376E+00
        -0.72574E+00
        -0.72429E+00
        -0.71831E+00
        -0.72539E+00
        -0.74663E+00
        -0.76474E+00
        -0.76207E+00
        -0.74778E+00
        -0.72438E+00
        -0.73733E+00
        -0.69826E+00
        -0.70074E+00
        -0.76327E+00
        -0.78166E+00
        -0.75965E+00
        -0.77924E+00
        -0.76828E+00
        -0.74221E+00
        -0.73213E+00
        -0.78590E+00
        -0.76560E+00
        -0.74230E+00
        -0.75572E+00
        -0.74866E+00
        -0.73296E+00
        -0.75379E+00
        -0.70061E+00
        -0.72550E+00
        -0.67956E+00
        -0.70270E+00
        -0.76772E+00
        -0.70473E+00
        -0.78927E+00
        -0.77918E+00
        -0.76485E+00
        -0.76004E+00
        -0.71351E+00
        -0.69249E+00
        -0.71927E+00
        -0.70920E+00
        -0.69206E+00
        -0.70770E+00
        -0.72388E+00
        -0.77035E+00
        -0.76850E+00
        -0.76442E+00
        -0.75010E+00
        -0.74441E+00
        -0.73896E+00
        -0.67799E+00
        -0.67186E+00
        -0.66106E+00
        -0.67256E+00
        -0.68593E+00
        -0.68830E+00
        -0.68223E+00
        -0.67296E+00
        -0.68812E+00
        -0.66616E+00
        -0.67829E+00
        -0.68443E+00
        -0.70406E+00
        -0.70592E+00
        -0.70913E+00
        -0.71651E+00
        -0.72710E+00
        -0.72648E+00
        -0.72186E+00
        -0.70690E+00
        -0.70241E+00
        -0.70268E+00
        -0.68597E+00
        -0.66793E+00
        -0.66204E+00
        -0.65824E+00
        -0.65186E+00
        -0.64302E+00
        -0.64602E+00
        -0.66730E+00
        -0.66449E+00
        -0.65860E+00
        -0.65801E+00
        -0.67749E+00
        -0.68534E+00
        -0.71009E+00
        -0.68846E+00
        -0.67221E+00
        -0.68890E+00
        -0.64766E+00
        -0.65502E+00
        -0.69591E+00
        -0.72274E+00
        -0.72503E+00
        -0.72880E+00
        -0.69589E+00
        -0.67274E+00
        -0.66885E+00
        -0.71521E+00
        -0.69616E+00
        -0.69887E+00
        -0.71681E+00
        -0.70754E+00
        -0.67891E+00
        -0.69520E+00
        -0.64649E+00
        -0.66561E+00
        -0.63480E+00
        -0.65270E+00
        -0.71519E+00
        -0.65901E+00
        -0.71772E+00
        -0.71078E+00
        -0.70122E+00
        -0.70035E+00
        -0.67451E+00
        -0.65166E+00
        -0.67910E+00
        -0.66555E+00
        -0.63707E+00
        -0.65207E+00
        -0.66675E+00
        -0.70217E+00
        -0.69467E+00
        -0.68739E+00
        -0.67493E+00
        -0.67645E+00
        -0.67453E+00
        -0.63858E+00
        -0.63163E+00
        -0.61826E+00
        -0.63152E+00
        -0.64794E+00
        -0.64872E+00
        -0.64015E+00
        -0.63134E+00
        -0.64491E+00
        -0.61675E+00
        -0.62747E+00
        -0.63496E+00
        -0.65088E+00
        -0.65574E+00
        -0.65917E+00
        -0.67374E+00
        -0.69423E+00
        -0.68485E+00
        -0.67616E+00
        -0.66216E+00
        -0.65150E+00
        -0.64835E+00
        -0.64239E+00
        -0.63121E+00
        -0.62686E+00
        -0.62292E+00
        -0.61101E+00
        -0.59685E+00
        -0.60516E+00
        -0.62778E+00
        -0.62567E+00
        -0.61207E+00
        -0.61199E+00
        -0.63697E+00
        -0.64113E+00
        -0.66356E+00
        -0.64290E+00
        -0.63445E+00
        -0.65455E+00
        -0.60474E+00
        -0.61201E+00
        -0.63759E+00
        -0.66102E+00
        -0.67224E+00
        -0.67310E+00
        -0.63005E+00
        -0.61439E+00
        -0.61626E+00
        -0.64615E+00
        -0.63042E+00
        -0.66555E+00
        -0.67373E+00
        -0.66721E+00
        -0.64776E+00
        -0.65870E+00
        -0.61144E+00
        -0.62291E+00
        -0.60189E+00
        -0.62621E+00
        -0.66448E+00
        -0.63370E+00
        -0.65541E+00
        -0.64949E+00
        -0.63663E+00
        -0.65153E+00
        -0.65068E+00
        -0.62506E+00
        -0.65120E+00
        -0.63595E+00
        -0.59166E+00
        -0.60700E+00
        -0.61786E+00
        -0.63834E+00
        -0.63069E+00
        -0.61696E+00
        -0.60388E+00
        -0.61374E+00
        -0.62456E+00
        -0.59775E+00
        -0.58616E+00
        -0.56957E+00
        -0.59286E+00
        -0.61533E+00
        -0.61688E+00
        -0.60743E+00
        -0.59273E+00
        -0.60470E+00
        -0.55248E+00
        -0.56130E+00
        -0.57347E+00
        -0.58697E+00
        -0.58780E+00
        -0.58714E+00
        -0.60205E+00
        -0.61214E+00
        -0.59624E+00
        -0.57954E+00
        -0.57440E+00
        -0.56810E+00
        -0.57800E+00
        -0.57626E+00
        -0.56604E+00
        -0.55853E+00
        -0.55375E+00
        -0.53918E+00
        -0.52150E+00
        -0.53108E+00
        -0.55242E+00
        -0.55724E+00
        -0.54995E+00
        -0.54570E+00
        -0.56837E+00
        -0.57573E+00
        -0.60277E+00
        -0.59453E+00
        -0.59326E+00
        -0.60587E+00
        -0.57454E+00
        -0.58520E+00
        -0.58223E+00
        -0.59457E+00
        -0.60247E+00
        -0.60711E+00
        -0.57108E+00
        -0.56756E+00
        -0.57434E+00
        -0.58164E+00
        -0.57518E+00
        -0.59977E+00
        -0.60521E+00
        -0.60054E+00
        -0.59710E+00
        -0.60747E+00
        -0.59041E+00
        -0.59654E+00
        -0.58443E+00
        -0.58967E+00
        -0.60711E+00
        -0.59632E+00
        -0.59332E+00
        -0.59439E+00
        -0.58896E+00
        -0.60254E+00
        -0.60516E+00
        -0.59282E+00
        -0.60418E+00
        -0.60012E+00
        -0.56295E+00
        -0.57310E+00
        -0.57974E+00
        -0.58060E+00
        -0.57703E+00
        -0.56734E+00
        -0.55942E+00
        -0.57637E+00
        -0.59026E+00
        -0.58107E+00
        -0.56458E+00
        -0.55155E+00
        -0.57142E+00
        -0.58936E+00
        -0.58955E+00
        -0.58215E+00
        -0.57191E+00
        -0.58260E+00
        -0.52434E+00
        -0.54073E+00
        -0.53188E+00
        -0.53875E+00
        -0.54651E+00
        -0.54552E+00
        -0.54966E+00
        -0.55599E+00
        -0.55688E+00
        -0.53306E+00
        -0.52462E+00
        -0.54104E+00
        -0.55560E+00
        -0.56207E+00
        -0.55318E+00
        -0.54009E+00
        -0.53057E+00
        -0.50829E+00
        -0.51049E+00
        -0.52024E+00
        -0.53494E+00
        -0.54051E+00
        -0.53329E+00
        -0.52988E+00
        -0.54307E+00
        -0.54956E+00
        -0.55219E+00
        -0.54415E+00
        -0.54823E+00
        -0.55485E+00
        -0.53151E+00
        -0.53600E+00
        -0.53048E+00
        -0.53712E+00
        -0.55811E+00
        -0.55697E+00
        -0.52378E+00
        -0.52698E+00
        -0.52773E+00
        -0.52894E+00
        -0.53481E+00
        -0.53825E+00
        -0.55620E+00
        -0.55113E+00
        -0.53285E+00
        -0.54735E+00
        -0.52743E+00
        -0.53779E+00
        -0.52624E+00
        -0.52432E+00
        -0.56053E+00
        -0.52661E+00
        -0.54369E+00
        -0.54687E+00
        -0.53670E+00
        -0.54825E+00
        -0.53838E+00
        -0.52587E+00
        -0.54442E+00
        -0.54333E+00
        -0.52672E+00
        -0.53347E+00
        -0.53270E+00
        -0.54076E+00
        -0.53334E+00
        -0.51812E+00
        -0.51339E+00
        -0.52736E+00
        -0.53879E+00
        -0.52474E+00
        -0.51447E+00
        -0.51217E+00
        -0.52181E+00
        -0.53095E+00
        -0.53177E+00
        -0.52961E+00
        -0.52365E+00
        -0.53184E+00
        -0.49485E+00
        -0.49911E+00
        -0.50238E+00
        -0.50378E+00
        -0.50933E+00
        -0.51287E+00
        -0.52005E+00
        -0.52862E+00
        -0.52158E+00
        -0.49827E+00
        -0.50049E+00
        -0.51079E+00
        -0.52630E+00
        -0.52328E+00
        -0.51109E+00
        -0.50371E+00
        -0.49788E+00
        -0.49189E+00
        -0.50151E+00
        -0.49734E+00
        -0.49947E+00
        -0.50214E+00
        -0.50120E+00
        -0.49757E+00
        -0.50220E+00
        -0.50816E+00
        -0.50273E+00
        -0.49361E+00
        -0.49251E+00
        -0.50231E+00
        -0.47595E+00
        -0.47575E+00
        -0.48522E+00
        -0.48921E+00
        -0.50934E+00
        -0.50278E+00
        -0.47928E+00
        -0.47971E+00
        -0.48351E+00
        -0.48225E+00
        -0.48495E+00
        -0.49594E+00
        -0.50645E+00
        -0.51097E+00
        -0.48368E+00
        -0.49520E+00
        -0.47048E+00
        -0.47711E+00
        -0.46774E+00
        -0.47159E+00
        -0.50615E+00
        -0.47345E+00
        -0.49483E+00
        -0.50070E+00
        -0.49615E+00
        -0.49932E+00
        -0.48529E+00
        -0.46902E+00
        -0.49533E+00
        -0.48893E+00
        -0.47442E+00
        -0.48238E+00
        -0.48604E+00
        -0.49128E+00
        -0.49214E+00
        -0.48514E+00
        -0.47849E+00
        -0.48354E+00
        -0.48264E+00
        -0.46469E+00
        -0.45847E+00
        -0.45526E+00
        -0.46098E+00
        -0.46930E+00
        -0.47417E+00
        -0.47148E+00
        -0.46157E+00
        -0.46967E+00
        -0.44681E+00
        -0.44629E+00
        -0.45264E+00
        -0.45694E+00
        -0.46140E+00
        -0.46612E+00
        -0.47603E+00
        -0.48141E+00
        -0.47685E+00
        -0.46392E+00
        -0.46146E+00
        -0.46611E+00
        -0.46125E+00
        -0.45666E+00
        -0.44936E+00
        -0.44401E+00
        -0.43860E+00
        -0.44088E+00
        -0.44908E+00
        -0.44652E+00
        -0.44614E+00
        -0.44437E+00
        -0.44329E+00
        -0.43898E+00
        -0.44224E+00
        -0.44911E+00
        -0.43581E+00
        -0.43685E+00
        -0.43838E+00
        -0.44630E+00
        -0.42625E+00
        -0.42876E+00
        -0.42679E+00
        -0.42258E+00
        -0.43078E+00
        -0.42671E+00
        -0.41718E+00
        -0.41625E+00
        -0.42553E+00
        -0.41454E+00
        -0.41172E+00
        -0.43699E+00
        -0.43370E+00
        -0.44151E+00
        -0.43094E+00
        -0.43627E+00
        -0.41624E+00
        -0.42293E+00
        -0.42035E+00
        -0.42562E+00
        -0.43114E+00
        -0.42933E+00
        -0.42329E+00
        -0.42930E+00
        -0.42475E+00
        -0.43398E+00
        -0.43420E+00
        -0.42207E+00
        -0.44126E+00
        -0.43692E+00
        -0.42045E+00
        -0.42508E+00
        -0.42941E+00
        -0.41595E+00
        -0.42119E+00
        -0.41167E+00
        -0.40016E+00
        -0.41117E+00
        -0.42212E+00
        -0.42291E+00
        -0.41326E+00
        -0.40833E+00
        -0.41314E+00
        -0.42258E+00
        -0.42697E+00
        -0.42295E+00
        -0.41379E+00
        -0.42112E+00
        -0.39883E+00
        -0.39731E+00
        -0.40078E+00
        -0.40207E+00
        -0.40678E+00
        -0.40395E+00
        -0.39666E+00
        -0.39377E+00
        -0.39594E+00
        -0.38534E+00
        -0.38061E+00
        -0.38230E+00
        -0.38612E+00
        -0.39359E+00
        -0.38880E+00
        -0.39064E+00
        -0.39291E+00
        -0.39784E+00
        -0.40928E+00
        -0.40177E+00
        -0.39785E+00
        -0.39613E+00
        -0.40215E+00
        -0.39783E+00
        -0.39152E+00
        -0.39678E+00
        -0.36407E+00
        -0.37447E+00
        -0.37468E+00
        -0.37146E+00
        -0.37132E+00
        -0.37053E+00
        -0.37100E+00
        -0.36089E+00
        -0.35493E+00
        -0.36089E+00
        -0.36732E+00
        -0.36972E+00
        -0.37126E+00
        -0.36161E+00
        -0.36593E+00
        -0.36033E+00
        -0.35985E+00
        -0.36039E+00
        -0.36312E+00
        -0.36709E+00
        -0.36377E+00
        -0.36710E+00
        -0.36839E+00
        -0.36219E+00
        -0.36411E+00
        -0.36167E+00
        -0.36499E+00
        -0.36673E+00
        -0.36264E+00
        -0.36740E+00
        -0.36321E+00
        -0.35944E+00
        -0.36702E+00
        -0.36835E+00
        -0.37171E+00
        -0.37052E+00
        -0.37128E+00
        -0.36491E+00
        -0.36468E+00
        -0.35701E+00
        -0.35683E+00
        -0.36176E+00
        -0.36772E+00
        -0.36714E+00
        -0.36022E+00
        -0.36404E+00
        -0.36505E+00
        -0.36752E+00
        -0.36674E+00
        -0.36510E+00
        -0.36293E+00
        -0.36651E+00
        -0.37102E+00
        -0.37205E+00
        -0.36601E+00
        -0.35734E+00
        -0.36549E+00
        -0.37231E+00
        -0.36959E+00
        -0.37128E+00
        -0.37314E+00
        -0.37056E+00
        -0.37637E+00
        -0.38299E+00
        -0.38188E+00
        -0.37729E+00
        -0.37437E+00
        -0.37242E+00
        -0.36439E+00
        -0.36613E+00
        -0.37963E+00
        -0.37528E+00
        -0.37150E+00
        -0.36357E+00
        -0.36459E+00
        -0.36044E+00
        -0.35764E+00
        -0.36783E+00
        -0.29509E+00
        -0.30057E+00
        -0.29985E+00
        -0.29664E+00
        -0.30015E+00
        -0.29691E+00
        -0.30137E+00
        -0.29159E+00
        -0.29026E+00
        -0.28842E+00
        -0.30032E+00
        -0.30269E+00
        -0.30279E+00
        -0.29158E+00
        -0.29585E+00
        -0.29597E+00
        -0.29093E+00
        -0.29380E+00
        -0.29060E+00
        -0.28916E+00
        -0.28625E+00
        -0.28568E+00
        -0.29565E+00
        -0.29232E+00
        -0.29050E+00
        -0.29463E+00
        -0.28872E+00
        -0.29257E+00
        -0.29122E+00
        -0.29086E+00
        -0.29243E+00
        -0.29215E+00
        -0.29356E+00
        -0.29351E+00
        -0.30434E+00
        -0.30063E+00
        -0.30034E+00
        -0.28743E+00
        -0.28666E+00
        -0.28504E+00
        -0.28383E+00
        -0.28369E+00
        -0.28511E+00
        -0.30095E+00
        -0.29903E+00
        -0.30396E+00
        -0.29974E+00
        -0.29877E+00
        -0.29764E+00
        -0.29675E+00
        -0.29727E+00
        -0.29618E+00
        -0.31476E+00
        -0.31325E+00
        -0.31513E+00
        -0.30563E+00
        -0.30630E+00
        -0.30296E+00
        -0.29815E+00
        -0.30371E+00
        -0.29689E+00
        -0.29218E+00
        -0.29553E+00
        -0.30092E+00
        -0.30706E+00
        -0.30610E+00
        -0.30119E+00
        -0.30519E+00
        -0.31068E+00
        -0.32094E+00
        -0.32719E+00
        -0.31730E+00
        -0.31223E+00
        -0.30745E+00
        -0.31288E+00
        -0.30995E+00
        -0.30405E+00
        -0.30927E+00
        -0.21819E+00
        -0.22838E+00
        -0.23026E+00
        -0.22098E+00
        -0.24154E+00
        -0.23626E+00
        -0.22696E+00
        -0.21639E+00
        -0.20608E+00
        -0.20821E+00
        -0.22543E+00
        -0.23248E+00
        -0.23449E+00
        -0.21842E+00
        -0.22702E+00
        -0.21873E+00
        -0.20698E+00
        -0.21333E+00
        -0.21820E+00
        -0.21575E+00
        -0.22757E+00
        -0.22477E+00
        -0.23990E+00
        -0.22615E+00
        -0.21054E+00
        -0.22979E+00
        -0.21553E+00
        -0.21948E+00
        -0.22402E+00
        -0.22043E+00
        -0.22591E+00
        -0.23456E+00
        -0.22097E+00
        -0.22328E+00
        -0.24817E+00
        -0.23917E+00
        -0.23566E+00
        -0.22259E+00
        -0.22477E+00
        -0.22622E+00
        -0.23093E+00
        -0.22784E+00
        -0.22596E+00
        -0.24605E+00
        -0.24858E+00
        -0.25886E+00
        -0.25137E+00
        -0.24422E+00
        -0.23797E+00
        -0.23690E+00
        -0.24250E+00
        -0.23769E+00
        -0.27121E+00
        -0.27732E+00
        -0.26583E+00
        -0.25725E+00
        -0.26089E+00
        -0.26109E+00
        -0.25522E+00
        -0.26094E+00
        -0.26286E+00
        -0.25956E+00
        -0.25979E+00
        -0.26360E+00
        -0.26243E+00
        -0.26628E+00
        -0.27142E+00
        -0.27956E+00
        -0.27839E+00
        -0.28044E+00
        -0.28875E+00
        -0.28273E+00
        -0.28095E+00
        -0.27514E+00
        -0.27440E+00
        -0.26907E+00
        -0.26460E+00
        -0.27297E+00
        -0.14869E+00
        -0.15733E+00
        -0.16196E+00
        -0.15161E+00
        -0.17802E+00
        -0.17110E+00
        -0.15993E+00
        -0.15121E+00
        -0.14308E+00
        -0.14586E+00
        -0.16350E+00
        -0.17311E+00
        -0.17091E+00
        -0.15618E+00
        -0.16644E+00
        -0.14869E+00
        -0.14414E+00
        -0.14491E+00
        -0.15376E+00
        -0.15095E+00
        -0.16835E+00
        -0.16326E+00
        -0.17811E+00
        -0.16096E+00
        -0.14586E+00
        -0.16327E+00
        -0.15010E+00
        -0.15107E+00
        -0.15611E+00
        -0.15252E+00
        -0.16080E+00
        -0.17332E+00
        -0.15573E+00
        -0.15810E+00
        -0.18737E+00
        -0.17582E+00
        -0.16944E+00
        -0.15867E+00
        -0.15944E+00
        -0.16326E+00
        -0.17182E+00
        -0.16506E+00
        -0.16241E+00
        -0.18524E+00
        -0.19374E+00
        -0.20630E+00
        -0.19501E+00
        -0.18514E+00
        -0.17866E+00
        -0.17828E+00
        -0.18463E+00
        -0.17493E+00
        -0.21859E+00
        -0.22201E+00
        -0.21499E+00
        -0.20585E+00
        -0.20578E+00
        -0.20367E+00
        -0.19243E+00
        -0.19303E+00
        -0.19660E+00
        -0.20108E+00
        -0.20932E+00
        -0.20724E+00
        -0.20753E+00
        -0.20773E+00
        -0.21276E+00
        -0.21912E+00
        -0.22463E+00
        -0.23739E+00
        -0.24161E+00
        -0.23318E+00
        -0.23179E+00
        -0.22596E+00
        -0.22522E+00
        -0.22044E+00
        -0.21340E+00
        -0.21869E+00
        -0.83047E-01
        -0.95075E-01
        -0.10421E+00
        -0.89318E-01
        -0.12548E+00
        -0.11797E+00
        -0.96894E-01
        -0.85085E-01
        -0.83162E-01
        -0.83815E-01
        -0.10185E+00
        -0.11736E+00
        -0.11525E+00
        -0.92580E-01
        -0.11007E+00
        -0.88980E-01
        -0.87321E-01
        -0.81105E-01
        -0.99266E-01
        -0.93952E-01
        -0.11921E+00
        -0.11285E+00
        -0.12946E+00
        -0.10845E+00
        -0.85477E-01
        -0.10787E+00
        -0.87398E-01
        -0.89858E-01
        -0.97531E-01
        -0.92770E-01
        -0.10006E+00
        -0.11688E+00
        -0.95154E-01
        -0.10161E+00
        -0.13572E+00
        -0.12245E+00
        -0.11390E+00
        -0.10347E+00
        -0.10646E+00
        -0.11260E+00
        -0.12526E+00
        -0.11601E+00
        -0.11204E+00
        -0.13490E+00
        -0.14122E+00
        -0.15177E+00
        -0.13985E+00
        -0.13111E+00
        -0.12845E+00
        -0.13072E+00
        -0.13826E+00
        -0.12425E+00
        -0.16615E+00
        -0.16543E+00
        -0.16031E+00
        -0.15229E+00
        -0.15092E+00
        -0.14842E+00
        -0.14279E+00
        -0.14469E+00
        -0.15132E+00
        -0.15772E+00
        -0.16756E+00
        -0.16880E+00
        -0.16201E+00
        -0.15964E+00
        -0.16744E+00
        -0.17485E+00
        -0.17637E+00
        -0.18192E+00
        -0.18348E+00
        -0.17752E+00
        -0.17763E+00
        -0.18110E+00
        -0.18372E+00
        -0.17808E+00
        -0.16724E+00
        -0.16383E+00
        -0.41795E-01
        -0.53041E-01
        -0.57789E-01
        -0.45836E-01
        -0.74631E-01
        -0.72017E-01
        -0.55476E-01
        -0.43774E-01
        -0.38399E-01
        -0.38176E-01
        -0.59310E-01
        -0.70693E-01
        -0.69043E-01
        -0.51115E-01
        -0.66525E-01
        -0.47822E-01
        -0.41536E-01
        -0.39554E-01
        -0.57431E-01
        -0.50618E-01
        -0.77765E-01
        -0.70094E-01
        -0.87876E-01
        -0.68886E-01
        -0.40332E-01
        -0.68031E-01
        -0.45341E-01
        -0.47007E-01
        -0.54425E-01
        -0.49665E-01
        -0.58316E-01
        -0.74525E-01
        -0.52760E-01
        -0.58866E-01
        -0.80057E-01
        -0.71156E-01
        -0.66982E-01
        -0.63228E-01
        -0.64308E-01
        -0.67442E-01
        -0.75739E-01
        -0.69426E-01
        -0.67743E-01
        -0.91812E-01
        -0.95783E-01
        -0.10308E+00
        -0.91647E-01
        -0.82867E-01
        -0.80511E-01
        -0.83989E-01
        -0.92328E-01
        -0.80068E-01
        -0.10096E+00
        -0.10821E+00
        -0.97258E-01
        -0.94606E-01
        -0.95691E-01
        -0.94499E-01
        -0.90176E-01
        -0.95045E-01
        -0.94668E-01
        -0.94183E-01
        -0.98718E-01
        -0.10049E+00
        -0.10368E+00
        -0.10810E+00
        -0.11732E+00
        -0.12249E+00
        -0.12480E+00
        -0.12935E+00
        -0.12889E+00
        -0.12191E+00
        -0.11996E+00
        -0.12112E+00
        -0.12422E+00
        -0.12425E+00
        -0.11761E+00
        -0.11299E+00
        -0.17679E-01
        -0.24589E-01
        -0.30117E-01
        -0.18509E-01
        -0.45118E-01
        -0.39648E-01
        -0.26863E-01
        -0.20219E-01
        -0.17336E-01
        -0.17530E-01
        -0.31304E-01
        -0.43009E-01
        -0.39794E-01
        -0.25552E-01
        -0.39130E-01
        -0.19485E-01
        -0.17295E-01
        -0.15000E-01
        -0.26399E-01
        -0.22464E-01
        -0.46981E-01
        -0.41108E-01
        -0.53197E-01
        -0.35816E-01
        -0.18617E-01
        -0.34595E-01
        -0.21800E-01
        -0.23915E-01
        -0.29258E-01
        -0.23849E-01
        -0.28453E-01
        -0.40991E-01
        -0.23751E-01
        -0.28742E-01
        -0.52234E-01
        -0.42913E-01
        -0.36897E-01
        -0.36433E-01
        -0.38110E-01
        -0.40254E-01
        -0.45071E-01
        -0.40535E-01
        -0.39080E-01
        -0.53169E-01
        -0.55819E-01
        -0.62773E-01
        -0.55058E-01
        -0.47391E-01
        -0.45153E-01
        -0.48934E-01
        -0.56128E-01
        -0.45779E-01
        -0.69658E-01
        -0.67715E-01
        -0.62405E-01
        -0.57995E-01
        -0.64003E-01
        -0.66626E-01
        -0.62903E-01
        -0.60623E-01
        -0.61408E-01
        -0.63192E-01
        -0.59685E-01
        -0.60686E-01
        -0.62321E-01
        -0.71201E-01
        -0.78253E-01
        -0.80496E-01
        -0.75555E-01
        -0.74431E-01
        -0.79929E-01
        -0.77647E-01
        -0.74655E-01
        -0.74509E-01
        -0.78038E-01
        -0.78509E-01
        -0.71454E-01
        -0.65283E-01
        -0.71560E-02
        -0.10565E-01
        -0.13909E-01
        -0.83469E-02
        -0.21456E-01
        -0.19998E-01
        -0.10533E-01
        -0.72227E-02
        -0.72332E-02
        -0.62678E-02
        -0.12290E-01
        -0.18654E-01
        -0.18247E-01
        -0.93665E-02
        -0.16350E-01
        -0.85880E-02
        -0.80909E-02
        -0.59758E-02
        -0.12449E-01
        -0.10539E-01
        -0.23672E-01
        -0.20406E-01
        -0.28194E-01
        -0.18064E-01
        -0.82886E-02
        -0.17940E-01
        -0.78965E-02
        -0.10900E-01
        -0.16750E-01
        -0.11841E-01
        -0.13773E-01
        -0.22491E-01
        -0.10536E-01
        -0.14235E-01
        -0.24579E-01
        -0.20055E-01
        -0.17246E-01
        -0.15872E-01
        -0.18982E-01
        -0.24706E-01
        -0.31213E-01
        -0.25258E-01
        -0.20969E-01
        -0.29385E-01
        -0.32100E-01
        -0.35202E-01
        -0.29081E-01
        -0.23172E-01
        -0.22164E-01
        -0.25558E-01
        -0.30276E-01
        -0.24511E-01
        -0.34038E-01
        -0.31380E-01
        -0.31107E-01
        -0.29898E-01
        -0.30889E-01
        -0.29490E-01
        -0.27172E-01
        -0.26245E-01
        -0.30147E-01
        -0.37754E-01
        -0.44788E-01
        -0.39001E-01
        -0.32963E-01
        -0.33925E-01
        -0.38524E-01
        -0.42038E-01
        -0.40837E-01
        -0.42669E-01
        -0.42603E-01
        -0.37266E-01
        -0.35128E-01
        -0.37712E-01
        -0.40151E-01
        -0.40861E-01
        -0.37451E-01
        -0.31711E-01
        -0.11585E-02
        -0.32521E-02
        -0.62135E-02
        -0.17017E-02
        -0.11630E-01
        -0.82387E-02
        -0.35663E-02
        -0.23596E-02
        -0.22215E-02
        -0.20219E-02
        -0.55963E-02
        -0.93239E-02
        -0.77930E-02
        -0.44239E-02
        -0.84964E-02
        -0.88451E-03
        -0.28853E-02
        -0.10025E-02
        -0.32287E-02
        -0.27451E-02
        -0.99253E-02
        -0.75348E-02
        -0.12115E-01
        -0.54978E-02
        -0.22875E-02
        -0.47176E-02
        -0.23182E-02
        -0.21475E-02
        -0.54181E-02
        -0.28735E-02
        -0.39126E-02
        -0.80233E-02
        -0.42536E-02
        -0.57851E-02
        -0.14254E-01
        -0.10693E-01
        -0.73422E-02
        -0.73530E-02
        -0.75784E-02
        -0.10992E-01
        -0.15441E-01
        -0.10990E-01
        -0.77249E-02
        -0.12108E-01
        -0.14674E-01
        -0.18009E-01
        -0.13565E-01
        -0.10119E-01
        -0.11213E-01
        -0.13298E-01
        -0.14429E-01
        -0.99482E-02
        -0.18625E-01
        -0.17966E-01
        -0.15707E-01
        -0.15358E-01
        -0.17474E-01
        -0.16894E-01
        -0.14852E-01
        -0.15610E-01
        -0.17524E-01
        -0.19587E-01
        -0.22276E-01
        -0.20048E-01
        -0.18611E-01
        -0.17152E-01
        -0.18759E-01
        -0.20728E-01
        -0.20660E-01
        -0.23330E-01
        -0.24267E-01
        -0.21034E-01
        -0.16319E-01
        -0.18334E-01
        -0.20083E-01
        -0.19789E-01
        -0.17250E-01
        -0.16187E-01
         0.73528E-03
        -0.10090E-02
        -0.12353E-02
         0.83991E-03
        -0.30025E-02
        -0.26768E-02
        -0.11771E-02
        -0.66701E-03
         0.17746E-02
        -0.22334E-03
        -0.14200E-02
        -0.24426E-02
        -0.26042E-02
        -0.14572E-02
        -0.22909E-02
         0.10473E-02
         0.64999E-03
         0.18371E-02
        -0.16263E-02
        -0.10222E-02
        -0.40323E-02
        -0.31579E-02
        -0.47030E-02
        -0.23645E-02
        -0.41828E-03
        -0.12759E-02
        -0.14600E-02
        -0.12045E-02
        -0.26904E-02
        -0.11639E-02
        -0.21263E-03
        -0.19107E-02
        -0.46268E-03
        -0.18673E-02
        -0.40798E-02
        -0.36803E-02
        -0.28788E-02
        -0.33582E-02
        -0.33758E-02
        -0.40024E-02
        -0.62066E-02
        -0.54673E-02
        -0.35675E-02
        -0.40720E-02
        -0.45120E-02
        -0.57484E-02
        -0.39144E-02
        -0.26692E-02
        -0.38279E-02
        -0.59899E-02
        -0.77013E-02
        -0.48991E-02
        -0.52978E-02
        -0.45113E-02
        -0.64980E-02
        -0.64793E-02
        -0.66670E-02
        -0.67037E-02
        -0.66917E-02
        -0.70858E-02
        -0.80956E-02
        -0.71043E-02
        -0.77193E-02
        -0.81849E-02
        -0.60658E-02
        -0.63946E-02
        -0.63709E-02
        -0.84808E-02
        -0.77698E-02
        -0.57240E-02
        -0.73616E-02
        -0.63178E-02
        -0.59642E-02
        -0.69423E-02
        -0.89964E-02
        -0.10303E-01
        -0.85939E-02
        -0.47899E-02
        -0.76798E-03
        -0.47861E-04
         0.32150E-03
        -0.20038E-03
        -0.13407E-02
        -0.11122E-02
        -0.94302E-03
        -0.11176E-02
        -0.47877E-03
        -0.48214E-03
        -0.76989E-03
        -0.16253E-02
        -0.17615E-02
         0.96514E-04
        -0.38514E-03
        -0.15271E-02
         0.72379E-04
        -0.11127E-02
         0.23061E-03
         0.10407E-02
         0.27020E-03
         0.16074E-03
        -0.22564E-02
        -0.10924E-02
        -0.50265E-03
        -0.20156E-02
         0.47216E-03
        -0.38597E-03
        -0.83439E-03
         0.24944E-03
        -0.17200E-03
        -0.17678E-02
         0.77018E-03
        -0.29927E-03
        -0.21617E-02
        -0.18396E-02
        -0.17979E-02
        -0.62941E-03
        -0.51038E-03
        -0.85188E-03
        -0.13947E-02
        -0.18557E-02
        -0.17605E-02
        -0.35259E-02
        -0.37429E-02
        -0.34032E-02
        -0.20222E-02
        -0.11975E-02
        -0.73666E-03
        -0.21134E-02
        -0.36039E-02
        -0.20667E-02
        -0.56270E-02
        -0.52519E-02
        -0.57281E-02
        -0.63189E-02
        -0.55038E-02
        -0.66121E-02
        -0.66107E-02
        -0.63494E-02
        -0.71300E-02
        -0.43332E-02
        -0.36927E-02
        -0.50827E-02
        -0.49641E-02
        -0.27715E-02
        -0.25892E-02
        -0.33785E-02
        -0.29568E-02
        -0.36715E-02
        -0.37364E-02
        -0.39332E-02
        -0.33502E-02
        -0.23339E-02
        -0.37854E-02
        -0.52080E-02
        -0.35229E-02
        -0.32364E-02
         0.50942E-03
         0.85141E-03
        -0.71971E-03
         0.92321E-03
        -0.45310E-03
        -0.17830E-04
         0.32550E-03
         0.17663E-03
         0.10689E-02
         0.15791E-02
        -0.38406E-03
         0.98323E-04
         0.95437E-03
        -0.82573E-03
         0.10244E-03
         0.23796E-02
         0.15990E-02
         0.10301E-02
         0.29711E-02
         0.11072E-02
        -0.38527E-04
        -0.47991E-03
         0.22946E-03
         0.23430E-02
         0.72430E-04
         0.32803E-02
         0.13748E-04
        -0.14475E-02
        -0.84056E-03
        -0.55474E-03
         0.22587E-02
         0.21160E-02
         0.15204E-02
         0.11637E-02
         0.44916E-04
         0.91676E-03
         0.14063E-02
         0.60554E-03
        -0.11747E-03
        -0.59956E-03
         0.13422E-02
         0.16994E-02
         0.36271E-03
         0.14296E-02
         0.16275E-02
        -0.60217E-03
        -0.44434E-03
        -0.75742E-03
        -0.73081E-03
         0.31467E-03
         0.25371E-03
         0.36047E-03
         0.45869E-03
         0.43418E-03
         0.72428E-03
         0.31666E-03
        -0.11923E-02
        -0.12705E-02
        -0.26526E-02
        -0.36669E-02
        -0.10929E-02
        -0.59684E-02
        -0.17157E-02
        -0.14132E-02
        -0.32134E-02
        -0.23409E-02
        -0.41534E-02
        -0.19866E-02
         0.84342E-03
        -0.89072E-04
         0.59033E-03
         0.14143E-02
         0.17215E-02
         0.16287E-02
         0.82730E-03
         0.88886E-03
         0.36155E-02
         0.14682E-02
        -0.14396E-02
         0.28441E-02
         0.31689E-02
         0.20251E-02
         0.57357E-02
         0.24746E-02
         0.45115E-02
         0.27182E-02
         0.46219E-02
         0.67246E-02
         0.44485E-02
         0.48066E-02
         0.50807E-02
         0.24796E-03
         0.25463E-02
         0.13240E-02
         0.48197E-02
         0.50945E-03
         0.46534E-03
        -0.28641E-04
         0.19938E-03
         0.18595E-02
         0.12472E-02
        -0.35189E-03
         0.66993E-02
         0.26605E-02
         0.16355E-03
         0.30385E-02
         0.57154E-02
         0.30015E-02
         0.30823E-03
         0.28559E-02
        -0.88419E-03
         0.29334E-02
         0.49572E-02
         0.66122E-02
         0.48628E-02
         0.29126E-03
        -0.22256E-04
         0.32654E-02
         0.41541E-02
         0.64661E-02
         0.70094E-02
         0.24249E-02
         0.40232E-02
         0.10129E-02
         0.18421E-02
         0.13258E-02
         0.52977E-03
         0.29986E-02
         0.35663E-03
         0.19975E-03
        -0.59834E-02
        -0.51739E-02
        -0.82336E-02
        -0.79388E-02
        -0.11492E-01
        -0.10325E-01
        -0.75944E-02
        -0.11201E-01
        -0.10976E-01
        -0.10922E-01
        -0.42458E-02
        -0.12509E-01
        -0.83658E-02
        -0.52957E-02
        -0.66077E-02
        -0.59055E-02
        -0.41953E-02
        -0.93479E-03
         0.30397E-02
         0.45256E-02
        -0.23705E-02
        -0.36890E-02
        -0.33751E-02
        -0.47069E-02
        -0.56584E-02
        -0.79170E-02
  
SCALARS                      strain_yz  double 1
LOOKUP_TABLE default
        -0.59534E-01
        -0.87872E-01
        -0.44508E-01
         0.15254E-01
        -0.14024E+00
        -0.17616E+00
        -0.11533E+00
        -0.10942E-02
        -0.22783E-01
         0.37274E-01
        -0.81405E-01
         0.20001E-01
        -0.13279E+00
        -0.11611E+00
        -0.21749E+00
        -0.21627E+00
        -0.56950E-01
        -0.11246E+00
        -0.10815E+00
        -0.21111E+00
        -0.17047E+00
        -0.23467E+00
        -0.20324E+00
        -0.24637E+00
        -0.24634E+00
        -0.22392E+00
        -0.15055E+00
        -0.21677E+00
        -0.23109E+00
        -0.23993E+00
         0.39352E-01
        -0.46404E-01
         0.24352E-01
         0.99653E-01
        -0.69299E-01
         0.59682E-01
         0.26338E-01
        -0.27912E-01
         0.71502E-01
        -0.43483E-01
         0.48829E-01
        -0.16903E-01
         0.72565E-01
        -0.43485E-01
         0.13509E+00
         0.84601E-01
         0.19056E+00
         0.16075E+00
        -0.84339E-01
        -0.16587E+00
         0.12859E+00
         0.21211E+00
        -0.13687E+00
        -0.22766E+00
        -0.12009E+00
        -0.19896E+00
        -0.11800E+00
        -0.68208E-01
        -0.17882E+00
        -0.12968E+00
         0.14541E+00
         0.21400E+00
         0.25654E+00
         0.29922E+00
         0.12110E+00
         0.21871E+00
         0.11055E+00
         0.16894E+00
        -0.83403E-01
        -0.11826E+00
        -0.12887E+00
        -0.15674E+00
        -0.16079E+00
        -0.19679E+00
        -0.20071E+00
        -0.21363E+00
        -0.19307E+00
        -0.19272E+00
        -0.19194E+00
        -0.18946E+00
        -0.18889E+00
        -0.13658E+00
        -0.20811E+00
        -0.18743E+00
        -0.84553E-01
        -0.13002E+00
         0.21212E+00
         0.27130E+00
         0.28727E+00
         0.33039E+00
         0.36901E+00
         0.34279E+00
         0.38322E+00
         0.38500E+00
         0.31170E+00
         0.37340E+00
         0.28301E+00
         0.33882E+00
         0.24091E+00
         0.28371E+00
         0.20602E+00
         0.11856E+00
         0.22317E+00
         0.14001E+00
        -0.11559E+00
        -0.28959E-01
        -0.11992E+00
        -0.57026E-01
        -0.16106E+00
        -0.13653E+00
        -0.20984E+00
        -0.15993E+00
        -0.23817E+00
        -0.19255E+00
        -0.27960E+00
        -0.21400E+00
        -0.31565E+00
        -0.19730E+00
        -0.32532E+00
        -0.16587E+00
        -0.27018E+00
        -0.13504E+00
        -0.24824E+00
        -0.14293E+00
        -0.25063E+00
        -0.18554E+00
        -0.12718E+00
        -0.13426E+00
        -0.73258E-01
        -0.58518E-01
        -0.27026E-01
        -0.22496E-01
         0.55346E-01
         0.56707E-01
         0.17621E+00
         0.18106E+00
         0.29234E+00
         0.28542E+00
         0.39546E+00
         0.37240E+00
         0.47597E+00
         0.43331E+00
         0.46305E+00
         0.44160E+00
         0.44130E+00
         0.44320E+00
         0.43177E+00
         0.42061E+00
         0.38363E+00
         0.35949E+00
         0.29816E+00
         0.26428E+00
         0.18129E+00
         0.15393E+00
         0.80042E-01
         0.42457E-01
        -0.38425E-01
        -0.47500E-01
        -0.14787E-01
         0.96115E-02
         0.11307E-01
         0.32396E-01
        -0.60955E-01
        -0.63935E-01
        -0.30674E-01
        -0.75442E-01
        -0.76269E-01
        -0.11600E+00
        -0.10553E+00
        -0.65082E-01
        -0.93042E-01
         0.27740E-01
        -0.22295E-01
         0.22559E-01
         0.65515E-02
        -0.19643E-01
         0.34896E-01
         0.12759E-02
         0.94810E-01
         0.45530E-01
        -0.49095E-01
         0.84510E-01
        -0.58385E-01
        -0.51287E-01
        -0.44864E-01
        -0.27728E-01
         0.83808E-01
         0.14352E+00
         0.64362E-01
         0.64066E-01
        -0.34465E-01
        -0.75615E-01
        -0.10175E+00
        -0.82569E-01
        -0.83468E-01
        -0.83014E-01
        -0.63173E-01
        -0.40329E-01
        -0.30062E-01
         0.16167E+00
         0.20701E+00
         0.27281E+00
         0.25449E+00
         0.22962E+00
         0.20583E+00
         0.17351E+00
         0.14766E+00
         0.83206E-01
        -0.71049E-01
        -0.23055E-02
        -0.14547E+00
        -0.17076E+00
        -0.18473E+00
        -0.19479E+00
        -0.17242E+00
        -0.18884E+00
        -0.16756E+00
        -0.14914E+00
        -0.97869E-01
        -0.78813E-01
        -0.73562E-01
        -0.26891E-03
         0.70215E-01
         0.14592E+00
         0.23017E+00
         0.30340E+00
         0.39277E+00
         0.40062E+00
         0.38871E+00
         0.36602E+00
         0.31572E+00
         0.23188E+00
         0.12995E+00
         0.58163E-01
        -0.17738E-01
        -0.13654E-01
         0.22724E-02
         0.56807E-02
         0.25004E-01
         0.11623E-01
         0.60682E-02
        -0.10444E-01
        -0.45339E-02
        -0.31354E-01
         0.91935E-02
        -0.19042E-01
        -0.14786E-01
         0.16968E-01
         0.71936E-02
         0.25681E-01
        -0.32464E-02
         0.32329E-01
        -0.11741E-01
        -0.89048E-02
        -0.42976E-02
        -0.21806E-03
         0.39553E-01
         0.57917E-02
        -0.12709E-01
         0.37072E-01
         0.18923E-01
         0.13438E-01
         0.17273E-01
         0.14370E-01
         0.38948E-01
         0.61235E-01
         0.28477E-01
         0.18392E-01
         0.58811E-02
        -0.28472E-01
        -0.36501E-01
         0.24705E-01
         0.13155E-01
        -0.57140E-02
         0.53351E-02
         0.19083E-01
         0.58450E-02
         0.89073E-01
         0.91070E-01
         0.11705E+00
         0.10965E+00
         0.10339E+00
         0.95067E-01
         0.73662E-01
         0.50364E-01
         0.22021E-01
        -0.12567E-01
         0.16639E-01
        -0.60305E-01
        -0.53302E-01
        -0.74075E-01
        -0.10271E+00
        -0.86504E-01
        -0.13188E+00
        -0.95820E-01
        -0.87203E-01
        -0.38024E-01
         0.38707E-03
        -0.22165E-01
         0.11619E-01
         0.36465E-01
         0.69291E-01
         0.11484E+00
         0.13508E+00
         0.20969E+00
         0.18434E+00
         0.17518E+00
         0.17329E+00
         0.16266E+00
         0.10585E+00
         0.41742E-01
         0.21652E-01
         0.21809E-01
         0.26628E-01
         0.29454E-01
         0.16714E-01
         0.40094E-01
         0.84380E-02
         0.48058E-01
         0.28389E-01
         0.27302E-01
         0.33457E-02
         0.38606E-01
        -0.26673E-01
        -0.11666E-02
         0.46385E-01
        -0.30743E-02
         0.18326E-02
         0.22678E-01
         0.32009E-01
        -0.25411E-01
         0.12285E-01
        -0.22626E-01
         0.37708E-02
         0.50980E-02
        -0.37502E-01
         0.22870E-01
        -0.33690E-01
         0.49971E-01
         0.41186E-01
         0.36732E-01
         0.46774E-01
        -0.49771E-01
        -0.44541E-01
        -0.39820E-01
        -0.33780E-01
         0.14609E-01
        -0.17774E-01
        -0.19862E-01
         0.15602E-01
         0.48579E-02
        -0.17971E-01
        -0.20454E-01
         0.17622E-01
         0.17770E-01
         0.23340E-01
        -0.78497E-02
         0.14841E-01
         0.84754E-02
         0.10079E-01
         0.84204E-02
        -0.20422E-02
        -0.10073E-01
        -0.18202E-01
        -0.23822E-01
         0.15655E-01
        -0.94018E-01
        -0.11432E+00
        -0.15295E+00
        -0.22488E+00
        -0.22710E+00
        -0.26479E+00
        -0.24302E+00
        -0.23410E+00
        -0.14111E+00
        -0.99789E-01
        -0.87823E-01
        -0.75707E-02
         0.37055E-01
         0.60160E-01
         0.82420E-01
         0.78850E-01
         0.15153E+00
         0.15147E+00
         0.15214E+00
         0.15225E+00
         0.13870E+00
         0.82770E-01
         0.28433E-01
         0.15910E-01
         0.24556E-01
         0.42044E-01
         0.38148E-01
         0.30094E-02
         0.51242E-01
        -0.14089E-02
         0.83850E-01
         0.51546E-01
         0.21717E-01
         0.20412E-01
         0.95418E-01
         0.59982E-01
         0.62107E-01
         0.97912E-01
         0.91373E-01
        -0.42195E-01
         0.11086E-01
         0.26637E-02
        -0.64976E-01
        -0.15495E-02
        -0.53577E-01
        -0.24292E-02
        -0.33891E-01
        -0.87138E-01
         0.37825E-01
        -0.89177E-01
         0.97254E-01
         0.82206E-01
         0.75387E-01
         0.61045E-01
        -0.10959E+00
        -0.10403E+00
        -0.92617E-01
        -0.77875E-01
         0.31786E-01
         0.28322E-02
         0.16347E-01
         0.11249E+00
         0.10212E+00
         0.73672E-01
         0.60691E-01
         0.71022E-01
         0.47172E-01
        -0.18599E-01
        -0.56914E-01
        -0.37434E-01
        -0.49784E-01
        -0.47690E-01
        -0.44084E-01
        -0.47328E-01
        -0.51536E-01
        -0.53326E-01
         0.32559E-02
         0.33918E-01
        -0.51654E-01
        -0.40532E-01
        -0.45786E-01
        -0.90097E-01
        -0.39568E-01
        -0.53735E-01
        -0.45978E-01
        -0.31587E-01
         0.90671E-03
         0.33911E-02
        -0.91179E-02
         0.74175E-02
         0.14460E-01
         0.20889E-01
         0.40115E-01
         0.27819E-01
         0.93270E-01
         0.70035E-01
         0.65526E-01
         0.78724E-01
         0.88487E-01
         0.46746E-01
        -0.95005E-02
         0.82435E-02
         0.29733E-01
         0.53735E-01
         0.38396E-01
        -0.11400E-01
         0.51764E-01
        -0.14124E-01
         0.10818E+00
         0.69904E-01
         0.24318E-01
         0.33988E-01
         0.11995E+00
         0.71910E-01
         0.81289E-01
         0.12167E+00
         0.10426E+00
        -0.66037E-01
         0.14063E-01
        -0.14608E-01
        -0.89523E-01
        -0.61151E-02
        -0.80074E-01
        -0.11776E-01
        -0.59857E-01
        -0.12146E+00
         0.53408E-01
        -0.12947E+00
         0.11947E+00
         0.10155E+00
         0.87618E-01
         0.70819E-01
        -0.15920E+00
        -0.15393E+00
        -0.13599E+00
        -0.11572E+00
         0.28527E-01
         0.17244E-02
         0.27514E-01
         0.12654E+00
         0.10988E+00
         0.70276E-01
         0.45232E-01
         0.67809E-01
         0.47654E-01
        -0.47185E-01
        -0.94753E-01
        -0.65854E-01
        -0.85711E-01
        -0.86818E-01
        -0.79649E-01
        -0.76470E-01
        -0.75157E-01
        -0.81483E-01
        -0.53773E-02
         0.34212E-01
        -0.53633E-01
        -0.35405E-01
        -0.58676E-01
        -0.12784E+00
        -0.82299E-01
        -0.10191E+00
        -0.10637E+00
        -0.99179E-01
        -0.49067E-01
        -0.21512E-01
        -0.29031E-01
        -0.80285E-03
         0.14670E-01
         0.19493E-01
         0.22688E-01
         0.11167E-01
         0.10840E+00
         0.85704E-01
         0.74026E-01
         0.87350E-01
         0.98392E-01
         0.57312E-01
        -0.90000E-02
         0.71958E-02
         0.29871E-01
         0.65518E-01
         0.48041E-01
        -0.11014E-01
         0.59390E-01
        -0.19194E-01
         0.12079E+00
         0.65329E-01
         0.16221E-01
         0.20378E-01
         0.13516E+00
         0.10330E+00
         0.11006E+00
         0.12441E+00
         0.12930E+00
        -0.61491E-01
         0.11674E-01
        -0.92906E-02
        -0.92343E-01
        -0.60530E-02
        -0.93423E-01
        -0.16149E-01
        -0.73507E-01
        -0.12926E+00
         0.44074E-01
        -0.13871E+00
         0.11360E+00
         0.98803E-01
         0.97543E-01
         0.72772E-01
        -0.16492E+00
        -0.17405E+00
        -0.13952E+00
        -0.12950E+00
         0.37709E-01
         0.10975E-01
         0.45918E-01
         0.14398E+00
         0.13266E+00
         0.10400E+00
         0.78246E-01
         0.91564E-01
         0.61001E-01
        -0.62859E-01
        -0.11828E+00
        -0.94722E-01
        -0.11591E+00
        -0.11267E+00
        -0.10080E+00
        -0.98873E-01
        -0.98129E-01
        -0.99892E-01
         0.38255E-02
         0.41185E-01
        -0.46683E-01
        -0.13567E-01
        -0.25393E-01
        -0.88591E-01
        -0.30818E-01
        -0.46659E-01
        -0.44203E-01
        -0.41850E-01
        -0.22867E-01
        -0.66443E-02
        -0.14829E-01
        -0.77991E-02
         0.27514E-03
         0.24537E-02
         0.15424E-01
        -0.33746E-03
         0.83647E-01
         0.49135E-01
         0.31319E-01
         0.52928E-01
         0.73732E-01
         0.36785E-01
        -0.22058E-01
         0.64239E-02
         0.28826E-01
         0.69156E-01
         0.47064E-01
        -0.11174E-01
         0.56981E-01
        -0.23187E-01
         0.12415E+00
         0.64776E-01
         0.34571E-02
         0.15479E-01
         0.13247E+00
         0.98381E-01
         0.11437E+00
         0.11993E+00
         0.12476E+00
        -0.66609E-01
         0.29406E-02
        -0.16081E-01
        -0.95342E-01
        -0.74816E-02
        -0.96369E-01
        -0.16918E-01
        -0.80717E-01
        -0.13127E+00
         0.42886E-01
        -0.14198E+00
         0.10821E+00
         0.96272E-01
         0.10057E+00
         0.74090E-01
        -0.16622E+00
        -0.18074E+00
        -0.14013E+00
        -0.13081E+00
         0.36278E-01
         0.11695E-01
         0.52411E-01
         0.14214E+00
         0.12775E+00
         0.10176E+00
         0.81897E-01
         0.96987E-01
         0.61100E-01
        -0.75882E-01
        -0.13753E+00
        -0.12040E+00
        -0.13081E+00
        -0.12151E+00
        -0.10782E+00
        -0.10713E+00
        -0.11094E+00
        -0.10796E+00
         0.57904E-02
         0.45944E-01
        -0.46831E-01
        -0.63023E-03
        -0.83182E-02
        -0.73715E-01
        -0.24432E-01
        -0.38653E-01
        -0.50955E-01
        -0.59055E-01
        -0.27369E-01
        -0.81412E-02
        -0.22778E-01
        -0.16685E-01
        -0.93352E-02
        -0.71956E-02
        -0.48159E-02
        -0.46214E-01
         0.24236E-01
         0.34306E-02
        -0.98930E-02
         0.21295E-01
         0.49190E-01
         0.30394E-02
        -0.48712E-01
        -0.16135E-02
         0.29019E-01
         0.69231E-01
         0.41979E-01
        -0.19826E-01
         0.53032E-01
        -0.27068E-01
         0.12854E+00
         0.73433E-01
        -0.24646E-02
         0.23456E-01
         0.13920E+00
         0.11393E+00
         0.12264E+00
         0.12800E+00
         0.14394E+00
        -0.74540E-01
        -0.55198E-02
        -0.29037E-01
        -0.10116E+00
        -0.14493E-01
        -0.10557E+00
        -0.24655E-01
        -0.87202E-01
        -0.13484E+00
         0.43294E-01
        -0.14543E+00
         0.11973E+00
         0.10689E+00
         0.10702E+00
         0.69400E-01
        -0.17402E+00
        -0.18486E+00
        -0.15431E+00
        -0.14300E+00
         0.35420E-01
         0.14540E-01
         0.58435E-01
         0.16589E+00
         0.15353E+00
         0.13032E+00
         0.11074E+00
         0.10831E+00
         0.61002E-01
        -0.83925E-01
        -0.14441E+00
        -0.12970E+00
        -0.14242E+00
        -0.13689E+00
        -0.12551E+00
        -0.12167E+00
        -0.11902E+00
        -0.11298E+00
         0.83633E-02
         0.54501E-01
        -0.35254E-01
         0.22282E-01
         0.24655E-01
        -0.17563E-01
         0.55021E-01
         0.43579E-01
         0.12721E-01
         0.53011E-02
         0.25250E-01
         0.39039E-01
         0.12777E-01
        -0.10283E-01
        -0.17156E-01
        -0.93548E-02
        -0.70701E-02
        -0.56220E-01
         0.45321E-02
        -0.19384E-01
        -0.28753E-01
         0.10426E-01
         0.44378E-01
        -0.31523E-02
        -0.46314E-01
         0.87953E-02
         0.34319E-01
         0.63103E-01
         0.35623E-01
        -0.14141E-01
         0.44994E-01
        -0.27661E-01
         0.11800E+00
         0.74365E-01
         0.22298E-02
         0.20823E-01
         0.11897E+00
         0.80689E-01
         0.10310E+00
         0.10994E+00
         0.98603E-01
        -0.57671E-01
        -0.52458E-02
        -0.15417E-01
        -0.91225E-01
        -0.13697E-01
        -0.10112E+00
        -0.24810E-01
        -0.87576E-01
        -0.12448E+00
         0.33493E-01
        -0.13295E+00
         0.10067E+00
         0.86642E-01
         0.91320E-01
         0.61775E-01
        -0.15668E+00
        -0.17774E+00
        -0.14103E+00
        -0.13637E+00
         0.29305E-01
         0.10878E-01
         0.48879E-01
         0.11995E+00
         0.11289E+00
         0.97491E-01
         0.83131E-01
         0.91933E-01
         0.52388E-01
        -0.88635E-01
        -0.15277E+00
        -0.14431E+00
        -0.15038E+00
        -0.13990E+00
        -0.13038E+00
        -0.12774E+00
        -0.12447E+00
        -0.11165E+00
         0.48133E-02
         0.48373E-01
        -0.35391E-01
         0.96664E-02
         0.37853E-02
        -0.57771E-01
        -0.13689E-01
        -0.31633E-01
        -0.60348E-01
        -0.57826E-01
        -0.19610E-01
        -0.12562E-02
        -0.11931E-01
        -0.14461E-01
        -0.20735E-01
        -0.18382E-01
        -0.21050E-01
        -0.72581E-01
        -0.19810E-01
        -0.32657E-01
        -0.29977E-01
         0.16305E-02
         0.29439E-01
        -0.19395E-01
        -0.56498E-01
         0.36441E-02
         0.33020E-01
         0.57053E-01
         0.33689E-01
        -0.62932E-02
         0.41998E-01
        -0.24519E-01
         0.10154E+00
         0.62408E-01
         0.16639E-02
         0.14820E-01
         0.97860E-01
         0.77174E-01
         0.10279E+00
         0.88206E-01
         0.87500E-01
        -0.48871E-01
        -0.56206E-02
        -0.95305E-02
        -0.79717E-01
        -0.11428E-01
        -0.91582E-01
        -0.18665E-01
        -0.81264E-01
        -0.11014E+00
         0.26751E-01
        -0.11505E+00
         0.85068E-01
         0.76489E-01
         0.86862E-01
         0.57741E-01
        -0.13385E+00
        -0.15408E+00
        -0.12041E+00
        -0.11958E+00
         0.30594E-01
         0.15480E-01
         0.52760E-01
         0.11536E+00
         0.11696E+00
         0.10859E+00
         0.10006E+00
         0.97700E-01
         0.57824E-01
        -0.78719E-01
        -0.13567E+00
        -0.13081E+00
        -0.13530E+00
        -0.12804E+00
        -0.12224E+00
        -0.12184E+00
        -0.12162E+00
        -0.10399E+00
         0.16442E-01
         0.57218E-01
        -0.21015E-01
         0.28098E-01
         0.41542E-01
        -0.21315E-02
         0.29107E-01
         0.19439E-01
         0.81981E-02
         0.18420E-01
         0.43402E-01
         0.41706E-01
         0.18040E-01
        -0.13754E-01
        -0.32683E-01
        -0.31509E-01
        -0.27314E-01
        -0.73628E-01
        -0.26644E-01
        -0.38317E-01
        -0.42527E-01
        -0.21163E-01
         0.77949E-02
        -0.34199E-01
        -0.62166E-01
         0.46710E-02
         0.26746E-01
         0.46591E-01
         0.25505E-01
        -0.24994E-02
         0.32964E-01
        -0.22269E-01
         0.87346E-01
         0.50487E-01
        -0.84590E-03
         0.56572E-02
         0.82979E-01
         0.62589E-01
         0.89099E-01
         0.72005E-01
         0.71835E-01
        -0.36359E-01
        -0.50206E-02
        -0.24226E-02
        -0.68261E-01
        -0.12247E-01
        -0.84429E-01
        -0.24872E-01
        -0.71486E-01
        -0.95477E-01
         0.17785E-01
        -0.96457E-01
         0.67694E-01
         0.59918E-01
         0.74137E-01
         0.47695E-01
        -0.10738E+00
        -0.12704E+00
        -0.97248E-01
        -0.99504E-01
         0.26003E-01
         0.14217E-01
         0.46864E-01
         0.97397E-01
         0.95724E-01
         0.92200E-01
         0.92065E-01
         0.88007E-01
         0.44839E-01
        -0.67517E-01
        -0.11421E+00
        -0.10556E+00
        -0.10954E+00
        -0.10547E+00
        -0.10245E+00
        -0.10388E+00
        -0.10766E+00
        -0.90946E-01
         0.18350E-01
         0.53664E-01
        -0.14346E-01
         0.26451E-01
         0.26492E-01
        -0.24556E-01
         0.12961E-01
         0.13618E-01
         0.61756E-03
         0.11549E-01
         0.43394E-01
         0.39813E-01
         0.12287E-01
        -0.20508E-01
        -0.30303E-01
        -0.19227E-01
        -0.18653E-01
        -0.59528E-01
        -0.77341E-02
        -0.17736E-01
        -0.23985E-01
        -0.10646E-01
         0.13954E-01
        -0.32874E-01
        -0.61275E-01
         0.39817E-02
         0.23130E-01
         0.33534E-01
         0.20180E-01
         0.52068E-02
         0.27366E-01
        -0.15311E-01
         0.62927E-01
         0.32104E-01
         0.19655E-02
        -0.84089E-02
         0.54594E-01
         0.41094E-01
         0.68895E-01
         0.40231E-01
         0.38700E-01
        -0.20945E-01
        -0.24577E-02
         0.94320E-02
        -0.52041E-01
        -0.11620E-01
        -0.70127E-01
        -0.21376E-01
        -0.62685E-01
        -0.79149E-01
         0.18420E-02
        -0.80626E-01
         0.35063E-01
         0.30890E-01
         0.49909E-01
         0.32058E-01
        -0.84165E-01
        -0.10872E+00
        -0.74551E-01
        -0.78775E-01
         0.19645E-01
         0.95510E-02
         0.34419E-01
         0.59330E-01
         0.65049E-01
         0.68273E-01
         0.68681E-01
         0.68891E-01
         0.36398E-01
        -0.62996E-01
        -0.10495E+00
        -0.98483E-01
        -0.99109E-01
        -0.93528E-01
        -0.91946E-01
        -0.92828E-01
        -0.97313E-01
        -0.75955E-01
         0.79518E-02
         0.47037E-01
        -0.24586E-01
         0.13331E-01
         0.15291E-01
        -0.40289E-01
        -0.21944E-01
        -0.25870E-01
        -0.19593E-01
        -0.11593E-01
         0.14567E-01
         0.27037E-01
         0.15767E-01
        -0.13269E-01
        -0.24166E-01
        -0.15461E-01
        -0.14570E-01
        -0.51949E-01
        -0.12397E-01
        -0.22346E-01
        -0.22794E-01
        -0.22805E-01
         0.96849E-03
        -0.39694E-01
        -0.59402E-01
         0.62328E-02
         0.17656E-01
         0.23917E-01
         0.17206E-01
         0.12623E-01
         0.24579E-01
        -0.76181E-02
         0.45026E-01
         0.21133E-01
         0.36020E-02
        -0.12794E-01
         0.37957E-01
         0.32115E-01
         0.56005E-01
         0.27689E-01
         0.30734E-01
        -0.52783E-02
         0.12722E-02
         0.19418E-01
        -0.35605E-01
        -0.10196E-01
        -0.56891E-01
        -0.17718E-01
        -0.48153E-01
        -0.58231E-01
        -0.49988E-02
        -0.57604E-01
         0.25693E-01
         0.20009E-01
         0.38037E-01
         0.23593E-01
        -0.52830E-01
        -0.76452E-01
        -0.45118E-01
        -0.52709E-01
         0.20995E-01
         0.13080E-01
         0.29859E-01
         0.51762E-01
         0.56805E-01
         0.59399E-01
         0.62497E-01
         0.61619E-01
         0.33983E-01
        -0.47212E-01
        -0.77934E-01
        -0.68697E-01
        -0.68363E-01
        -0.64279E-01
        -0.64722E-01
        -0.67487E-01
        -0.76239E-01
        -0.56859E-01
         0.13361E-01
         0.46157E-01
        -0.17999E-01
         0.10089E-01
         0.12158E-01
        -0.30049E-01
        -0.12895E-01
        -0.29610E-01
        -0.25303E-01
        -0.91616E-02
         0.26658E-01
         0.33350E-01
         0.19249E-01
        -0.12236E-01
        -0.24962E-01
        -0.94964E-02
        -0.39343E-02
        -0.29792E-01
         0.53988E-02
        -0.12873E-01
        -0.10587E-01
        -0.11990E-01
         0.10583E-01
        -0.29527E-01
        -0.49807E-01
         0.83167E-02
         0.13980E-01
         0.15929E-01
         0.95734E-02
         0.12222E-01
         0.16602E-01
        -0.27445E-02
         0.34331E-01
         0.15478E-01
         0.65439E-02
        -0.12822E-01
         0.28640E-01
         0.25034E-01
         0.44643E-01
         0.18189E-01
         0.22223E-01
         0.77093E-03
         0.41826E-02
         0.18921E-01
        -0.24541E-01
        -0.10719E-01
        -0.43441E-01
        -0.18525E-01
        -0.32005E-01
        -0.41816E-01
        -0.74217E-02
        -0.41461E-01
         0.15275E-01
         0.94188E-02
         0.25205E-01
         0.14763E-01
        -0.37644E-01
        -0.56114E-01
        -0.31738E-01
        -0.37241E-01
         0.11863E-01
         0.71992E-02
         0.21130E-01
         0.38143E-01
         0.40911E-01
         0.43455E-01
         0.42808E-01
         0.42453E-01
         0.21256E-01
        -0.29309E-01
        -0.54511E-01
        -0.45004E-01
        -0.46066E-01
        -0.44450E-01
        -0.46702E-01
        -0.49317E-01
        -0.58256E-01
        -0.40245E-01
        -0.27771E-03
         0.37805E-01
        -0.31274E-01
        -0.92871E-02
        -0.10040E-01
        -0.53687E-01
        -0.40905E-01
        -0.61185E-01
        -0.54038E-01
        -0.31977E-01
         0.14588E-03
         0.65834E-02
         0.47135E-02
        -0.16957E-01
        -0.15361E-01
         0.11061E-01
         0.26564E-01
         0.25674E-02
         0.26249E-01
         0.15596E-01
         0.23204E-01
         0.10814E-01
         0.22920E-01
        -0.17098E-01
        -0.31851E-01
         0.16261E-01
         0.95778E-02
         0.79915E-02
         0.67465E-02
         0.13404E-01
         0.11305E-01
         0.72020E-04
         0.17073E-01
         0.58334E-02
         0.55514E-02
        -0.13473E-01
         0.10562E-01
         0.10335E-01
         0.25700E-01
         0.40772E-02
         0.83700E-02
         0.92763E-02
         0.79297E-02
         0.21041E-01
        -0.12885E-01
        -0.31623E-02
        -0.31399E-01
        -0.11947E-01
        -0.24642E-01
        -0.29161E-01
        -0.68919E-02
        -0.24681E-01
         0.55729E-02
         0.53680E-03
         0.15597E-01
         0.12916E-01
        -0.16010E-01
        -0.33573E-01
        -0.14973E-01
        -0.24424E-01
         0.76611E-02
         0.45830E-02
         0.96863E-02
         0.23429E-01
         0.26548E-01
         0.29365E-01
         0.29948E-01
         0.32292E-01
         0.17182E-01
        -0.18543E-01
        -0.35768E-01
        -0.25000E-01
        -0.25284E-01
        -0.23414E-01
        -0.27168E-01
        -0.31718E-01
        -0.41345E-01
        -0.27737E-01
        -0.76392E-02
         0.27251E-01
        -0.39439E-01
        -0.30803E-01
        -0.29919E-01
        -0.65406E-01
        -0.48825E-01
        -0.66328E-01
        -0.59547E-01
        -0.46984E-01
        -0.15407E-01
        -0.39191E-02
         0.28630E-02
        -0.98238E-02
        -0.77650E-02
         0.12297E-01
         0.31098E-01
         0.19780E-01
         0.43023E-01
         0.33089E-01
         0.46360E-01
         0.32573E-01
         0.38750E-01
         0.31007E-03
        -0.17214E-01
         0.17277E-01
         0.71801E-02
         0.54026E-02
         0.26130E-02
         0.68281E-02
         0.59383E-02
        -0.24352E-02
         0.13339E-01
         0.72522E-02
         0.42146E-02
        -0.66009E-02
         0.98224E-02
         0.15169E-01
         0.24714E-01
         0.63813E-02
         0.13955E-01
         0.47069E-02
         0.59210E-02
         0.11989E-01
        -0.99556E-02
        -0.32913E-02
        -0.22782E-01
        -0.10677E-01
        -0.14516E-01
        -0.21663E-01
        -0.30069E-02
        -0.18445E-01
         0.10369E-01
         0.35649E-02
         0.13825E-01
         0.12054E-01
        -0.12403E-01
        -0.25510E-01
        -0.12652E-01
        -0.21540E-01
         0.55798E-02
         0.51627E-02
         0.93573E-02
         0.25278E-01
         0.24776E-01
         0.23715E-01
         0.17350E-01
         0.23100E-01
         0.12828E-01
        -0.76256E-02
        -0.23022E-01
        -0.13868E-01
        -0.17381E-01
        -0.16027E-01
        -0.17134E-01
        -0.20111E-01
        -0.29883E-01
        -0.22857E-01
        -0.91754E-02
         0.20801E-01
        -0.37090E-01
        -0.31118E-01
        -0.25894E-01
        -0.54517E-01
        -0.37278E-01
        -0.64137E-01
        -0.63324E-01
        -0.49542E-01
        -0.36131E-01
        -0.25392E-01
        -0.52297E-02
        -0.81448E-02
         0.12930E-02
         0.24047E-01
         0.51428E-01
         0.39710E-01
         0.53322E-01
         0.39703E-01
         0.54462E-01
         0.44457E-01
         0.50668E-01
         0.15036E-01
        -0.86686E-02
         0.14425E-01
         0.40434E-02
         0.31891E-02
        -0.40106E-03
         0.24976E-02
         0.22338E-02
        -0.16082E-02
         0.86553E-02
         0.62039E-02
         0.46245E-03
        -0.43516E-02
         0.39919E-02
         0.95066E-02
         0.17377E-01
         0.16475E-02
         0.71370E-02
        -0.25223E-02
         0.14065E-02
         0.19614E-02
        -0.83992E-02
        -0.49657E-02
        -0.16834E-01
        -0.10498E-01
        -0.12220E-01
        -0.18122E-01
        -0.24397E-02
        -0.17758E-01
         0.68506E-02
         0.89138E-03
         0.10309E-01
         0.97122E-02
        -0.13915E-01
        -0.23471E-01
        -0.13205E-01
        -0.17333E-01
         0.44368E-02
         0.61439E-02
         0.68151E-02
         0.16504E-01
         0.16633E-01
         0.16712E-01
         0.14027E-01
         0.19922E-01
         0.90000E-02
        -0.83415E-02
        -0.20581E-01
        -0.95758E-02
        -0.13394E-01
        -0.13676E-01
        -0.14155E-01
        -0.14128E-01
        -0.21871E-01
        -0.15758E-01
        -0.87649E-02
         0.16743E-01
        -0.32438E-01
        -0.35449E-01
        -0.33738E-01
        -0.57421E-01
        -0.41547E-01
        -0.66204E-01
        -0.55425E-01
        -0.40324E-01
        -0.22434E-01
        -0.15575E-01
        -0.83259E-02
        -0.86462E-02
         0.92063E-03
         0.19476E-01
         0.44008E-01
         0.36923E-01
         0.53640E-01
         0.42908E-01
         0.56948E-01
         0.42111E-01
         0.46657E-01
         0.17414E-01
         0.58379E-03
         0.18297E-01
         0.56377E-02
         0.46990E-02
         0.82442E-03
         0.44084E-02
         0.50318E-03
        -0.39520E-05
         0.77089E-02
         0.75100E-02
         0.22991E-02
        -0.88135E-03
         0.13628E-02
         0.64231E-02
         0.14208E-01
        -0.24927E-04
         0.34665E-02
         0.11531E-02
         0.36302E-02
         0.31680E-02
        -0.28116E-02
        -0.15999E-02
        -0.10528E-01
        -0.71170E-02
        -0.80463E-02
        -0.11233E-01
        -0.21051E-03
        -0.92609E-02
         0.61512E-02
        -0.37972E-03
         0.64097E-02
         0.97261E-02
        -0.46788E-02
        -0.12089E-01
        -0.65653E-02
        -0.11119E-01
         0.41952E-02
         0.82103E-02
         0.65491E-02
         0.13820E-01
         0.13347E-01
         0.10399E-01
         0.63557E-02
         0.14752E-01
         0.83137E-02
        -0.46497E-02
        -0.13267E-01
        -0.39114E-02
        -0.67094E-02
        -0.84802E-02
        -0.10605E-01
        -0.10096E-01
        -0.16655E-01
        -0.10416E-01
        -0.10409E-01
         0.82149E-02
        -0.27407E-01
        -0.31626E-01
        -0.25558E-01
        -0.48679E-01
        -0.38712E-01
        -0.55886E-01
        -0.46079E-01
        -0.43303E-01
        -0.28755E-01
        -0.22165E-01
        -0.43349E-02
        -0.73493E-03
         0.58368E-02
         0.20261E-01
         0.37122E-01
         0.31774E-01
         0.46842E-01
         0.35803E-01
         0.53211E-01
         0.37648E-01
         0.42754E-01
         0.18930E-01
         0.18235E-02
         0.13471E-01
         0.32261E-02
         0.20055E-02
        -0.28818E-02
         0.68713E-03
        -0.24386E-02
        -0.54868E-03
         0.45119E-02
         0.70855E-02
         0.10613E-02
         0.21677E-02
        -0.17143E-02
         0.53230E-02
         0.98180E-02
        -0.17357E-02
         0.34344E-02
        -0.68136E-03
         0.14044E-02
        -0.85955E-03
        -0.15710E-02
        -0.15871E-02
        -0.50792E-02
        -0.42579E-02
        -0.45932E-02
        -0.67208E-02
         0.12387E-02
        -0.44129E-02
         0.52484E-02
        -0.21593E-02
         0.20506E-02
         0.81951E-02
        -0.25540E-02
        -0.88516E-02
        -0.47133E-02
        -0.86009E-02
         0.24553E-02
         0.62967E-02
         0.32160E-02
         0.10965E-01
         0.85622E-02
         0.51745E-02
         0.10905E-02
         0.10203E-01
         0.75356E-02
        -0.11263E-02
        -0.10468E-01
        -0.48139E-02
        -0.79064E-02
        -0.83856E-02
        -0.83462E-02
        -0.68564E-02
        -0.12969E-01
        -0.70342E-02
        -0.83818E-02
         0.84591E-02
        -0.24262E-01
        -0.31615E-01
        -0.22606E-01
        -0.36183E-01
        -0.22615E-01
        -0.43013E-01
        -0.38619E-01
        -0.38960E-01
        -0.27229E-01
        -0.23950E-01
        -0.37089E-02
         0.81814E-04
         0.65207E-02
         0.13701E-01
         0.34621E-01
         0.34620E-01
         0.43313E-01
         0.30347E-01
         0.45047E-01
         0.32877E-01
         0.37832E-01
         0.18094E-01
         0.52797E-02
         0.15306E-01
         0.23751E-02
         0.21759E-02
        -0.17470E-02
         0.14213E-02
        -0.27114E-02
        -0.27715E-03
         0.37907E-02
         0.58678E-02
         0.16940E-02
         0.33209E-02
        -0.11889E-02
         0.60365E-02
         0.92169E-02
        -0.88187E-03
         0.45698E-02
        -0.75863E-03
         0.14857E-02
         0.58039E-03
        -0.22143E-02
        -0.17354E-02
        -0.46203E-02
        -0.34989E-02
        -0.62653E-02
        -0.74397E-02
         0.30712E-02
        -0.46232E-02
         0.56445E-02
        -0.14755E-02
         0.18193E-02
         0.76781E-02
        -0.21212E-02
        -0.85268E-02
        -0.33573E-02
        -0.62577E-02
         0.49145E-02
         0.99122E-02
         0.49983E-02
         0.87945E-02
         0.61041E-02
         0.58712E-02
         0.13736E-02
         0.73461E-02
         0.61252E-02
        -0.41279E-02
        -0.12412E-01
        -0.80990E-02
        -0.10511E-01
        -0.11561E-01
        -0.10895E-01
        -0.84124E-02
        -0.14086E-01
        -0.54496E-02
        -0.46851E-02
         0.65507E-02
        -0.19787E-01
        -0.29936E-01
        -0.22439E-01
        -0.34519E-01
        -0.23016E-01
        -0.46913E-01
        -0.39633E-01
        -0.33046E-01
        -0.22563E-01
        -0.26084E-01
        -0.30950E-02
         0.13488E-02
         0.70541E-02
         0.12538E-01
         0.26740E-01
         0.24737E-01
         0.32319E-01
         0.20545E-01
         0.35949E-01
         0.23371E-01
         0.27070E-01
         0.94918E-02
         0.45713E-02
         0.14029E-01
         0.27199E-02
         0.27597E-02
        -0.21438E-02
         0.16283E-02
        -0.37198E-02
         0.58851E-04
         0.45043E-02
         0.62724E-02
         0.75476E-04
         0.14345E-02
        -0.14665E-02
         0.13257E-02
         0.63160E-02
        -0.21788E-03
         0.17142E-02
        -0.80492E-03
         0.69287E-03
         0.87618E-03
        -0.10327E-02
        -0.17644E-02
        -0.29745E-02
        -0.63869E-02
        -0.27998E-02
        -0.59920E-02
         0.24659E-02
        -0.34029E-02
         0.55215E-02
        -0.84847E-03
         0.15996E-02
         0.67819E-02
        -0.17091E-02
        -0.61243E-02
        -0.20452E-02
        -0.28283E-02
         0.19040E-02
         0.70386E-02
         0.36018E-02
         0.75696E-02
         0.47238E-02
         0.38652E-02
        -0.18590E-02
         0.45359E-02
         0.19703E-02
        -0.76675E-03
        -0.85456E-02
        -0.46768E-02
        -0.68054E-02
        -0.74403E-02
        -0.60763E-02
        -0.29072E-02
        -0.86737E-02
        -0.20788E-02
        -0.94874E-02
         0.29454E-02
        -0.22873E-01
        -0.28844E-01
        -0.26851E-01
        -0.41347E-01
        -0.25947E-01
        -0.41124E-01
        -0.40606E-01
        -0.37463E-01
        -0.26811E-01
        -0.28217E-01
        -0.85208E-02
        -0.10863E-02
         0.60991E-02
         0.13473E-01
         0.25808E-01
         0.23550E-01
         0.32747E-01
         0.21603E-01
         0.37851E-01
         0.22562E-01
         0.28181E-01
         0.13918E-01
         0.61008E-02
         0.11394E-01
         0.17266E-02
         0.14476E-02
        -0.27297E-02
         0.51037E-03
        -0.31733E-02
         0.31164E-03
         0.29441E-02
         0.54860E-02
         0.86730E-03
         0.10879E-02
        -0.17096E-02
         0.10109E-02
         0.45472E-02
        -0.38930E-03
        -0.49531E-03
        -0.83406E-03
         0.10228E-02
         0.64782E-03
         0.94953E-03
        -0.10991E-02
        -0.38705E-03
        -0.44391E-02
        -0.25673E-02
        -0.46586E-02
         0.10477E-02
        -0.28990E-02
         0.48380E-02
        -0.12220E-02
         0.56735E-03
         0.57677E-02
        -0.15868E-02
        -0.48605E-02
        -0.22259E-02
        -0.38632E-02
         0.91455E-03
         0.43756E-02
         0.59075E-03
         0.50393E-02
         0.41468E-02
         0.30450E-02
        -0.30680E-02
         0.69630E-02
         0.47911E-02
        -0.14825E-02
        -0.78126E-02
        -0.30613E-02
        -0.38314E-02
        -0.52659E-02
        -0.56367E-02
        -0.41101E-02
        -0.91276E-02
        -0.19857E-02
        -0.81499E-02
         0.77858E-02
        -0.24921E-01
        -0.31861E-01
        -0.28863E-01
        -0.40964E-01
        -0.33695E-01
        -0.46537E-01
        -0.48187E-01
        -0.45992E-01
        -0.33547E-01
        -0.21413E-01
        -0.24733E-02
         0.17387E-02
         0.80636E-02
         0.95156E-02
         0.20000E-01
         0.23414E-01
         0.31925E-01
         0.16646E-01
         0.24925E-01
         0.11146E-01
         0.20267E-01
         0.11689E-01
         0.71569E-02
         0.13138E-01
        -0.30120E-02
         0.23301E-02
        -0.37582E-02
         0.14210E-03
        -0.43970E-02
         0.15352E-02
         0.56782E-03
         0.26692E-02
         0.25970E-02
        -0.57822E-02
        -0.34470E-02
        -0.78394E-02
        -0.51347E-02
        -0.37747E-02
        -0.84947E-02
        -0.84096E-03
         0.22212E-03
         0.18039E-02
        -0.87099E-03
        -0.54256E-02
        -0.28688E-02
        -0.39900E-02
        -0.54145E-02
        -0.62095E-02
        -0.47016E-02
        -0.34352E-02
        -0.24349E-02
        -0.80363E-02
        -0.64100E-02
         0.23138E-02
        -0.39331E-02
        -0.66220E-02
        -0.34358E-02
        -0.38263E-02
        -0.22314E-02
         0.30583E-02
        -0.65568E-02
        -0.34466E-02
        -0.46030E-02
        -0.98648E-02
        -0.19075E-01
        -0.35056E-02
         0.50239E-03
        -0.41553E-02
        -0.81712E-02
        -0.62442E-02
        -0.76026E-02
        -0.12339E-01
        -0.12890E-01
        -0.74666E-02
        -0.10040E-01
        -0.56231E-03
        -0.16469E-01
         0.58719E-03
        -0.38451E-01
        -0.50151E-01
        -0.46004E-01
        -0.54687E-01
        -0.55695E-01
        -0.78457E-01
        -0.77312E-01
        -0.82280E-01
        -0.62946E-01
        -0.42796E-01
        -0.15984E-01
         0.36865E-02
         0.96697E-02
         0.11062E-01
         0.22169E-01
         0.23198E-01
         0.15993E-01
        -0.26381E-02
         0.13116E-01
         0.21201E-02
         0.17736E-01
         0.11170E-01
         0.68311E-03
         0.33608E-02
  
SCALARS                      strain_xz  double 1
LOOKUP_TABLE default
        -0.56794E-01
        -0.10354E+00
        -0.16337E+00
        -0.11515E+00
        -0.14089E+00
        -0.19508E+00
        -0.27511E+00
        -0.22223E+00
        -0.26019E+00
        -0.24991E+00
        -0.33353E+00
        -0.33987E+00
        -0.76379E-01
        -0.29934E-01
        -0.12098E+00
        -0.82063E-01
         0.62332E-02
         0.17563E-01
        -0.28792E-01
         0.31246E-02
        -0.55923E-01
        -0.93074E-01
        -0.14603E+00
        -0.83012E-01
        -0.82383E-01
        -0.13841E+00
        -0.21411E-01
        -0.33794E-01
        -0.60730E-01
        -0.43699E-01
         0.49202E-01
         0.72151E-01
        -0.24073E-01
         0.10464E+00
         0.11886E+00
        -0.78102E-01
         0.15312E+00
         0.13247E+00
         0.25166E+00
         0.22519E+00
         0.26025E+00
         0.21880E+00
         0.34684E+00
         0.29236E+00
         0.27492E+00
         0.17638E+00
         0.34323E+00
         0.27406E+00
         0.65936E-01
         0.10862E+00
         0.12226E+00
         0.20348E+00
         0.13268E-01
        -0.26046E-02
         0.55655E-01
         0.79386E-01
         0.11307E+00
         0.11677E+00
         0.15205E+00
         0.18565E+00
         0.13176E-02
         0.91807E-01
         0.22385E-01
         0.13926E+00
        -0.71045E-01
        -0.12830E+00
        -0.16254E+00
        -0.25741E+00
        -0.28774E+00
        -0.22978E+00
        -0.32614E+00
        -0.28645E+00
        -0.17688E+00
        -0.21307E+00
         0.23560E-01
         0.13503E-02
         0.83022E-01
         0.72755E-01
         0.13627E+00
         0.13849E+00
         0.19980E+00
         0.20046E+00
         0.17849E+00
         0.19372E+00
         0.20054E+00
         0.23699E+00
         0.23828E+00
         0.28506E+00
         0.19762E+00
         0.22533E+00
         0.16621E+00
         0.75548E-01
         0.19503E+00
         0.11165E+00
        -0.32880E-01
        -0.11042E-01
        -0.12014E+00
        -0.15076E+00
        -0.21171E+00
        -0.26419E+00
        -0.28931E+00
        -0.27093E+00
        -0.33835E+00
        -0.35385E+00
        -0.35864E+00
        -0.33607E+00
        -0.30968E+00
        -0.30392E+00
        -0.31037E+00
        -0.25866E+00
        -0.25338E+00
        -0.18322E+00
        -0.19788E+00
        -0.11440E+00
        -0.11790E+00
        -0.52206E-01
        -0.51184E-01
        -0.21859E-01
         0.23143E-01
        -0.87393E-02
         0.92146E-01
         0.35867E-01
         0.17135E+00
         0.10178E+00
         0.26934E+00
         0.15014E+00
         0.23024E+00
         0.15646E+00
         0.31545E+00
         0.19491E+00
         0.38169E+00
         0.26629E+00
         0.38688E+00
         0.35728E+00
         0.37491E+00
         0.38023E+00
         0.36622E+00
         0.36338E+00
         0.32074E+00
         0.31084E+00
         0.22591E+00
         0.22903E+00
         0.10485E+00
         0.13096E+00
        -0.47535E-01
        -0.27121E-01
        -0.16997E+00
        -0.17833E+00
        -0.28330E+00
        -0.29204E+00
        -0.36819E+00
        -0.36243E+00
        -0.38844E+00
        -0.37643E+00
        -0.36459E+00
        -0.32781E+00
        -0.25025E-01
        -0.38275E-01
        -0.80438E-01
        -0.61582E-01
        -0.17055E+00
        -0.16761E+00
        -0.29305E-01
        -0.69630E-03
         0.86653E-02
         0.12404E-01
        -0.12699E-01
        -0.45898E-01
        -0.93326E-01
         0.75888E-02
        -0.15255E-01
         0.33524E-01
         0.59405E-01
        -0.58888E-02
         0.91908E-01
         0.78484E-01
         0.17540E+00
         0.13718E+00
         0.19502E+00
         0.10728E+00
         0.39811E-01
         0.72001E-01
         0.24046E-02
         0.13972E-01
         0.44114E-01
         0.61584E-01
         0.63586E-02
         0.57165E-01
        -0.36967E-01
        -0.98940E-01
        -0.19396E+00
        -0.14409E+00
        -0.11081E+00
         0.29296E-02
         0.29938E-01
         0.45847E-01
         0.89388E-01
         0.11129E+00
         0.11547E+00
         0.16605E+00
         0.13331E+00
         0.99259E-01
         0.32848E-01
        -0.33691E-01
        -0.86283E-01
        -0.14415E+00
        -0.20300E+00
        -0.18407E+00
        -0.29776E+00
        -0.31618E+00
        -0.25113E+00
        -0.20042E+00
        -0.16752E+00
        -0.10246E+00
        -0.46884E-01
         0.15021E-01
         0.63070E-01
         0.74995E-01
         0.14939E+00
         0.20141E+00
         0.25902E+00
         0.32674E+00
         0.32567E+00
         0.30997E+00
         0.28196E+00
         0.25232E+00
         0.15639E+00
         0.45013E-01
        -0.61360E-01
        -0.14573E+00
        -0.22192E+00
        -0.29815E+00
        -0.32182E+00
        -0.33363E+00
        -0.10189E-01
         0.48509E-02
        -0.17376E-01
        -0.23280E-01
        -0.60657E-01
        -0.64947E-01
         0.74036E-02
         0.14271E-01
         0.51598E-02
         0.74062E-02
         0.23080E-01
         0.10767E-02
        -0.35854E-01
         0.21779E-01
        -0.62304E-02
         0.17114E-01
         0.40212E-01
         0.24430E-03
         0.37742E-01
         0.26546E-01
         0.69014E-01
         0.32640E-01
         0.95429E-01
         0.42764E-01
         0.11521E-01
         0.27117E-01
        -0.11303E-01
        -0.27357E-01
        -0.16072E-01
         0.70215E-02
         0.51553E-02
         0.20700E-01
        -0.10967E-01
        -0.41151E-01
        -0.74864E-01
        -0.48909E-01
        -0.37823E-01
        -0.20090E-01
        -0.13262E-01
        -0.18756E-01
         0.17570E-01
         0.30681E-01
         0.22660E-01
         0.81535E-01
         0.64357E-01
         0.31921E-01
        -0.49528E-02
        -0.17458E-01
        -0.32432E-01
        -0.65259E-01
        -0.96915E-01
        -0.80372E-01
        -0.12855E+00
        -0.13057E+00
        -0.10397E+00
        -0.80104E-01
        -0.79881E-01
        -0.37673E-01
        -0.23067E-01
        -0.14650E-02
         0.19487E-01
         0.21294E-01
         0.91283E-01
         0.12180E+00
         0.14967E+00
         0.15135E+00
         0.14398E+00
         0.14387E+00
         0.11241E+00
         0.12164E+00
         0.66001E-01
        -0.12865E-02
        -0.40649E-01
        -0.64648E-01
        -0.10016E+00
        -0.14508E+00
        -0.12378E+00
        -0.12727E+00
         0.20320E-01
         0.47160E-01
         0.41496E-01
         0.37485E-01
        -0.23570E-01
        -0.11046E-01
         0.30655E-01
         0.29809E-01
         0.59642E-02
         0.19470E-02
         0.40837E-01
         0.64095E-02
        -0.34231E-01
         0.32225E-01
         0.86036E-03
        -0.19438E-01
         0.14383E-01
         0.16362E-01
        -0.28053E-01
        -0.20844E-01
         0.48619E-02
        -0.98569E-02
         0.23404E-01
        -0.36449E-01
        -0.12281E-01
        -0.41481E-01
        -0.15678E-01
        -0.42061E-01
        -0.34270E-01
        -0.25151E-01
        -0.86858E-02
        -0.28112E-01
         0.29277E-01
         0.33908E-01
        -0.53393E-01
        -0.12178E-01
        -0.15535E-01
        -0.18417E-01
        -0.90276E-02
        -0.94931E-02
         0.42580E-01
         0.35000E-01
         0.45541E-02
         0.14452E-01
         0.10663E-01
        -0.10527E-01
        -0.32700E-01
        -0.12128E-01
         0.11809E-01
         0.52801E-02
        -0.31442E-01
        -0.17186E-01
        -0.18614E+00
        -0.18397E+00
        -0.14557E+00
        -0.11907E+00
        -0.12773E+00
        -0.72949E-01
        -0.44946E-01
         0.21490E-01
         0.10472E+00
         0.12361E+00
         0.19438E+00
         0.23106E+00
         0.21052E+00
         0.20574E+00
         0.18814E+00
         0.16049E+00
         0.98835E-01
         0.95528E-01
         0.30912E-01
        -0.17436E-01
        -0.41957E-01
        -0.59672E-01
        -0.81073E-01
        -0.11696E+00
        -0.11558E+00
        -0.15036E+00
         0.44650E-01
         0.89993E-01
         0.91567E-01
         0.70728E-01
         0.39376E-01
         0.42821E-01
         0.70658E-01
         0.53728E-01
         0.24957E-02
        -0.26821E-02
         0.81625E-01
         0.58973E-01
         0.19691E-01
         0.56663E-01
         0.29818E-01
        -0.40509E-01
        -0.11658E-01
         0.20791E-01
        -0.77375E-01
        -0.70163E-01
        -0.68926E-01
        -0.91069E-01
        -0.36376E-01
        -0.84447E-01
        -0.40297E-01
        -0.73883E-01
        -0.19323E-01
        -0.67558E-01
        -0.84468E-01
        -0.73130E-01
        -0.12959E-01
        -0.46021E-01
         0.48375E-01
         0.69306E-01
         0.13460E-01
         0.47304E-01
         0.37983E-01
        -0.27564E-01
        -0.48208E-01
        -0.74361E-01
        -0.64374E-01
        -0.65023E-01
        -0.84740E-01
        -0.23995E-01
        -0.82794E-02
        -0.26215E-01
        -0.47405E-01
        -0.10464E-01
         0.38435E-01
         0.45459E-01
         0.93643E-02
         0.27230E-01
        -0.10551E+00
        -0.96784E-01
        -0.61880E-01
        -0.42337E-01
        -0.57961E-01
        -0.10010E-01
        -0.13367E-01
        -0.88844E-02
         0.46649E-02
        -0.16447E-01
         0.17517E-01
         0.65564E-01
         0.67037E-01
         0.71628E-01
         0.74604E-01
         0.67280E-01
         0.23239E-01
         0.64703E-01
         0.13414E-01
        -0.38924E-01
        -0.36786E-01
        -0.19189E-01
        -0.32960E-01
        -0.72559E-01
        -0.34297E-01
        -0.54889E-01
         0.65196E-01
         0.12133E+00
         0.13214E+00
         0.10153E+00
         0.69120E-01
         0.74264E-01
         0.92933E-01
         0.69580E-01
         0.23666E-02
        -0.90364E-02
         0.10144E+00
         0.69314E-01
         0.30297E-01
         0.69211E-01
         0.38193E-01
        -0.61480E-01
        -0.30394E-01
         0.28489E-01
        -0.12013E+00
        -0.10581E+00
        -0.10459E+00
        -0.12548E+00
        -0.65578E-01
        -0.12728E+00
        -0.59494E-01
        -0.10648E+00
        -0.27157E-01
        -0.85933E-01
        -0.10931E+00
        -0.10380E+00
        -0.19211E-01
        -0.63048E-01
         0.64595E-01
         0.99795E-01
         0.36726E-01
         0.80599E-01
         0.62992E-01
        -0.33537E-01
        -0.56267E-01
        -0.78509E-01
        -0.61613E-01
        -0.79994E-01
        -0.11143E+00
        -0.44914E-01
        -0.15324E-01
        -0.29783E-01
        -0.58548E-01
        -0.14475E-01
         0.51758E-01
         0.65905E-01
         0.20934E-01
         0.48833E-01
        -0.12499E+00
        -0.11378E+00
        -0.50204E-01
        -0.27887E-01
        -0.62210E-01
        -0.22543E-01
        -0.21756E-01
        -0.68268E-02
         0.22213E-01
         0.24359E-01
         0.79131E-01
         0.14018E+00
         0.11379E+00
         0.98897E-01
         0.10840E+00
         0.93122E-01
         0.26009E-01
         0.70413E-01
         0.23161E-01
        -0.36892E-01
        -0.40267E-01
        -0.20707E-01
        -0.41456E-01
        -0.10045E+00
        -0.53922E-01
        -0.59396E-01
         0.70205E-01
         0.13478E+00
         0.15881E+00
         0.10877E+00
         0.10348E+00
         0.96634E-01
         0.99386E-01
         0.72732E-01
         0.10535E-01
        -0.61979E-02
         0.10626E+00
         0.80576E-01
         0.46508E-01
         0.69655E-01
         0.41445E-01
        -0.55517E-01
        -0.16845E-01
         0.32333E-01
        -0.12520E+00
        -0.10108E+00
        -0.13780E+00
        -0.15316E+00
        -0.95751E-01
        -0.14382E+00
        -0.49378E-01
        -0.11737E+00
        -0.29526E-01
        -0.85116E-01
        -0.11881E+00
        -0.10006E+00
        -0.22369E-01
        -0.73718E-01
         0.69722E-01
         0.11271E+00
         0.74258E-01
         0.11623E+00
         0.88067E-01
        -0.42369E-01
        -0.73611E-01
        -0.10518E+00
        -0.10770E+00
        -0.12143E+00
        -0.14095E+00
        -0.63624E-01
        -0.25963E-01
        -0.39591E-01
        -0.68457E-01
        -0.15568E-01
         0.62859E-01
         0.83937E-01
         0.39606E-01
         0.66026E-01
        -0.97207E-01
        -0.81179E-01
        -0.23813E-01
        -0.20629E-02
        -0.41580E-01
        -0.45744E-02
        -0.67963E-02
        -0.13011E-01
        -0.55388E-02
        -0.24359E-02
         0.27436E-01
         0.69467E-01
         0.50597E-01
         0.48241E-01
         0.71664E-01
         0.65564E-01
         0.68994E-02
         0.65895E-01
         0.14700E-01
        -0.43987E-01
        -0.36630E-01
        -0.98233E-02
        -0.25411E-01
        -0.85729E-01
        -0.45452E-01
        -0.38286E-01
         0.65777E-01
         0.12890E+00
         0.16201E+00
         0.10656E+00
         0.11112E+00
         0.10383E+00
         0.91080E-01
         0.71151E-01
         0.42005E-02
        -0.13471E-01
         0.10494E+00
         0.83732E-01
         0.42676E-01
         0.73662E-01
         0.51420E-01
        -0.58488E-01
        -0.21738E-01
         0.23299E-01
        -0.12020E+00
        -0.99505E-01
        -0.13276E+00
        -0.15016E+00
        -0.99870E-01
        -0.14556E+00
        -0.58773E-01
        -0.12386E+00
        -0.31444E-01
        -0.88640E-01
        -0.12068E+00
        -0.10264E+00
        -0.23371E-01
        -0.78753E-01
         0.69198E-01
         0.11671E+00
         0.88535E-01
         0.12918E+00
         0.92269E-01
        -0.35216E-01
        -0.70482E-01
        -0.10485E+00
        -0.10563E+00
        -0.12226E+00
        -0.14143E+00
        -0.76120E-01
        -0.39525E-01
        -0.53574E-01
        -0.71942E-01
        -0.10965E-01
         0.72399E-01
         0.96441E-01
         0.55017E-01
         0.76915E-01
        -0.69880E-01
        -0.66148E-01
        -0.56646E-03
         0.17362E-01
        -0.24562E-01
         0.13405E-01
         0.75005E-02
        -0.30925E-02
         0.45788E-02
         0.18492E-02
         0.43581E-01
         0.85733E-01
         0.45670E-01
         0.39404E-01
         0.67888E-01
         0.57199E-01
        -0.24890E-02
         0.50157E-01
        -0.13493E-01
        -0.64490E-01
        -0.35001E-01
         0.71139E-02
         0.50347E-02
        -0.58720E-01
        -0.29973E-01
        -0.25890E-01
         0.75364E-01
         0.13796E+00
         0.18214E+00
         0.12291E+00
         0.13686E+00
         0.12566E+00
         0.93455E-01
         0.76213E-01
         0.89055E-02
        -0.10244E-01
         0.10838E+00
         0.94531E-01
         0.54882E-01
         0.78889E-01
         0.58037E-01
        -0.65081E-01
        -0.33756E-01
         0.26432E-01
        -0.13179E+00
        -0.11660E+00
        -0.14109E+00
        -0.16275E+00
        -0.11064E+00
        -0.15425E+00
        -0.71452E-01
        -0.12884E+00
        -0.30735E-01
        -0.99568E-01
        -0.14238E+00
        -0.12304E+00
        -0.24151E-01
        -0.81257E-01
         0.73933E-01
         0.12955E+00
         0.11950E+00
         0.15664E+00
         0.11163E+00
        -0.42060E-01
        -0.91602E-01
        -0.13495E+00
        -0.14259E+00
        -0.15214E+00
        -0.16178E+00
        -0.85654E-01
        -0.46696E-01
        -0.57291E-01
        -0.70973E-01
        -0.73444E-02
         0.79604E-01
         0.10692E+00
         0.66482E-01
         0.93152E-01
        -0.28751E-01
        -0.39089E-01
         0.36214E-01
         0.42292E-01
        -0.46051E-02
         0.34974E-01
         0.19085E-01
        -0.20189E-01
        -0.42112E-01
        -0.57621E-01
        -0.17977E-01
         0.17826E-01
         0.40622E-02
         0.14087E-01
         0.47850E-01
         0.37070E-01
        -0.13540E-01
         0.40776E-01
        -0.16600E-01
        -0.58602E-01
        -0.28520E-01
         0.13533E-01
         0.14862E-01
        -0.47427E-01
        -0.22135E-01
        -0.13684E-01
         0.63185E-01
         0.11261E+00
         0.16154E+00
         0.11159E+00
         0.12853E+00
         0.11975E+00
         0.73382E-01
         0.72655E-01
         0.15454E-01
         0.54001E-02
         0.94840E-01
         0.82295E-01
         0.41609E-01
         0.80661E-01
         0.54572E-01
        -0.56758E-01
        -0.18963E-01
         0.24553E-01
        -0.11990E+00
        -0.96739E-01
        -0.13458E+00
        -0.14516E+00
        -0.10854E+00
        -0.14580E+00
        -0.48635E-01
        -0.12153E+00
        -0.15937E-01
        -0.79631E-01
        -0.11516E+00
        -0.95273E-01
        -0.23682E-01
        -0.79966E-01
         0.69053E-01
         0.12647E+00
         0.11437E+00
         0.14387E+00
         0.96657E-01
        -0.33897E-01
        -0.77258E-01
        -0.11344E+00
        -0.10881E+00
        -0.11715E+00
        -0.13224E+00
        -0.86119E-01
        -0.52406E-01
        -0.64643E-01
        -0.71755E-01
        -0.69451E-02
         0.78449E-01
         0.11104E+00
         0.76068E-01
         0.95783E-01
        -0.26571E-01
        -0.44931E-01
         0.29366E-01
         0.36023E-01
        -0.81015E-02
         0.29372E-01
         0.14711E-01
        -0.57243E-02
        -0.84732E-02
        -0.25912E-01
         0.27436E-01
         0.69876E-01
         0.47779E-01
         0.31696E-01
         0.48323E-01
         0.34223E-01
        -0.19480E-01
         0.29422E-01
        -0.29529E-01
        -0.59293E-01
        -0.21102E-01
         0.18367E-01
         0.28324E-01
        -0.28064E-01
        -0.16328E-01
        -0.23116E-01
         0.42927E-01
         0.87846E-01
         0.13776E+00
         0.87837E-01
         0.12579E+00
         0.11277E+00
         0.52848E-01
         0.57999E-01
         0.74665E-02
         0.64924E-02
         0.79064E-01
         0.76003E-01
         0.34306E-01
         0.73962E-01
         0.53923E-01
        -0.46336E-01
        -0.88885E-02
         0.91548E-02
        -0.93485E-01
        -0.70710E-01
        -0.11860E+00
        -0.12852E+00
        -0.10119E+00
        -0.12323E+00
        -0.33597E-01
        -0.10309E+00
        -0.79220E-02
        -0.64324E-01
        -0.10051E+00
        -0.73763E-01
        -0.24690E-01
        -0.70033E-01
         0.51718E-01
         0.10854E+00
         0.12169E+00
         0.13615E+00
         0.86800E-01
        -0.27262E-01
        -0.71935E-01
        -0.11346E+00
        -0.12125E+00
        -0.12182E+00
        -0.12619E+00
        -0.81078E-01
        -0.48982E-01
        -0.60270E-01
        -0.65423E-01
        -0.67999E-02
         0.71444E-01
         0.10543E+00
         0.77527E-01
         0.92343E-01
         0.25109E-01
         0.14655E-03
         0.56700E-01
         0.47832E-01
         0.36657E-02
         0.43400E-01
         0.26185E-01
        -0.10741E-01
        -0.37562E-01
        -0.71446E-01
        -0.33243E-01
         0.11872E-02
        -0.14527E-01
        -0.15348E-01
         0.58674E-03
        -0.57534E-02
        -0.40410E-01
         0.18067E-01
        -0.30675E-01
        -0.58188E-01
        -0.15377E-01
         0.25551E-01
         0.39703E-01
        -0.10885E-01
         0.32761E-02
         0.44899E-02
         0.33409E-01
         0.70310E-01
         0.11086E+00
         0.70324E-01
         0.10248E+00
         0.95880E-01
         0.40294E-01
         0.49897E-01
         0.63636E-02
         0.59370E-02
         0.66574E-01
         0.64581E-01
         0.25417E-01
         0.67907E-01
         0.50140E-01
        -0.38447E-01
        -0.58955E-02
         0.34081E-02
        -0.77140E-01
        -0.57025E-01
        -0.96098E-01
        -0.10636E+00
        -0.83358E-01
        -0.10527E+00
        -0.31021E-01
        -0.87984E-01
        -0.46946E-02
        -0.58225E-01
        -0.89762E-01
        -0.62193E-01
        -0.22590E-01
        -0.61503E-01
         0.40596E-01
         0.91868E-01
         0.99581E-01
         0.11367E+00
         0.74008E-01
        -0.18518E-01
        -0.60039E-01
        -0.10233E+00
        -0.10545E+00
        -0.10468E+00
        -0.10758E+00
        -0.69034E-01
        -0.44677E-01
        -0.56082E-01
        -0.58204E-01
        -0.51575E-02
         0.62443E-01
         0.93342E-01
         0.69705E-01
         0.81031E-01
         0.21694E-01
        -0.55915E-02
         0.48964E-01
         0.43058E-01
        -0.40911E-02
         0.31240E-01
         0.17150E-01
        -0.95466E-02
        -0.25394E-01
        -0.62284E-01
        -0.24926E-01
         0.41597E-02
        -0.16713E-01
        -0.90693E-02
         0.11983E-01
         0.62751E-02
        -0.31511E-01
         0.12289E-01
        -0.27362E-01
        -0.48619E-01
        -0.10175E-01
         0.23840E-01
         0.39292E-01
        -0.51095E-02
         0.11998E-02
        -0.19998E-02
         0.13308E-01
         0.42619E-01
         0.81405E-01
         0.48091E-01
         0.85604E-01
         0.79195E-01
         0.18608E-01
         0.33910E-01
         0.32306E-02
         0.11137E-01
         0.45838E-01
         0.50254E-01
         0.14746E-01
         0.56119E-01
         0.41141E-01
        -0.31758E-01
         0.35687E-02
        -0.42593E-02
        -0.60728E-01
        -0.32139E-01
        -0.80583E-01
        -0.77181E-01
        -0.78298E-01
        -0.92601E-01
        -0.99428E-02
        -0.76245E-01
         0.61143E-02
        -0.32343E-01
        -0.59239E-01
        -0.31141E-01
        -0.22916E-01
        -0.53485E-01
         0.26891E-01
         0.71795E-01
         0.85075E-01
         0.90599E-01
         0.55309E-01
        -0.10175E-01
        -0.40576E-01
        -0.77679E-01
        -0.80286E-01
        -0.76314E-01
        -0.74478E-01
        -0.64119E-01
        -0.38797E-01
        -0.48153E-01
        -0.50887E-01
        -0.63927E-02
         0.50920E-01
         0.80207E-01
         0.62692E-01
         0.68719E-01
         0.24141E-01
        -0.30992E-02
         0.29919E-01
         0.25111E-01
        -0.11790E-01
         0.24840E-01
         0.17327E-01
        -0.64010E-02
        -0.22197E-01
        -0.40719E-01
        -0.25933E-02
         0.31238E-01
         0.20732E-01
         0.10826E-01
         0.12488E-01
         0.93888E-03
        -0.30999E-01
         0.17356E-01
        -0.20564E-01
        -0.42808E-01
        -0.53300E-02
         0.26654E-01
         0.43031E-01
         0.65196E-02
         0.53187E-02
        -0.55820E-02
        -0.20956E-02
         0.23086E-01
         0.52166E-01
         0.24226E-01
         0.60976E-01
         0.55892E-01
         0.76418E-02
         0.22970E-01
        -0.28118E-02
         0.98909E-02
         0.34713E-01
         0.41302E-01
         0.91758E-02
         0.46913E-01
         0.31634E-01
        -0.18621E-01
         0.98403E-02
        -0.11816E-01
        -0.35653E-01
        -0.11862E-01
        -0.55039E-01
        -0.56033E-01
        -0.54687E-01
        -0.64328E-01
         0.53401E-03
        -0.53306E-01
         0.87503E-02
        -0.20145E-01
        -0.44339E-01
        -0.13437E-01
        -0.18600E-01
        -0.41080E-01
         0.13077E-01
         0.47017E-01
         0.62045E-01
         0.65105E-01
         0.39674E-01
        -0.90961E-02
        -0.31918E-01
        -0.67828E-01
        -0.73450E-01
        -0.66429E-01
        -0.59935E-01
        -0.47235E-01
        -0.30998E-01
        -0.43236E-01
        -0.44706E-01
        -0.66295E-02
         0.39256E-01
         0.62872E-01
         0.48277E-01
         0.49595E-01
         0.13503E-01
        -0.11338E-01
         0.89587E-02
         0.13732E-01
        -0.14814E-01
         0.18960E-01
         0.14445E-01
        -0.22461E-02
        -0.17956E-01
        -0.41947E-01
        -0.12775E-01
         0.24589E-01
         0.18164E-01
         0.12239E-01
         0.14541E-01
         0.12075E-01
        -0.14754E-01
         0.20814E-01
        -0.19639E-01
        -0.44189E-01
        -0.88335E-02
         0.23713E-01
         0.38124E-01
         0.45054E-02
         0.11430E-02
        -0.13343E-01
        -0.40075E-02
         0.13986E-01
         0.36891E-01
         0.16610E-01
         0.40533E-01
         0.38137E-01
        -0.17044E-02
         0.15164E-01
        -0.27544E-02
         0.84458E-02
         0.20477E-01
         0.27987E-01
        -0.67187E-04
         0.34387E-01
         0.21894E-01
        -0.12614E-01
         0.10065E-01
        -0.10959E-01
        -0.27362E-01
        -0.50005E-02
        -0.42295E-01
        -0.42494E-01
        -0.44692E-01
        -0.53371E-01
         0.53104E-02
        -0.42413E-01
         0.80613E-02
        -0.99082E-02
        -0.28915E-01
        -0.37871E-02
        -0.13532E-01
        -0.32652E-01
         0.87437E-02
         0.34505E-01
         0.42328E-01
         0.47430E-01
         0.27343E-01
        -0.65339E-02
        -0.18437E-01
        -0.45948E-01
        -0.49556E-01
        -0.50161E-01
        -0.46785E-01
        -0.38591E-01
        -0.23450E-01
        -0.31849E-01
        -0.34276E-01
        -0.35933E-02
         0.31385E-01
         0.49255E-01
         0.35500E-01
         0.35312E-01
        -0.72247E-02
        -0.41641E-01
        -0.11998E-01
        -0.48620E-02
        -0.31483E-01
         0.26325E-02
         0.82024E-02
         0.40844E-02
        -0.11328E-02
        -0.85869E-02
         0.17560E-01
         0.48914E-01
         0.47667E-01
         0.38618E-01
         0.37933E-01
         0.33711E-01
         0.77907E-02
         0.36982E-01
        -0.73270E-04
        -0.27441E-01
        -0.76477E-02
         0.15257E-01
         0.24974E-01
        -0.41571E-02
        -0.10454E-01
        -0.39745E-01
        -0.97473E-02
         0.32535E-02
         0.19051E-01
         0.54382E-02
         0.21408E-01
         0.20506E-01
        -0.69139E-02
         0.90716E-02
        -0.26528E-02
         0.60557E-02
         0.12159E-01
         0.21853E-01
        -0.27035E-02
         0.24538E-01
         0.13661E-01
        -0.41500E-02
         0.11149E-01
        -0.11795E-01
        -0.15557E-01
         0.41208E-02
        -0.27689E-01
        -0.25457E-01
        -0.29477E-01
        -0.36610E-01
         0.70560E-02
        -0.25748E-01
         0.59849E-02
        -0.39003E-02
        -0.15625E-01
         0.74980E-02
        -0.94108E-02
        -0.21093E-01
         0.24938E-02
         0.21599E-01
         0.20366E-01
         0.26486E-01
         0.15041E-01
        -0.41251E-02
        -0.85771E-02
        -0.31906E-01
        -0.31265E-01
        -0.31406E-01
        -0.28117E-01
        -0.23284E-01
        -0.11657E-01
        -0.21948E-01
        -0.26591E-01
        -0.45933E-02
         0.21211E-01
         0.35619E-01
         0.19785E-01
         0.18311E-01
        -0.33454E-01
        -0.59305E-01
        -0.47447E-01
        -0.29564E-01
        -0.40583E-01
         0.16438E-03
         0.81972E-02
         0.10578E-01
         0.89306E-02
         0.61224E-02
         0.33510E-01
         0.66111E-01
         0.66375E-01
         0.52417E-01
         0.45655E-01
         0.46500E-01
         0.24441E-01
         0.47495E-01
         0.86107E-02
        -0.19092E-01
        -0.10986E-01
         0.10898E-02
         0.90255E-02
        -0.21528E-01
        -0.29743E-01
        -0.57578E-01
        -0.69449E-02
         0.49016E-02
         0.18284E-01
         0.80929E-02
         0.18623E-01
         0.17555E-01
        -0.45652E-02
         0.79286E-02
        -0.34604E-02
         0.16952E-02
         0.10012E-01
         0.19118E-01
         0.10975E-02
         0.19375E-01
         0.73257E-02
        -0.21405E-02
         0.43842E-02
        -0.89251E-02
        -0.13546E-01
         0.15836E-03
        -0.20465E-01
        -0.23339E-01
        -0.19366E-01
        -0.28497E-01
        -0.52232E-03
        -0.18095E-01
         0.17514E-02
        -0.81961E-02
        -0.16059E-01
         0.38271E-02
        -0.59321E-02
        -0.14446E-01
         0.21109E-02
         0.18006E-01
         0.17012E-01
         0.23979E-01
         0.16191E-01
        -0.69334E-02
        -0.94587E-02
        -0.27773E-01
        -0.20030E-01
        -0.23606E-01
        -0.24737E-01
        -0.16489E-01
        -0.69486E-02
        -0.14931E-01
        -0.18410E-01
        -0.10734E-02
         0.17462E-01
         0.26796E-01
         0.89242E-02
         0.11616E-01
        -0.36094E-01
        -0.62083E-01
        -0.50766E-01
        -0.29706E-01
        -0.40894E-01
        -0.67773E-02
         0.13829E-02
         0.94678E-02
         0.76432E-02
         0.16522E-01
         0.48645E-01
         0.79235E-01
         0.72042E-01
         0.55156E-01
         0.58336E-01
         0.62053E-01
         0.32795E-01
         0.48084E-01
         0.13508E-01
        -0.10362E-01
        -0.82583E-02
        -0.60244E-02
        -0.63835E-02
        -0.37772E-01
        -0.39278E-01
        -0.63724E-01
        -0.76376E-03
         0.55251E-02
         0.14094E-01
         0.10536E-01
         0.12088E-01
         0.12343E-01
        -0.49329E-02
         0.70647E-02
         0.15465E-02
         0.15310E-02
         0.46572E-02
         0.15519E-01
         0.30009E-02
         0.13368E-01
         0.39831E-02
        -0.13239E-02
         0.20737E-02
        -0.22061E-02
        -0.10988E-01
         0.56885E-03
        -0.14877E-01
        -0.17655E-01
        -0.16433E-01
        -0.24658E-01
        -0.19980E-02
        -0.16063E-01
         0.14439E-02
        -0.60941E-02
        -0.12797E-01
         0.47536E-02
        -0.50128E-02
        -0.12782E-01
         0.27192E-02
         0.16732E-01
         0.12826E-01
         0.20406E-01
         0.16332E-01
        -0.33792E-02
        -0.42450E-02
        -0.24240E-01
        -0.19347E-01
        -0.20993E-01
        -0.20620E-01
        -0.14596E-01
        -0.51558E-02
        -0.11373E-01
        -0.15459E-01
        -0.20686E-02
         0.12571E-01
         0.21517E-01
         0.51989E-02
         0.83929E-02
        -0.33689E-01
        -0.63594E-01
        -0.49671E-01
        -0.26527E-01
        -0.34638E-01
        -0.65451E-02
         0.25102E-02
         0.14338E-01
         0.90386E-02
         0.88898E-02
         0.27128E-01
         0.57580E-01
         0.63227E-01
         0.52170E-01
         0.51999E-01
         0.58645E-01
         0.37754E-01
         0.51451E-01
         0.17163E-01
        -0.76747E-02
        -0.11485E-01
        -0.11652E-01
        -0.11780E-01
        -0.39511E-01
        -0.39151E-01
        -0.65705E-01
        -0.99746E-03
         0.36430E-02
         0.98436E-02
         0.73875E-02
         0.10266E-01
         0.97125E-02
        -0.59903E-02
         0.45156E-02
         0.18977E-02
         0.46803E-03
         0.12120E-02
         0.10847E-01
         0.12618E-02
         0.86012E-02
        -0.54528E-03
        -0.12912E-02
        -0.12734E-02
        -0.10967E-02
        -0.91311E-02
         0.26695E-03
        -0.70837E-02
        -0.11683E-01
        -0.10492E-01
        -0.18885E-01
        -0.29069E-02
        -0.10786E-01
         0.51927E-03
        -0.38619E-02
        -0.92003E-02
         0.50380E-02
        -0.23034E-02
        -0.81215E-02
         0.15066E-02
         0.11080E-01
         0.10226E-01
         0.16019E-01
         0.13554E-01
        -0.38352E-02
        -0.75740E-03
        -0.16677E-01
        -0.10315E-01
        -0.16070E-01
        -0.17276E-01
        -0.11166E-01
        -0.44184E-02
        -0.96943E-02
        -0.10904E-01
        -0.16062E-03
         0.10434E-01
         0.17112E-01
         0.11756E-02
         0.42002E-02
        -0.32085E-01
        -0.51692E-01
        -0.52462E-01
        -0.26613E-01
        -0.35490E-01
        -0.10801E-01
        -0.18611E-02
         0.11547E-01
         0.12401E-01
         0.21717E-01
         0.36941E-01
         0.52512E-01
         0.47806E-01
         0.44434E-01
         0.46463E-01
         0.49819E-01
         0.26314E-01
         0.36616E-01
         0.15364E-01
         0.20673E-03
        -0.90755E-02
        -0.11995E-01
        -0.10727E-01
        -0.38013E-01
        -0.33087E-01
        -0.51644E-01
        -0.79978E-03
         0.12232E-02
         0.58811E-02
         0.61154E-02
         0.68328E-02
         0.64237E-02
        -0.54635E-02
         0.50632E-02
         0.23475E-02
        -0.91019E-03
         0.21058E-02
         0.10456E-01
         0.65070E-03
         0.80740E-02
        -0.13307E-02
         0.54843E-03
        -0.35626E-02
         0.39759E-03
        -0.61911E-02
        -0.18041E-03
        -0.44532E-02
        -0.89386E-02
        -0.54497E-02
        -0.12789E-01
        -0.57318E-02
        -0.54510E-02
        -0.88273E-03
        -0.36373E-02
        -0.54529E-02
         0.53514E-02
         0.42066E-03
        -0.29057E-02
         0.89457E-03
         0.79371E-02
         0.60033E-02
         0.10714E-01
         0.97466E-02
        -0.47451E-02
        -0.31461E-03
        -0.11567E-01
        -0.35749E-02
        -0.96486E-02
        -0.12149E-01
        -0.63012E-02
        -0.99947E-03
        -0.62705E-02
        -0.62125E-02
         0.12339E-02
         0.72694E-02
         0.13133E-01
        -0.29008E-03
         0.15940E-02
        -0.33366E-01
        -0.47506E-01
        -0.53790E-01
        -0.21837E-01
        -0.27385E-01
        -0.74185E-02
        -0.19896E-02
         0.91553E-02
         0.71618E-02
         0.18938E-01
         0.36842E-01
         0.52839E-01
         0.44720E-01
         0.34369E-01
         0.31700E-01
         0.43030E-01
         0.27854E-01
         0.36177E-01
         0.13260E-01
        -0.80481E-03
        -0.90008E-02
        -0.13525E-01
        -0.86738E-02
        -0.30390E-01
        -0.25864E-01
        -0.47344E-01
        -0.53592E-03
         0.12124E-02
         0.43205E-02
         0.59227E-02
         0.74230E-02
         0.79092E-02
        -0.47130E-02
         0.55233E-02
         0.31143E-02
        -0.67530E-04
         0.17264E-02
         0.88457E-02
         0.13073E-02
         0.75551E-02
        -0.18723E-02
         0.87123E-03
        -0.31330E-02
         0.43518E-04
        -0.47279E-02
        -0.34861E-03
        -0.62839E-02
        -0.10123E-01
        -0.65703E-02
        -0.10834E-01
        -0.44624E-02
        -0.50204E-02
        -0.24774E-04
        -0.42481E-03
        -0.19344E-02
         0.64093E-02
        -0.89573E-03
        -0.38030E-02
        -0.46989E-04
         0.89756E-02
         0.86472E-02
         0.11361E-01
         0.10590E-01
        -0.20084E-02
         0.45404E-02
        -0.73451E-02
        -0.36195E-02
        -0.92564E-02
        -0.11558E-01
        -0.87551E-02
        -0.46636E-02
        -0.71866E-02
        -0.46268E-02
         0.13634E-02
         0.59513E-02
         0.13777E-01
         0.31357E-02
         0.49985E-02
        -0.20382E-01
        -0.36594E-01
        -0.46148E-01
        -0.19927E-01
        -0.27429E-01
        -0.96146E-02
        -0.33520E-02
         0.11037E-01
         0.13092E-01
         0.19216E-01
         0.29433E-01
         0.44501E-01
         0.38384E-01
         0.27077E-01
         0.19706E-01
         0.33180E-01
         0.20621E-01
         0.27182E-01
         0.11056E-01
         0.30149E-02
        -0.82956E-02
        -0.14743E-01
        -0.72897E-02
        -0.25281E-01
        -0.18252E-01
        -0.37623E-01
        -0.52175E-03
         0.22363E-02
         0.35820E-02
         0.46061E-02
         0.37819E-02
         0.37256E-02
        -0.38543E-02
         0.55625E-02
         0.30966E-02
        -0.29661E-03
         0.14650E-02
         0.74087E-02
         0.79334E-03
         0.71064E-02
        -0.13894E-02
         0.21088E-03
        -0.23190E-02
        -0.10804E-02
        -0.43413E-02
        -0.24231E-03
        -0.35513E-02
        -0.76269E-02
        -0.41914E-02
        -0.10147E-01
        -0.52341E-02
        -0.45646E-02
        -0.15085E-02
        -0.21839E-02
        -0.14026E-02
         0.60032E-02
        -0.91020E-03
        -0.24701E-02
        -0.18719E-02
         0.51210E-02
         0.46005E-02
         0.86285E-02
         0.91328E-02
        -0.27212E-02
         0.18290E-02
        -0.62561E-02
         0.11293E-02
        -0.49668E-02
        -0.83066E-02
        -0.66229E-02
        -0.29775E-02
        -0.58035E-02
        -0.29796E-02
         0.20315E-02
         0.39107E-02
         0.87954E-02
        -0.22972E-02
        -0.57850E-04
        -0.25211E-01
        -0.40794E-01
        -0.47974E-01
        -0.22598E-01
        -0.29630E-01
        -0.11303E-01
        -0.17178E-02
         0.12554E-01
         0.10114E-01
         0.18701E-01
         0.36462E-01
         0.49009E-01
         0.36130E-01
         0.25972E-01
         0.22861E-01
         0.33957E-01
         0.20536E-01
         0.24736E-01
         0.10862E-01
         0.45910E-02
        -0.59158E-02
        -0.12717E-01
        -0.10105E-01
        -0.30091E-01
        -0.23350E-01
        -0.40268E-01
        -0.19450E-02
         0.80053E-05
         0.65828E-03
         0.35876E-02
         0.21124E-02
         0.35824E-02
        -0.39737E-02
         0.43897E-02
         0.16717E-02
        -0.12669E-02
         0.73889E-03
         0.54411E-02
        -0.90711E-03
         0.53859E-02
        -0.32678E-02
        -0.42633E-03
        -0.32337E-02
         0.18457E-03
        -0.43019E-02
         0.31094E-03
        -0.21764E-02
        -0.61809E-02
        -0.31804E-02
        -0.90309E-02
        -0.50258E-02
        -0.35153E-02
        -0.18426E-02
        -0.14468E-02
        -0.23893E-02
         0.58974E-02
         0.42064E-03
        -0.20597E-03
        -0.86642E-03
         0.43734E-02
         0.14621E-02
         0.41192E-02
         0.46260E-02
        -0.40684E-02
         0.19258E-02
        -0.56037E-02
         0.96165E-03
        -0.57191E-02
        -0.80604E-02
        -0.48929E-02
        -0.77756E-03
        -0.32232E-02
        -0.15874E-02
         0.12486E-02
         0.28619E-02
         0.82576E-02
         0.86891E-04
         0.16439E-02
        -0.26578E-01
        -0.42518E-01
        -0.46716E-01
        -0.26065E-01
        -0.31305E-01
        -0.15916E-01
        -0.53557E-02
         0.82089E-02
         0.10021E-01
         0.25021E-01
         0.41326E-01
         0.48348E-01
         0.32473E-01
         0.28224E-01
         0.21534E-01
         0.27806E-01
         0.18267E-01
         0.24850E-01
         0.13181E-01
         0.44613E-02
        -0.52002E-02
        -0.92945E-02
        -0.62132E-02
        -0.21653E-01
        -0.14023E-01
        -0.37967E-01
        -0.50945E-02
         0.69994E-03
         0.29259E-02
         0.62548E-02
         0.81146E-03
         0.30786E-02
        -0.31776E-02
         0.39107E-02
        -0.20927E-02
        -0.98141E-03
         0.37217E-02
         0.46176E-02
        -0.42982E-02
         0.97854E-02
        -0.12861E-02
        -0.30402E-02
        -0.39040E-02
         0.74536E-03
        -0.24215E-02
         0.25775E-02
         0.97571E-03
        -0.51959E-02
        -0.45533E-03
        -0.60995E-02
         0.10506E-02
        -0.22476E-02
         0.12113E-02
         0.21215E-02
        -0.27417E-02
         0.83504E-02
        -0.19309E-02
        -0.31295E-02
         0.78218E-03
         0.33419E-02
        -0.34338E-02
         0.14629E-02
         0.16309E-02
        -0.10984E-02
         0.32653E-02
        -0.92220E-02
         0.80992E-02
         0.24928E-02
        -0.60205E-02
        -0.41821E-02
        -0.49774E-02
        -0.62082E-02
        -0.31082E-02
         0.37211E-03
         0.58277E-02
         0.85206E-02
        -0.37435E-02
        -0.20421E-02
        -0.34890E-01
        -0.46808E-01
        -0.63774E-01
        -0.35493E-01
        -0.31386E-01
        -0.19915E-01
        -0.58791E-02
         0.11044E-01
         0.14520E-01
         0.32684E-01
         0.65264E-01
         0.78739E-01
         0.49848E-01
         0.35513E-01
         0.25041E-01
         0.33386E-01
         0.28152E-01
         0.25017E-01
         0.10660E-01
        -0.73045E-03
        -0.71264E-02
        -0.23568E-02
        -0.52466E-02
        -0.22870E-01
        -0.13853E-01
        -0.40989E-01
  
SCALARS                      strain_xy  double 1
LOOKUP_TABLE default
        -0.56779E-02
        -0.13635E-01
         0.46916E-02
        -0.61325E-02
        -0.27203E-01
        -0.33015E-01
         0.12296E-01
        -0.87141E-02
         0.16708E-01
         0.12359E-03
         0.26640E-01
         0.31846E-02
        -0.29165E-01
        -0.88912E-02
        -0.58528E-01
        -0.27285E-01
         0.15162E-01
         0.16546E-01
         0.10382E-01
         0.26950E-01
        -0.27498E-01
        -0.11093E-01
        -0.13459E-02
        -0.37190E-01
        -0.23882E-01
        -0.37527E-01
        -0.90022E-02
         0.99583E-03
         0.58514E-03
         0.58892E-02
        -0.49746E-02
         0.22670E-01
        -0.88242E-03
        -0.13455E-01
         0.36799E-01
        -0.92040E-02
         0.10768E-02
         0.19106E-01
         0.12041E-01
         0.35343E-01
        -0.46245E-02
         0.95216E-02
         0.11366E-01
         0.37368E-01
        -0.13235E-01
        -0.18911E-01
        -0.16497E-02
        -0.11513E-01
         0.29514E-01
         0.68813E-01
        -0.19057E-01
        -0.54595E-02
         0.12133E-01
         0.18864E-01
         0.25955E-01
         0.47036E-01
         0.28948E-01
         0.32954E-01
         0.20805E-01
         0.53592E-01
        -0.93253E-02
         0.64193E-02
         0.25068E-02
         0.58534E-01
        -0.67376E-02
        -0.27307E-01
        -0.79146E-02
        -0.41168E-01
         0.38944E-01
         0.32528E-01
         0.27167E-01
         0.52843E-02
         0.16914E-01
        -0.20368E-01
         0.91884E-02
         0.17936E-01
         0.10835E-01
         0.33505E-01
         0.45715E-02
         0.61029E-02
        -0.20935E-01
         0.68493E-02
        -0.29644E-01
         0.20086E-01
         0.19527E-01
         0.54624E-01
         0.13893E-02
         0.31239E-01
         0.47959E-01
         0.91670E-01
         0.69216E-01
         0.36104E-01
         0.10208E+00
         0.76890E-01
         0.53119E-02
         0.18317E-01
        -0.23861E-01
        -0.28905E-01
        -0.41641E-01
        -0.52941E-01
        -0.42028E-01
        -0.15252E-01
        -0.49187E-01
        -0.35938E-01
         0.43404E-01
         0.10847E-01
         0.72753E-02
        -0.55937E-02
         0.74423E-01
        -0.11553E-01
         0.75549E-01
        -0.16811E-01
         0.70949E-01
        -0.18891E-01
         0.50723E-01
        -0.13470E-01
         0.32801E-01
         0.17583E-01
         0.15996E-02
         0.32433E-01
        -0.40571E-01
         0.27521E-01
        -0.58489E-01
         0.10497E-01
        -0.93306E-01
        -0.27772E-01
        -0.84824E-01
         0.26678E-01
        -0.21590E-01
         0.78350E-01
         0.12531E-01
         0.69984E-01
         0.25182E-01
         0.32921E-01
         0.35645E-01
         0.17247E-01
         0.39461E-01
         0.31771E-01
         0.79809E-01
         0.64647E-01
         0.59988E-01
         0.50515E-01
         0.15196E-01
         0.10554E-01
        -0.38373E-02
         0.28731E-02
        -0.39508E-01
         0.88243E-02
        -0.60207E-01
        -0.52517E-02
        -0.34717E-01
        -0.19058E-01
        -0.18242E-01
        -0.11496E-01
         0.18491E-02
        -0.15912E-01
         0.67542E-02
        -0.21698E-01
         0.23443E-02
         0.16181E-01
         0.23346E-01
         0.29603E-01
        -0.41380E-01
        -0.65072E-02
         0.19974E-01
         0.12081E-01
        -0.44689E-01
        -0.51198E-01
        -0.49703E-01
        -0.13461E-01
        -0.17711E-01
        -0.10100E-01
         0.85785E-02
         0.13573E-01
        -0.23447E-01
        -0.26496E-02
        -0.44227E-01
        -0.13403E-01
        -0.65986E-01
        -0.49336E-01
         0.11530E-01
        -0.46245E-01
         0.14010E-01
         0.26831E-01
         0.40825E-01
         0.22270E-01
        -0.92960E-02
        -0.31507E-01
         0.18541E-01
         0.36289E-01
         0.16161E-01
        -0.61723E-02
        -0.33346E-01
         0.15739E-01
         0.36663E-01
         0.48845E-01
         0.37347E-01
         0.40443E-01
         0.24868E-01
        -0.63444E-01
        -0.25034E-01
         0.68657E-03
        -0.23021E-02
         0.16681E-01
         0.24380E-01
         0.29289E-01
         0.33466E-01
         0.37928E-01
         0.78222E-03
         0.16801E-01
         0.67163E-02
        -0.20919E-01
        -0.32122E-01
        -0.34967E-01
        -0.17229E-01
         0.40766E-02
         0.11628E-01
         0.32367E-01
         0.20411E-01
        -0.51968E-02
         0.32201E-02
         0.79966E-02
        -0.89904E-02
        -0.43954E-01
        -0.70749E-01
         0.10091E-01
         0.26377E-01
        -0.65548E-02
         0.81586E-02
         0.51133E-02
        -0.26340E-02
         0.39480E-01
         0.52641E-01
         0.53221E-01
         0.17548E-01
        -0.33702E-02
         0.24992E-01
         0.35968E-01
         0.41239E-01
         0.44363E-01
        -0.29062E-01
        -0.16365E-02
         0.16182E-01
         0.76876E-02
        -0.36523E-01
        -0.41595E-01
        -0.32680E-01
        -0.91142E-02
        -0.15000E-01
        -0.98014E-02
         0.20774E-03
         0.21411E-01
        -0.35607E-01
        -0.21779E-01
        -0.68852E-01
        -0.52069E-01
        -0.70334E-01
        -0.55250E-01
        -0.18134E-02
        -0.45630E-01
         0.90493E-02
         0.51533E-02
         0.32038E-02
        -0.56846E-02
        -0.29344E-02
        -0.31606E-01
         0.27202E-01
         0.47213E-01
         0.34832E-01
         0.14389E-01
        -0.12404E-01
         0.54814E-02
         0.56792E-02
         0.22875E-02
        -0.22308E-01
        -0.15716E-01
        -0.23419E-01
        -0.59864E-01
        -0.27184E-01
        -0.15307E-01
        -0.15743E-01
         0.13330E-01
         0.29363E-01
         0.35605E-01
         0.40020E-01
         0.48243E-01
         0.21079E-01
         0.26371E-01
         0.20478E-01
        -0.22679E-02
        -0.35458E-02
        -0.48858E-02
        -0.18388E-03
        -0.12704E-01
        -0.51628E-01
        -0.59483E-01
        -0.78610E-01
        -0.85664E-01
        -0.52719E-01
        -0.28114E-01
        -0.15973E-01
        -0.33175E-01
        -0.75459E-01
        -0.19208E-03
         0.73087E-02
        -0.32372E-01
        -0.78119E-02
         0.29353E-02
        -0.25760E-02
         0.30808E-01
         0.55343E-01
         0.59348E-01
         0.12519E-01
        -0.63538E-02
         0.23886E-01
         0.31363E-01
         0.38285E-01
         0.39441E-01
        -0.29662E-01
        -0.53614E-03
         0.12312E-01
         0.69984E-02
        -0.33801E-01
        -0.37621E-01
        -0.31847E-01
        -0.51181E-02
        -0.12382E-01
        -0.33983E-02
         0.26533E-02
         0.18318E-01
        -0.24552E-01
        -0.18438E-01
        -0.54472E-01
        -0.40642E-01
        -0.56768E-01
        -0.43701E-01
        -0.69162E-02
        -0.35293E-01
         0.80436E-02
        -0.23141E-02
        -0.39460E-02
        -0.12927E-01
         0.42672E-02
        -0.21366E-01
         0.26697E-01
         0.38449E-01
         0.32093E-01
         0.13942E-01
        -0.12812E-01
         0.99240E-02
         0.12525E-01
         0.12682E-01
        -0.63658E-02
        -0.11648E-01
        -0.18132E-01
        -0.46732E-01
        -0.18011E-01
        -0.11585E-01
        -0.13122E-01
         0.12957E-01
         0.27012E-01
         0.28164E-01
         0.31019E-01
         0.39790E-01
         0.17704E-01
         0.22325E-01
         0.23205E-01
         0.48249E-02
         0.42287E-02
         0.49606E-02
         0.56525E-03
        -0.55828E-03
        -0.73086E-02
        -0.50433E-02
        -0.37171E-01
        -0.42728E-01
        -0.18826E-01
        -0.27530E-01
        -0.21909E-01
        -0.26658E-01
        -0.60969E-01
         0.33785E-02
         0.21798E-02
        -0.42810E-01
        -0.20210E-01
         0.98004E-03
         0.19817E-02
         0.27678E-01
         0.49280E-01
         0.48418E-01
         0.71053E-02
        -0.11578E-01
         0.16283E-01
         0.22331E-01
         0.30550E-01
         0.32196E-01
        -0.31342E-01
        -0.26373E-02
         0.13000E-01
         0.98491E-02
        -0.33671E-01
        -0.37670E-01
        -0.35601E-01
        -0.41536E-02
        -0.89792E-02
         0.25326E-02
         0.75048E-02
         0.15820E-01
        -0.20181E-01
        -0.13960E-01
        -0.44584E-01
        -0.31837E-01
        -0.47152E-01
        -0.36187E-01
        -0.81109E-03
        -0.25979E-01
         0.11945E-01
        -0.29281E-03
        -0.76359E-02
        -0.91946E-02
         0.93653E-02
        -0.12841E-01
         0.22878E-01
         0.27540E-01
         0.19437E-01
         0.12946E-02
        -0.21965E-01
         0.14510E-01
         0.12187E-01
         0.53265E-02
        -0.10796E-01
        -0.10944E-01
        -0.11894E-01
        -0.39110E-01
        -0.16675E-01
        -0.13496E-01
        -0.98999E-02
         0.15175E-01
         0.27271E-01
         0.24321E-01
         0.22115E-01
         0.28827E-01
         0.27599E-02
         0.14010E-01
        -0.77958E-04
        -0.13765E-01
        -0.69369E-02
         0.13914E-02
        -0.74309E-03
        -0.30128E-02
        -0.19359E-02
         0.88599E-02
        -0.17553E-01
        -0.19523E-01
        -0.10300E-01
        -0.15904E-01
        -0.98301E-02
        -0.20089E-01
        -0.56690E-01
        -0.12345E-01
        -0.11108E-01
        -0.47433E-01
        -0.22472E-01
         0.69590E-02
         0.14903E-01
         0.23481E-01
         0.38815E-01
         0.40307E-01
        -0.19929E-02
        -0.20356E-01
         0.93893E-02
         0.15976E-01
         0.24285E-01
         0.26712E-01
        -0.39352E-01
        -0.10746E-01
         0.94952E-02
         0.12321E-01
        -0.38203E-01
        -0.36873E-01
        -0.37885E-01
        -0.70531E-02
        -0.92635E-02
         0.12644E-03
         0.10819E-01
         0.11518E-01
        -0.25887E-01
        -0.74237E-02
        -0.43779E-01
        -0.25420E-01
        -0.45510E-01
        -0.41549E-01
         0.15385E-01
        -0.27436E-01
         0.20143E-01
         0.17620E-01
         0.12087E-01
         0.90675E-02
         0.12034E-01
        -0.90228E-02
         0.20831E-01
         0.21947E-01
         0.10567E-01
        -0.57643E-02
        -0.26764E-01
         0.18419E-01
         0.19962E-01
         0.12391E-01
        -0.62019E-02
         0.42209E-03
        -0.19467E-02
        -0.38440E-01
        -0.17047E-01
        -0.12115E-01
        -0.39634E-02
         0.20603E-01
         0.28317E-01
         0.21745E-01
         0.17773E-01
         0.22333E-01
        -0.96105E-02
         0.63487E-02
        -0.94545E-02
        -0.95299E-02
        -0.23377E-02
         0.14672E-02
        -0.48310E-02
        -0.90868E-02
        -0.11609E-01
        -0.14990E-01
        -0.36553E-01
        -0.28756E-01
        -0.70493E-02
        -0.13813E-02
         0.38146E-02
        -0.35156E-02
        -0.44777E-01
        -0.13646E-01
        -0.13749E-01
        -0.40828E-01
        -0.14657E-01
         0.11694E-01
         0.18177E-01
         0.23510E-01
         0.30710E-01
         0.29417E-01
        -0.97888E-02
        -0.28208E-01
         0.11380E-02
         0.67816E-02
         0.17202E-01
         0.24060E-01
        -0.42940E-01
        -0.14726E-01
         0.53955E-02
         0.12342E-01
        -0.39071E-01
        -0.37120E-01
        -0.44712E-01
        -0.11052E-01
        -0.12176E-01
         0.55257E-02
         0.16100E-01
         0.30826E-02
        -0.15362E-01
         0.40507E-02
        -0.37001E-01
        -0.12388E-01
        -0.48160E-01
        -0.34855E-01
         0.20582E-01
        -0.19436E-01
         0.17868E-01
         0.21812E-01
         0.21493E-01
         0.17573E-01
         0.16405E-01
        -0.41928E-02
         0.14640E-01
         0.15061E-01
        -0.25608E-02
        -0.19105E-01
        -0.39047E-01
         0.15087E-01
         0.25218E-01
         0.27036E-01
         0.16482E-01
         0.18532E-01
         0.12884E-01
        -0.44915E-01
        -0.28393E-01
        -0.28825E-01
        -0.95494E-02
         0.21811E-01
         0.31299E-01
         0.28434E-01
         0.30949E-01
         0.25664E-01
        -0.28716E-01
        -0.26627E-02
        -0.30327E-01
        -0.24130E-01
        -0.14169E-01
        -0.31552E-02
        -0.39126E-02
        -0.32944E-02
         0.19943E-02
         0.10470E-01
        -0.10930E-02
        -0.83842E-04
         0.15858E-01
         0.40580E-02
        -0.84062E-02
        -0.24462E-01
        -0.65701E-01
        -0.45225E-01
        -0.50217E-01
        -0.62610E-01
        -0.13710E-01
         0.28713E-01
         0.49690E-01
         0.57232E-01
         0.45022E-01
         0.28002E-01
        -0.42740E-02
        -0.20470E-01
         0.86609E-03
         0.10086E-02
         0.11741E-01
         0.10321E-01
        -0.29168E-01
        -0.74434E-02
         0.80963E-02
         0.11598E-01
        -0.26364E-01
        -0.24472E-01
        -0.32672E-01
        -0.82341E-02
        -0.93082E-02
         0.11367E-01
         0.14595E-01
         0.15687E-02
        -0.38265E-02
         0.20081E-02
        -0.15000E-01
        -0.44926E-02
        -0.21222E-01
        -0.12389E-01
         0.13209E-01
         0.90980E-03
         0.11693E-01
         0.12337E-01
         0.92464E-02
         0.61886E-02
         0.18490E-01
         0.12405E-01
         0.18035E-02
        -0.49833E-02
        -0.48424E-02
        -0.19281E-01
        -0.33530E-01
         0.97265E-02
         0.17294E-01
         0.17673E-01
         0.11420E-01
         0.11872E-01
         0.87159E-02
        -0.18262E-01
        -0.72778E-02
        -0.13814E-01
         0.82467E-04
         0.17875E-01
         0.14350E-01
         0.72591E-02
         0.12966E-01
         0.61078E-02
        -0.29045E-01
        -0.90541E-02
        -0.32584E-01
        -0.22761E-01
        -0.11175E-01
         0.34641E-02
         0.73090E-03
        -0.29584E-02
         0.32924E-02
         0.11487E-01
         0.61901E-02
         0.15067E-01
         0.30373E-01
         0.21434E-01
         0.55518E-02
        -0.10837E-01
        -0.41153E-01
        -0.28152E-01
        -0.40358E-01
        -0.53885E-01
        -0.91333E-02
         0.20295E-01
         0.40465E-01
         0.49543E-01
         0.26663E-01
         0.80593E-02
        -0.43353E-02
        -0.19215E-01
        -0.24781E-02
         0.31052E-02
         0.87661E-02
         0.84065E-02
        -0.21726E-01
        -0.74567E-02
         0.85110E-02
         0.10978E-01
        -0.17460E-01
        -0.14149E-01
        -0.22903E-01
        -0.84083E-02
        -0.89559E-02
         0.27862E-02
         0.10462E-01
         0.56404E-02
        -0.15495E-01
        -0.62330E-02
        -0.18420E-01
        -0.12943E-01
        -0.19196E-01
        -0.20542E-01
         0.16479E-01
        -0.93800E-02
         0.85583E-02
         0.16322E-01
         0.14951E-01
         0.52818E-02
         0.98392E-02
         0.16447E-02
         0.38533E-02
         0.45795E-03
        -0.71285E-02
        -0.21504E-01
        -0.30720E-01
         0.45182E-02
         0.16744E-01
         0.22095E-01
         0.15697E-01
         0.12624E-01
         0.17014E-02
        -0.14754E-01
        -0.56478E-02
        -0.10889E-01
        -0.54404E-02
         0.85070E-02
         0.88538E-02
         0.60319E-02
         0.10914E-01
         0.53015E-02
        -0.25436E-01
        -0.33425E-02
        -0.34870E-01
        -0.19504E-01
        -0.42657E-02
         0.92960E-02
        -0.25003E-02
        -0.11142E-01
        -0.35800E-02
         0.73395E-02
         0.40837E-02
         0.11207E-01
         0.19297E-01
         0.16499E-01
         0.12224E-01
        -0.21263E-04
        -0.15348E-01
        -0.58585E-02
        -0.23226E-01
        -0.40480E-01
        -0.10113E-01
         0.89294E-02
         0.30625E-01
         0.40597E-01
         0.15674E-01
         0.41061E-02
        -0.83206E-02
        -0.18441E-01
        -0.35726E-02
        -0.77258E-03
         0.48827E-02
         0.81377E-02
        -0.21152E-01
        -0.87373E-02
         0.27693E-02
         0.84301E-02
        -0.15359E-01
        -0.13669E-01
        -0.23708E-01
        -0.62505E-02
        -0.75309E-02
         0.16632E-02
         0.95851E-02
         0.21576E-02
        -0.13366E-01
        -0.54642E-03
        -0.20191E-01
        -0.11336E-01
        -0.24249E-01
        -0.22523E-01
         0.16804E-01
        -0.13226E-01
         0.89665E-02
         0.16791E-01
         0.13903E-01
         0.85055E-02
         0.71886E-02
        -0.48290E-02
         0.48433E-02
         0.51417E-02
        -0.89710E-02
        -0.18736E-01
        -0.27929E-01
         0.16862E-02
         0.13456E-01
         0.18178E-01
         0.10282E-01
         0.87462E-02
         0.15328E-02
        -0.20651E-01
        -0.13258E-01
        -0.18437E-01
        -0.11744E-01
         0.48690E-02
         0.10564E-01
         0.15086E-01
         0.22229E-01
         0.11982E-01
        -0.29221E-01
        -0.10206E-01
        -0.26899E-01
        -0.90613E-02
         0.19372E-02
         0.78449E-02
        -0.74967E-02
        -0.18572E-01
        -0.13641E-01
        -0.26443E-02
        -0.84127E-03
        -0.61352E-03
         0.17353E-02
         0.13169E-02
        -0.43397E-03
        -0.85603E-02
        -0.13929E-01
        -0.49059E-02
        -0.26761E-01
        -0.41721E-01
        -0.11708E-01
         0.69210E-02
         0.35292E-01
         0.47902E-01
         0.21039E-01
         0.59327E-02
        -0.96266E-02
        -0.14163E-01
        -0.49337E-02
        -0.95475E-02
        -0.18362E-02
        -0.19514E-02
        -0.13988E-01
        -0.55250E-02
        -0.67227E-03
         0.70116E-02
        -0.82439E-02
        -0.65568E-02
        -0.17457E-01
        -0.25898E-02
        -0.34927E-02
         0.50510E-02
         0.10149E-01
        -0.44655E-02
        -0.10355E-02
         0.74240E-02
        -0.59270E-02
         0.16440E-02
        -0.12836E-01
        -0.98176E-02
         0.11727E-01
        -0.41479E-02
         0.79078E-02
         0.11134E-01
         0.70530E-02
         0.74877E-02
         0.75403E-02
         0.10196E-02
        -0.32841E-02
        -0.58039E-02
        -0.13161E-01
        -0.17890E-01
        -0.22833E-01
         0.18670E-02
         0.14655E-01
         0.19223E-01
         0.16555E-01
         0.13244E-01
         0.99996E-02
        -0.12922E-01
        -0.87040E-02
        -0.14340E-01
        -0.82084E-02
         0.20530E-02
         0.27332E-02
         0.82022E-02
         0.16935E-01
         0.24799E-02
        -0.37655E-01
        -0.21955E-01
        -0.25048E-01
        -0.45537E-02
        -0.56263E-03
         0.84395E-02
        -0.22778E-02
        -0.12277E-01
         0.60238E-02
         0.27203E-01
         0.29403E-01
         0.30764E-01
         0.20885E-01
         0.69955E-02
        -0.20373E-02
        -0.86621E-02
        -0.11307E-01
        -0.47014E-02
        -0.24035E-01
        -0.38745E-01
        -0.18140E-01
        -0.21200E-02
         0.32728E-01
         0.46392E-01
         0.10093E-01
        -0.74364E-02
        -0.39604E-02
        -0.13498E-02
         0.24384E-02
        -0.77089E-02
        -0.11446E-04
        -0.80421E-02
        -0.18805E-02
        -0.37209E-02
        -0.45354E-02
        -0.14408E-02
        -0.69819E-03
         0.20671E-02
        -0.28176E-02
        -0.31854E-02
        -0.56139E-04
         0.30417E-02
        -0.89504E-04
        -0.49224E-02
        -0.17317E-02
        -0.10218E-02
         0.21588E-02
         0.28865E-03
         0.35086E-02
        -0.15131E-02
         0.37788E-04
         0.33066E-02
         0.11714E-02
         0.32880E-02
        -0.13015E-02
        -0.26902E-02
         0.66862E-02
         0.77779E-02
        -0.82739E-02
        -0.12423E-01
        -0.11345E-02
        -0.26594E-02
        -0.55291E-02
         0.67053E-03
         0.78677E-02
         0.70272E-02
        -0.50472E-03
         0.51212E-03
         0.11131E-02
         0.62516E-02
         0.82258E-02
        -0.76216E-03
        -0.18632E-02
        -0.82723E-03
        -0.85506E-02
        -0.74355E-02
         0.12409E-02
        -0.79386E-02
        -0.15409E-01
        -0.17391E-01
         0.10473E-02
         0.14891E-01
         0.72370E-02
         0.94130E-02
         0.29350E-02
        -0.95954E-02
        -0.69275E-02
        -0.66394E-02
        -0.12450E-01
        -0.62009E-02
         0.12943E-03
         0.61422E-02
         0.11259E-01
         0.14725E-01
         0.20748E-01
         0.22406E-01
        -0.70089E-02
        -0.28989E-01
        -0.17141E-01
        -0.13474E-01
         0.52727E-02
         0.21880E-01
        -0.70970E-02
        -0.18556E-01
        -0.61410E-02
        -0.86161E-03
         0.14753E-02
        -0.77177E-02
        -0.21242E-02
        -0.10725E-01
         0.39014E-04
        -0.43467E-02
        -0.93662E-02
        -0.48975E-02
         0.35074E-02
         0.58224E-02
        -0.49310E-03
        -0.72625E-04
         0.65214E-02
        -0.10020E-02
        -0.26779E-02
        -0.71820E-02
        -0.69423E-03
         0.89680E-03
         0.65951E-02
         0.43744E-02
         0.34080E-02
        -0.25266E-02
        -0.25552E-03
        -0.45707E-03
        -0.58644E-03
         0.14638E-02
         0.43395E-03
        -0.68627E-03
         0.43519E-02
         0.51748E-02
        -0.71238E-02
        -0.10206E-01
         0.24568E-02
         0.24209E-02
        -0.12108E-02
         0.21307E-02
         0.37607E-02
         0.54945E-02
         0.42734E-02
         0.37547E-02
         0.29857E-02
         0.46090E-02
         0.89080E-02
         0.28393E-02
        -0.30186E-03
        -0.11749E-02
        -0.93705E-02
        -0.10539E-01
        -0.53763E-02
        -0.10646E-01
        -0.24525E-02
        -0.15288E-01
         0.18115E-01
         0.24821E-01
         0.11013E-01
         0.76942E-02
         0.42383E-02
        -0.48694E-02
        -0.55742E-02
         0.93744E-03
         0.34319E-02
         0.45520E-02
         0.31210E-02
         0.83648E-02
         0.14140E-01
         0.17865E-01
         0.26721E-01
         0.30741E-01
         0.83750E-03
        -0.23623E-01
        -0.19871E-01
        -0.19763E-01
        -0.98145E-02
         0.27227E-02
        -0.20724E-01
        -0.25448E-01
        -0.86592E-03
         0.62995E-02
         0.41410E-02
        -0.89232E-02
        -0.10332E-02
        -0.13833E-01
         0.90754E-02
         0.38487E-02
        -0.77388E-02
        -0.33889E-02
         0.10456E-01
         0.13066E-01
         0.11090E-01
         0.45547E-02
         0.80198E-02
         0.25584E-02
        -0.25521E-02
        -0.90901E-02
         0.71068E-02
         0.12847E-02
         0.14630E-01
         0.39044E-02
         0.17287E-01
         0.99818E-02
        -0.42562E-02
         0.90073E-02
        -0.18016E-02
        -0.54893E-02
        -0.10946E-01
        -0.61649E-02
         0.32722E-02
         0.11346E-01
        -0.11116E-01
        -0.15815E-01
         0.83205E-02
         0.11097E-01
         0.10562E-01
        -0.25913E-02
        -0.82476E-02
        -0.12980E-01
        -0.18046E-01
        -0.13140E-01
        -0.59600E-02
         0.19357E-01
         0.22705E-01
         0.17962E-01
         0.93272E-02
         0.43533E-04
        -0.15060E-01
        -0.21663E-01
        -0.20787E-01
        -0.19780E-01
         0.70982E-02
        -0.95980E-02
         0.30768E-01
         0.39316E-01
         0.28004E-01
         0.21518E-01
         0.10507E-01
        -0.10361E-01
        -0.22278E-01
        -0.23554E-01
        -0.27440E-01
        -0.22965E-01
        -0.13449E-01
         0.50965E-02
         0.21804E-01
         0.29916E-01
         0.43579E-01
         0.49403E-01
         0.21426E-01
        -0.43213E-02
        -0.13364E-01
        -0.28434E-01
        -0.30951E-01
        -0.25215E-01
        -0.38290E-01
        -0.27921E-01
         0.82736E-03
         0.81338E-02
         0.40112E-02
        -0.80729E-02
        -0.65559E-03
        -0.16112E-01
         0.10255E-01
         0.29995E-02
        -0.50943E-02
        -0.33673E-02
         0.88917E-02
         0.11499E-01
         0.15307E-01
         0.19117E-02
         0.47659E-02
         0.36735E-02
        -0.29092E-02
        -0.55951E-02
         0.62613E-02
        -0.82972E-03
         0.13290E-01
         0.20818E-02
         0.23034E-01
         0.13465E-01
        -0.30783E-02
         0.11966E-01
        -0.24672E-02
        -0.37986E-02
        -0.91411E-02
        -0.54320E-02
         0.17751E-02
         0.11636E-01
        -0.10523E-01
        -0.17091E-01
         0.12031E-01
         0.15246E-01
         0.16597E-01
        -0.26192E-02
        -0.85555E-02
        -0.15063E-01
        -0.19887E-01
        -0.13375E-01
        -0.61264E-02
         0.26245E-01
         0.27155E-01
         0.23176E-01
         0.10784E-01
        -0.21122E-02
        -0.17672E-01
        -0.26114E-01
        -0.28618E-01
        -0.25130E-01
         0.18195E-01
        -0.15968E-02
         0.38430E-01
         0.43489E-01
         0.28115E-01
         0.16316E-01
         0.70381E-02
        -0.39676E-02
        -0.19412E-01
        -0.32452E-01
        -0.30946E-01
        -0.19991E-01
        -0.97161E-02
         0.33691E-02
         0.21325E-01
         0.38340E-01
         0.51394E-01
         0.54625E-01
         0.32324E-01
         0.82417E-02
        -0.89091E-02
        -0.31514E-01
        -0.39896E-01
        -0.37140E-01
        -0.44256E-01
        -0.26798E-01
         0.33045E-03
         0.81617E-02
         0.47220E-02
        -0.54998E-02
        -0.47186E-03
        -0.16456E-01
         0.96206E-02
        -0.13969E-03
        -0.29165E-02
        -0.39108E-02
         0.10829E-01
         0.18160E-01
         0.20452E-01
         0.21307E-02
         0.83540E-02
         0.45179E-02
        -0.24493E-02
        -0.18792E-03
         0.71337E-02
         0.49913E-03
         0.17679E-01
         0.49418E-02
         0.26639E-01
         0.15969E-01
        -0.19327E-02
         0.14630E-01
        -0.36338E-02
        -0.53145E-02
        -0.11477E-01
        -0.42722E-02
         0.49476E-02
         0.15136E-01
        -0.66258E-02
        -0.17004E-01
         0.12416E-01
         0.17404E-01
         0.20903E-01
        -0.46281E-02
        -0.13933E-01
        -0.23543E-01
        -0.30506E-01
        -0.19206E-01
        -0.73076E-02
         0.29023E-01
         0.29691E-01
         0.26078E-01
         0.13127E-01
        -0.18379E-02
        -0.17999E-01
        -0.29252E-01
        -0.35383E-01
        -0.28863E-01
         0.18480E-01
         0.55790E-03
         0.37156E-01
         0.43843E-01
         0.31365E-01
         0.22784E-01
         0.91806E-02
        -0.10259E-01
        -0.25127E-01
        -0.44944E-01
        -0.48987E-01
        -0.33388E-01
        -0.14776E-01
         0.60115E-02
         0.24848E-01
         0.37710E-01
         0.49280E-01
         0.51772E-01
         0.33630E-01
         0.10366E-01
        -0.97569E-02
        -0.32855E-01
        -0.46361E-01
        -0.47600E-01
        -0.45811E-01
        -0.23487E-01
         0.57017E-03
         0.84234E-02
         0.51311E-02
        -0.44872E-02
         0.30064E-03
        -0.12855E-01
         0.91817E-02
         0.91381E-03
        -0.34718E-02
        -0.29634E-02
         0.90950E-02
         0.13518E-01
         0.16120E-01
         0.26251E-02
         0.71434E-02
         0.27945E-02
        -0.19286E-02
        -0.30176E-02
         0.68086E-02
         0.16731E-02
         0.15907E-01
         0.44164E-02
         0.24833E-01
         0.15448E-01
        -0.19260E-02
         0.15675E-01
        -0.26164E-02
        -0.57786E-02
        -0.12118E-01
        -0.41744E-02
         0.38187E-02
         0.16347E-01
        -0.81264E-02
        -0.16091E-01
         0.95921E-02
         0.13878E-01
         0.17053E-01
        -0.34684E-02
        -0.12753E-01
        -0.21172E-01
        -0.25716E-01
        -0.17515E-01
        -0.70987E-02
         0.29630E-01
         0.30169E-01
         0.25450E-01
         0.13087E-01
        -0.18823E-02
        -0.16946E-01
        -0.26784E-01
        -0.31323E-01
        -0.24639E-01
         0.13465E-01
         0.98448E-03
         0.25197E-01
         0.30765E-01
         0.24345E-01
         0.17568E-01
         0.82535E-02
        -0.73122E-02
        -0.18819E-01
        -0.28232E-01
        -0.31151E-01
        -0.22693E-01
        -0.13475E-01
         0.29822E-02
         0.20149E-01
         0.32067E-01
         0.45577E-01
         0.45893E-01
         0.29130E-01
         0.95523E-02
        -0.66679E-02
        -0.25505E-01
        -0.37720E-01
        -0.39781E-01
        -0.37930E-01
        -0.19123E-01
         0.35545E-03
         0.59594E-02
         0.40628E-02
        -0.17027E-02
         0.99314E-03
        -0.79283E-02
         0.54010E-02
         0.23593E-03
        -0.15669E-02
        -0.85670E-03
         0.41347E-02
         0.82035E-02
         0.13173E-01
         0.49281E-03
         0.30732E-02
         0.90606E-03
        -0.14027E-02
        -0.19078E-02
         0.27525E-02
        -0.94815E-03
         0.93747E-02
         0.71343E-03
         0.18522E-01
         0.10747E-01
        -0.12103E-02
         0.10821E-01
        -0.18210E-02
        -0.48609E-02
        -0.10158E-01
        -0.43265E-02
         0.24999E-02
         0.10717E-01
        -0.40699E-02
        -0.88908E-02
         0.81577E-02
         0.12119E-01
         0.15313E-01
        -0.34579E-02
        -0.10718E-01
        -0.17323E-01
        -0.20874E-01
        -0.14298E-01
        -0.65761E-02
         0.21842E-01
         0.20152E-01
         0.17446E-01
         0.10152E-01
         0.44133E-04
        -0.11027E-01
        -0.18426E-01
        -0.22027E-01
        -0.16294E-01
         0.11722E-01
         0.31591E-02
         0.21705E-01
         0.28167E-01
         0.23391E-01
         0.14782E-01
         0.67937E-02
        -0.47420E-02
        -0.16237E-01
        -0.22755E-01
        -0.26174E-01
        -0.20684E-01
        -0.98254E-02
         0.34431E-02
         0.16980E-01
         0.24569E-01
         0.32344E-01
         0.29511E-01
         0.20673E-01
         0.10089E-01
        -0.36573E-02
        -0.19583E-01
        -0.29474E-01
        -0.29691E-01
        -0.27189E-01
        -0.12714E-01
        -0.97567E-04
         0.30401E-02
         0.24429E-02
        -0.93725E-03
         0.46864E-03
        -0.49493E-02
         0.17996E-02
        -0.61891E-03
        -0.63574E-03
        -0.92813E-03
         0.15576E-02
         0.43395E-02
         0.62612E-02
         0.42966E-03
         0.21571E-02
         0.17506E-02
         0.38215E-03
        -0.19056E-03
         0.27398E-02
         0.82159E-03
         0.59689E-02
         0.78436E-03
         0.11378E-01
         0.75093E-02
        -0.26446E-03
         0.72948E-02
        -0.75159E-03
        -0.23910E-02
        -0.41333E-02
        -0.96513E-03
         0.14552E-02
         0.54498E-02
        -0.11336E-02
        -0.43097E-02
         0.45765E-02
         0.63830E-02
         0.77372E-02
        -0.11977E-02
        -0.54262E-02
        -0.84434E-02
        -0.10917E-01
        -0.78757E-02
        -0.33663E-02
         0.12968E-01
         0.10729E-01
         0.83756E-02
         0.41030E-02
        -0.66673E-03
        -0.53742E-02
        -0.91545E-02
        -0.11799E-01
        -0.92802E-02
         0.59652E-02
         0.21681E-02
         0.78837E-02
         0.11481E-01
         0.10060E-01
         0.83856E-02
         0.25482E-02
        -0.41367E-02
        -0.12026E-01
        -0.14043E-01
        -0.15560E-01
        -0.17117E-01
        -0.62639E-02
         0.20005E-02
         0.96989E-02
         0.12586E-01
         0.15919E-01
         0.14447E-01
         0.10553E-01
         0.68610E-02
        -0.22945E-03
        -0.99818E-02
        -0.16097E-01
        -0.15856E-01
        -0.12537E-01
        -0.60460E-02
         0.44426E-03
         0.62092E-03
         0.40966E-03
         0.15139E-03
        -0.22273E-03
        -0.30685E-02
         0.11131E-02
         0.38338E-03
         0.52367E-03
        -0.10849E-02
         0.14411E-02
         0.30737E-02
         0.41156E-02
         0.33179E-03
         0.48390E-03
         0.69019E-03
         0.22749E-03
         0.13065E-02
         0.83783E-03
         0.17527E-03
         0.28991E-02
        -0.66099E-03
         0.62476E-02
         0.26676E-02
        -0.10075E-02
         0.25855E-02
        -0.15450E-02
        -0.16577E-02
        -0.25049E-03
        -0.48783E-04
         0.44240E-03
         0.21010E-02
         0.15149E-03
        -0.15991E-02
         0.12576E-02
         0.20458E-02
         0.35731E-02
        -0.10340E-02
        -0.20602E-02
        -0.22802E-02
        -0.37801E-02
        -0.20721E-02
        -0.14292E-02
         0.73323E-02
         0.62734E-02
         0.41693E-02
         0.73754E-03
        -0.21236E-02
        -0.37205E-02
        -0.47840E-02
        -0.68633E-02
        -0.58384E-02
         0.12937E-02
        -0.67759E-03
         0.40549E-02
         0.82786E-02
         0.74605E-02
         0.64595E-02
         0.79939E-03
        -0.95927E-03
        -0.47653E-02
        -0.98452E-02
        -0.12030E-01
        -0.80773E-02
        -0.24168E-02
        -0.20530E-02
         0.64979E-02
         0.11110E-01
         0.11870E-01
         0.93658E-02
         0.49901E-02
         0.14910E-02
        -0.32106E-02
        -0.74222E-02
        -0.85666E-02
        -0.97516E-02
        -0.93804E-02
        -0.49293E-02
        -0.93676E-03
        -0.50121E-03
        -0.17971E-03
         0.19349E-03
         0.11965E-02
        -0.26196E-03
         0.36918E-03
        -0.51968E-03
        -0.99423E-03
        -0.36697E-03
         0.88137E-03
         0.15448E-02
         0.18873E-02
         0.43074E-03
         0.99330E-03
        -0.33907E-03
        -0.40490E-03
        -0.29592E-03
        -0.35352E-03
        -0.32631E-03
         0.10188E-02
        -0.83646E-04
         0.15633E-02
         0.58986E-03
         0.35010E-03
         0.12410E-02
         0.25659E-03
         0.21250E-04
        -0.12925E-02
        -0.81091E-03
         0.94205E-03
         0.16950E-02
         0.19353E-03
        -0.21157E-04
         0.14929E-02
         0.34473E-03
         0.10869E-02
         0.77436E-04
        -0.98182E-03
        -0.21314E-02
        -0.27885E-02
        -0.25867E-02
        -0.18335E-02
         0.30001E-02
         0.25315E-02
         0.20761E-02
         0.18536E-02
         0.50241E-03
        -0.10358E-02
        -0.14748E-02
        -0.19725E-02
        -0.15365E-02
         0.32940E-02
         0.16429E-02
         0.30158E-02
         0.47460E-02
         0.33843E-02
         0.20991E-02
         0.88345E-03
        -0.98110E-03
        -0.13068E-02
        -0.24777E-02
        -0.11182E-02
         0.50635E-03
        -0.90652E-03
         0.24069E-02
         0.25361E-02
        -0.36378E-04
         0.28339E-02
         0.15123E-02
         0.14535E-02
         0.10623E-02
        -0.21301E-02
        -0.28504E-02
        -0.29278E-02
        -0.36376E-02
        -0.49648E-02
        -0.26428E-02
        -0.31597E-03
         0.49408E-03
         0.59939E-03
         0.66581E-03
        -0.74091E-03
        -0.11767E-02
        -0.32730E-03
        -0.92767E-03
        -0.30718E-03
         0.22539E-03
        -0.53935E-03
         0.12124E-03
         0.97894E-03
        -0.11518E-03
         0.94445E-03
        -0.14386E-03
         0.16706E-02
        -0.48015E-03
        -0.26973E-03
         0.82478E-03
        -0.36059E-03
         0.42573E-03
         0.11840E-02
        -0.36593E-04
         0.15931E-02
         0.66095E-03
         0.62496E-03
         0.21815E-03
        -0.63682E-03
         0.20997E-03
         0.66975E-03
         0.12970E-02
        -0.20525E-04
         0.43254E-03
         0.50229E-03
         0.82601E-03
         0.13286E-02
         0.90750E-03
        -0.39390E-03
        -0.13099E-02
        -0.12897E-02
        -0.10800E-02
        -0.12611E-03
         0.27496E-02
         0.20845E-02
         0.12013E-02
         0.13073E-02
         0.72917E-03
        -0.48276E-03
        -0.86623E-03
        -0.64231E-03
        -0.52497E-03
         0.16247E-02
        -0.20562E-02
         0.15992E-02
         0.35039E-02
         0.55498E-02
         0.38775E-02
         0.23573E-02
         0.94137E-04
        -0.12203E-02
        -0.29674E-02
         0.15721E-02
         0.56211E-03
        -0.12761E-02
         0.15951E-02
         0.27944E-03
         0.28988E-02
         0.41131E-02
         0.58387E-03
        -0.81443E-04
         0.12125E-02
        -0.33619E-03
        -0.16889E-02
        -0.13244E-02
        -0.15312E-02
        -0.29152E-02
        -0.41532E-02
         0.18759E-03
         0.13362E-02
         0.98923E-03
        -0.12073E-03
         0.10753E-03
         0.16152E-04
         0.43198E-03
         0.45906E-03
         0.39402E-04
         0.47996E-03
        -0.14599E-02
        -0.17968E-02
         0.95066E-04
        -0.66398E-03
        -0.12069E-02
         0.28440E-03
         0.13830E-02
        -0.47911E-03
        -0.52549E-03
         0.29353E-03
        -0.11726E-02
        -0.50722E-03
         0.44674E-03
        -0.89394E-03
        -0.48965E-03
        -0.56296E-03
        -0.11684E-03
        -0.10377E-02
         0.37641E-03
        -0.60009E-03
         0.49019E-03
         0.44151E-03
        -0.24506E-03
        -0.92349E-03
         0.56918E-03
         0.97008E-03
         0.11174E-02
        -0.55323E-03
        -0.71283E-03
         0.10425E-02
         0.98419E-04
        -0.18840E-02
        -0.10847E-02
         0.72794E-03
         0.11766E-02
         0.58143E-03
        -0.42645E-04
        -0.14714E-03
        -0.13885E-03
        -0.81715E-03
         0.13026E-03
        -0.17233E-03
        -0.85980E-03
         0.34313E-03
        -0.29661E-03
         0.12100E-02
         0.10729E-02
         0.15030E-02
         0.28209E-02
        -0.30225E-02
        -0.42105E-02
        -0.30257E-02
        -0.49147E-02
        -0.62232E-02
         0.15938E-02
         0.12028E-02
         0.20275E-02
         0.58845E-02
         0.97460E-03
        -0.73481E-03
        -0.11832E-02
        -0.11759E-02
         0.10900E-02
         0.18856E-02
         0.65849E-03
         0.30837E-02
         0.11715E-02
         0.15341E-02
         0.51539E-03
        -0.12498E-03
        -0.16984E-02
        -0.38390E-03
        -0.35054E-02
        -0.41052E-03
        -0.10766E-02
         0.21880E-02
         0.81082E-03
         0.42169E-02
        -0.30037E-02
        -0.22504E-02
        -0.11020E-02
        -0.11058E-03
        -0.39698E-02
         0.16587E-03
         0.21181E-02
        -0.44130E-02
         0.29681E-04
         0.62848E-03
        -0.36847E-03
        -0.19408E-02
         0.14004E-02
        -0.47988E-03
        -0.20391E-02
        -0.19166E-02
         0.13962E-02
        -0.21620E-02
         0.18281E-02
         0.31628E-03
        -0.15974E-03
        -0.13673E-02
        -0.13672E-03
        -0.90662E-03
        -0.83218E-03
         0.87536E-03
         0.11888E-02
        -0.31739E-02
        -0.34581E-02
        -0.37503E-02
        -0.47145E-02
        -0.30672E-02
        -0.30549E-02
         0.18351E-02
         0.17055E-02
         0.61567E-03
        -0.14570E-02
        -0.22215E-02
        -0.64318E-03
        -0.16886E-02
        -0.16247E-02
        -0.37587E-03
        -0.34970E-03
        -0.55567E-02
         0.26901E-02
         0.55985E-02
         0.32841E-02
         0.50817E-02
        -0.12109E-02
        -0.10545E-01
        -0.64435E-02
        -0.21879E-01
        -0.26816E-01
        -0.17884E-01
        -0.78793E-02
        -0.30809E-02
         0.52747E-02
        -0.68049E-03
         0.20562E-02
         0.44761E-02
         0.78960E-03
        -0.19907E-02
        -0.18441E-02
        -0.19966E-02
        -0.65986E-02
        -0.15429E-02
        -0.37771E-02
        -0.52731E-02
  
SCALARS                      strain_eq  double 1
LOOKUP_TABLE default
         0.11349E+01
         0.11234E+01
         0.11463E+01
         0.11395E+01
         0.12996E+01
         0.12853E+01
         0.13552E+01
         0.13419E+01
         0.12199E+01
         0.12040E+01
         0.13825E+01
         0.13984E+01
         0.11280E+01
         0.11290E+01
         0.12436E+01
         0.12267E+01
         0.11490E+01
         0.11360E+01
         0.13271E+01
         0.12528E+01
         0.11235E+01
         0.11444E+01
         0.11543E+01
         0.12037E+01
         0.12041E+01
         0.12365E+01
         0.11125E+01
         0.11153E+01
         0.11795E+01
         0.11782E+01
         0.11645E+01
         0.11515E+01
         0.11568E+01
         0.13450E+01
         0.13010E+01
         0.13283E+01
         0.11669E+01
         0.11374E+01
         0.13333E+01
         0.12841E+01
         0.12209E+01
         0.11720E+01
         0.14073E+01
         0.13050E+01
         0.12466E+01
         0.11883E+01
         0.14565E+01
         0.14042E+01
         0.11334E+01
         0.12632E+01
         0.11929E+01
         0.14454E+01
         0.10988E+01
         0.11783E+01
         0.10956E+01
         0.11833E+01
         0.11028E+01
         0.11110E+01
         0.11869E+01
         0.12372E+01
         0.11742E+01
         0.12243E+01
         0.14311E+01
         0.15332E+01
         0.11656E+01
         0.14022E+01
         0.11906E+01
         0.14371E+01
         0.12366E+01
         0.11878E+01
         0.13264E+01
         0.13107E+01
         0.11520E+01
         0.12598E+01
         0.10983E+01
         0.11542E+01
         0.11028E+01
         0.11619E+01
         0.11315E+01
         0.11745E+01
         0.11670E+01
         0.11512E+01
         0.11806E+01
         0.12294E+01
         0.11480E+01
         0.12525E+01
         0.12546E+01
         0.15265E+01
         0.13005E+01
         0.15764E+01
         0.13598E+01
         0.13209E+01
         0.16082E+01
         0.16151E+01
         0.12819E+01
         0.15849E+01
         0.12759E+01
         0.15787E+01
         0.12951E+01
         0.15901E+01
         0.13178E+01
         0.12544E+01
         0.15338E+01
         0.14688E+01
         0.12824E+01
         0.12913E+01
         0.12677E+01
         0.12782E+01
         0.12881E+01
         0.12340E+01
         0.12655E+01
         0.11923E+01
         0.12432E+01
         0.11910E+01
         0.12260E+01
         0.11873E+01
         0.12136E+01
         0.11568E+01
         0.12028E+01
         0.11430E+01
         0.11926E+01
         0.11391E+01
         0.12164E+01
         0.11380E+01
         0.12319E+01
         0.11490E+01
         0.12208E+01
         0.11714E+01
         0.12314E+01
         0.11826E+01
         0.12958E+01
         0.12422E+01
         0.13437E+01
         0.13735E+01
         0.13820E+01
         0.14773E+01
         0.13955E+01
         0.15157E+01
         0.13939E+01
         0.15440E+01
         0.13734E+01
         0.15381E+01
         0.14194E+01
         0.15533E+01
         0.14517E+01
         0.15822E+01
         0.14462E+01
         0.15541E+01
         0.13906E+01
         0.15089E+01
         0.13490E+01
         0.14490E+01
         0.13586E+01
         0.13798E+01
         0.13261E+01
         0.13097E+01
         0.10341E+01
         0.10032E+01
         0.98566E+00
         0.10188E+01
         0.98568E+00
         0.99093E+00
         0.10055E+01
         0.10317E+01
         0.10541E+01
         0.10521E+01
         0.99503E+00
         0.96353E+00
         0.96702E+00
         0.10054E+01
         0.96186E+00
         0.10395E+01
         0.10502E+01
         0.10494E+01
         0.10321E+01
         0.10234E+01
         0.10091E+01
         0.98832E+00
         0.10115E+01
         0.10153E+01
         0.10411E+01
         0.10119E+01
         0.10134E+01
         0.10034E+01
         0.97717E+00
         0.10031E+01
         0.10048E+01
         0.99753E+00
         0.10073E+01
         0.10089E+01
         0.97742E+00
         0.97215E+00
         0.97042E+00
         0.95226E+00
         0.95695E+00
         0.95624E+00
         0.94804E+00
         0.96179E+00
         0.97372E+00
         0.10037E+01
         0.10059E+01
         0.10098E+01
         0.10044E+01
         0.99500E+00
         0.98957E+00
         0.10012E+01
         0.10156E+01
         0.10048E+01
         0.98527E+00
         0.10202E+01
         0.10053E+01
         0.99297E+00
         0.97457E+00
         0.93744E+00
         0.91115E+00
         0.90330E+00
         0.89601E+00
         0.89090E+00
         0.87917E+00
         0.93466E+00
         0.96043E+00
         0.99843E+00
         0.10191E+01
         0.10321E+01
         0.10517E+01
         0.10419E+01
         0.10349E+01
         0.10362E+01
         0.10644E+01
         0.10638E+01
         0.10545E+01
         0.10457E+01
         0.10488E+01
         0.10515E+01
         0.93687E+00
         0.92185E+00
         0.88989E+00
         0.89888E+00
         0.87037E+00
         0.86442E+00
         0.94303E+00
         0.96510E+00
         0.93906E+00
         0.96319E+00
         0.95479E+00
         0.92560E+00
         0.90552E+00
         0.97147E+00
         0.94970E+00
         0.90840E+00
         0.93873E+00
         0.91647E+00
         0.91058E+00
         0.92794E+00
         0.88074E+00
         0.89878E+00
         0.85478E+00
         0.87460E+00
         0.95179E+00
         0.86376E+00
         0.96907E+00
         0.95972E+00
         0.94397E+00
         0.93131E+00
         0.85468E+00
         0.83431E+00
         0.86450E+00
         0.86655E+00
         0.86916E+00
         0.87813E+00
         0.89102E+00
         0.94891E+00
         0.95090E+00
         0.95132E+00
         0.94439E+00
         0.93188E+00
         0.91059E+00
         0.84016E+00
         0.81937E+00
         0.80695E+00
         0.81244E+00
         0.81767E+00
         0.81841E+00
         0.82828E+00
         0.84021E+00
         0.85545E+00
         0.86760E+00
         0.87881E+00
         0.88165E+00
         0.90083E+00
         0.92020E+00
         0.93551E+00
         0.95582E+00
         0.96945E+00
         0.95189E+00
         0.95278E+00
         0.94093E+00
         0.93691E+00
         0.91789E+00
         0.90578E+00
         0.88735E+00
         0.86632E+00
         0.85326E+00
         0.81789E+00
         0.81982E+00
         0.81799E+00
         0.84190E+00
         0.83638E+00
         0.83065E+00
         0.83675E+00
         0.85691E+00
         0.87425E+00
         0.84168E+00
         0.83307E+00
         0.80203E+00
         0.80821E+00
         0.77405E+00
         0.77373E+00
         0.85382E+00
         0.86916E+00
         0.83640E+00
         0.86323E+00
         0.85795E+00
         0.82000E+00
         0.81359E+00
         0.87516E+00
         0.84472E+00
         0.81081E+00
         0.83558E+00
         0.81469E+00
         0.81161E+00
         0.83236E+00
         0.77313E+00
         0.80246E+00
         0.74686E+00
         0.78027E+00
         0.85401E+00
         0.77320E+00
         0.87630E+00
         0.86804E+00
         0.85032E+00
         0.84083E+00
         0.76847E+00
         0.74900E+00
         0.77453E+00
         0.77203E+00
         0.77129E+00
         0.78706E+00
         0.80420E+00
         0.85024E+00
         0.84062E+00
         0.83243E+00
         0.81345E+00
         0.81109E+00
         0.80806E+00
         0.73828E+00
         0.72536E+00
         0.71586E+00
         0.72254E+00
         0.73069E+00
         0.73311E+00
         0.73255E+00
         0.73582E+00
         0.75862E+00
         0.78281E+00
         0.78916E+00
         0.80711E+00
         0.82592E+00
         0.82839E+00
         0.83897E+00
         0.84782E+00
         0.85840E+00
         0.84621E+00
         0.83599E+00
         0.81471E+00
         0.81828E+00
         0.81060E+00
         0.80125E+00
         0.77296E+00
         0.75789E+00
         0.75057E+00
         0.73112E+00
         0.72085E+00
         0.72747E+00
         0.74909E+00
         0.74837E+00
         0.74076E+00
         0.74234E+00
         0.76217E+00
         0.78494E+00
         0.76400E+00
         0.75704E+00
         0.73388E+00
         0.74150E+00
         0.70420E+00
         0.70374E+00
         0.77493E+00
         0.78502E+00
         0.76030E+00
         0.77799E+00
         0.78350E+00
         0.75139E+00
         0.73790E+00
         0.79642E+00
         0.77319E+00
         0.74403E+00
         0.75559E+00
         0.74800E+00
         0.74199E+00
         0.75639E+00
         0.71009E+00
         0.73481E+00
         0.68504E+00
         0.71966E+00
         0.77066E+00
         0.71905E+00
         0.79690E+00
         0.78853E+00
         0.77627E+00
         0.76643E+00
         0.72474E+00
         0.70515E+00
         0.72940E+00
         0.72076E+00
         0.69381E+00
         0.70965E+00
         0.72494E+00
         0.78310E+00
         0.78036E+00
         0.77380E+00
         0.75773E+00
         0.75377E+00
         0.74755E+00
         0.67938E+00
         0.67465E+00
         0.66495E+00
         0.67727E+00
         0.68737E+00
         0.69176E+00
         0.68806E+00
         0.67723E+00
         0.69242E+00
         0.67760E+00
         0.68857E+00
         0.69212E+00
         0.70698E+00
         0.71254E+00
         0.71599E+00
         0.71934E+00
         0.72999E+00
         0.72854E+00
         0.72448E+00
         0.70876E+00
         0.70893E+00
         0.70705E+00
         0.69148E+00
         0.67418E+00
         0.66636E+00
         0.66495E+00
         0.65596E+00
         0.65316E+00
         0.65611E+00
         0.67448E+00
         0.67237E+00
         0.66797E+00
         0.66506E+00
         0.68076E+00
         0.68957E+00
         0.71479E+00
         0.70536E+00
         0.69053E+00
         0.69862E+00
         0.65749E+00
         0.66213E+00
         0.71606E+00
         0.72978E+00
         0.72484E+00
         0.72837E+00
         0.72000E+00
         0.68607E+00
         0.67885E+00
         0.73177E+00
         0.70747E+00
         0.70563E+00
         0.71767E+00
         0.70764E+00
         0.70144E+00
         0.70512E+00
         0.66741E+00
         0.68254E+00
         0.64642E+00
         0.68722E+00
         0.72154E+00
         0.68889E+00
         0.73096E+00
         0.72628E+00
         0.71799E+00
         0.71368E+00
         0.69985E+00
         0.68030E+00
         0.70142E+00
         0.69026E+00
         0.64111E+00
         0.65928E+00
         0.67127E+00
         0.71942E+00
         0.71086E+00
         0.69846E+00
         0.68190E+00
         0.68811E+00
         0.68906E+00
         0.64356E+00
         0.64119E+00
         0.62622E+00
         0.64387E+00
         0.65616E+00
         0.65911E+00
         0.65279E+00
         0.63894E+00
         0.65528E+00
         0.63269E+00
         0.64176E+00
         0.64134E+00
         0.65280E+00
         0.66336E+00
         0.67465E+00
         0.68181E+00
         0.70311E+00
         0.69495E+00
         0.68595E+00
         0.67162E+00
         0.67240E+00
         0.66267E+00
         0.65309E+00
         0.64401E+00
         0.63431E+00
         0.62837E+00
         0.61765E+00
         0.61177E+00
         0.61771E+00
         0.63623E+00
         0.63495E+00
         0.62486E+00
         0.62518E+00
         0.64186E+00
         0.64572E+00
         0.66918E+00
         0.66634E+00
         0.66178E+00
         0.66552E+00
         0.62119E+00
         0.62394E+00
         0.66494E+00
         0.67026E+00
         0.67232E+00
         0.67188E+00
         0.66276E+00
         0.63508E+00
         0.63394E+00
         0.66722E+00
         0.64938E+00
         0.67135E+00
         0.67324E+00
         0.66763E+00
         0.67206E+00
         0.66761E+00
         0.64256E+00
         0.64866E+00
         0.61982E+00
         0.66682E+00
         0.66949E+00
         0.66822E+00
         0.66962E+00
         0.66736E+00
         0.66125E+00
         0.66640E+00
         0.67807E+00
         0.66170E+00
         0.67542E+00
         0.66692E+00
         0.59987E+00
         0.62232E+00
         0.62939E+00
         0.66183E+00
         0.65537E+00
         0.64129E+00
         0.62460E+00
         0.63905E+00
         0.64886E+00
         0.60821E+00
         0.60323E+00
         0.58323E+00
         0.61249E+00
         0.62827E+00
         0.63199E+00
         0.62634E+00
         0.60585E+00
         0.62136E+00
         0.56532E+00
         0.57219E+00
         0.57908E+00
         0.58812E+00
         0.59168E+00
         0.59684E+00
         0.60425E+00
         0.61484E+00
         0.59895E+00
         0.58301E+00
         0.57559E+00
         0.57581E+00
         0.58271E+00
         0.58012E+00
         0.57356E+00
         0.56487E+00
         0.56129E+00
         0.54754E+00
         0.53682E+00
         0.54425E+00
         0.55778E+00
         0.56386E+00
         0.56175E+00
         0.56090E+00
         0.57500E+00
         0.57886E+00
         0.60787E+00
         0.61840E+00
         0.62466E+00
         0.61769E+00
         0.59332E+00
         0.59849E+00
         0.61036E+00
         0.60473E+00
         0.60261E+00
         0.60609E+00
         0.60582E+00
         0.58772E+00
         0.59207E+00
         0.60518E+00
         0.59547E+00
         0.60800E+00
         0.60539E+00
         0.60105E+00
         0.62328E+00
         0.61761E+00
         0.62002E+00
         0.62192E+00
         0.60273E+00
         0.63334E+00
         0.61272E+00
         0.63549E+00
         0.60807E+00
         0.61355E+00
         0.61612E+00
         0.61981E+00
         0.63583E+00
         0.63562E+00
         0.63025E+00
         0.63373E+00
         0.57383E+00
         0.59274E+00
         0.59259E+00
         0.60489E+00
         0.60145E+00
         0.59226E+00
         0.58096E+00
         0.60375E+00
         0.61649E+00
         0.59314E+00
         0.58813E+00
         0.57255E+00
         0.59705E+00
         0.60566E+00
         0.60762E+00
         0.60546E+00
         0.58921E+00
         0.60214E+00
         0.53253E+00
         0.54899E+00
         0.53721E+00
         0.54110E+00
         0.54770E+00
         0.55333E+00
         0.55181E+00
         0.55885E+00
         0.55916E+00
         0.53777E+00
         0.52876E+00
         0.55066E+00
         0.56033E+00
         0.56553E+00
         0.55965E+00
         0.54491E+00
         0.53479E+00
         0.51754E+00
         0.51584E+00
         0.53117E+00
         0.53787E+00
         0.54216E+00
         0.53972E+00
         0.53802E+00
         0.54909E+00
         0.55068E+00
         0.55966E+00
         0.57291E+00
         0.58848E+00
         0.57260E+00
         0.55816E+00
         0.55611E+00
         0.56224E+00
         0.55132E+00
         0.55842E+00
         0.55643E+00
         0.56315E+00
         0.55384E+00
         0.55054E+00
         0.55826E+00
         0.56357E+00
         0.55037E+00
         0.55766E+00
         0.55322E+00
         0.56672E+00
         0.56368E+00
         0.56577E+00
         0.57059E+00
         0.55052E+00
         0.57633E+00
         0.56815E+00
         0.57311E+00
         0.56249E+00
         0.57240E+00
         0.57554E+00
         0.57196E+00
         0.57538E+00
         0.57550E+00
         0.57894E+00
         0.58777E+00
         0.54571E+00
         0.56363E+00
         0.55317E+00
         0.57551E+00
         0.57238E+00
         0.56315E+00
         0.55526E+00
         0.56974E+00
         0.57389E+00
         0.54145E+00
         0.54324E+00
         0.53792E+00
         0.55271E+00
         0.55357E+00
         0.55840E+00
         0.56189E+00
         0.54691E+00
         0.55781E+00
         0.49871E+00
         0.50682E+00
         0.50800E+00
         0.50839E+00
         0.51065E+00
         0.51655E+00
         0.52518E+00
         0.53193E+00
         0.52418E+00
         0.50433E+00
         0.50234E+00
         0.51425E+00
         0.52790E+00
         0.52465E+00
         0.51534E+00
         0.50585E+00
         0.49947E+00
         0.49905E+00
         0.50315E+00
         0.50524E+00
         0.50298E+00
         0.50344E+00
         0.50551E+00
         0.50268E+00
         0.50727E+00
         0.50866E+00
         0.50901E+00
         0.51646E+00
         0.52858E+00
         0.51850E+00
         0.50184E+00
         0.49728E+00
         0.51226E+00
         0.50441E+00
         0.50924E+00
         0.50275E+00
         0.51154E+00
         0.49738E+00
         0.49988E+00
         0.50835E+00
         0.50205E+00
         0.50409E+00
         0.50697E+00
         0.51025E+00
         0.51409E+00
         0.50730E+00
         0.50873E+00
         0.50689E+00
         0.49490E+00
         0.52247E+00
         0.51083E+00
         0.51846E+00
         0.50860E+00
         0.51908E+00
         0.52448E+00
         0.51568E+00
         0.51903E+00
         0.52079E+00
         0.52701E+00
         0.53455E+00
         0.49315E+00
         0.50997E+00
         0.50190E+00
         0.51203E+00
         0.51698E+00
         0.51541E+00
         0.50406E+00
         0.51320E+00
         0.50991E+00
         0.48644E+00
         0.49464E+00
         0.49110E+00
         0.49989E+00
         0.49684E+00
         0.50528E+00
         0.51054E+00
         0.49241E+00
         0.49998E+00
         0.45067E+00
         0.45380E+00
         0.45748E+00
         0.46095E+00
         0.46253E+00
         0.47282E+00
         0.47755E+00
         0.48349E+00
         0.48164E+00
         0.46978E+00
         0.46318E+00
         0.47317E+00
         0.46499E+00
         0.45876E+00
         0.45433E+00
         0.44646E+00
         0.44176E+00
         0.45025E+00
         0.45404E+00
         0.45649E+00
         0.44886E+00
         0.44608E+00
         0.44818E+00
         0.44459E+00
         0.44895E+00
         0.44985E+00
         0.43993E+00
         0.45403E+00
         0.46862E+00
         0.45713E+00
         0.45299E+00
         0.44829E+00
         0.44751E+00
         0.43412E+00
         0.43106E+00
         0.42668E+00
         0.44247E+00
         0.43450E+00
         0.44343E+00
         0.43586E+00
         0.42822E+00
         0.44354E+00
         0.43419E+00
         0.44119E+00
         0.45376E+00
         0.44388E+00
         0.45094E+00
         0.44888E+00
         0.44621E+00
         0.46747E+00
         0.43396E+00
         0.46569E+00
         0.43487E+00
         0.44455E+00
         0.45124E+00
         0.44680E+00
         0.46236E+00
         0.46581E+00
         0.46641E+00
         0.47546E+00
         0.44491E+00
         0.45420E+00
         0.44531E+00
         0.43783E+00
         0.45026E+00
         0.45084E+00
         0.44069E+00
         0.44951E+00
         0.45150E+00
         0.44210E+00
         0.44522E+00
         0.44149E+00
         0.44846E+00
         0.44752E+00
         0.45629E+00
         0.46214E+00
         0.44693E+00
         0.45039E+00
         0.40426E+00
         0.40480E+00
         0.40861E+00
         0.40834E+00
         0.41052E+00
         0.40852E+00
         0.40037E+00
         0.39574E+00
         0.39916E+00
         0.39732E+00
         0.38810E+00
         0.38831E+00
         0.38847E+00
         0.39514E+00
         0.39237E+00
         0.39306E+00
         0.39848E+00
         0.40749E+00
         0.41418E+00
         0.41301E+00
         0.40210E+00
         0.39969E+00
         0.40668E+00
         0.40361E+00
         0.40016E+00
         0.39769E+00
         0.36723E+00
         0.38657E+00
         0.39722E+00
         0.38032E+00
         0.39219E+00
         0.38760E+00
         0.38699E+00
         0.37026E+00
         0.35554E+00
         0.36063E+00
         0.38741E+00
         0.38429E+00
         0.38621E+00
         0.37938E+00
         0.37968E+00
         0.36490E+00
         0.36015E+00
         0.36015E+00
         0.38193E+00
         0.37272E+00
         0.39308E+00
         0.38850E+00
         0.38961E+00
         0.39811E+00
         0.36619E+00
         0.39232E+00
         0.37299E+00
         0.37906E+00
         0.38632E+00
         0.37764E+00
         0.38466E+00
         0.39514E+00
         0.38656E+00
         0.40106E+00
         0.39051E+00
         0.39383E+00
         0.38461E+00
         0.38244E+00
         0.38773E+00
         0.39177E+00
         0.39224E+00
         0.39482E+00
         0.39156E+00
         0.38351E+00
         0.38727E+00
         0.38945E+00
         0.39225E+00
         0.38734E+00
         0.39178E+00
         0.39945E+00
         0.39237E+00
         0.39244E+00
         0.37321E+00
         0.37805E+00
         0.37099E+00
         0.36297E+00
         0.36702E+00
         0.37545E+00
         0.37080E+00
         0.37286E+00
         0.37439E+00
         0.37767E+00
         0.38057E+00
         0.38587E+00
         0.38289E+00
         0.37860E+00
         0.37676E+00
         0.37318E+00
         0.36784E+00
         0.37331E+00
         0.38046E+00
         0.38100E+00
         0.37356E+00
         0.36568E+00
         0.36757E+00
         0.36335E+00
         0.36554E+00
         0.36851E+00
         0.29634E+00
         0.30713E+00
         0.31498E+00
         0.30173E+00
         0.31779E+00
         0.31132E+00
         0.31086E+00
         0.29702E+00
         0.28972E+00
         0.28863E+00
         0.31136E+00
         0.31159E+00
         0.31342E+00
         0.30234E+00
         0.30277E+00
         0.29842E+00
         0.29097E+00
         0.29294E+00
         0.30498E+00
         0.29154E+00
         0.31189E+00
         0.30032E+00
         0.31724E+00
         0.32459E+00
         0.29081E+00
         0.32156E+00
         0.29141E+00
         0.29670E+00
         0.30413E+00
         0.29497E+00
         0.30966E+00
         0.32464E+00
         0.30727E+00
         0.31878E+00
         0.32067E+00
         0.31890E+00
         0.30984E+00
         0.29604E+00
         0.30014E+00
         0.30917E+00
         0.30930E+00
         0.30845E+00
         0.30144E+00
         0.31784E+00
         0.32604E+00
         0.32974E+00
         0.32654E+00
         0.31785E+00
         0.32083E+00
         0.32888E+00
         0.32642E+00
         0.31909E+00
         0.31643E+00
         0.31857E+00
         0.31921E+00
         0.30959E+00
         0.30792E+00
         0.30833E+00
         0.30071E+00
         0.30579E+00
         0.29919E+00
         0.29742E+00
         0.29625E+00
         0.30451E+00
         0.30969E+00
         0.30785E+00
         0.30405E+00
         0.30726E+00
         0.31587E+00
         0.32948E+00
         0.32817E+00
         0.32282E+00
         0.31532E+00
         0.31233E+00
         0.31750E+00
         0.31351E+00
         0.31379E+00
         0.31108E+00
         0.21856E+00
         0.23140E+00
         0.23890E+00
         0.22357E+00
         0.25378E+00
         0.24575E+00
         0.23347E+00
         0.21971E+00
         0.20562E+00
         0.20906E+00
         0.23408E+00
         0.24192E+00
         0.24418E+00
         0.22754E+00
         0.23371E+00
         0.21934E+00
         0.20748E+00
         0.21435E+00
         0.22637E+00
         0.21592E+00
         0.24679E+00
         0.23500E+00
         0.25542E+00
         0.24826E+00
         0.21080E+00
         0.24766E+00
         0.21761E+00
         0.22189E+00
         0.23404E+00
         0.22181E+00
         0.23530E+00
         0.25595E+00
         0.22794E+00
         0.23870E+00
         0.25992E+00
         0.25174E+00
         0.24269E+00
         0.23145E+00
         0.23798E+00
         0.25042E+00
         0.25790E+00
         0.25197E+00
         0.24011E+00
         0.25877E+00
         0.26836E+00
         0.27640E+00
         0.26922E+00
         0.25593E+00
         0.25402E+00
         0.26107E+00
         0.26514E+00
         0.25394E+00
         0.27230E+00
         0.28301E+00
         0.26908E+00
         0.26199E+00
         0.26380E+00
         0.26552E+00
         0.25747E+00
         0.26482E+00
         0.26742E+00
         0.26542E+00
         0.26312E+00
         0.26923E+00
         0.26585E+00
         0.26797E+00
         0.27558E+00
         0.28119E+00
         0.28272E+00
         0.28864E+00
         0.28945E+00
         0.28776E+00
         0.28313E+00
         0.27957E+00
         0.28085E+00
         0.27247E+00
         0.27522E+00
         0.27552E+00
         0.14890E+00
         0.15920E+00
         0.16801E+00
         0.15353E+00
         0.18626E+00
         0.17846E+00
         0.16464E+00
         0.15297E+00
         0.14212E+00
         0.14646E+00
         0.16815E+00
         0.17917E+00
         0.17937E+00
         0.16197E+00
         0.17042E+00
         0.14908E+00
         0.14426E+00
         0.14632E+00
         0.15926E+00
         0.15106E+00
         0.18315E+00
         0.17252E+00
         0.19085E+00
         0.17948E+00
         0.14602E+00
         0.17762E+00
         0.15102E+00
         0.15158E+00
         0.16206E+00
         0.15301E+00
         0.16707E+00
         0.18933E+00
         0.16028E+00
         0.16979E+00
         0.19575E+00
         0.18613E+00
         0.17559E+00
         0.16477E+00
         0.16772E+00
         0.18001E+00
         0.18936E+00
         0.18273E+00
         0.17393E+00
         0.19592E+00
         0.20825E+00
         0.21853E+00
         0.20731E+00
         0.19305E+00
         0.19138E+00
         0.19825E+00
         0.20387E+00
         0.18817E+00
         0.22031E+00
         0.23237E+00
         0.22279E+00
         0.21189E+00
         0.21155E+00
         0.21413E+00
         0.20040E+00
         0.20741E+00
         0.20805E+00
         0.20889E+00
         0.21268E+00
         0.21698E+00
         0.21697E+00
         0.21599E+00
         0.22138E+00
         0.22794E+00
         0.23483E+00
         0.24937E+00
         0.24683E+00
         0.23824E+00
         0.23616E+00
         0.23139E+00
         0.23375E+00
         0.22463E+00
         0.22353E+00
         0.22672E+00
         0.84518E-01
         0.96161E-01
         0.10665E+00
         0.90598E-01
         0.12926E+00
         0.12235E+00
         0.10010E+00
         0.86329E-01
         0.83215E-01
         0.85594E-01
         0.10423E+00
         0.12302E+00
         0.12188E+00
         0.96837E-01
         0.11290E+00
         0.89928E-01
         0.88691E-01
         0.85657E-01
         0.10195E+00
         0.93810E-01
         0.13093E+00
         0.11838E+00
         0.14076E+00
         0.12270E+00
         0.86269E-01
         0.11704E+00
         0.88061E-01
         0.90170E-01
         0.10177E+00
         0.94389E-01
         0.10289E+00
         0.12709E+00
         0.97152E-01
         0.11014E+00
         0.13956E+00
         0.12860E+00
         0.11881E+00
         0.10845E+00
         0.11312E+00
         0.12672E+00
         0.13988E+00
         0.13006E+00
         0.11967E+00
         0.14347E+00
         0.15194E+00
         0.16028E+00
         0.14813E+00
         0.13534E+00
         0.13662E+00
         0.14630E+00
         0.15424E+00
         0.13477E+00
         0.17234E+00
         0.18329E+00
         0.18070E+00
         0.16740E+00
         0.16563E+00
         0.16945E+00
         0.15617E+00
         0.16671E+00
         0.17109E+00
         0.17530E+00
         0.18112E+00
         0.19020E+00
         0.18192E+00
         0.17450E+00
         0.17983E+00
         0.18821E+00
         0.19024E+00
         0.19996E+00
         0.19444E+00
         0.18489E+00
         0.18905E+00
         0.18998E+00
         0.19681E+00
         0.18765E+00
         0.18111E+00
         0.18134E+00
         0.42941E-01
         0.54191E-01
         0.62118E-01
         0.47746E-01
         0.79608E-01
         0.77298E-01
         0.58551E-01
         0.45373E-01
         0.38712E-01
         0.39065E-01
         0.62293E-01
         0.78236E-01
         0.77162E-01
         0.56157E-01
         0.69984E-01
         0.47934E-01
         0.42563E-01
         0.42866E-01
         0.61278E-01
         0.50618E-01
         0.88077E-01
         0.76849E-01
         0.97010E-01
         0.82278E-01
         0.40179E-01
         0.76124E-01
         0.46788E-01
         0.48192E-01
         0.61083E-01
         0.51453E-01
         0.60623E-01
         0.84069E-01
         0.55573E-01
         0.69797E-01
         0.85175E-01
         0.78879E-01
         0.73036E-01
         0.70316E-01
         0.72609E-01
         0.83420E-01
         0.87375E-01
         0.82289E-01
         0.75887E-01
         0.10025E+00
         0.10598E+00
         0.11109E+00
         0.99187E-01
         0.86864E-01
         0.88489E-01
         0.97998E-01
         0.10575E+00
         0.90319E-01
         0.11301E+00
         0.13420E+00
         0.12525E+00
         0.11241E+00
         0.11446E+00
         0.11563E+00
         0.10174E+00
         0.12200E+00
         0.12288E+00
         0.11628E+00
         0.12586E+00
         0.14176E+00
         0.13536E+00
         0.12850E+00
         0.13806E+00
         0.14949E+00
         0.15270E+00
         0.15707E+00
         0.14852E+00
         0.13351E+00
         0.13861E+00
         0.13632E+00
         0.14439E+00
         0.13974E+00
         0.13429E+00
         0.13875E+00
         0.18835E-01
         0.26776E-01
         0.34736E-01
         0.23145E-01
         0.47719E-01
         0.43729E-01
         0.29900E-01
         0.23171E-01
         0.17740E-01
         0.18884E-01
         0.32388E-01
         0.49089E-01
         0.47316E-01
         0.30135E-01
         0.41274E-01
         0.20072E-01
         0.17994E-01
         0.16113E-01
         0.31428E-01
         0.23793E-01
         0.55374E-01
         0.48121E-01
         0.62141E-01
         0.51898E-01
         0.19237E-01
         0.46323E-01
         0.23932E-01
         0.25816E-01
         0.36813E-01
         0.27527E-01
         0.33940E-01
         0.53556E-01
         0.28944E-01
         0.41289E-01
         0.55385E-01
         0.51380E-01
         0.45903E-01
         0.42158E-01
         0.44815E-01
         0.56465E-01
         0.58176E-01
         0.55226E-01
         0.47973E-01
         0.62112E-01
         0.65921E-01
         0.68823E-01
         0.62184E-01
         0.51446E-01
         0.52202E-01
         0.60908E-01
         0.66751E-01
         0.53749E-01
         0.81736E-01
         0.10278E+00
         0.96006E-01
         0.84092E-01
         0.89085E-01
         0.95831E-01
         0.81403E-01
         0.10067E+00
         0.92381E-01
         0.83322E-01
         0.78330E-01
         0.95204E-01
         0.98632E-01
         0.95256E-01
         0.10159E+00
         0.11139E+00
         0.10705E+00
         0.10952E+00
         0.10507E+00
         0.93762E-01
         0.10249E+00
         0.94170E-01
         0.10182E+00
         0.99209E-01
         0.90913E-01
         0.10425E+00
         0.10013E-01
         0.13348E-01
         0.18368E-01
         0.13225E-01
         0.24979E-01
         0.23661E-01
         0.16052E-01
         0.12818E-01
         0.82096E-02
         0.68611E-02
         0.12966E-01
         0.24277E-01
         0.25832E-01
         0.13924E-01
         0.16921E-01
         0.96926E-02
         0.93356E-02
         0.79430E-02
         0.17327E-01
         0.11231E-01
         0.29144E-01
         0.26247E-01
         0.34668E-01
         0.32452E-01
         0.90005E-02
         0.25807E-01
         0.10986E-01
         0.12213E-01
         0.21877E-01
         0.17663E-01
         0.15624E-01
         0.28776E-01
         0.13819E-01
         0.23798E-01
         0.29055E-01
         0.30136E-01
         0.26149E-01
         0.22798E-01
         0.24851E-01
         0.34866E-01
         0.36444E-01
         0.36920E-01
         0.30971E-01
         0.35638E-01
         0.37952E-01
         0.38802E-01
         0.33384E-01
         0.25777E-01
         0.29057E-01
         0.36065E-01
         0.38434E-01
         0.29635E-01
         0.53150E-01
         0.68762E-01
         0.75820E-01
         0.57385E-01
         0.60173E-01
         0.65521E-01
         0.52447E-01
         0.70987E-01
         0.64016E-01
         0.69680E-01
         0.72286E-01
         0.78959E-01
         0.64979E-01
         0.61994E-01
         0.67476E-01
         0.76099E-01
         0.69117E-01
         0.72510E-01
         0.72701E-01
         0.57376E-01
         0.72342E-01
         0.60693E-01
         0.67322E-01
         0.66539E-01
         0.55541E-01
         0.69923E-01
         0.43352E-02
         0.45343E-02
         0.98340E-02
         0.74110E-02
         0.14160E-01
         0.11842E-01
         0.90338E-02
         0.10416E-01
         0.39591E-02
         0.39758E-02
         0.62618E-02
         0.16498E-01
         0.14450E-01
         0.10487E-01
         0.93229E-02
         0.24565E-02
         0.54874E-02
         0.26150E-02
         0.81895E-02
         0.36455E-02
         0.12758E-01
         0.13870E-01
         0.16026E-01
         0.17822E-01
         0.75371E-02
         0.98921E-02
         0.71868E-02
         0.61609E-02
         0.88325E-02
         0.11915E-01
         0.51511E-02
         0.13542E-01
         0.70779E-02
         0.14804E-01
         0.15906E-01
         0.18015E-01
         0.14588E-01
         0.15949E-01
         0.12835E-01
         0.18129E-01
         0.15789E-01
         0.19656E-01
         0.18555E-01
         0.16339E-01
         0.20203E-01
         0.20814E-01
         0.17952E-01
         0.14395E-01
         0.17455E-01
         0.22186E-01
         0.21960E-01
         0.14578E-01
         0.43886E-01
         0.58496E-01
         0.70217E-01
         0.47895E-01
         0.45243E-01
         0.46672E-01
         0.30771E-01
         0.53578E-01
         0.49043E-01
         0.55073E-01
         0.59277E-01
         0.70584E-01
         0.55282E-01
         0.44072E-01
         0.42849E-01
         0.57602E-01
         0.57114E-01
         0.63318E-01
         0.58268E-01
         0.41266E-01
         0.55840E-01
         0.45912E-01
         0.50072E-01
         0.46433E-01
         0.36442E-01
         0.60054E-01
         0.31365E-02
         0.31850E-02
         0.56688E-02
         0.70795E-02
         0.97394E-02
         0.95949E-02
         0.71329E-02
         0.93628E-02
         0.46106E-02
         0.39399E-02
         0.31491E-02
         0.12858E-01
         0.11353E-01
         0.89376E-02
         0.64706E-02
         0.18212E-02
         0.41666E-02
         0.16984E-02
         0.63334E-02
         0.23619E-02
         0.99766E-02
         0.12776E-01
         0.11706E-01
         0.15427E-01
         0.62890E-02
         0.82249E-02
         0.66701E-02
         0.21569E-02
         0.44173E-02
         0.11654E-01
         0.30344E-02
         0.11245E-01
         0.39631E-02
         0.12799E-01
         0.12312E-01
         0.17846E-01
         0.13924E-01
         0.10958E-01
         0.94656E-02
         0.11855E-01
         0.83565E-02
         0.15012E-01
         0.15715E-01
         0.12466E-01
         0.16298E-01
         0.13958E-01
         0.14045E-01
         0.13771E-01
         0.14875E-01
         0.19635E-01
         0.18487E-01
         0.10029E-01
         0.24982E-01
         0.43217E-01
         0.58441E-01
         0.42390E-01
         0.41631E-01
         0.41921E-01
         0.27537E-01
         0.56049E-01
         0.48828E-01
         0.44697E-01
         0.43507E-01
         0.60053E-01
         0.44857E-01
         0.31965E-01
         0.25034E-01
         0.41728E-01
         0.39741E-01
         0.42813E-01
         0.40067E-01
         0.24841E-01
         0.43141E-01
         0.32749E-01
         0.33739E-01
         0.33154E-01
         0.24011E-01
         0.46756E-01
         0.33247E-02
         0.41532E-02
         0.48859E-02
         0.57081E-02
         0.63472E-02
         0.46908E-02
         0.69259E-02
         0.97913E-02
         0.36208E-02
         0.18141E-02
         0.26233E-02
         0.88248E-02
         0.76142E-02
         0.82174E-02
         0.29026E-02
         0.15916E-02
         0.33990E-02
         0.19280E-02
         0.52635E-02
         0.24208E-02
         0.54632E-02
         0.11547E-01
         0.63498E-02
         0.13662E-01
         0.69575E-02
         0.68354E-02
         0.66990E-02
         0.28230E-02
         0.28879E-02
         0.10476E-01
         0.24366E-02
         0.79768E-02
         0.32643E-02
         0.67959E-02
         0.62474E-02
         0.13017E-01
         0.11559E-01
         0.93713E-02
         0.59909E-02
         0.88205E-02
         0.33410E-02
         0.80629E-02
         0.10007E-01
         0.89503E-02
         0.11309E-01
         0.94364E-02
         0.90312E-02
         0.90598E-02
         0.84178E-02
         0.10955E-01
         0.10987E-01
         0.32356E-02
         0.31681E-01
         0.47554E-01
         0.61625E-01
         0.42878E-01
         0.46901E-01
         0.50071E-01
         0.30980E-01
         0.50066E-01
         0.48884E-01
         0.48670E-01
         0.52391E-01
         0.65680E-01
         0.43285E-01
         0.30234E-01
         0.27444E-01
         0.42469E-01
         0.38491E-01
         0.39591E-01
         0.40050E-01
         0.25871E-01
         0.44351E-01
         0.30091E-01
         0.34809E-01
         0.38666E-01
         0.28248E-01
         0.48659E-01
         0.30498E-02
         0.23847E-02
         0.34967E-02
         0.42830E-02
         0.44210E-02
         0.42311E-02
         0.57533E-02
         0.81398E-02
         0.25678E-02
         0.25999E-02
         0.28067E-02
         0.67256E-02
         0.54355E-02
         0.63487E-02
         0.41058E-02
         0.24078E-02
         0.45389E-02
         0.14958E-02
         0.57289E-02
         0.17441E-02
         0.29453E-02
         0.89073E-02
         0.47808E-02
         0.11979E-01
         0.59766E-02
         0.60936E-02
         0.60116E-02
         0.27609E-02
         0.29525E-02
         0.95645E-02
         0.30094E-02
         0.60448E-02
         0.32999E-02
         0.70390E-02
         0.21761E-02
         0.71039E-02
         0.56631E-02
         0.76546E-02
         0.54044E-02
         0.74893E-02
         0.39197E-02
         0.10757E-01
         0.10912E-01
         0.60995E-02
         0.92784E-02
         0.52090E-02
         0.48074E-02
         0.63028E-02
         0.73456E-02
         0.10717E-01
         0.10548E-01
         0.30828E-02
         0.32130E-01
         0.49914E-01
         0.61145E-01
         0.47563E-01
         0.49202E-01
         0.50816E-01
         0.39657E-01
         0.54816E-01
         0.57052E-01
         0.60854E-01
         0.61767E-01
         0.61508E-01
         0.37753E-01
         0.32829E-01
         0.26912E-01
         0.34653E-01
         0.31320E-01
         0.39454E-01
         0.39934E-01
         0.20092E-01
         0.29507E-01
         0.17072E-01
         0.24534E-01
         0.28721E-01
         0.18619E-01
         0.46449E-01
         0.70828E-02
         0.43798E-02
         0.70434E-02
         0.74618E-02
         0.83243E-02
         0.47528E-02
         0.58832E-02
         0.65222E-02
         0.67916E-02
         0.10327E-01
         0.81144E-02
         0.11696E-01
         0.90263E-02
         0.12303E-01
         0.11555E-01
         0.42858E-02
         0.76420E-02
         0.56330E-02
         0.33176E-02
         0.73078E-02
         0.36975E-02
         0.81879E-02
         0.66668E-02
         0.10123E-01
         0.83983E-02
         0.60742E-02
         0.36962E-02
         0.10379E-01
         0.99360E-02
         0.10544E-01
         0.51207E-02
         0.93213E-02
         0.42923E-02
         0.67089E-02
         0.67624E-02
         0.71253E-02
         0.91422E-02
         0.55811E-02
         0.76769E-02
         0.16566E-01
         0.24902E-01
         0.90129E-02
         0.10617E-01
         0.74034E-02
         0.11755E-01
         0.10243E-01
         0.98134E-02
         0.14622E-01
         0.16533E-01
         0.13517E-01
         0.12618E-01
         0.25895E-02
         0.45030E-01
         0.54687E-01
         0.86400E-01
         0.71557E-01
         0.65235E-01
         0.68168E-01
         0.65026E-01
         0.92846E-01
         0.91751E-01
         0.10581E+00
         0.10928E+00
         0.10608E+00
         0.61611E-01
         0.41672E-01
         0.32174E-01
         0.41003E-01
         0.41605E-01
         0.39767E-01
         0.22379E-01
         0.56811E-02
         0.17550E-01
         0.55020E-02
         0.22887E-01
         0.29877E-01
         0.17243E-01
         0.48424E-01
  
SCALARS                     nodal_mass  double 1
LOOKUP_TABLE default
         0.24608E-05
         0.19551E-05
         0.20945E-05
         0.35953E-05
         0.12304E-05
         0.97770E-06
         0.10472E-05
         0.17973E-05
         0.19315E-05
         0.24627E-05
         0.96570E-06
         0.12312E-05
         0.13823E-05
         0.16614E-05
         0.69133E-06
         0.83095E-06
         0.27274E-05
         0.20125E-05
         0.13635E-05
         0.10066E-05
         0.81737E-06
         0.15393E-05
         0.16929E-05
         0.40889E-06
         0.76975E-06
         0.84649E-06
         0.13859E-05
         0.17532E-05
         0.69345E-06
         0.87672E-06
         0.32470E-05
         0.25355E-05
         0.32225E-05
         0.16233E-05
         0.12675E-05
         0.16109E-05
         0.18980E-05
         0.21673E-05
         0.94902E-06
         0.10836E-05
         0.20482E-05
         0.22683E-05
         0.10242E-05
         0.11342E-05
         0.17426E-05
         0.10823E-05
         0.87140E-06
         0.54121E-06
         0.20598E-05
         0.10301E-05
         0.17103E-05
         0.85523E-06
         0.17977E-05
         0.89958E-06
         0.18362E-05
         0.91859E-06
         0.15911E-05
         0.19369E-05
         0.79575E-06
         0.96860E-06
         0.24553E-05
         0.17361E-05
         0.12277E-05
         0.86816E-06
         0.27409E-05
         0.13702E-05
         0.23792E-05
         0.11891E-05
         0.10821E-05
         0.16705E-05
         0.54106E-06
         0.83538E-06
         0.18955E-05
         0.94787E-06
         0.20026E-05
         0.10014E-05
         0.19316E-05
         0.96578E-06
         0.15181E-05
         0.75906E-06
         0.95443E-06
         0.15782E-05
         0.47723E-06
         0.78918E-06
         0.20886E-05
         0.10443E-05
         0.16867E-05
         0.84342E-06
         0.14838E-05
         0.74203E-06
         0.97224E-06
         0.16569E-05
         0.48620E-06
         0.82849E-06
         0.22482E-05
         0.11241E-05
         0.23568E-05
         0.11783E-05
         0.19018E-05
         0.95085E-06
         0.11709E-05
         0.20091E-05
         0.58544E-06
         0.10044E-05
         0.74681E-06
         0.94889E-06
         0.37348E-06
         0.47447E-06
         0.88885E-06
         0.44455E-06
         0.10466E-05
         0.52333E-06
         0.10205E-05
         0.51021E-06
         0.99108E-06
         0.49550E-06
         0.10560E-05
         0.52791E-06
         0.11142E-05
         0.55694E-06
         0.10497E-05
         0.52469E-06
         0.82085E-06
         0.41039E-06
         0.66950E-06
         0.33475E-06
         0.86397E-06
         0.43199E-06
         0.11504E-05
         0.57519E-06
         0.12637E-05
         0.63182E-06
         0.12132E-05
         0.60658E-06
         0.10948E-05
         0.54745E-06
         0.99429E-06
         0.49718E-06
         0.80759E-06
         0.40382E-06
         0.67982E-06
         0.33995E-06
         0.88797E-06
         0.44401E-06
         0.11753E-05
         0.58766E-06
         0.12140E-05
         0.60702E-06
         0.98236E-06
         0.49125E-06
         0.79766E-06
         0.39889E-06
         0.97540E-06
         0.48769E-06
         0.11548E-05
         0.57743E-06
         0.24609E-05
         0.19547E-05
         0.20946E-05
         0.35969E-05
         0.19318E-05
         0.24634E-05
         0.13815E-05
         0.16603E-05
         0.27283E-05
         0.20111E-05
         0.81658E-06
         0.15390E-05
         0.16927E-05
         0.13839E-05
         0.17528E-05
         0.32479E-05
         0.25367E-05
         0.32241E-05
         0.18980E-05
         0.21675E-05
         0.20481E-05
         0.22684E-05
         0.17424E-05
         0.10822E-05
         0.20589E-05
         0.17102E-05
         0.17950E-05
         0.18344E-05
         0.15904E-05
         0.19365E-05
         0.24555E-05
         0.17359E-05
         0.27423E-05
         0.23814E-05
         0.10820E-05
         0.16702E-05
         0.18953E-05
         0.20025E-05
         0.19317E-05
         0.15181E-05
         0.95442E-06
         0.15780E-05
         0.20884E-05
         0.16864E-05
         0.14835E-05
         0.97197E-06
         0.16567E-05
         0.22482E-05
         0.23571E-05
         0.19022E-05
         0.11709E-05
         0.20101E-05
         0.74658E-06
         0.94886E-06
         0.88841E-06
         0.10467E-05
         0.10207E-05
         0.99128E-06
         0.10565E-05
         0.11150E-05
         0.10503E-05
         0.82102E-06
         0.66954E-06
         0.86398E-06
         0.11506E-05
         0.12640E-05
         0.12133E-05
         0.10948E-05
         0.99421E-06
         0.80751E-06
         0.67970E-06
         0.88789E-06
         0.11752E-05
         0.12140E-05
         0.98215E-06
         0.79747E-06
         0.97551E-06
         0.11548E-05
         0.24611E-05
         0.19543E-05
         0.20949E-05
         0.35987E-05
         0.19321E-05
         0.24642E-05
         0.13808E-05
         0.16594E-05
         0.27293E-05
         0.20098E-05
         0.81582E-06
         0.15388E-05
         0.16927E-05
         0.13821E-05
         0.17525E-05
         0.32489E-05
         0.25379E-05
         0.32257E-05
         0.18982E-05
         0.21678E-05
         0.20480E-05
         0.22685E-05
         0.17423E-05
         0.10821E-05
         0.20580E-05
         0.17101E-05
         0.17924E-05
         0.18326E-05
         0.15898E-05
         0.19361E-05
         0.24558E-05
         0.17357E-05
         0.27438E-05
         0.23836E-05
         0.10821E-05
         0.16699E-05
         0.18951E-05
         0.20024E-05
         0.19318E-05
         0.15183E-05
         0.95445E-06
         0.15778E-05
         0.20884E-05
         0.16862E-05
         0.14831E-05
         0.97174E-06
         0.16566E-05
         0.22483E-05
         0.23575E-05
         0.19026E-05
         0.11709E-05
         0.20112E-05
         0.74636E-06
         0.94886E-06
         0.88800E-06
         0.10467E-05
         0.10210E-05
         0.99152E-06
         0.10570E-05
         0.11159E-05
         0.10509E-05
         0.82122E-06
         0.66961E-06
         0.86402E-06
         0.11507E-05
         0.12643E-05
         0.12135E-05
         0.10948E-05
         0.99417E-06
         0.80747E-06
         0.67961E-06
         0.88784E-06
         0.11752E-05
         0.12140E-05
         0.98197E-06
         0.79731E-06
         0.97565E-06
         0.11548E-05
         0.24612E-05
         0.19539E-05
         0.20950E-05
         0.36004E-05
         0.19324E-05
         0.24650E-05
         0.13801E-05
         0.16584E-05
         0.27303E-05
         0.20085E-05
         0.81504E-06
         0.15385E-05
         0.16925E-05
         0.13801E-05
         0.17521E-05
         0.32498E-05
         0.25390E-05
         0.32274E-05
         0.18982E-05
         0.21681E-05
         0.20479E-05
         0.22686E-05
         0.17421E-05
         0.10820E-05
         0.20571E-05
         0.17099E-05
         0.17897E-05
         0.18308E-05
         0.15891E-05
         0.19356E-05
         0.24561E-05
         0.17355E-05
         0.27453E-05
         0.23857E-05
         0.10820E-05
         0.16696E-05
         0.18948E-05
         0.20022E-05
         0.19320E-05
         0.15183E-05
         0.95445E-06
         0.15776E-05
         0.20883E-05
         0.16859E-05
         0.14828E-05
         0.97149E-06
         0.16564E-05
         0.22483E-05
         0.23578E-05
         0.19030E-05
         0.11710E-05
         0.20122E-05
         0.74613E-06
         0.94884E-06
         0.88756E-06
         0.10467E-05
         0.10212E-05
         0.99173E-06
         0.10574E-05
         0.11167E-05
         0.10515E-05
         0.82140E-06
         0.66966E-06
         0.86404E-06
         0.11509E-05
         0.12646E-05
         0.12136E-05
         0.10947E-05
         0.99410E-06
         0.80740E-06
         0.67950E-06
         0.88777E-06
         0.11752E-05
         0.12140E-05
         0.98177E-06
         0.79713E-06
         0.97576E-06
         0.11547E-05
         0.24613E-05
         0.19535E-05
         0.20952E-05
         0.36022E-05
         0.19327E-05
         0.24657E-05
         0.13794E-05
         0.16574E-05
         0.27313E-05
         0.20072E-05
         0.81426E-06
         0.15382E-05
         0.16924E-05
         0.13782E-05
         0.17517E-05
         0.32508E-05
         0.25402E-05
         0.32290E-05
         0.18983E-05
         0.21684E-05
         0.20479E-05
         0.22687E-05
         0.17420E-05
         0.10819E-05
         0.20563E-05
         0.17098E-05
         0.17870E-05
         0.18290E-05
         0.15884E-05
         0.19352E-05
         0.24563E-05
         0.17353E-05
         0.27467E-05
         0.23879E-05
         0.10820E-05
         0.16693E-05
         0.18946E-05
         0.20021E-05
         0.19321E-05
         0.15184E-05
         0.95445E-06
         0.15773E-05
         0.20882E-05
         0.16857E-05
         0.14824E-05
         0.97124E-06
         0.16563E-05
         0.22484E-05
         0.23582E-05
         0.19034E-05
         0.11710E-05
         0.20132E-05
         0.74590E-06
         0.94883E-06
         0.88713E-06
         0.10468E-05
         0.10215E-05
         0.99194E-06
         0.10579E-05
         0.11175E-05
         0.10521E-05
         0.82159E-06
         0.66972E-06
         0.86406E-06
         0.11510E-05
         0.12649E-05
         0.12138E-05
         0.10947E-05
         0.99404E-06
         0.80734E-06
         0.67940E-06
         0.88771E-06
         0.11752E-05
         0.12140E-05
         0.98157E-06
         0.79696E-06
         0.97588E-06
         0.11547E-05
         0.24615E-05
         0.19531E-05
         0.20954E-05
         0.36039E-05
         0.19331E-05
         0.24665E-05
         0.13787E-05
         0.16564E-05
         0.27322E-05
         0.20059E-05
         0.81349E-06
         0.15380E-05
         0.16923E-05
         0.13763E-05
         0.17514E-05
         0.32518E-05
         0.25414E-05
         0.32306E-05
         0.18984E-05
         0.21687E-05
         0.20478E-05
         0.22688E-05
         0.17418E-05
         0.10818E-05
         0.20554E-05
         0.17096E-05
         0.17843E-05
         0.18272E-05
         0.15878E-05
         0.19347E-05
         0.24566E-05
         0.17351E-05
         0.27482E-05
         0.23901E-05
         0.10820E-05
         0.16690E-05
         0.18943E-05
         0.20019E-05
         0.19322E-05
         0.15185E-05
         0.95446E-06
         0.15771E-05
         0.20881E-05
         0.16855E-05
         0.14821E-05
         0.97100E-06
         0.16562E-05
         0.22484E-05
         0.23586E-05
         0.19038E-05
         0.11710E-05
         0.20142E-05
         0.74568E-06
         0.94882E-06
         0.88671E-06
         0.10468E-05
         0.10217E-05
         0.99216E-06
         0.10583E-05
         0.11183E-05
         0.10528E-05
         0.82178E-06
         0.66977E-06
         0.86408E-06
         0.11512E-05
         0.12652E-05
         0.12139E-05
         0.10947E-05
         0.99398E-06
         0.80728E-06
         0.67930E-06
         0.88766E-06
         0.11752E-05
         0.12140E-05
         0.98138E-06
         0.79679E-06
         0.97601E-06
         0.11547E-05
         0.24616E-05
         0.19527E-05
         0.20956E-05
         0.36056E-05
         0.19334E-05
         0.24672E-05
         0.13779E-05
         0.16554E-05
         0.27332E-05
         0.20046E-05
         0.81271E-06
         0.15377E-05
         0.16922E-05
         0.13744E-05
         0.17510E-05
         0.32527E-05
         0.25425E-05
         0.32322E-05
         0.18984E-05
         0.21689E-05
         0.20477E-05
         0.22689E-05
         0.17416E-05
         0.10816E-05
         0.20545E-05
         0.17095E-05
         0.17817E-05
         0.18254E-05
         0.15871E-05
         0.19343E-05
         0.24568E-05
         0.17349E-05
         0.27496E-05
         0.23922E-05
         0.10820E-05
         0.16686E-05
         0.18941E-05
         0.20018E-05
         0.19324E-05
         0.15186E-05
         0.95446E-06
         0.15769E-05
         0.20880E-05
         0.16852E-05
         0.14817E-05
         0.97074E-06
         0.16560E-05
         0.22484E-05
         0.23589E-05
         0.19042E-05
         0.11710E-05
         0.20152E-05
         0.74544E-06
         0.94880E-06
         0.88627E-06
         0.10469E-05
         0.10219E-05
         0.99237E-06
         0.10588E-05
         0.11191E-05
         0.10534E-05
         0.82196E-06
         0.66982E-06
         0.86410E-06
         0.11513E-05
         0.12654E-05
         0.12140E-05
         0.10947E-05
         0.99391E-06
         0.80721E-06
         0.67919E-06
         0.88759E-06
         0.11751E-05
         0.12140E-05
         0.98118E-06
         0.79661E-06
         0.97612E-06
         0.11546E-05
         0.24618E-05
         0.19523E-05
         0.20957E-05
         0.36073E-05
         0.19337E-05
         0.24680E-05
         0.13772E-05
         0.16545E-05
         0.27341E-05
         0.20033E-05
         0.81194E-06
         0.15374E-05
         0.16921E-05
         0.13725E-05
         0.17506E-05
         0.32537E-05
         0.25437E-05
         0.32339E-05
         0.18985E-05
         0.21692E-05
         0.20476E-05
         0.22690E-05
         0.17414E-05
         0.10815E-05
         0.20536E-05
         0.17093E-05
         0.17790E-05
         0.18236E-05
         0.15864E-05
         0.19339E-05
         0.24571E-05
         0.17347E-05
         0.27511E-05
         0.23944E-05
         0.10820E-05
         0.16683E-05
         0.18938E-05
         0.20016E-05
         0.19325E-05
         0.15186E-05
         0.95446E-06
         0.15767E-05
         0.20878E-05
         0.16850E-05
         0.14814E-05
         0.97050E-06
         0.16559E-05
         0.22484E-05
         0.23593E-05
         0.19046E-05
         0.11711E-05
         0.20162E-05
         0.74522E-06
         0.94878E-06
         0.88584E-06
         0.10469E-05
         0.10222E-05
         0.99258E-06
         0.10593E-05
         0.11199E-05
         0.10540E-05
         0.82215E-06
         0.66988E-06
         0.86413E-06
         0.11515E-05
         0.12657E-05
         0.12142E-05
         0.10946E-05
         0.99385E-06
         0.80715E-06
         0.67909E-06
         0.88752E-06
         0.11751E-05
         0.12140E-05
         0.98098E-06
         0.79643E-06
         0.97624E-06
         0.11546E-05
         0.24619E-05
         0.19519E-05
         0.20959E-05
         0.36091E-05
         0.19340E-05
         0.24688E-05
         0.13765E-05
         0.16535E-05
         0.27351E-05
         0.20020E-05
         0.81117E-06
         0.15372E-05
         0.16920E-05
         0.13706E-05
         0.17503E-05
         0.32546E-05
         0.25448E-05
         0.32355E-05
         0.18986E-05
         0.21695E-05
         0.20475E-05
         0.22691E-05
         0.17413E-05
         0.10814E-05
         0.20527E-05
         0.17092E-05
         0.17763E-05
         0.18219E-05
         0.15858E-05
         0.19334E-05
         0.24573E-05
         0.17345E-05
         0.27525E-05
         0.23966E-05
         0.10820E-05
         0.16680E-05
         0.18936E-05
         0.20015E-05
         0.19326E-05
         0.15187E-05
         0.95447E-06
         0.15765E-05
         0.20878E-05
         0.16848E-05
         0.14810E-05
         0.97025E-06
         0.16557E-05
         0.22485E-05
         0.23597E-05
         0.19050E-05
         0.11711E-05
         0.20172E-05
         0.74499E-06
         0.94877E-06
         0.88541E-06
         0.10469E-05
         0.10224E-05
         0.99280E-06
         0.10597E-05
         0.11207E-05
         0.10546E-05
         0.82234E-06
         0.66994E-06
         0.86415E-06
         0.11517E-05
         0.12660E-05
         0.12143E-05
         0.10946E-05
         0.99379E-06
         0.80709E-06
         0.67898E-06
         0.88746E-06
         0.11751E-05
         0.12140E-05
         0.98079E-06
         0.79626E-06
         0.97636E-06
         0.11546E-05
         0.24621E-05
         0.19515E-05
         0.20961E-05
         0.36108E-05
         0.19343E-05
         0.24695E-05
         0.13758E-05
         0.16525E-05
         0.27361E-05
         0.20006E-05
         0.81039E-06
         0.15369E-05
         0.16919E-05
         0.13686E-05
         0.17499E-05
         0.32556E-05
         0.25460E-05
         0.32371E-05
         0.18986E-05
         0.21697E-05
         0.20474E-05
         0.22692E-05
         0.17411E-05
         0.10813E-05
         0.20519E-05
         0.17091E-05
         0.17736E-05
         0.18201E-05
         0.15851E-05
         0.19330E-05
         0.24575E-05
         0.17342E-05
         0.27540E-05
         0.23987E-05
         0.10820E-05
         0.16677E-05
         0.18933E-05
         0.20014E-05
         0.19328E-05
         0.15188E-05
         0.95448E-06
         0.15763E-05
         0.20876E-05
         0.16845E-05
         0.14807E-05
         0.97000E-06
         0.16556E-05
         0.22485E-05
         0.23600E-05
         0.19053E-05
         0.11711E-05
         0.20182E-05
         0.74476E-06
         0.94875E-06
         0.88498E-06
         0.10470E-05
         0.10227E-05
         0.99301E-06
         0.10602E-05
         0.11215E-05
         0.10553E-05
         0.82252E-06
         0.66999E-06
         0.86417E-06
         0.11518E-05
         0.12663E-05
         0.12145E-05
         0.10946E-05
         0.99373E-06
         0.80702E-06
         0.67888E-06
         0.88740E-06
         0.11751E-05
         0.12140E-05
         0.98058E-06
         0.79608E-06
         0.97648E-06
         0.11546E-05
         0.24622E-05
         0.19511E-05
         0.20963E-05
         0.36125E-05
         0.19346E-05
         0.24703E-05
         0.13751E-05
         0.16515E-05
         0.27370E-05
         0.19993E-05
         0.80962E-06
         0.15366E-05
         0.16917E-05
         0.13667E-05
         0.17495E-05
         0.32565E-05
         0.25471E-05
         0.32388E-05
         0.18987E-05
         0.21700E-05
         0.20473E-05
         0.22693E-05
         0.17409E-05
         0.10812E-05
         0.20510E-05
         0.17089E-05
         0.17710E-05
         0.18183E-05
         0.15844E-05
         0.19325E-05
         0.24578E-05
         0.17340E-05
         0.27554E-05
         0.24009E-05
         0.10820E-05
         0.16674E-05
         0.18931E-05
         0.20012E-05
         0.19329E-05
         0.15189E-05
         0.95448E-06
         0.15760E-05
         0.20875E-05
         0.16843E-05
         0.14803E-05
         0.96975E-06
         0.16555E-05
         0.22485E-05
         0.23604E-05
         0.19057E-05
         0.11712E-05
         0.20192E-05
         0.74453E-06
         0.94874E-06
         0.88455E-06
         0.10470E-05
         0.10229E-05
         0.99322E-06
         0.10606E-05
         0.11223E-05
         0.10559E-05
         0.82270E-06
         0.67004E-06
         0.86419E-06
         0.11520E-05
         0.12666E-05
         0.12146E-05
         0.10945E-05
         0.99366E-06
         0.80696E-06
         0.67877E-06
         0.88733E-06
         0.11751E-05
         0.12140E-05
         0.98038E-06
         0.79590E-06
         0.97660E-06
         0.11545E-05
         0.24623E-05
         0.19507E-05
         0.20964E-05
         0.36142E-05
         0.19349E-05
         0.24710E-05
         0.13743E-05
         0.16505E-05
         0.27380E-05
         0.19980E-05
         0.80885E-06
         0.15364E-05
         0.16916E-05
         0.13648E-05
         0.17492E-05
         0.32575E-05
         0.25483E-05
         0.32404E-05
         0.18988E-05
         0.21703E-05
         0.20473E-05
         0.22694E-05
         0.17407E-05
         0.10811E-05
         0.20501E-05
         0.17088E-05
         0.17683E-05
         0.18165E-05
         0.15837E-05
         0.19321E-05
         0.24580E-05
         0.17338E-05
         0.27569E-05
         0.24031E-05
         0.10820E-05
         0.16670E-05
         0.18928E-05
         0.20011E-05
         0.19330E-05
         0.15189E-05
         0.95448E-06
         0.15758E-05
         0.20874E-05
         0.16840E-05
         0.14800E-05
         0.96950E-06
         0.16553E-05
         0.22485E-05
         0.23608E-05
         0.19061E-05
         0.11712E-05
         0.20202E-05
         0.74430E-06
         0.94872E-06
         0.88412E-06
         0.10470E-05
         0.10231E-05
         0.99344E-06
         0.10611E-05
         0.11231E-05
         0.10565E-05
         0.82289E-06
         0.67009E-06
         0.86422E-06
         0.11521E-05
         0.12669E-05
         0.12147E-05
         0.10945E-05
         0.99360E-06
         0.80690E-06
         0.67867E-06
         0.88727E-06
         0.11750E-05
         0.12140E-05
         0.98019E-06
         0.79573E-06
         0.97672E-06
         0.11545E-05
         0.24625E-05
         0.19503E-05
         0.20966E-05
         0.36160E-05
         0.19352E-05
         0.24718E-05
         0.13736E-05
         0.16496E-05
         0.27389E-05
         0.19967E-05
         0.80807E-06
         0.15361E-05
         0.16915E-05
         0.13629E-05
         0.17488E-05
         0.32584E-05
         0.25495E-05
         0.32420E-05
         0.18988E-05
         0.21705E-05
         0.20472E-05
         0.22695E-05
         0.17406E-05
         0.10810E-05
         0.20492E-05
         0.17086E-05
         0.17656E-05
         0.18147E-05
         0.15831E-05
         0.19317E-05
         0.24583E-05
         0.17336E-05
         0.27583E-05
         0.24053E-05
         0.10820E-05
         0.16667E-05
         0.18926E-05
         0.20009E-05
         0.19331E-05
         0.15190E-05
         0.95449E-06
         0.15756E-05
         0.20873E-05
         0.16838E-05
         0.14796E-05
         0.96925E-06
         0.16552E-05
         0.22486E-05
         0.23611E-05
         0.19065E-05
         0.11712E-05
         0.20212E-05
         0.74407E-06
         0.94870E-06
         0.88368E-06
         0.10471E-05
         0.10234E-05
         0.99365E-06
         0.10616E-05
         0.11239E-05
         0.10571E-05
         0.82307E-06
         0.67014E-06
         0.86424E-06
         0.11523E-05
         0.12672E-05
         0.12149E-05
         0.10945E-05
         0.99354E-06
         0.80683E-06
         0.67856E-06
         0.88721E-06
         0.11750E-05
         0.12140E-05
         0.97999E-06
         0.79555E-06
         0.97684E-06
         0.11545E-05
         0.24626E-05
         0.19499E-05
         0.20968E-05
         0.36177E-05
         0.19355E-05
         0.24725E-05
         0.13729E-05
         0.16486E-05
         0.27399E-05
         0.19954E-05
         0.80730E-06
         0.15358E-05
         0.16914E-05
         0.13610E-05
         0.17484E-05
         0.32594E-05
         0.25506E-05
         0.32437E-05
         0.18989E-05
         0.21708E-05
         0.20471E-05
         0.22696E-05
         0.17404E-05
         0.10808E-05
         0.20483E-05
         0.17085E-05
         0.17629E-05
         0.18129E-05
         0.15824E-05
         0.19312E-05
         0.24585E-05
         0.17334E-05
         0.27598E-05
         0.24074E-05
         0.10820E-05
         0.16664E-05
         0.18923E-05
         0.20008E-05
         0.19333E-05
         0.15191E-05
         0.95449E-06
         0.15754E-05
         0.20872E-05
         0.16835E-05
         0.14793E-05
         0.96901E-06
         0.16550E-05
         0.22486E-05
         0.23615E-05
         0.19069E-05
         0.11713E-05
         0.20222E-05
         0.74384E-06
         0.94869E-06
         0.88325E-06
         0.10471E-05
         0.10236E-05
         0.99386E-06
         0.10620E-05
         0.11247E-05
         0.10577E-05
         0.82326E-06
         0.67020E-06
         0.86426E-06
         0.11524E-05
         0.12674E-05
         0.12150E-05
         0.10944E-05
         0.99348E-06
         0.80677E-06
         0.67846E-06
         0.88714E-06
         0.11750E-05
         0.12140E-05
         0.97979E-06
         0.79538E-06
         0.97696E-06
         0.11544E-05
         0.24628E-05
         0.19495E-05
         0.20970E-05
         0.36194E-05
         0.19358E-05
         0.24733E-05
         0.13722E-05
         0.16476E-05
         0.27409E-05
         0.19941E-05
         0.80652E-06
         0.15355E-05
         0.16913E-05
         0.13591E-05
         0.17481E-05
         0.32604E-05
         0.25518E-05
         0.32453E-05
         0.18990E-05
         0.21711E-05
         0.20470E-05
         0.22697E-05
         0.17402E-05
         0.10807E-05
         0.20474E-05
         0.17084E-05
         0.17603E-05
         0.18111E-05
         0.15817E-05
         0.19308E-05
         0.24588E-05
         0.17332E-05
         0.27613E-05
         0.24096E-05
         0.10819E-05
         0.16661E-05
         0.18921E-05
         0.20006E-05
         0.19334E-05
         0.15192E-05
         0.95450E-06
         0.15752E-05
         0.20871E-05
         0.16833E-05
         0.14789E-05
         0.96876E-06
         0.16549E-05
         0.22486E-05
         0.23619E-05
         0.19073E-05
         0.11713E-05
         0.20232E-05
         0.74362E-06
         0.94868E-06
         0.88282E-06
         0.10472E-05
         0.10238E-05
         0.99408E-06
         0.10625E-05
         0.11255E-05
         0.10584E-05
         0.82345E-06
         0.67025E-06
         0.86428E-06
         0.11526E-05
         0.12677E-05
         0.12152E-05
         0.10944E-05
         0.99342E-06
         0.80671E-06
         0.67836E-06
         0.88709E-06
         0.11750E-05
         0.12140E-05
         0.97959E-06
         0.79521E-06
         0.97708E-06
         0.11544E-05
         0.24629E-05
         0.19491E-05
         0.20972E-05
         0.36212E-05
         0.19361E-05
         0.24741E-05
         0.13715E-05
         0.16466E-05
         0.27418E-05
         0.19928E-05
         0.80575E-06
         0.15353E-05
         0.16912E-05
         0.13572E-05
         0.17477E-05
         0.32613E-05
         0.25529E-05
         0.32469E-05
         0.18990E-05
         0.21714E-05
         0.20469E-05
         0.22698E-05
         0.17400E-05
         0.10806E-05
         0.20466E-05
         0.17082E-05
         0.17576E-05
         0.18093E-05
         0.15810E-05
         0.19303E-05
         0.24590E-05
         0.17330E-05
         0.27627E-05
         0.24118E-05
         0.10819E-05
         0.16658E-05
         0.18919E-05
         0.20005E-05
         0.19335E-05
         0.15192E-05
         0.95450E-06
         0.15750E-05
         0.20870E-05
         0.16831E-05
         0.14786E-05
         0.96851E-06
         0.16548E-05
         0.22487E-05
         0.23622E-05
         0.19077E-05
         0.11713E-05
         0.20242E-05
         0.74339E-06
         0.94866E-06
         0.88239E-06
         0.10472E-05
         0.10241E-05
         0.99429E-06
         0.10630E-05
         0.11263E-05
         0.10590E-05
         0.82363E-06
         0.67030E-06
         0.86430E-06
         0.11527E-05
         0.12680E-05
         0.12153E-05
         0.10944E-05
         0.99335E-06
         0.80665E-06
         0.67825E-06
         0.88702E-06
         0.11749E-05
         0.12140E-05
         0.97939E-06
         0.79503E-06
         0.97720E-06
         0.11544E-05
         0.24631E-05
         0.19487E-05
         0.20973E-05
         0.36229E-05
         0.19364E-05
         0.24748E-05
         0.13707E-05
         0.16456E-05
         0.27428E-05
         0.19915E-05
         0.80498E-06
         0.15350E-05
         0.16911E-05
         0.13553E-05
         0.17473E-05
         0.32623E-05
         0.25541E-05
         0.32486E-05
         0.18991E-05
         0.21716E-05
         0.20468E-05
         0.22699E-05
         0.17399E-05
         0.10805E-05
         0.20457E-05
         0.17081E-05
         0.17549E-05
         0.18075E-05
         0.15804E-05
         0.19299E-05
         0.24592E-05
         0.17328E-05
         0.27642E-05
         0.24140E-05
         0.10819E-05
         0.16654E-05
         0.18916E-05
         0.20003E-05
         0.19337E-05
         0.15193E-05
         0.95450E-06
         0.15748E-05
         0.20869E-05
         0.16828E-05
         0.14782E-05
         0.96826E-06
         0.16546E-05
         0.22487E-05
         0.23626E-05
         0.19081E-05
         0.11714E-05
         0.20253E-05
         0.74316E-06
         0.94864E-06
         0.88196E-06
         0.10472E-05
         0.10243E-05
         0.99450E-06
         0.10634E-05
         0.11271E-05
         0.10596E-05
         0.82381E-06
         0.67036E-06
         0.86432E-06
         0.11529E-05
         0.12683E-05
         0.12154E-05
         0.10943E-05
         0.99329E-06
         0.80658E-06
         0.67815E-06
         0.88696E-06
         0.11749E-05
         0.12140E-05
         0.97919E-06
         0.79485E-06
         0.97732E-06
         0.11544E-05
         0.24632E-05
         0.19483E-05
         0.20975E-05
         0.36246E-05
         0.19368E-05
         0.24756E-05
         0.13700E-05
         0.16447E-05
         0.27437E-05
         0.19902E-05
         0.80421E-06
         0.15347E-05
         0.16910E-05
         0.13534E-05
         0.17470E-05
         0.32632E-05
         0.25552E-05
         0.32502E-05
         0.18992E-05
         0.21719E-05
         0.20467E-05
         0.22700E-05
         0.17397E-05
         0.10804E-05
         0.20448E-05
         0.17079E-05
         0.17523E-05
         0.18057E-05
         0.15797E-05
         0.19295E-05
         0.24595E-05
         0.17326E-05
         0.27656E-05
         0.24161E-05
         0.10819E-05
         0.16651E-05
         0.18914E-05
         0.20002E-05
         0.19338E-05
         0.15194E-05
         0.95451E-06
         0.15745E-05
         0.20868E-05
         0.16826E-05
         0.14779E-05
         0.96801E-06
         0.16545E-05
         0.22487E-05
         0.23630E-05
         0.19085E-05
         0.11714E-05
         0.20263E-05
         0.74293E-06
         0.94863E-06
         0.88153E-06
         0.10473E-05
         0.10245E-05
         0.99472E-06
         0.10639E-05
         0.11279E-05
         0.10602E-05
         0.82400E-06
         0.67041E-06
         0.86435E-06
         0.11530E-05
         0.12686E-05
         0.12156E-05
         0.10943E-05
         0.99323E-06
         0.80652E-06
         0.67804E-06
         0.88690E-06
         0.11749E-05
         0.12140E-05
         0.97900E-06
         0.79468E-06
         0.97744E-06
         0.11543E-05
         0.24633E-05
         0.19479E-05
         0.20977E-05
         0.36264E-05
         0.19371E-05
         0.24763E-05
         0.13693E-05
         0.16437E-05
         0.27447E-05
         0.19888E-05
         0.80343E-06
         0.15345E-05
         0.16908E-05
         0.13515E-05
         0.17466E-05
         0.32642E-05
         0.25564E-05
         0.32518E-05
         0.18992E-05
         0.21722E-05
         0.20466E-05
         0.22701E-05
         0.17395E-05
         0.10803E-05
         0.20439E-05
         0.17078E-05
         0.17496E-05
         0.18039E-05
         0.15790E-05
         0.19290E-05
         0.24597E-05
         0.17323E-05
         0.27671E-05
         0.24183E-05
         0.10819E-05
         0.16648E-05
         0.18911E-05
         0.20001E-05
         0.19339E-05
         0.15195E-05
         0.95452E-06
         0.15743E-05
         0.20867E-05
         0.16823E-05
         0.14775E-05
         0.96776E-06
         0.16543E-05
         0.22487E-05
         0.23633E-05
         0.19089E-05
         0.11714E-05
         0.20273E-05
         0.74270E-06
         0.94861E-06
         0.88109E-06
         0.10473E-05
         0.10248E-05
         0.99493E-06
         0.10643E-05
         0.11287E-05
         0.10609E-05
         0.82418E-06
         0.67046E-06
         0.86437E-06
         0.11532E-05
         0.12689E-05
         0.12157E-05
         0.10943E-05
         0.99316E-06
         0.80646E-06
         0.67794E-06
         0.88683E-06
         0.11749E-05
         0.12140E-05
         0.97879E-06
         0.79450E-06
         0.97755E-06
         0.11543E-05
         0.24635E-05
         0.19475E-05
         0.20979E-05
         0.36281E-05
         0.19374E-05
         0.24771E-05
         0.13686E-05
         0.16427E-05
         0.27456E-05
         0.19875E-05
         0.80266E-06
         0.15342E-05
         0.16907E-05
         0.13496E-05
         0.17463E-05
         0.32651E-05
         0.25575E-05
         0.32534E-05
         0.18993E-05
         0.21724E-05
         0.20466E-05
         0.22702E-05
         0.17393E-05
         0.10802E-05
         0.20430E-05
         0.17076E-05
         0.17469E-05
         0.18021E-05
         0.15784E-05
         0.19286E-05
         0.24600E-05
         0.17321E-05
         0.27685E-05
         0.24205E-05
         0.10819E-05
         0.16645E-05
         0.18909E-05
         0.19999E-05
         0.19341E-05
         0.15195E-05
         0.95452E-06
         0.15741E-05
         0.20866E-05
         0.16821E-05
         0.14772E-05
         0.96751E-06
         0.16542E-05
         0.22488E-05
         0.23637E-05
         0.19092E-05
         0.11715E-05
         0.20283E-05
         0.74247E-06
         0.94860E-06
         0.88066E-06
         0.10473E-05
         0.10250E-05
         0.99514E-06
         0.10648E-05
         0.11295E-05
         0.10615E-05
         0.82437E-06
         0.67052E-06
         0.86439E-06
         0.11533E-05
         0.12691E-05
         0.12159E-05
         0.10942E-05
         0.99310E-06
         0.80639E-06
         0.67783E-06
         0.88676E-06
         0.11748E-05
         0.12140E-05
         0.97859E-06
         0.79433E-06
         0.97767E-06
         0.11543E-05
         0.24636E-05
         0.19471E-05
         0.20980E-05
         0.36298E-05
         0.19377E-05
         0.24779E-05
         0.13679E-05
         0.16417E-05
         0.27466E-05
         0.19862E-05
         0.80189E-06
         0.15339E-05
         0.16906E-05
         0.13477E-05
         0.17459E-05
         0.32661E-05
         0.25587E-05
         0.32551E-05
         0.18994E-05
         0.21727E-05
         0.20465E-05
         0.22703E-05
         0.17392E-05
         0.10800E-05
         0.20421E-05
         0.17075E-05
         0.17443E-05
         0.18003E-05
         0.15777E-05
         0.19281E-05
         0.24602E-05
         0.17319E-05
         0.27700E-05
         0.24227E-05
         0.10819E-05
         0.16642E-05
         0.18906E-05
         0.19998E-05
         0.19342E-05
         0.15196E-05
         0.95453E-06
         0.15739E-05
         0.20865E-05
         0.16819E-05
         0.14768E-05
         0.96727E-06
         0.16541E-05
         0.22488E-05
         0.23640E-05
         0.19096E-05
         0.11715E-05
         0.20293E-05
         0.74225E-06
         0.94859E-06
         0.88023E-06
         0.10474E-05
         0.10253E-05
         0.99535E-06
         0.10653E-05
         0.11303E-05
         0.10621E-05
         0.82456E-06
         0.67057E-06
         0.86441E-06
         0.11535E-05
         0.12694E-05
         0.12160E-05
         0.10942E-05
         0.99304E-06
         0.80633E-06
         0.67773E-06
         0.88671E-06
         0.11748E-05
         0.12140E-05
         0.97840E-06
         0.79415E-06
         0.97780E-06
         0.11542E-05
         0.24637E-05
         0.19466E-05
         0.20982E-05
         0.36315E-05
         0.19380E-05
         0.24786E-05
         0.13671E-05
         0.16407E-05
         0.27475E-05
         0.19849E-05
         0.80110E-06
         0.15336E-05
         0.16905E-05
         0.13457E-05
         0.17455E-05
         0.32669E-05
         0.25598E-05
         0.32567E-05
         0.18994E-05
         0.21729E-05
         0.20464E-05
         0.22703E-05
         0.17390E-05
         0.10799E-05
         0.20412E-05
         0.17073E-05
         0.17416E-05
         0.17985E-05
         0.15770E-05
         0.19277E-05
         0.24604E-05
         0.17317E-05
         0.27714E-05
         0.24248E-05
         0.10819E-05
         0.16638E-05
         0.18903E-05
         0.19996E-05
         0.19343E-05
         0.15196E-05
         0.95451E-06
         0.15737E-05
         0.20864E-05
         0.16816E-05
         0.14765E-05
         0.96700E-06
         0.16539E-05
         0.22488E-05
         0.23644E-05
         0.19100E-05
         0.11715E-05
         0.20303E-05
         0.74200E-06
         0.94855E-06
         0.87978E-06
         0.10474E-05
         0.10255E-05
         0.99555E-06
         0.10657E-05
         0.11311E-05
         0.10627E-05
         0.82472E-06
         0.67061E-06
         0.86442E-06
         0.11536E-05
         0.12697E-05
         0.12161E-05
         0.10941E-05
         0.99295E-06
         0.80625E-06
         0.67761E-06
         0.88662E-06
         0.11748E-05
         0.12140E-05
         0.97818E-06
         0.79396E-06
         0.97790E-06
         0.11542E-05
         0.24639E-05
         0.19463E-05
         0.20984E-05
         0.36333E-05
         0.19383E-05
         0.24794E-05
         0.13664E-05
         0.16398E-05
         0.27485E-05
         0.19836E-05
         0.80034E-06
         0.15334E-05
         0.16904E-05
         0.13439E-05
         0.17452E-05
         0.32679E-05
         0.25610E-05
         0.32583E-05
         0.18995E-05
         0.21732E-05
         0.20463E-05
         0.22704E-05
         0.17388E-05
         0.10798E-05
         0.20404E-05
         0.17072E-05
         0.17389E-05
         0.17967E-05
         0.15763E-05
         0.19272E-05
         0.24607E-05
         0.17315E-05
         0.27729E-05
         0.24270E-05
         0.10819E-05
         0.16635E-05
         0.18901E-05
         0.19995E-05
         0.19345E-05
         0.15197E-05
         0.95453E-06
         0.15735E-05
         0.20863E-05
         0.16814E-05
         0.14761E-05
         0.96677E-06
         0.16538E-05
         0.22488E-05
         0.23647E-05
         0.19104E-05
         0.11716E-05
         0.20313E-05
         0.74179E-06
         0.94855E-06
         0.87936E-06
         0.10475E-05
         0.10257E-05
         0.99577E-06
         0.10662E-05
         0.11319E-05
         0.10633E-05
         0.82492E-06
         0.67068E-06
         0.86446E-06
         0.11538E-05
         0.12700E-05
         0.12163E-05
         0.10941E-05
         0.99291E-06
         0.80620E-06
         0.67752E-06
         0.88657E-06
         0.11748E-05
         0.12140E-05
         0.97800E-06
         0.79380E-06
         0.97803E-06
         0.11542E-05
         0.12320E-05
         0.97306E-06
         0.10493E-05
         0.18171E-05
         0.96926E-06
         0.12399E-05
         0.68306E-06
         0.81967E-06
         0.13745E-05
         0.99152E-06
         0.39999E-06
         0.76665E-06
         0.84519E-06
         0.67148E-06
         0.87252E-06
         0.16343E-05
         0.12808E-05
         0.16296E-05
         0.94981E-06
         0.10867E-05
         0.10232E-05
         0.11353E-05
         0.86940E-06
         0.53990E-06
         0.10200E-05
         0.85360E-06
         0.86884E-06
         0.89793E-06
         0.78802E-06
         0.96354E-06
         0.12305E-05
         0.86572E-06
         0.13869E-05
         0.12141E-05
         0.54095E-06
         0.83170E-06
         0.94503E-06
         0.99975E-06
         0.96729E-06
         0.75992E-06
         0.47728E-06
         0.78670E-06
         0.10432E-05
         0.84065E-06
         0.73800E-06
         0.48334E-06
         0.82688E-06
         0.11245E-05
         0.11825E-05
         0.95534E-06
         0.58581E-06
         0.10159E-05
         0.37085E-06
         0.47429E-06
         0.43959E-06
         0.52375E-06
         0.51294E-06
         0.49796E-06
         0.53322E-06
         0.56619E-06
         0.53185E-06
         0.41252E-06
         0.33536E-06
         0.43225E-06
         0.57696E-06
         0.63509E-06
         0.60820E-06
         0.54708E-06
         0.49646E-06
         0.40310E-06
         0.33875E-06
         0.44329E-06
         0.58740E-06
         0.60700E-06
         0.48897E-06
         0.39687E-06
         0.48906E-06
         0.57710E-06
  
SCALARS                 Poissons_ratio  double 1
LOOKUP_TABLE default
         0.30000E+00
         0.30000E+00
         0.30000E+00
         0.30000E+00
         0.30000E+00
         0.30000E+00
         0.30000E+00
         0.30000E+00
         0.30000E+00
         0.30000E+00
         0.30000E+00
         0.30000E+00
         0.30000E+00
         0.30000E+00
         0.30000E+00
         0.30000E+00
         0.30000E+00
         0.30000E+00
         0.30000E+00
         0.30000E+00
         0.30000E+00
         0.30000E+00
         0.30000E+00
         0.30000E+00
         0.30000E+00
         0.30000E+00
         0.30000E+00
         0.30000E+00
         0.30000E+00
         0.30000E+00
         0.30000E+00
         0.30000E+00
         0.30000E+00
         0.30000E+00
         0.30000E+00
         0.30000E+00
         0.30000E+00
         0.30000E+00
         0.30000E+00
         0.30000E+00
         0.30000E+00
         0.30000E+00
         0.30000E+00
         0.30000E+00
         0.30000E+00
         0.30000E+00
         0.30000E+00
         0.30000E+00
         0.30000E+00
         0.30000E+00
         0.30000E+00
         0.30000E+00
         0.30000E+00
         0.30000E+00
         0.30000E+00
         0.30000E+00
         0.30000E+00
         0.30000E+00
         0.30000E+00
         0.30000E+00
         0.30000E+00
         0.30000E+00
         0.30000E+00
         0.30000E+00
         0.30000E+00
         0.30000E+00
         0.30000E+00
         0.30000E+00
         0.30000E+00
         0.30000E+00
         0.30000E+00
         0.30000E+00
         0.30000E+00
         0.30000E+00
         0.30000E+00
         0.30000E+00
         0.30000E+00
         0.30000E+00
         0.30000E+00
         0.30000E+00
         0.30000E+00
         0.30000E+00
         0.30000E+00
         0.30000E+00
         0.30000E+00
         0.30000E+00
         0.30000E+00
         0.30000E+00
         0.30000E+00
         0.30000E+00
         0.30000E+00
         0.30000E+00
         0.30000E+00
         0.30000E+00
         0.30000E+00
         0.30000E+00
         0.30000E+00
         0.30000E+00
         0.30000E+00
         0.30000E+00
         0.30000E+00
         0.30000E+00
         0.30000E+00
         0.30000E+00
         0.30000E+00
         0.30000E+00
         0.30000E+00
         0.30000E+00
         0.30000E+00
         0.30000E+00
         0.30000E+00
         0.30000E+00
         0.30000E+00
         0.30000E+00
         0.30000E+00
         0.30000E+00
         0.30000E+00
         0.30000E+00
         0.30000E+00
         0.30000E+00
         0.30000E+00
         0.30000E+00
         0.30000E+00
         0.30000E+00
         0.30000E+00
         0.30000E+00
         0.30000E+00
         0.30000E+00
         0.30000E+00
         0.30000E+00
         0.30000E+00
         0.30000E+00
         0.30000E+00
         0.30000E+00
         0.30000E+00
         0.30000E+00
         0.30000E+00
         0.30000E+00
         0.30000E+00
         0.30000E+00
         0.30000E+00
         0.30000E+00
         0.30000E+00
         0.30000E+00
         0.30000E+00
         0.30000E+00
         0.30000E+00
         0.30000E+00
         0.30000E+00
         0.30000E+00
         0.30000E+00
         0.30000E+00
         0.30000E+00
         0.30000E+00
         0.30000E+00
         0.30000E+00
         0.30000E+00
         0.30000E+00
         0.30000E+00
         0.30000E+00
         0.30000E+00
         0.30000E+00
         0.30000E+00
         0.30000E+00
         0.30000E+00
         0.30000E+00
         0.30000E+00
         0.30000E+00
         0.30000E+00
         0.30000E+00
         0.30000E+00
         0.30000E+00
         0.30000E+00
         0.30000E+00
         0.30000E+00
         0.30000E+00
         0.30000E+00
         0.30000E+00
         0.30000E+00
         0.30000E+00
         0.30000E+00
         0.30000E+00
         0.30000E+00
         0.30000E+00
         0.30000E+00
         0.30000E+00
         0.30000E+00
         0.30000E+00
         0.30000E+00
         0.30000E+00
         0.30000E+00
         0.30000E+00
         0.30000E+00
         0.30000E+00
         0.30000E+00
         0.30000E+00
         0.30000E+00
         0.30000E+00
         0.30000E+00
         0.30000E+00
         0.30000E+00
         0.30000E+00
         0.30000E+00
         0.30000E+00
         0.30000E+00
         0.30000E+00
         0.30000E+00
         0.30000E+00
         0.30000E+00
         0.30000E+00
         0.30000E+00
         0.30000E+00
         0.30000E+00
         0.30000E+00
         0.30000E+00
         0.30000E+00
         0.30000E+00
         0.30000E+00
         0.30000E+00
         0.30000E+00
         0.30000E+00
         0.30000E+00
         0.30000E+00
         0.30000E+00
         0.30000E+00
         0.30000E+00
         0.30000E+00
         0.30000E+00
         0.30000E+00
         0.30000E+00
         0.30000E+00
         0.30000E+00
         0.30000E+00
         0.30000E+00
         0.30000E+00
         0.30000E+00
         0.30000E+00
         0.30000E+00
         0.30000E+00
         0.30000E+00
         0.30000E+00
         0.30000E+00
         0.30000E+00
         0.30000E+00
         0.30000E+00
         0.30000E+00
         0.30000E+00
         0.30000E+00
         0.30000E+00
         0.30000E+00
         0.30000E+00
         0.30000E+00
         0.30000E+00
         0.30000E+00
         0.30000E+00
         0.30000E+00
         0.30000E+00
         0.30000E+00
         0.30000E+00
         0.30000E+00
         0.30000E+00
         0.30000E+00
         0.30000E+00
         0.30000E+00
         0.30000E+00
         0.30000E+00
         0.30000E+00
         0.30000E+00
         0.30000E+00
         0.30000E+00
         0.30000E+00
         0.30000E+00
         0.30000E+00
         0.30000E+00
         0.30000E+00
         0.30000E+00
         0.30000E+00
         0.30000E+00
         0.30000E+00
         0.30000E+00
         0.30000E+00
         0.30000E+00
         0.30000E+00
         0.30000E+00
         0.30000E+00
         0.30000E+00
         0.30000E+00
         0.30000E+00
         0.30000E+00
         0.30000E+00
         0.30000E+00
         0.30000E+00
         0.30000E+00
         0.30000E+00
         0.30000E+00
         0.30000E+00
         0.30000E+00
         0.30000E+00
         0.30000E+00
         0.30000E+00
         0.30000E+00
         0.30000E+00
         0.30000E+00
         0.30000E+00
         0.30000E+00
         0.30000E+00
         0.30000E+00
         0.30000E+00
         0.30000E+00
         0.30000E+00
         0.30000E+00
         0.30000E+00
         0.30000E+00
         0.30000E+00
         0.30000E+00
         0.30000E+00
         0.30000E+00
         0.30000E+00
         0.30000E+00
         0.30000E+00
         0.30000E+00
         0.30000E+00
         0.30000E+00
         0.30000E+00
         0.30000E+00
         0.30000E+00
         0.30000E+00
         0.30000E+00
         0.30000E+00
         0.30000E+00
         0.30000E+00
         0.30000E+00
         0.30000E+00
         0.30000E+00
         0.30000E+00
         0.30000E+00
         0.30000E+00
         0.30000E+00
         0.30000E+00
         0.30000E+00
         0.30000E+00
         0.30000E+00
         0.30000E+00
         0.30000E+00
         0.30000E+00
         0.30000E+00
         0.30000E+00
         0.30000E+00
         0.30000E+00
         0.30000E+00
         0.30000E+00
         0.30000E+00
         0.30000E+00
         0.30000E+00
         0.30000E+00
         0.30000E+00
         0.30000E+00
         0.30000E+00
         0.30000E+00
         0.30000E+00
         0.30000E+00
         0.30000E+00
         0.30000E+00
         0.30000E+00
         0.30000E+00
         0.30000E+00
         0.30000E+00
         0.30000E+00
         0.30000E+00
         0.30000E+00
         0.30000E+00
         0.30000E+00
         0.30000E+00
         0.30000E+00
         0.30000E+00
         0.30000E+00
         0.30000E+00
         0.30000E+00
         0.30000E+00
         0.30000E+00
         0.30000E+00
         0.30000E+00
         0.30000E+00
         0.30000E+00
         0.30000E+00
         0.30000E+00
         0.30000E+00
         0.30000E+00
         0.30000E+00
         0.30000E+00
         0.30000E+00
         0.30000E+00
         0.30000E+00
         0.30000E+00
         0.30000E+00
         0.30000E+00
         0.30000E+00
         0.30000E+00
         0.30000E+00
         0.30000E+00
         0.30000E+00
         0.30000E+00
         0.30000E+00
         0.30000E+00
         0.30000E+00
         0.30000E+00
         0.30000E+00
         0.30000E+00
         0.30000E+00
         0.30000E+00
         0.30000E+00
         0.30000E+00
         0.30000E+00
         0.30000E+00
         0.30000E+00
         0.30000E+00
         0.30000E+00
         0.30000E+00
         0.30000E+00
         0.30000E+00
         0.30000E+00
         0.30000E+00
         0.30000E+00
         0.30000E+00
         0.30000E+00
         0.30000E+00
         0.30000E+00
         0.30000E+00
         0.30000E+00
         0.30000E+00
         0.30000E+00
         0.30000E+00
         0.30000E+00
         0.30000E+00
         0.30000E+00
         0.30000E+00
         0.30000E+00
         0.30000E+00
         0.30000E+00
         0.30000E+00
         0.30000E+00
         0.30000E+00
         0.30000E+00
         0.30000E+00
         0.30000E+00
         0.30000E+00
         0.30000E+00
         0.30000E+00
         0.30000E+00
         0.30000E+00
         0.30000E+00
         0.30000E+00
         0.30000E+00
         0.30000E+00
         0.30000E+00
         0.30000E+00
         0.30000E+00
         0.30000E+00
         0.30000E+00
         0.30000E+00
         0.30000E+00
         0.30000E+00
         0.30000E+00
         0.30000E+00
         0.30000E+00
         0.30000E+00
         0.30000E+00
         0.30000E+00
         0.30000E+00
         0.30000E+00
         0.30000E+00
         0.30000E+00
         0.30000E+00
         0.30000E+00
         0.30000E+00
         0.30000E+00
         0.30000E+00
         0.30000E+00
         0.30000E+00
         0.30000E+00
         0.30000E+00
         0.30000E+00
         0.30000E+00
         0.30000E+00
         0.30000E+00
         0.30000E+00
         0.30000E+00
         0.30000E+00
         0.30000E+00
         0.30000E+00
         0.30000E+00
         0.30000E+00
         0.30000E+00
         0.30000E+00
         0.30000E+00
         0.30000E+00
         0.30000E+00
         0.30000E+00
         0.30000E+00
         0.30000E+00
         0.30000E+00
         0.30000E+00
         0.30000E+00
         0.30000E+00
         0.30000E+00
         0.30000E+00
         0.30000E+00
         0.30000E+00
         0.30000E+00
         0.30000E+00
         0.30000E+00
         0.30000E+00
         0.30000E+00
         0.30000E+00
         0.30000E+00
         0.30000E+00
         0.30000E+00
         0.30000E+00
         0.30000E+00
         0.30000E+00
         0.30000E+00
         0.30000E+00
         0.30000E+00
         0.30000E+00
         0.30000E+00
         0.30000E+00
         0.30000E+00
         0.30000E+00
         0.30000E+00
         0.30000E+00
         0.30000E+00
         0.30000E+00
         0.30000E+00
         0.30000E+00
         0.30000E+00
         0.30000E+00
         0.30000E+00
         0.30000E+00
         0.30000E+00
         0.30000E+00
         0.30000E+00
         0.30000E+00
         0.30000E+00
         0.30000E+00
         0.30000E+00
         0.30000E+00
         0.30000E+00
         0.30000E+00
         0.30000E+00
         0.30000E+00
         0.30000E+00
         0.30000E+00
         0.30000E+00
         0.30000E+00
         0.30000E+00
         0.30000E+00
         0.30000E+00
         0.30000E+00
         0.30000E+00
         0.30000E+00
         0.30000E+00
         0.30000E+00
         0.30000E+00
         0.30000E+00
         0.30000E+00
         0.30000E+00
         0.30000E+00
         0.30000E+00
         0.30000E+00
         0.30000E+00
         0.30000E+00
         0.30000E+00
         0.30000E+00
         0.30000E+00
         0.30000E+00
         0.30000E+00
         0.30000E+00
         0.30000E+00
         0.30000E+00
         0.30000E+00
         0.30000E+00
         0.30000E+00
         0.30000E+00
         0.30000E+00
         0.30000E+00
         0.30000E+00
         0.30000E+00
         0.30000E+00
         0.30000E+00
         0.30000E+00
         0.30000E+00
         0.30000E+00
         0.30000E+00
         0.30000E+00
         0.30000E+00
         0.30000E+00
         0.30000E+00
         0.30000E+00
         0.30000E+00
         0.30000E+00
         0.30000E+00
         0.30000E+00
         0.30000E+00
         0.30000E+00
         0.30000E+00
         0.30000E+00
         0.30000E+00
         0.30000E+00
         0.30000E+00
         0.30000E+00
         0.30000E+00
         0.30000E+00
         0.30000E+00
         0.30000E+00
         0.30000E+00
         0.30000E+00
         0.30000E+00
         0.30000E+00
         0.30000E+00
         0.30000E+00
         0.30000E+00
         0.30000E+00
         0.30000E+00
         0.30000E+00
         0.30000E+00
         0.30000E+00
         0.30000E+00
         0.30000E+00
         0.30000E+00
         0.30000E+00
         0.30000E+00
         0.30000E+00
         0.30000E+00
         0.30000E+00
         0.30000E+00
         0.30000E+00
         0.30000E+00
         0.30000E+00
         0.30000E+00
         0.30000E+00
         0.30000E+00
         0.30000E+00
         0.30000E+00
         0.30000E+00
         0.30000E+00
         0.30000E+00
         0.30000E+00
         0.30000E+00
         0.30000E+00
         0.30000E+00
         0.30000E+00
         0.30000E+00
         0.30000E+00
         0.30000E+00
         0.30000E+00
         0.30000E+00
         0.30000E+00
         0.30000E+00
         0.30000E+00
         0.30000E+00
         0.30000E+00
         0.30000E+00
         0.30000E+00
         0.30000E+00
         0.30000E+00
         0.30000E+00
         0.30000E+00
         0.30000E+00
         0.30000E+00
         0.30000E+00
         0.30000E+00
         0.30000E+00
         0.30000E+00
         0.30000E+00
         0.30000E+00
         0.30000E+00
         0.30000E+00
         0.30000E+00
         0.30000E+00
         0.30000E+00
         0.30000E+00
         0.30000E+00
         0.30000E+00
         0.30000E+00
         0.30000E+00
         0.30000E+00
         0.30000E+00
         0.30000E+00
         0.30000E+00
         0.30000E+00
         0.30000E+00
         0.30000E+00
         0.30000E+00
         0.30000E+00
         0.30000E+00
         0.30000E+00
         0.30000E+00
         0.30000E+00
         0.30000E+00
         0.30000E+00
         0.30000E+00
         0.30000E+00
         0.30000E+00
         0.30000E+00
         0.30000E+00
         0.30000E+00
         0.30000E+00
         0.30000E+00
         0.30000E+00
         0.30000E+00
         0.30000E+00
         0.30000E+00
         0.30000E+00
         0.30000E+00
         0.30000E+00
         0.30000E+00
         0.30000E+00
         0.30000E+00
         0.30000E+00
         0.30000E+00
         0.30000E+00
         0.30000E+00
         0.30000E+00
         0.30000E+00
         0.30000E+00
         0.30000E+00
         0.30000E+00
         0.30000E+00
         0.30000E+00
         0.30000E+00
         0.30000E+00
         0.30000E+00
         0.30000E+00
         0.30000E+00
         0.30000E+00
         0.30000E+00
         0.30000E+00
         0.30000E+00
         0.30000E+00
         0.30000E+00
         0.30000E+00
         0.30000E+00
         0.30000E+00
         0.30000E+00
         0.30000E+00
         0.30000E+00
         0.30000E+00
         0.30000E+00
         0.30000E+00
         0.30000E+00
         0.30000E+00
         0.30000E+00
         0.30000E+00
         0.30000E+00
         0.30000E+00
         0.30000E+00
         0.30000E+00
         0.30000E+00
         0.30000E+00
         0.30000E+00
         0.30000E+00
         0.30000E+00
         0.30000E+00
         0.30000E+00
         0.30000E+00
         0.30000E+00
         0.30000E+00
         0.30000E+00
         0.30000E+00
         0.30000E+00
         0.30000E+00
         0.30000E+00
         0.30000E+00
         0.30000E+00
         0.30000E+00
         0.30000E+00
         0.30000E+00
         0.30000E+00
         0.30000E+00
         0.30000E+00
         0.30000E+00
         0.30000E+00
         0.30000E+00
         0.30000E+00
         0.30000E+00
         0.30000E+00
         0.30000E+00
         0.30000E+00
         0.30000E+00
         0.30000E+00
         0.30000E+00
         0.30000E+00
         0.30000E+00
         0.30000E+00
         0.30000E+00
         0.30000E+00
         0.30000E+00
         0.30000E+00
         0.30000E+00
         0.30000E+00
         0.30000E+00
         0.30000E+00
         0.30000E+00
         0.30000E+00
         0.30000E+00
         0.30000E+00
         0.30000E+00
         0.30000E+00
         0.30000E+00
         0.30000E+00
         0.30000E+00
         0.30000E+00
         0.30000E+00
         0.30000E+00
         0.30000E+00
         0.30000E+00
         0.30000E+00
         0.30000E+00
         0.30000E+00
         0.30000E+00
         0.30000E+00
         0.30000E+00
         0.30000E+00
         0.30000E+00
         0.30000E+00
         0.30000E+00
         0.30000E+00
         0.30000E+00
         0.30000E+00
         0.30000E+00
         0.30000E+00
         0.30000E+00
         0.30000E+00
         0.30000E+00
         0.30000E+00
         0.30000E+00
         0.30000E+00
         0.30000E+00
         0.30000E+00
         0.30000E+00
         0.30000E+00
         0.30000E+00
         0.30000E+00
         0.30000E+00
         0.30000E+00
         0.30000E+00
         0.30000E+00
         0.30000E+00
         0.30000E+00
         0.30000E+00
         0.30000E+00
         0.30000E+00
         0.30000E+00
         0.30000E+00
         0.30000E+00
         0.30000E+00
         0.30000E+00
         0.30000E+00
         0.30000E+00
         0.30000E+00
         0.30000E+00
         0.30000E+00
         0.30000E+00
         0.30000E+00
         0.30000E+00
         0.30000E+00
         0.30000E+00
         0.30000E+00
         0.30000E+00
         0.30000E+00
         0.30000E+00
         0.30000E+00
         0.30000E+00
         0.30000E+00
         0.30000E+00
         0.30000E+00
         0.30000E+00
         0.30000E+00
         0.30000E+00
         0.30000E+00
         0.30000E+00
         0.30000E+00
         0.30000E+00
         0.30000E+00
         0.30000E+00
         0.30000E+00
         0.30000E+00
         0.30000E+00
         0.30000E+00
         0.30000E+00
         0.30000E+00
         0.30000E+00
         0.30000E+00
         0.30000E+00
         0.30000E+00
         0.30000E+00
         0.30000E+00
         0.30000E+00
         0.30000E+00
         0.30000E+00
         0.30000E+00
         0.30000E+00
         0.30000E+00
         0.30000E+00
         0.30000E+00
         0.30000E+00
         0.30000E+00
         0.30000E+00
         0.30000E+00
         0.30000E+00
         0.30000E+00
         0.30000E+00
         0.30000E+00
         0.30000E+00
         0.30000E+00
         0.30000E+00
         0.30000E+00
         0.30000E+00
         0.30000E+00
         0.30000E+00
         0.30000E+00
         0.30000E+00
         0.30000E+00
         0.30000E+00
         0.30000E+00
         0.30000E+00
         0.30000E+00
         0.30000E+00
         0.30000E+00
         0.30000E+00
         0.30000E+00
         0.30000E+00
         0.30000E+00
         0.30000E+00
         0.30000E+00
         0.30000E+00
         0.30000E+00
         0.30000E+00
         0.30000E+00
         0.30000E+00
         0.30000E+00
         0.30000E+00
         0.30000E+00
         0.30000E+00
         0.30000E+00
         0.30000E+00
         0.30000E+00
         0.30000E+00
         0.30000E+00
         0.30000E+00
         0.30000E+00
         0.30000E+00
         0.30000E+00
         0.30000E+00
         0.30000E+00
         0.30000E+00
         0.30000E+00
         0.30000E+00
         0.30000E+00
         0.30000E+00
         0.30000E+00
         0.30000E+00
         0.30000E+00
         0.30000E+00
         0.30000E+00
         0.30000E+00
         0.30000E+00
         0.30000E+00
         0.30000E+00
         0.30000E+00
         0.30000E+00
         0.30000E+00
         0.30000E+00
         0.30000E+00
         0.30000E+00
         0.30000E+00
         0.30000E+00
         0.30000E+00
         0.30000E+00
         0.30000E+00
         0.30000E+00
         0.30000E+00
         0.30000E+00
         0.30000E+00
         0.30000E+00
         0.30000E+00
         0.30000E+00
         0.30000E+00
         0.30000E+00
         0.30000E+00
         0.30000E+00
         0.30000E+00
         0.30000E+00
         0.30000E+00
         0.30000E+00
         0.30000E+00
         0.30000E+00
         0.30000E+00
         0.30000E+00
         0.30000E+00
         0.30000E+00
         0.30000E+00
         0.30000E+00
         0.30000E+00
         0.30000E+00
         0.30000E+00
         0.30000E+00
         0.30000E+00
         0.30000E+00
         0.30000E+00
         0.30000E+00
         0.30000E+00
         0.30000E+00
         0.30000E+00
         0.30000E+00
         0.30000E+00
         0.30000E+00
         0.30000E+00
         0.30000E+00
         0.30000E+00
         0.30000E+00
         0.30000E+00
         0.30000E+00
         0.30000E+00
         0.30000E+00
         0.30000E+00
         0.30000E+00
         0.30000E+00
         0.30000E+00
         0.30000E+00
         0.30000E+00
         0.30000E+00
         0.30000E+00
         0.30000E+00
         0.30000E+00
         0.30000E+00
         0.30000E+00
         0.30000E+00
         0.30000E+00
         0.30000E+00
         0.30000E+00
         0.30000E+00
         0.30000E+00
         0.30000E+00
         0.30000E+00
         0.30000E+00
         0.30000E+00
         0.30000E+00
         0.30000E+00
         0.30000E+00
         0.30000E+00
         0.30000E+00
         0.30000E+00
         0.30000E+00
         0.30000E+00
         0.30000E+00
         0.30000E+00
         0.30000E+00
         0.30000E+00
         0.30000E+00
         0.30000E+00
         0.30000E+00
         0.30000E+00
         0.30000E+00
         0.30000E+00
         0.30000E+00
         0.30000E+00
         0.30000E+00
         0.30000E+00
         0.30000E+00
         0.30000E+00
         0.30000E+00
         0.30000E+00
         0.30000E+00
         0.30000E+00
         0.30000E+00
         0.30000E+00
         0.30000E+00
         0.30000E+00
         0.30000E+00
         0.30000E+00
         0.30000E+00
         0.30000E+00
         0.30000E+00
         0.30000E+00
         0.30000E+00
         0.30000E+00
         0.30000E+00
         0.30000E+00
         0.30000E+00
         0.30000E+00
         0.30000E+00
         0.30000E+00
         0.30000E+00
         0.30000E+00
         0.30000E+00
         0.30000E+00
         0.30000E+00
         0.30000E+00
         0.30000E+00
         0.30000E+00
         0.30000E+00
         0.30000E+00
         0.30000E+00
         0.30000E+00
         0.30000E+00
         0.30000E+00
         0.30000E+00
         0.30000E+00
         0.30000E+00
         0.30000E+00
         0.30000E+00
         0.30000E+00
         0.30000E+00
         0.30000E+00
         0.30000E+00
         0.30000E+00
         0.30000E+00
         0.30000E+00
         0.30000E+00
         0.30000E+00
         0.30000E+00
         0.30000E+00
         0.30000E+00
         0.30000E+00
         0.30000E+00
         0.30000E+00
         0.30000E+00
         0.30000E+00
         0.30000E+00
         0.30000E+00
         0.30000E+00
         0.30000E+00
         0.30000E+00
         0.30000E+00
         0.30000E+00
         0.30000E+00
         0.30000E+00
         0.30000E+00
         0.30000E+00
         0.30000E+00
         0.30000E+00
         0.30000E+00
         0.30000E+00
         0.30000E+00
         0.30000E+00
         0.30000E+00
         0.30000E+00
         0.30000E+00
         0.30000E+00
         0.30000E+00
         0.30000E+00
         0.30000E+00
         0.30000E+00
         0.30000E+00
         0.30000E+00
         0.30000E+00
         0.30000E+00
         0.30000E+00
         0.30000E+00
         0.30000E+00
         0.30000E+00
         0.30000E+00
         0.30000E+00
         0.30000E+00
         0.30000E+00
         0.30000E+00
         0.30000E+00
         0.30000E+00
         0.30000E+00
         0.30000E+00
         0.30000E+00
         0.30000E+00
         0.30000E+00
         0.30000E+00
         0.30000E+00
         0.30000E+00
         0.30000E+00
         0.30000E+00
         0.30000E+00
         0.30000E+00
         0.30000E+00
         0.30000E+00
         0.30000E+00
         0.30000E+00
         0.30000E+00
         0.30000E+00
         0.30000E+00
         0.30000E+00
         0.30000E+00
         0.30000E+00
         0.30000E+00
         0.30000E+00
         0.30000E+00
         0.30000E+00
         0.30000E+00
         0.30000E+00
         0.30000E+00
         0.30000E+00
         0.30000E+00
         0.30000E+00
         0.30000E+00
         0.30000E+00
         0.30000E+00
         0.30000E+00
         0.30000E+00
         0.30000E+00
         0.30000E+00
         0.30000E+00
         0.30000E+00
         0.30000E+00
         0.30000E+00
         0.30000E+00
         0.30000E+00
         0.30000E+00
         0.30000E+00
         0.30000E+00
         0.30000E+00
         0.30000E+00
         0.30000E+00
         0.30000E+00
         0.30000E+00
         0.30000E+00
         0.30000E+00
         0.30000E+00
         0.30000E+00
         0.30000E+00
         0.30000E+00
         0.30000E+00
         0.30000E+00
         0.30000E+00
         0.30000E+00
         0.30000E+00
         0.30000E+00
         0.30000E+00
         0.30000E+00
         0.30000E+00
         0.30000E+00
         0.30000E+00
         0.30000E+00
         0.30000E+00
         0.30000E+00
         0.30000E+00
         0.30000E+00
         0.30000E+00
         0.30000E+00
         0.30000E+00
         0.30000E+00
         0.30000E+00
         0.30000E+00
         0.30000E+00
         0.30000E+00
         0.30000E+00
         0.30000E+00
         0.30000E+00
         0.30000E+00
         0.30000E+00
         0.30000E+00
         0.30000E+00
         0.30000E+00
         0.30000E+00
         0.30000E+00
         0.30000E+00
         0.30000E+00
         0.30000E+00
         0.30000E+00
         0.30000E+00
         0.30000E+00
         0.30000E+00
         0.30000E+00
         0.30000E+00
         0.30000E+00
         0.30000E+00
         0.30000E+00
         0.30000E+00
         0.30000E+00
         0.30000E+00
         0.30000E+00
         0.30000E+00
         0.30000E+00
         0.30000E+00
         0.30000E+00
         0.30000E+00
         0.30000E+00
         0.30000E+00
         0.30000E+00
         0.30000E+00
         0.30000E+00
         0.30000E+00
         0.30000E+00
         0.30000E+00
         0.30000E+00
         0.30000E+00
         0.30000E+00
         0.30000E+00
         0.30000E+00
         0.30000E+00
         0.30000E+00
         0.30000E+00
         0.30000E+00
         0.30000E+00
         0.30000E+00
         0.30000E+00
         0.30000E+00
         0.30000E+00
         0.30000E+00
         0.30000E+00
         0.30000E+00
         0.30000E+00
         0.30000E+00
         0.30000E+00
         0.30000E+00
         0.30000E+00
         0.30000E+00
         0.30000E+00
         0.30000E+00
         0.30000E+00
         0.30000E+00
         0.30000E+00
         0.30000E+00
         0.30000E+00
         0.30000E+00
         0.30000E+00
         0.30000E+00
         0.30000E+00
         0.30000E+00
         0.30000E+00
         0.30000E+00
         0.30000E+00
         0.30000E+00
         0.30000E+00
         0.30000E+00
         0.30000E+00
         0.30000E+00
         0.30000E+00
         0.30000E+00
         0.30000E+00
         0.30000E+00
         0.30000E+00
         0.30000E+00
         0.30000E+00
         0.30000E+00
         0.30000E+00
         0.30000E+00
         0.30000E+00
         0.30000E+00
         0.30000E+00
         0.30000E+00
         0.30000E+00
         0.30000E+00
         0.30000E+00
         0.30000E+00
         0.30000E+00
         0.30000E+00
         0.30000E+00
         0.30000E+00
         0.30000E+00
         0.30000E+00
         0.30000E+00
         0.30000E+00
         0.30000E+00
         0.30000E+00
         0.30000E+00
         0.30000E+00
         0.30000E+00
         0.30000E+00
         0.30000E+00
         0.30000E+00
         0.30000E+00
         0.30000E+00
         0.30000E+00
         0.30000E+00
         0.30000E+00
         0.30000E+00
         0.30000E+00
         0.30000E+00
         0.30000E+00
         0.30000E+00
         0.30000E+00
         0.30000E+00
         0.30000E+00
         0.30000E+00
         0.30000E+00
         0.30000E+00
         0.30000E+00
         0.30000E+00
         0.30000E+00
         0.30000E+00
         0.30000E+00
         0.30000E+00
         0.30000E+00
         0.30000E+00
         0.30000E+00
         0.30000E+00
         0.30000E+00
         0.30000E+00
         0.30000E+00
         0.30000E+00
         0.30000E+00
         0.30000E+00
         0.30000E+00
         0.30000E+00
         0.30000E+00
         0.30000E+00
         0.30000E+00
         0.30000E+00
         0.30000E+00
         0.30000E+00
         0.30000E+00
         0.30000E+00
         0.30000E+00
         0.30000E+00
         0.30000E+00
         0.30000E+00
         0.30000E+00
         0.30000E+00
         0.30000E+00
         0.30000E+00
         0.30000E+00
         0.30000E+00
         0.30000E+00
         0.30000E+00
         0.30000E+00
         0.30000E+00
         0.30000E+00
         0.30000E+00
         0.30000E+00
         0.30000E+00
         0.30000E+00
         0.30000E+00
         0.30000E+00
         0.30000E+00
         0.30000E+00
         0.30000E+00
         0.30000E+00
         0.30000E+00
         0.30000E+00
         0.30000E+00
         0.30000E+00
         0.30000E+00
         0.30000E+00
         0.30000E+00
         0.30000E+00
         0.30000E+00
         0.30000E+00
         0.30000E+00
         0.30000E+00
         0.30000E+00
         0.30000E+00
         0.30000E+00
         0.30000E+00
         0.30000E+00
         0.30000E+00
         0.30000E+00
         0.30000E+00
         0.30000E+00
         0.30000E+00
         0.30000E+00
         0.30000E+00
         0.30000E+00
         0.30000E+00
         0.30000E+00
         0.30000E+00
         0.30000E+00
         0.30000E+00
         0.30000E+00
         0.30000E+00
         0.30000E+00
         0.30000E+00
         0.30000E+00
         0.30000E+00
         0.30000E+00
         0.30000E+00
         0.30000E+00
         0.30000E+00
         0.30000E+00
         0.30000E+00
         0.30000E+00
         0.30000E+00
         0.30000E+00
         0.30000E+00
         0.30000E+00
         0.30000E+00
         0.30000E+00
         0.30000E+00
         0.30000E+00
         0.30000E+00
         0.30000E+00
         0.30000E+00
         0.30000E+00
         0.30000E+00
         0.30000E+00
         0.30000E+00
         0.30000E+00
         0.30000E+00
         0.30000E+00
         0.30000E+00
         0.30000E+00
         0.30000E+00
         0.30000E+00
         0.30000E+00
         0.30000E+00
         0.30000E+00
         0.30000E+00
         0.30000E+00
         0.30000E+00
         0.30000E+00
         0.30000E+00
         0.30000E+00
         0.30000E+00
         0.30000E+00
         0.30000E+00
         0.30000E+00
         0.30000E+00
         0.30000E+00
         0.30000E+00
         0.30000E+00
         0.30000E+00
         0.30000E+00
         0.30000E+00
         0.30000E+00
         0.30000E+00
         0.30000E+00
         0.30000E+00
         0.30000E+00
         0.30000E+00
         0.30000E+00
         0.30000E+00
         0.30000E+00
         0.30000E+00
         0.30000E+00
         0.30000E+00
         0.30000E+00
         0.30000E+00
         0.30000E+00
         0.30000E+00
         0.30000E+00
         0.30000E+00
         0.30000E+00
         0.30000E+00
         0.30000E+00
         0.30000E+00
         0.30000E+00
         0.30000E+00
         0.30000E+00
         0.30000E+00
         0.30000E+00
         0.30000E+00
         0.30000E+00
         0.30000E+00
         0.30000E+00
         0.30000E+00
         0.30000E+00
         0.30000E+00
         0.30000E+00
         0.30000E+00
         0.30000E+00
         0.30000E+00
         0.30000E+00
         0.30000E+00
         0.30000E+00
         0.30000E+00
         0.30000E+00
         0.30000E+00
         0.30000E+00
         0.30000E+00
         0.30000E+00
         0.30000E+00
         0.30000E+00
         0.30000E+00
         0.30000E+00
         0.30000E+00
         0.30000E+00
         0.30000E+00
         0.30000E+00
         0.30000E+00
         0.30000E+00
         0.30000E+00
         0.30000E+00
         0.30000E+00
         0.30000E+00
         0.30000E+00
         0.30000E+00
         0.30000E+00
         0.30000E+00
         0.30000E+00
         0.30000E+00
         0.30000E+00
         0.30000E+00
         0.30000E+00
         0.30000E+00
         0.30000E+00
         0.30000E+00
         0.30000E+00
         0.30000E+00
         0.30000E+00
         0.30000E+00
         0.30000E+00
         0.30000E+00
         0.30000E+00
         0.30000E+00
         0.30000E+00
         0.30000E+00
         0.30000E+00
         0.30000E+00
         0.30000E+00
         0.30000E+00
         0.30000E+00
         0.30000E+00
         0.30000E+00
         0.30000E+00
         0.30000E+00
         0.30000E+00
         0.30000E+00
         0.30000E+00
         0.30000E+00
         0.30000E+00
         0.30000E+00
         0.30000E+00
         0.30000E+00
         0.30000E+00
         0.30000E+00
         0.30000E+00
         0.30000E+00
         0.30000E+00
         0.30000E+00
         0.30000E+00
         0.30000E+00
         0.30000E+00
         0.30000E+00
         0.30000E+00
         0.30000E+00
         0.30000E+00
         0.30000E+00
         0.30000E+00
         0.30000E+00
         0.30000E+00
         0.30000E+00
         0.30000E+00
         0.30000E+00
         0.30000E+00
         0.30000E+00
         0.30000E+00
         0.30000E+00
         0.30000E+00
         0.30000E+00
         0.30000E+00
         0.30000E+00
         0.30000E+00
         0.30000E+00
         0.30000E+00
         0.30000E+00
         0.30000E+00
         0.30000E+00
         0.30000E+00
         0.30000E+00
         0.30000E+00
         0.30000E+00
         0.30000E+00
         0.30000E+00
         0.30000E+00
         0.30000E+00
         0.30000E+00
         0.30000E+00
         0.30000E+00
         0.30000E+00
         0.30000E+00
         0.30000E+00
         0.30000E+00
         0.30000E+00
         0.30000E+00
         0.30000E+00
         0.30000E+00
         0.30000E+00
         0.30000E+00
         0.30000E+00
         0.30000E+00
         0.30000E+00
         0.30000E+00
         0.30000E+00
         0.30000E+00
         0.30000E+00
         0.30000E+00
         0.30000E+00
         0.30000E+00
         0.30000E+00
         0.30000E+00
         0.30000E+00
         0.30000E+00
         0.30000E+00
         0.30000E+00
         0.30000E+00
         0.30000E+00
         0.30000E+00
         0.30000E+00
         0.30000E+00
         0.30000E+00
         0.30000E+00
         0.30000E+00
         0.30000E+00
         0.30000E+00
         0.30000E+00
         0.30000E+00
         0.30000E+00
         0.30000E+00
         0.30000E+00
         0.30000E+00
         0.30000E+00
         0.30000E+00
         0.30000E+00
         0.30000E+00
         0.30000E+00
         0.30000E+00
         0.30000E+00
         0.30000E+00
         0.30000E+00
         0.30000E+00
         0.30000E+00
         0.30000E+00
         0.30000E+00
         0.30000E+00
         0.30000E+00
         0.30000E+00
         0.30000E+00
         0.30000E+00
         0.30000E+00
         0.30000E+00
         0.30000E+00
         0.30000E+00
         0.30000E+00
         0.30000E+00
         0.30000E+00
         0.30000E+00
         0.30000E+00
         0.30000E+00
         0.30000E+00
         0.30000E+00
         0.30000E+00
         0.30000E+00
         0.30000E+00
         0.30000E+00
         0.30000E+00
         0.30000E+00
         0.30000E+00
         0.30000E+00
         0.30000E+00
         0.30000E+00
         0.30000E+00
         0.30000E+00
         0.30000E+00
         0.30000E+00
         0.30000E+00
         0.30000E+00
         0.30000E+00
         0.30000E+00
         0.30000E+00
         0.30000E+00
         0.30000E+00
         0.30000E+00
         0.30000E+00
         0.30000E+00
         0.30000E+00
         0.30000E+00
         0.30000E+00
         0.30000E+00
         0.30000E+00
         0.30000E+00
         0.30000E+00
         0.30000E+00
         0.30000E+00
         0.30000E+00
         0.30000E+00
         0.30000E+00
         0.30000E+00
         0.30000E+00
         0.30000E+00
         0.30000E+00
         0.30000E+00
         0.30000E+00
         0.30000E+00
         0.30000E+00
         0.30000E+00
         0.30000E+00
         0.30000E+00
         0.30000E+00
         0.30000E+00
         0.30000E+00
         0.30000E+00
         0.30000E+00
         0.30000E+00
         0.30000E+00
         0.30000E+00
         0.30000E+00
         0.30000E+00
         0.30000E+00
         0.30000E+00
         0.30000E+00
         0.30000E+00
         0.30000E+00
         0.30000E+00
         0.30000E+00
         0.30000E+00
         0.30000E+00
         0.30000E+00
         0.30000E+00
         0.30000E+00
         0.30000E+00
         0.30000E+00
         0.30000E+00
         0.30000E+00
         0.30000E+00
         0.30000E+00
         0.30000E+00
         0.30000E+00
         0.30000E+00
         0.30000E+00
         0.30000E+00
         0.30000E+00
         0.30000E+00
         0.30000E+00
         0.30000E+00
         0.30000E+00
         0.30000E+00
         0.30000E+00
         0.30000E+00
         0.30000E+00
         0.30000E+00
         0.30000E+00
         0.30000E+00
         0.30000E+00
         0.30000E+00
         0.30000E+00
         0.30000E+00
         0.30000E+00
         0.30000E+00
         0.30000E+00
         0.30000E+00
         0.30000E+00
         0.30000E+00
         0.30000E+00
         0.30000E+00
         0.30000E+00
         0.30000E+00
         0.30000E+00
         0.30000E+00
         0.30000E+00
         0.30000E+00
         0.30000E+00
         0.30000E+00
         0.30000E+00
         0.30000E+00
         0.30000E+00
         0.30000E+00
         0.30000E+00
         0.30000E+00
         0.30000E+00
         0.30000E+00
         0.30000E+00
         0.30000E+00
         0.30000E+00
         0.30000E+00
         0.30000E+00
         0.30000E+00
         0.30000E+00
         0.30000E+00
         0.30000E+00
         0.30000E+00
         0.30000E+00
         0.30000E+00
         0.30000E+00
         0.30000E+00
         0.30000E+00
         0.30000E+00
         0.30000E+00
         0.30000E+00
         0.30000E+00
         0.30000E+00
         0.30000E+00
         0.30000E+00
         0.30000E+00
         0.30000E+00
         0.30000E+00
         0.30000E+00
         0.30000E+00
         0.30000E+00
         0.30000E+00
         0.30000E+00
         0.30000E+00
         0.30000E+00
         0.30000E+00
         0.30000E+00
         0.30000E+00
         0.30000E+00
         0.30000E+00
         0.30000E+00
         0.30000E+00
         0.30000E+00
         0.30000E+00
         0.30000E+00
         0.30000E+00
         0.30000E+00
         0.30000E+00
         0.30000E+00
         0.30000E+00
         0.30000E+00
         0.30000E+00
         0.30000E+00
         0.30000E+00
         0.30000E+00
         0.30000E+00
         0.30000E+00
         0.30000E+00
         0.30000E+00
         0.30000E+00
         0.30000E+00
         0.30000E+00
         0.30000E+00
         0.30000E+00
         0.30000E+00
         0.30000E+00
         0.30000E+00
         0.30000E+00
         0.30000E+00
         0.30000E+00
         0.30000E+00
         0.30000E+00
         0.30000E+00
         0.30000E+00
         0.30000E+00
         0.30000E+00
         0.30000E+00
         0.30000E+00
         0.30000E+00
         0.30000E+00
         0.30000E+00
         0.30000E+00
         0.30000E+00
         0.30000E+00
         0.30000E+00
         0.30000E+00
         0.30000E+00
         0.30000E+00
         0.30000E+00
         0.30000E+00
         0.30000E+00
         0.30000E+00
         0.30000E+00
         0.30000E+00
         0.30000E+00
         0.30000E+00
  
SCALARS                 Youngs_modulus  double 1
LOOKUP_TABLE default
         0.78200E+11
         0.78200E+11
         0.78200E+11
         0.78200E+11
         0.78200E+11
         0.78200E+11
         0.78200E+11
         0.78200E+11
         0.78200E+11
         0.78200E+11
         0.78200E+11
         0.78200E+11
         0.78200E+11
         0.78200E+11
         0.78200E+11
         0.78200E+11
         0.78200E+11
         0.78200E+11
         0.78200E+11
         0.78200E+11
         0.78200E+11
         0.78200E+11
         0.78200E+11
         0.78200E+11
         0.78200E+11
         0.78200E+11
         0.78200E+11
         0.78200E+11
         0.78200E+11
         0.78200E+11
         0.78200E+11
         0.78200E+11
         0.78200E+11
         0.78200E+11
         0.78200E+11
         0.78200E+11
         0.78200E+11
         0.78200E+11
         0.78200E+11
         0.78200E+11
         0.78200E+11
         0.78200E+11
         0.78200E+11
         0.78200E+11
         0.78200E+11
         0.78200E+11
         0.78200E+11
         0.78200E+11
         0.78200E+11
         0.78200E+11
         0.78200E+11
         0.78200E+11
         0.78200E+11
         0.78200E+11
         0.78200E+11
         0.78200E+11
         0.78200E+11
         0.78200E+11
         0.78200E+11
         0.78200E+11
         0.78200E+11
         0.78200E+11
         0.78200E+11
         0.78200E+11
         0.78200E+11
         0.78200E+11
         0.78200E+11
         0.78200E+11
         0.78200E+11
         0.78200E+11
         0.78200E+11
         0.78200E+11
         0.78200E+11
         0.78200E+11
         0.78200E+11
         0.78200E+11
         0.78200E+11
         0.78200E+11
         0.78200E+11
         0.78200E+11
         0.78200E+11
         0.78200E+11
         0.78200E+11
         0.78200E+11
         0.78200E+11
         0.78200E+11
         0.78200E+11
         0.78200E+11
         0.78200E+11
         0.78200E+11
         0.78200E+11
         0.78200E+11
         0.78200E+11
         0.78200E+11
         0.78200E+11
         0.78200E+11
         0.78200E+11
         0.78200E+11
         0.78200E+11
         0.78200E+11
         0.78200E+11
         0.78200E+11
         0.78200E+11
         0.78200E+11
         0.78200E+11
         0.78200E+11
         0.78200E+11
         0.78200E+11
         0.78200E+11
         0.78200E+11
         0.78200E+11
         0.78200E+11
         0.78200E+11
         0.78200E+11
         0.78200E+11
         0.78200E+11
         0.78200E+11
         0.78200E+11
         0.78200E+11
         0.78200E+11
         0.78200E+11
         0.78200E+11
         0.78200E+11
         0.78200E+11
         0.78200E+11
         0.78200E+11
         0.78200E+11
         0.78200E+11
         0.78200E+11
         0.78200E+11
         0.78200E+11
         0.78200E+11
         0.78200E+11
         0.78200E+11
         0.78200E+11
         0.78200E+11
         0.78200E+11
         0.78200E+11
         0.78200E+11
         0.78200E+11
         0.78200E+11
         0.78200E+11
         0.78200E+11
         0.78200E+11
         0.78200E+11
         0.78200E+11
         0.78200E+11
         0.78200E+11
         0.78200E+11
         0.78200E+11
         0.78200E+11
         0.78200E+11
         0.78200E+11
         0.78200E+11
         0.78200E+11
         0.78200E+11
         0.78200E+11
         0.78200E+11
         0.78200E+11
         0.78200E+11
         0.78200E+11
         0.78200E+11
         0.78200E+11
         0.78200E+11
         0.78200E+11
         0.78200E+11
         0.78200E+11
         0.78200E+11
         0.78200E+11
         0.78200E+11
         0.78200E+11
         0.78200E+11
         0.78200E+11
         0.78200E+11
         0.78200E+11
         0.78200E+11
         0.78200E+11
         0.78200E+11
         0.78200E+11
         0.78200E+11
         0.78200E+11
         0.78200E+11
         0.78200E+11
         0.78200E+11
         0.78200E+11
         0.78200E+11
         0.78200E+11
         0.78200E+11
         0.78200E+11
         0.78200E+11
         0.78200E+11
         0.78200E+11
         0.78200E+11
         0.78200E+11
         0.78200E+11
         0.78200E+11
         0.78200E+11
         0.78200E+11
         0.78200E+11
         0.78200E+11
         0.78200E+11
         0.78200E+11
         0.78200E+11
         0.78200E+11
         0.78200E+11
         0.78200E+11
         0.78200E+11
         0.78200E+11
         0.78200E+11
         0.78200E+11
         0.78200E+11
         0.78200E+11
         0.78200E+11
         0.78200E+11
         0.78200E+11
         0.78200E+11
         0.78200E+11
         0.78200E+11
         0.78200E+11
         0.78200E+11
         0.78200E+11
         0.78200E+11
         0.78200E+11
         0.78200E+11
         0.78200E+11
         0.78200E+11
         0.78200E+11
         0.78200E+11
         0.78200E+11
         0.78200E+11
         0.78200E+11
         0.78200E+11
         0.78200E+11
         0.78200E+11
         0.78200E+11
         0.78200E+11
         0.78200E+11
         0.78200E+11
         0.78200E+11
         0.78200E+11
         0.78200E+11
         0.78200E+11
         0.78200E+11
         0.78200E+11
         0.78200E+11
         0.78200E+11
         0.78200E+11
         0.78200E+11
         0.78200E+11
         0.78200E+11
         0.78200E+11
         0.78200E+11
         0.78200E+11
         0.78200E+11
         0.78200E+11
         0.78200E+11
         0.78200E+11
         0.78200E+11
         0.78200E+11
         0.78200E+11
         0.78200E+11
         0.78200E+11
         0.78200E+11
         0.78200E+11
         0.78200E+11
         0.78200E+11
         0.78200E+11
         0.78200E+11
         0.78200E+11
         0.78200E+11
         0.78200E+11
         0.78200E+11
         0.78200E+11
         0.78200E+11
         0.78200E+11
         0.78200E+11
         0.78200E+11
         0.78200E+11
         0.78200E+11
         0.78200E+11
         0.78200E+11
         0.78200E+11
         0.78200E+11
         0.78200E+11
         0.78200E+11
         0.78200E+11
         0.78200E+11
         0.78200E+11
         0.78200E+11
         0.78200E+11
         0.78200E+11
         0.78200E+11
         0.78200E+11
         0.78200E+11
         0.78200E+11
         0.78200E+11
         0.78200E+11
         0.78200E+11
         0.78200E+11
         0.78200E+11
         0.78200E+11
         0.78200E+11
         0.78200E+11
         0.78200E+11
         0.78200E+11
         0.78200E+11
         0.78200E+11
         0.78200E+11
         0.78200E+11
         0.78200E+11
         0.78200E+11
         0.78200E+11
         0.78200E+11
         0.78200E+11
         0.78200E+11
         0.78200E+11
         0.78200E+11
         0.78200E+11
         0.78200E+11
         0.78200E+11
         0.78200E+11
         0.78200E+11
         0.78200E+11
         0.78200E+11
         0.78200E+11
         0.78200E+11
         0.78200E+11
         0.78200E+11
         0.78200E+11
         0.78200E+11
         0.78200E+11
         0.78200E+11
         0.78200E+11
         0.78200E+11
         0.78200E+11
         0.78200E+11
         0.78200E+11
         0.78200E+11
         0.78200E+11
         0.78200E+11
         0.78200E+11
         0.78200E+11
         0.78200E+11
         0.78200E+11
         0.78200E+11
         0.78200E+11
         0.78200E+11
         0.78200E+11
         0.78200E+11
         0.78200E+11
         0.78200E+11
         0.78200E+11
         0.78200E+11
         0.78200E+11
         0.78200E+11
         0.78200E+11
         0.78200E+11
         0.78200E+11
         0.78200E+11
         0.78200E+11
         0.78200E+11
         0.78200E+11
         0.78200E+11
         0.78200E+11
         0.78200E+11
         0.78200E+11
         0.78200E+11
         0.78200E+11
         0.78200E+11
         0.78200E+11
         0.78200E+11
         0.78200E+11
         0.78200E+11
         0.78200E+11
         0.78200E+11
         0.78200E+11
         0.78200E+11
         0.78200E+11
         0.78200E+11
         0.78200E+11
         0.78200E+11
         0.78200E+11
         0.78200E+11
         0.78200E+11
         0.78200E+11
         0.78200E+11
         0.78200E+11
         0.78200E+11
         0.78200E+11
         0.78200E+11
         0.78200E+11
         0.78200E+11
         0.78200E+11
         0.78200E+11
         0.78200E+11
         0.78200E+11
         0.78200E+11
         0.78200E+11
         0.78200E+11
         0.78200E+11
         0.78200E+11
         0.78200E+11
         0.78200E+11
         0.78200E+11
         0.78200E+11
         0.78200E+11
         0.78200E+11
         0.78200E+11
         0.78200E+11
         0.78200E+11
         0.78200E+11
         0.78200E+11
         0.78200E+11
         0.78200E+11
         0.78200E+11
         0.78200E+11
         0.78200E+11
         0.78200E+11
         0.78200E+11
         0.78200E+11
         0.78200E+11
         0.78200E+11
         0.78200E+11
         0.78200E+11
         0.78200E+11
         0.78200E+11
         0.78200E+11
         0.78200E+11
         0.78200E+11
         0.78200E+11
         0.78200E+11
         0.78200E+11
         0.78200E+11
         0.78200E+11
         0.78200E+11
         0.78200E+11
         0.78200E+11
         0.78200E+11
         0.78200E+11
         0.78200E+11
         0.78200E+11
         0.78200E+11
         0.78200E+11
         0.78200E+11
         0.78200E+11
         0.78200E+11
         0.78200E+11
         0.78200E+11
         0.78200E+11
         0.78200E+11
         0.78200E+11
         0.78200E+11
         0.78200E+11
         0.78200E+11
         0.78200E+11
         0.78200E+11
         0.78200E+11
         0.78200E+11
         0.78200E+11
         0.78200E+11
         0.78200E+11
         0.78200E+11
         0.78200E+11
         0.78200E+11
         0.78200E+11
         0.78200E+11
         0.78200E+11
         0.78200E+11
         0.78200E+11
         0.78200E+11
         0.78200E+11
         0.78200E+11
         0.78200E+11
         0.78200E+11
         0.78200E+11
         0.78200E+11
         0.78200E+11
         0.78200E+11
         0.78200E+11
         0.78200E+11
         0.78200E+11
         0.78200E+11
         0.78200E+11
         0.78200E+11
         0.78200E+11
         0.78200E+11
         0.78200E+11
         0.78200E+11
         0.78200E+11
         0.78200E+11
         0.78200E+11
         0.78200E+11
         0.78200E+11
         0.78200E+11
         0.78200E+11
         0.78200E+11
         0.78200E+11
         0.78200E+11
         0.78200E+11
         0.78200E+11
         0.78200E+11
         0.78200E+11
         0.78200E+11
         0.78200E+11
         0.78200E+11
         0.78200E+11
         0.78200E+11
         0.78200E+11
         0.78200E+11
         0.78200E+11
         0.78200E+11
         0.78200E+11
         0.78200E+11
         0.78200E+11
         0.78200E+11
         0.78200E+11
         0.78200E+11
         0.78200E+11
         0.78200E+11
         0.78200E+11
         0.78200E+11
         0.78200E+11
         0.78200E+11
         0.78200E+11
         0.78200E+11
         0.78200E+11
         0.78200E+11
         0.78200E+11
         0.78200E+11
         0.78200E+11
         0.78200E+11
         0.78200E+11
         0.78200E+11
         0.78200E+11
         0.78200E+11
         0.78200E+11
         0.78200E+11
         0.78200E+11
         0.78200E+11
         0.78200E+11
         0.78200E+11
         0.78200E+11
         0.78200E+11
         0.78200E+11
         0.78200E+11
         0.78200E+11
         0.78200E+11
         0.78200E+11
         0.78200E+11
         0.78200E+11
         0.78200E+11
         0.78200E+11
         0.78200E+11
         0.78200E+11
         0.78200E+11
         0.78200E+11
         0.78200E+11
         0.78200E+11
         0.78200E+11
         0.78200E+11
         0.78200E+11
         0.78200E+11
         0.78200E+11
         0.78200E+11
         0.78200E+11
         0.78200E+11
         0.78200E+11
         0.78200E+11
         0.78200E+11
         0.78200E+11
         0.78200E+11
         0.78200E+11
         0.78200E+11
         0.78200E+11
         0.78200E+11
         0.78200E+11
         0.78200E+11
         0.78200E+11
         0.78200E+11
         0.78200E+11
         0.78200E+11
         0.78200E+11
         0.78200E+11
         0.78200E+11
         0.78200E+11
         0.78200E+11
         0.78200E+11
         0.78200E+11
         0.78200E+11
         0.78200E+11
         0.78200E+11
         0.78200E+11
         0.78200E+11
         0.78200E+11
         0.78200E+11
         0.78200E+11
         0.78200E+11
         0.78200E+11
         0.78200E+11
         0.78200E+11
         0.78200E+11
         0.78200E+11
         0.78200E+11
         0.78200E+11
         0.78200E+11
         0.78200E+11
         0.78200E+11
         0.78200E+11
         0.78200E+11
         0.78200E+11
         0.78200E+11
         0.78200E+11
         0.78200E+11
         0.78200E+11
         0.78200E+11
         0.78200E+11
         0.78200E+11
         0.78200E+11
         0.78200E+11
         0.78200E+11
         0.78200E+11
         0.78200E+11
         0.78200E+11
         0.78200E+11
         0.78200E+11
         0.78200E+11
         0.78200E+11
         0.78200E+11
         0.78200E+11
         0.78200E+11
         0.78200E+11
         0.78200E+11
         0.78200E+11
         0.78200E+11
         0.78200E+11
         0.78200E+11
         0.78200E+11
         0.78200E+11
         0.78200E+11
         0.78200E+11
         0.78200E+11
         0.78200E+11
         0.78200E+11
         0.78200E+11
         0.78200E+11
         0.78200E+11
         0.78200E+11
         0.78200E+11
         0.78200E+11
         0.78200E+11
         0.78200E+11
         0.78200E+11
         0.78200E+11
         0.78200E+11
         0.78200E+11
         0.78200E+11
         0.78200E+11
         0.78200E+11
         0.78200E+11
         0.78200E+11
         0.78200E+11
         0.78200E+11
         0.78200E+11
         0.78200E+11
         0.78200E+11
         0.78200E+11
         0.78200E+11
         0.78200E+11
         0.78200E+11
         0.78200E+11
         0.78200E+11
         0.78200E+11
         0.78200E+11
         0.78200E+11
         0.78200E+11
         0.78200E+11
         0.78200E+11
         0.78200E+11
         0.78200E+11
         0.78200E+11
         0.78200E+11
         0.78200E+11
         0.78200E+11
         0.78200E+11
         0.78200E+11
         0.78200E+11
         0.78200E+11
         0.78200E+11
         0.78200E+11
         0.78200E+11
         0.78200E+11
         0.78200E+11
         0.78200E+11
         0.78200E+11
         0.78200E+11
         0.78200E+11
         0.78200E+11
         0.78200E+11
         0.78200E+11
         0.78200E+11
         0.78200E+11
         0.78200E+11
         0.78200E+11
         0.78200E+11
         0.78200E+11
         0.78200E+11
         0.78200E+11
         0.78200E+11
         0.78200E+11
         0.78200E+11
         0.78200E+11
         0.78200E+11
         0.78200E+11
         0.78200E+11
         0.78200E+11
         0.78200E+11
         0.78200E+11
         0.78200E+11
         0.78200E+11
         0.78200E+11
         0.78200E+11
         0.78200E+11
         0.78200E+11
         0.78200E+11
         0.78200E+11
         0.78200E+11
         0.78200E+11
         0.78200E+11
         0.78200E+11
         0.78200E+11
         0.78200E+11
         0.78200E+11
         0.78200E+11
         0.78200E+11
         0.78200E+11
         0.78200E+11
         0.78200E+11
         0.78200E+11
         0.78200E+11
         0.78200E+11
         0.78200E+11
         0.78200E+11
         0.78200E+11
         0.78200E+11
         0.78200E+11
         0.78200E+11
         0.78200E+11
         0.78200E+11
         0.78200E+11
         0.78200E+11
         0.78200E+11
         0.78200E+11
         0.78200E+11
         0.78200E+11
         0.78200E+11
         0.78200E+11
         0.78200E+11
         0.78200E+11
         0.78200E+11
         0.78200E+11
         0.78200E+11
         0.78200E+11
         0.78200E+11
         0.78200E+11
         0.78200E+11
         0.78200E+11
         0.78200E+11
         0.78200E+11
         0.78200E+11
         0.78200E+11
         0.78200E+11
         0.78200E+11
         0.78200E+11
         0.78200E+11
         0.78200E+11
         0.78200E+11
         0.78200E+11
         0.78200E+11
         0.78200E+11
         0.78200E+11
         0.78200E+11
         0.78200E+11
         0.78200E+11
         0.78200E+11
         0.78200E+11
         0.78200E+11
         0.78200E+11
         0.78200E+11
         0.78200E+11
         0.78200E+11
         0.78200E+11
         0.78200E+11
         0.78200E+11
         0.78200E+11
         0.78200E+11
         0.78200E+11
         0.78200E+11
         0.78200E+11
         0.78200E+11
         0.78200E+11
         0.78200E+11
         0.78200E+11
         0.78200E+11
         0.78200E+11
         0.78200E+11
         0.78200E+11
         0.78200E+11
         0.78200E+11
         0.78200E+11
         0.78200E+11
         0.78200E+11
         0.78200E+11
         0.78200E+11
         0.78200E+11
         0.78200E+11
         0.78200E+11
         0.78200E+11
         0.78200E+11
         0.78200E+11
         0.78200E+11
         0.78200E+11
         0.78200E+11
         0.78200E+11
         0.78200E+11
         0.78200E+11
         0.78200E+11
         0.78200E+11
         0.78200E+11
         0.78200E+11
         0.78200E+11
         0.78200E+11
         0.78200E+11
         0.78200E+11
         0.78200E+11
         0.78200E+11
         0.78200E+11
         0.78200E+11
         0.78200E+11
         0.78200E+11
         0.78200E+11
         0.78200E+11
         0.78200E+11
         0.78200E+11
         0.78200E+11
         0.78200E+11
         0.78200E+11
         0.78200E+11
         0.78200E+11
         0.78200E+11
         0.78200E+11
         0.78200E+11
         0.78200E+11
         0.78200E+11
         0.78200E+11
         0.78200E+11
         0.78200E+11
         0.78200E+11
         0.78200E+11
         0.78200E+11
         0.78200E+11
         0.78200E+11
         0.78200E+11
         0.78200E+11
         0.78200E+11
         0.78200E+11
         0.78200E+11
         0.78200E+11
         0.78200E+11
         0.78200E+11
         0.78200E+11
         0.78200E+11
         0.78200E+11
         0.78200E+11
         0.78200E+11
         0.78200E+11
         0.78200E+11
         0.78200E+11
         0.78200E+11
         0.78200E+11
         0.78200E+11
         0.78200E+11
         0.78200E+11
         0.78200E+11
         0.78200E+11
         0.78200E+11
         0.78200E+11
         0.78200E+11
         0.78200E+11
         0.78200E+11
         0.78200E+11
         0.78200E+11
         0.78200E+11
         0.78200E+11
         0.78200E+11
         0.78200E+11
         0.78200E+11
         0.78200E+11
         0.78200E+11
         0.78200E+11
         0.78200E+11
         0.78200E+11
         0.78200E+11
         0.78200E+11
         0.78200E+11
         0.78200E+11
         0.78200E+11
         0.78200E+11
         0.78200E+11
         0.78200E+11
         0.78200E+11
         0.78200E+11
         0.78200E+11
         0.78200E+11
         0.78200E+11
         0.78200E+11
         0.78200E+11
         0.78200E+11
         0.78200E+11
         0.78200E+11
         0.78200E+11
         0.78200E+11
         0.78200E+11
         0.78200E+11
         0.78200E+11
         0.78200E+11
         0.78200E+11
         0.78200E+11
         0.78200E+11
         0.78200E+11
         0.78200E+11
         0.78200E+11
         0.78200E+11
         0.78200E+11
         0.78200E+11
         0.78200E+11
         0.78200E+11
         0.78200E+11
         0.78200E+11
         0.78200E+11
         0.78200E+11
         0.78200E+11
         0.78200E+11
         0.78200E+11
         0.78200E+11
         0.78200E+11
         0.78200E+11
         0.78200E+11
         0.78200E+11
         0.78200E+11
         0.78200E+11
         0.78200E+11
         0.78200E+11
         0.78200E+11
         0.78200E+11
         0.78200E+11
         0.78200E+11
         0.78200E+11
         0.78200E+11
         0.78200E+11
         0.78200E+11
         0.78200E+11
         0.78200E+11
         0.78200E+11
         0.78200E+11
         0.78200E+11
         0.78200E+11
         0.78200E+11
         0.78200E+11
         0.78200E+11
         0.78200E+11
         0.78200E+11
         0.78200E+11
         0.78200E+11
         0.78200E+11
         0.78200E+11
         0.78200E+11
         0.78200E+11
         0.78200E+11
         0.78200E+11
         0.78200E+11
         0.78200E+11
         0.78200E+11
         0.78200E+11
         0.78200E+11
         0.78200E+11
         0.78200E+11
         0.78200E+11
         0.78200E+11
         0.78200E+11
         0.78200E+11
         0.78200E+11
         0.78200E+11
         0.78200E+11
         0.78200E+11
         0.78200E+11
         0.78200E+11
         0.78200E+11
         0.78200E+11
         0.78200E+11
         0.78200E+11
         0.78200E+11
         0.78200E+11
         0.78200E+11
         0.78200E+11
         0.78200E+11
         0.78200E+11
         0.78200E+11
         0.78200E+11
         0.78200E+11
         0.78200E+11
         0.78200E+11
         0.78200E+11
         0.78200E+11
         0.78200E+11
         0.78200E+11
         0.78200E+11
         0.78200E+11
         0.78200E+11
         0.78200E+11
         0.78200E+11
         0.78200E+11
         0.78200E+11
         0.78200E+11
         0.78200E+11
         0.78200E+11
         0.78200E+11
         0.78200E+11
         0.78200E+11
         0.78200E+11
         0.78200E+11
         0.78200E+11
         0.78200E+11
         0.78200E+11
         0.78200E+11
         0.78200E+11
         0.78200E+11
         0.78200E+11
         0.78200E+11
         0.78200E+11
         0.78200E+11
         0.78200E+11
         0.78200E+11
         0.78200E+11
         0.78200E+11
         0.78200E+11
         0.78200E+11
         0.78200E+11
         0.78200E+11
         0.78200E+11
         0.78200E+11
         0.78200E+11
         0.78200E+11
         0.78200E+11
         0.78200E+11
         0.78200E+11
         0.78200E+11
         0.78200E+11
         0.78200E+11
         0.78200E+11
         0.78200E+11
         0.78200E+11
         0.78200E+11
         0.78200E+11
         0.78200E+11
         0.78200E+11
         0.78200E+11
         0.78200E+11
         0.78200E+11
         0.78200E+11
         0.78200E+11
         0.78200E+11
         0.78200E+11
         0.78200E+11
         0.78200E+11
         0.78200E+11
         0.78200E+11
         0.78200E+11
         0.78200E+11
         0.78200E+11
         0.78200E+11
         0.78200E+11
         0.78200E+11
         0.78200E+11
         0.78200E+11
         0.78200E+11
         0.78200E+11
         0.78200E+11
         0.78200E+11
         0.78200E+11
         0.78200E+11
         0.78200E+11
         0.78200E+11
         0.78200E+11
         0.78200E+11
         0.78200E+11
         0.78200E+11
         0.78200E+11
         0.78200E+11
         0.78200E+11
         0.78200E+11
         0.78200E+11
         0.78200E+11
         0.78200E+11
         0.78200E+11
         0.78200E+11
         0.78200E+11
         0.78200E+11
         0.78200E+11
         0.78200E+11
         0.78200E+11
         0.78200E+11
         0.78200E+11
         0.78200E+11
         0.78200E+11
         0.78200E+11
         0.78200E+11
         0.78200E+11
         0.78200E+11
         0.78200E+11
         0.78200E+11
         0.78200E+11
         0.78200E+11
         0.78200E+11
         0.78200E+11
         0.78200E+11
         0.78200E+11
         0.78200E+11
         0.78200E+11
         0.78200E+11
         0.78200E+11
         0.78200E+11
         0.78200E+11
         0.78200E+11
         0.78200E+11
         0.78200E+11
         0.78200E+11
         0.78200E+11
         0.78200E+11
         0.78200E+11
         0.78200E+11
         0.78200E+11
         0.78200E+11
         0.78200E+11
         0.78200E+11
         0.78200E+11
         0.78200E+11
         0.78200E+11
         0.78200E+11
         0.78200E+11
         0.78200E+11
         0.78200E+11
         0.78200E+11
         0.78200E+11
         0.78200E+11
         0.78200E+11
         0.78200E+11
         0.78200E+11
         0.78200E+11
         0.78200E+11
         0.78200E+11
         0.78200E+11
         0.78200E+11
         0.78200E+11
         0.78200E+11
         0.78200E+11
         0.78200E+11
         0.78200E+11
         0.78200E+11
         0.78200E+11
         0.78200E+11
         0.78200E+11
         0.78200E+11
         0.78200E+11
         0.78200E+11
         0.78200E+11
         0.78200E+11
         0.78200E+11
         0.78200E+11
         0.78200E+11
         0.78200E+11
         0.78200E+11
         0.78200E+11
         0.78200E+11
         0.78200E+11
         0.78200E+11
         0.78200E+11
         0.78200E+11
         0.78200E+11
         0.78200E+11
         0.78200E+11
         0.78200E+11
         0.78200E+11
         0.78200E+11
         0.78200E+11
         0.78200E+11
         0.78200E+11
         0.78200E+11
         0.78200E+11
         0.78200E+11
         0.78200E+11
         0.78200E+11
         0.78200E+11
         0.78200E+11
         0.78200E+11
         0.78200E+11
         0.78200E+11
         0.78200E+11
         0.78200E+11
         0.78200E+11
         0.78200E+11
         0.78200E+11
         0.78200E+11
         0.78200E+11
         0.78200E+11
         0.78200E+11
         0.78200E+11
         0.78200E+11
         0.78200E+11
         0.78200E+11
         0.78200E+11
         0.78200E+11
         0.78200E+11
         0.78200E+11
         0.78200E+11
         0.78200E+11
         0.78200E+11
         0.78200E+11
         0.78200E+11
         0.78200E+11
         0.78200E+11
         0.78200E+11
         0.78200E+11
         0.78200E+11
         0.78200E+11
         0.78200E+11
         0.78200E+11
         0.78200E+11
         0.78200E+11
         0.78200E+11
         0.78200E+11
         0.78200E+11
         0.78200E+11
         0.78200E+11
         0.78200E+11
         0.78200E+11
         0.78200E+11
         0.78200E+11
         0.78200E+11
         0.78200E+11
         0.78200E+11
         0.78200E+11
         0.78200E+11
         0.78200E+11
         0.78200E+11
         0.78200E+11
         0.78200E+11
         0.78200E+11
         0.78200E+11
         0.78200E+11
         0.78200E+11
         0.78200E+11
         0.78200E+11
         0.78200E+11
         0.78200E+11
         0.78200E+11
         0.78200E+11
         0.78200E+11
         0.78200E+11
         0.78200E+11
         0.78200E+11
         0.78200E+11
         0.78200E+11
         0.78200E+11
         0.78200E+11
         0.78200E+11
         0.78200E+11
         0.78200E+11
         0.78200E+11
         0.78200E+11
         0.78200E+11
         0.78200E+11
         0.78200E+11
         0.78200E+11
         0.78200E+11
         0.78200E+11
         0.78200E+11
         0.78200E+11
         0.78200E+11
         0.78200E+11
         0.78200E+11
         0.78200E+11
         0.78200E+11
         0.78200E+11
         0.78200E+11
         0.78200E+11
         0.78200E+11
         0.78200E+11
         0.78200E+11
         0.78200E+11
         0.78200E+11
         0.78200E+11
         0.78200E+11
         0.78200E+11
         0.78200E+11
         0.78200E+11
         0.78200E+11
         0.78200E+11
         0.78200E+11
         0.78200E+11
         0.78200E+11
         0.78200E+11
         0.78200E+11
         0.78200E+11
         0.78200E+11
         0.78200E+11
         0.78200E+11
         0.78200E+11
         0.78200E+11
         0.78200E+11
         0.78200E+11
         0.78200E+11
         0.78200E+11
         0.78200E+11
         0.78200E+11
         0.78200E+11
         0.78200E+11
         0.78200E+11
         0.78200E+11
         0.78200E+11
         0.78200E+11
         0.78200E+11
         0.78200E+11
         0.78200E+11
         0.78200E+11
         0.78200E+11
         0.78200E+11
         0.78200E+11
         0.78200E+11
         0.78200E+11
         0.78200E+11
         0.78200E+11
         0.78200E+11
         0.78200E+11
         0.78200E+11
         0.78200E+11
         0.78200E+11
         0.78200E+11
         0.78200E+11
         0.78200E+11
         0.78200E+11
         0.78200E+11
         0.78200E+11
         0.78200E+11
         0.78200E+11
         0.78200E+11
         0.78200E+11
         0.78200E+11
         0.78200E+11
         0.78200E+11
         0.78200E+11
         0.78200E+11
         0.78200E+11
         0.78200E+11
         0.78200E+11
         0.78200E+11
         0.78200E+11
         0.78200E+11
         0.78200E+11
         0.78200E+11
         0.78200E+11
         0.78200E+11
         0.78200E+11
         0.78200E+11
         0.78200E+11
         0.78200E+11
         0.78200E+11
         0.78200E+11
         0.78200E+11
         0.78200E+11
         0.78200E+11
         0.78200E+11
         0.78200E+11
         0.78200E+11
         0.78200E+11
         0.78200E+11
         0.78200E+11
         0.78200E+11
         0.78200E+11
         0.78200E+11
         0.78200E+11
         0.78200E+11
         0.78200E+11
         0.78200E+11
         0.78200E+11
         0.78200E+11
         0.78200E+11
         0.78200E+11
         0.78200E+11
         0.78200E+11
         0.78200E+11
         0.78200E+11
         0.78200E+11
         0.78200E+11
         0.78200E+11
         0.78200E+11
         0.78200E+11
         0.78200E+11
         0.78200E+11
         0.78200E+11
         0.78200E+11
         0.78200E+11
         0.78200E+11
         0.78200E+11
         0.78200E+11
         0.78200E+11
         0.78200E+11
         0.78200E+11
         0.78200E+11
         0.78200E+11
         0.78200E+11
         0.78200E+11
         0.78200E+11
         0.78200E+11
         0.78200E+11
         0.78200E+11
         0.78200E+11
         0.78200E+11
         0.78200E+11
         0.78200E+11
         0.78200E+11
         0.78200E+11
         0.78200E+11
         0.78200E+11
         0.78200E+11
         0.78200E+11
         0.78200E+11
         0.78200E+11
         0.78200E+11
         0.78200E+11
         0.78200E+11
         0.78200E+11
         0.78200E+11
         0.78200E+11
         0.78200E+11
         0.78200E+11
         0.78200E+11
         0.78200E+11
         0.78200E+11
         0.78200E+11
         0.78200E+11
         0.78200E+11
         0.78200E+11
         0.78200E+11
         0.78200E+11
         0.78200E+11
         0.78200E+11
         0.78200E+11
         0.78200E+11
         0.78200E+11
         0.78200E+11
         0.78200E+11
         0.78200E+11
         0.78200E+11
         0.78200E+11
         0.78200E+11
         0.78200E+11
         0.78200E+11
         0.78200E+11
         0.78200E+11
         0.78200E+11
         0.78200E+11
         0.78200E+11
         0.78200E+11
         0.78200E+11
         0.78200E+11
         0.78200E+11
         0.78200E+11
         0.78200E+11
         0.78200E+11
         0.78200E+11
         0.78200E+11
         0.78200E+11
         0.78200E+11
         0.78200E+11
         0.78200E+11
         0.78200E+11
         0.78200E+11
         0.78200E+11
         0.78200E+11
         0.78200E+11
         0.78200E+11
         0.78200E+11
         0.78200E+11
         0.78200E+11
         0.78200E+11
         0.78200E+11
         0.78200E+11
         0.78200E+11
         0.78200E+11
         0.78200E+11
         0.78200E+11
         0.78200E+11
         0.78200E+11
         0.78200E+11
         0.78200E+11
         0.78200E+11
         0.78200E+11
         0.78200E+11
         0.78200E+11
         0.78200E+11
         0.78200E+11
         0.78200E+11
         0.78200E+11
         0.78200E+11
         0.78200E+11
         0.78200E+11
         0.78200E+11
         0.78200E+11
         0.78200E+11
         0.78200E+11
         0.78200E+11
         0.78200E+11
         0.78200E+11
         0.78200E+11
         0.78200E+11
         0.78200E+11
         0.78200E+11
         0.78200E+11
         0.78200E+11
         0.78200E+11
         0.78200E+11
         0.78200E+11
         0.78200E+11
         0.78200E+11
         0.78200E+11
         0.78200E+11
         0.78200E+11
         0.78200E+11
         0.78200E+11
         0.78200E+11
         0.78200E+11
         0.78200E+11
         0.78200E+11
         0.78200E+11
         0.78200E+11
         0.78200E+11
         0.78200E+11
         0.78200E+11
         0.78200E+11
         0.78200E+11
         0.78200E+11
         0.78200E+11
         0.78200E+11
         0.78200E+11
         0.78200E+11
         0.78200E+11
         0.78200E+11
         0.78200E+11
         0.78200E+11
         0.78200E+11
         0.78200E+11
         0.78200E+11
         0.78200E+11
         0.78200E+11
         0.78200E+11
         0.78200E+11
         0.78200E+11
         0.78200E+11
         0.78200E+11
         0.78200E+11
         0.78200E+11
         0.78200E+11
         0.78200E+11
         0.78200E+11
         0.78200E+11
         0.78200E+11
         0.78200E+11
         0.78200E+11
         0.78200E+11
         0.78200E+11
         0.78200E+11
         0.78200E+11
         0.78200E+11
         0.78200E+11
         0.78200E+11
         0.78200E+11
         0.78200E+11
         0.78200E+11
         0.78200E+11
         0.78200E+11
         0.78200E+11
         0.78200E+11
         0.78200E+11
         0.78200E+11
         0.78200E+11
         0.78200E+11
         0.78200E+11
         0.78200E+11
         0.78200E+11
         0.78200E+11
         0.78200E+11
         0.78200E+11
         0.78200E+11
         0.78200E+11
         0.78200E+11
         0.78200E+11
         0.78200E+11
         0.78200E+11
         0.78200E+11
         0.78200E+11
         0.78200E+11
         0.78200E+11
         0.78200E+11
         0.78200E+11
         0.78200E+11
         0.78200E+11
         0.78200E+11
         0.78200E+11
         0.78200E+11
         0.78200E+11
         0.78200E+11
         0.78200E+11
         0.78200E+11
         0.78200E+11
         0.78200E+11
         0.78200E+11
         0.78200E+11
         0.78200E+11
         0.78200E+11
         0.78200E+11
         0.78200E+11
         0.78200E+11
         0.78200E+11
         0.78200E+11
         0.78200E+11
         0.78200E+11
         0.78200E+11
         0.78200E+11
         0.78200E+11
         0.78200E+11
         0.78200E+11
         0.78200E+11
         0.78200E+11
         0.78200E+11
         0.78200E+11
         0.78200E+11
         0.78200E+11
         0.78200E+11
         0.78200E+11
         0.78200E+11
         0.78200E+11
         0.78200E+11
         0.78200E+11
         0.78200E+11
         0.78200E+11
         0.78200E+11
         0.78200E+11
         0.78200E+11
         0.78200E+11
         0.78200E+11
         0.78200E+11
         0.78200E+11
         0.78200E+11
         0.78200E+11
         0.78200E+11
         0.78200E+11
         0.78200E+11
         0.78200E+11
         0.78200E+11
         0.78200E+11
         0.78200E+11
         0.78200E+11
         0.78200E+11
         0.78200E+11
         0.78200E+11
         0.78200E+11
         0.78200E+11
         0.78200E+11
         0.78200E+11
         0.78200E+11
         0.78200E+11
         0.78200E+11
         0.78200E+11
         0.78200E+11
         0.78200E+11
         0.78200E+11
         0.78200E+11
         0.78200E+11
         0.78200E+11
         0.78200E+11
         0.78200E+11
         0.78200E+11
         0.78200E+11
         0.78200E+11
         0.78200E+11
         0.78200E+11
         0.78200E+11
         0.78200E+11
         0.78200E+11
         0.78200E+11
         0.78200E+11
         0.78200E+11
         0.78200E+11
         0.78200E+11
         0.78200E+11
         0.78200E+11
         0.78200E+11
         0.78200E+11
         0.78200E+11
         0.78200E+11
         0.78200E+11
         0.78200E+11
         0.78200E+11
         0.78200E+11
         0.78200E+11
         0.78200E+11
         0.78200E+11
         0.78200E+11
         0.78200E+11
         0.78200E+11
         0.78200E+11
         0.78200E+11
         0.78200E+11
         0.78200E+11
         0.78200E+11
         0.78200E+11
         0.78200E+11
         0.78200E+11
         0.78200E+11
         0.78200E+11
         0.78200E+11
         0.78200E+11
         0.78200E+11
         0.78200E+11
         0.78200E+11
         0.78200E+11
         0.78200E+11
         0.78200E+11
         0.78200E+11
         0.78200E+11
         0.78200E+11
         0.78200E+11
         0.78200E+11
         0.78200E+11
         0.78200E+11
         0.78200E+11
         0.78200E+11
         0.78200E+11
         0.78200E+11
         0.78200E+11
         0.78200E+11
         0.78200E+11
         0.78200E+11
         0.78200E+11
         0.78200E+11
         0.78200E+11
         0.78200E+11
         0.78200E+11
         0.78200E+11
         0.78200E+11
         0.78200E+11
         0.78200E+11
         0.78200E+11
         0.78200E+11
         0.78200E+11
         0.78200E+11
         0.78200E+11
         0.78200E+11
         0.78200E+11
         0.78200E+11
         0.78200E+11
         0.78200E+11
         0.78200E+11
         0.78200E+11
         0.78200E+11
         0.78200E+11
         0.78200E+11
         0.78200E+11
         0.78200E+11
         0.78200E+11
         0.78200E+11
         0.78200E+11
         0.78200E+11
         0.78200E+11
         0.78200E+11
         0.78200E+11
         0.78200E+11
         0.78200E+11
         0.78200E+11
         0.78200E+11
         0.78200E+11
         0.78200E+11
         0.78200E+11
         0.78200E+11
         0.78200E+11
         0.78200E+11
         0.78200E+11
         0.78200E+11
         0.78200E+11
         0.78200E+11
         0.78200E+11
         0.78200E+11
         0.78200E+11
         0.78200E+11
         0.78200E+11
         0.78200E+11
         0.78200E+11
         0.78200E+11
         0.78200E+11
         0.78200E+11
         0.78200E+11
         0.78200E+11
         0.78200E+11
         0.78200E+11
         0.78200E+11
         0.78200E+11
         0.78200E+11
         0.78200E+11
         0.78200E+11
         0.78200E+11
         0.78200E+11
         0.78200E+11
         0.78200E+11
         0.78200E+11
         0.78200E+11
         0.78200E+11
         0.78200E+11
         0.78200E+11
         0.78200E+11
         0.78200E+11
         0.78200E+11
         0.78200E+11
         0.78200E+11
         0.78200E+11
         0.78200E+11
         0.78200E+11
         0.78200E+11
         0.78200E+11
         0.78200E+11
         0.78200E+11
         0.78200E+11
         0.78200E+11
         0.78200E+11
         0.78200E+11
         0.78200E+11
         0.78200E+11
         0.78200E+11
         0.78200E+11
         0.78200E+11
         0.78200E+11
         0.78200E+11
         0.78200E+11
         0.78200E+11
         0.78200E+11
         0.78200E+11
         0.78200E+11
         0.78200E+11
         0.78200E+11
         0.78200E+11
         0.78200E+11
         0.78200E+11
         0.78200E+11
         0.78200E+11
         0.78200E+11
         0.78200E+11
         0.78200E+11
         0.78200E+11
         0.78200E+11
         0.78200E+11
         0.78200E+11
         0.78200E+11
         0.78200E+11
         0.78200E+11
         0.78200E+11
         0.78200E+11
         0.78200E+11
         0.78200E+11
         0.78200E+11
         0.78200E+11
         0.78200E+11
         0.78200E+11
         0.78200E+11
         0.78200E+11
         0.78200E+11
         0.78200E+11
         0.78200E+11
         0.78200E+11
         0.78200E+11
         0.78200E+11
         0.78200E+11
         0.78200E+11
         0.78200E+11
         0.78200E+11
         0.78200E+11
         0.78200E+11
         0.78200E+11
         0.78200E+11
         0.78200E+11
         0.78200E+11
         0.78200E+11
         0.78200E+11
         0.78200E+11
         0.78200E+11
         0.78200E+11
         0.78200E+11
         0.78200E+11
         0.78200E+11
         0.78200E+11
         0.78200E+11
         0.78200E+11
         0.78200E+11
         0.78200E+11
         0.78200E+11
         0.78200E+11
         0.78200E+11
         0.78200E+11
         0.78200E+11
         0.78200E+11
         0.78200E+11
         0.78200E+11
         0.78200E+11
         0.78200E+11
         0.78200E+11
         0.78200E+11
         0.78200E+11
         0.78200E+11
         0.78200E+11
         0.78200E+11
         0.78200E+11
         0.78200E+11
         0.78200E+11
         0.78200E+11
         0.78200E+11
         0.78200E+11
         0.78200E+11
         0.78200E+11
         0.78200E+11
         0.78200E+11
         0.78200E+11
         0.78200E+11
         0.78200E+11
         0.78200E+11
         0.78200E+11
         0.78200E+11
         0.78200E+11
         0.78200E+11
         0.78200E+11
         0.78200E+11
         0.78200E+11
         0.78200E+11
  
SCALARS                        density  double 1
LOOKUP_TABLE default
         0.27000E+04
         0.27000E+04
         0.27000E+04
         0.27000E+04
         0.27000E+04
         0.27000E+04
         0.27000E+04
         0.27000E+04
         0.27000E+04
         0.27000E+04
         0.27000E+04
         0.27000E+04
         0.27000E+04
         0.27000E+04
         0.27000E+04
         0.27000E+04
         0.27000E+04
         0.27000E+04
         0.27000E+04
         0.27000E+04
         0.27000E+04
         0.27000E+04
         0.27000E+04
         0.27000E+04
         0.27000E+04
         0.27000E+04
         0.27000E+04
         0.27000E+04
         0.27000E+04
         0.27000E+04
         0.27000E+04
         0.27000E+04
         0.27000E+04
         0.27000E+04
         0.27000E+04
         0.27000E+04
         0.27000E+04
         0.27000E+04
         0.27000E+04
         0.27000E+04
         0.27000E+04
         0.27000E+04
         0.27000E+04
         0.27000E+04
         0.27000E+04
         0.27000E+04
         0.27000E+04
         0.27000E+04
         0.27000E+04
         0.27000E+04
         0.27000E+04
         0.27000E+04
         0.27000E+04
         0.27000E+04
         0.27000E+04
         0.27000E+04
         0.27000E+04
         0.27000E+04
         0.27000E+04
         0.27000E+04
         0.27000E+04
         0.27000E+04
         0.27000E+04
         0.27000E+04
         0.27000E+04
         0.27000E+04
         0.27000E+04
         0.27000E+04
         0.27000E+04
         0.27000E+04
         0.27000E+04
         0.27000E+04
         0.27000E+04
         0.27000E+04
         0.27000E+04
         0.27000E+04
         0.27000E+04
         0.27000E+04
         0.27000E+04
         0.27000E+04
         0.27000E+04
         0.27000E+04
         0.27000E+04
         0.27000E+04
         0.27000E+04
         0.27000E+04
         0.27000E+04
         0.27000E+04
         0.27000E+04
         0.27000E+04
         0.27000E+04
         0.27000E+04
         0.27000E+04
         0.27000E+04
         0.27000E+04
         0.27000E+04
         0.27000E+04
         0.27000E+04
         0.27000E+04
         0.27000E+04
         0.27000E+04
         0.27000E+04
         0.27000E+04
         0.27000E+04
         0.27000E+04
         0.27000E+04
         0.27000E+04
         0.27000E+04
         0.27000E+04
         0.27000E+04
         0.27000E+04
         0.27000E+04
         0.27000E+04
         0.27000E+04
         0.27000E+04
         0.27000E+04
         0.27000E+04
         0.27000E+04
         0.27000E+04
         0.27000E+04
         0.27000E+04
         0.27000E+04
         0.27000E+04
         0.27000E+04
         0.27000E+04
         0.27000E+04
         0.27000E+04
         0.27000E+04
         0.27000E+04
         0.27000E+04
         0.27000E+04
         0.27000E+04
         0.27000E+04
         0.27000E+04
         0.27000E+04
         0.27000E+04
         0.27000E+04
         0.27000E+04
         0.27000E+04
         0.27000E+04
         0.27000E+04
         0.27000E+04
         0.27000E+04
         0.27000E+04
         0.27000E+04
         0.27000E+04
         0.27000E+04
         0.27000E+04
         0.27000E+04
         0.27000E+04
         0.27000E+04
         0.27000E+04
         0.27000E+04
         0.27000E+04
         0.27000E+04
         0.27000E+04
         0.27000E+04
         0.27000E+04
         0.27000E+04
         0.27000E+04
         0.27000E+04
         0.27000E+04
         0.27000E+04
         0.27000E+04
         0.27000E+04
         0.27000E+04
         0.27000E+04
         0.27000E+04
         0.27000E+04
         0.27000E+04
         0.27000E+04
         0.27000E+04
         0.27000E+04
         0.27000E+04
         0.27000E+04
         0.27000E+04
         0.27000E+04
         0.27000E+04
         0.27000E+04
         0.27000E+04
         0.27000E+04
         0.27000E+04
         0.27000E+04
         0.27000E+04
         0.27000E+04
         0.27000E+04
         0.27000E+04
         0.27000E+04
         0.27000E+04
         0.27000E+04
         0.27000E+04
         0.27000E+04
         0.27000E+04
         0.27000E+04
         0.27000E+04
         0.27000E+04
         0.27000E+04
         0.27000E+04
         0.27000E+04
         0.27000E+04
         0.27000E+04
         0.27000E+04
         0.27000E+04
         0.27000E+04
         0.27000E+04
         0.27000E+04
         0.27000E+04
         0.27000E+04
         0.27000E+04
         0.27000E+04
         0.27000E+04
         0.27000E+04
         0.27000E+04
         0.27000E+04
         0.27000E+04
         0.27000E+04
         0.27000E+04
         0.27000E+04
         0.27000E+04
         0.27000E+04
         0.27000E+04
         0.27000E+04
         0.27000E+04
         0.27000E+04
         0.27000E+04
         0.27000E+04
         0.27000E+04
         0.27000E+04
         0.27000E+04
         0.27000E+04
         0.27000E+04
         0.27000E+04
         0.27000E+04
         0.27000E+04
         0.27000E+04
         0.27000E+04
         0.27000E+04
         0.27000E+04
         0.27000E+04
         0.27000E+04
         0.27000E+04
         0.27000E+04
         0.27000E+04
         0.27000E+04
         0.27000E+04
         0.27000E+04
         0.27000E+04
         0.27000E+04
         0.27000E+04
         0.27000E+04
         0.27000E+04
         0.27000E+04
         0.27000E+04
         0.27000E+04
         0.27000E+04
         0.27000E+04
         0.27000E+04
         0.27000E+04
         0.27000E+04
         0.27000E+04
         0.27000E+04
         0.27000E+04
         0.27000E+04
         0.27000E+04
         0.27000E+04
         0.27000E+04
         0.27000E+04
         0.27000E+04
         0.27000E+04
         0.27000E+04
         0.27000E+04
         0.27000E+04
         0.27000E+04
         0.27000E+04
         0.27000E+04
         0.27000E+04
         0.27000E+04
         0.27000E+04
         0.27000E+04
         0.27000E+04
         0.27000E+04
         0.27000E+04
         0.27000E+04
         0.27000E+04
         0.27000E+04
         0.27000E+04
         0.27000E+04
         0.27000E+04
         0.27000E+04
         0.27000E+04
         0.27000E+04
         0.27000E+04
         0.27000E+04
         0.27000E+04
         0.27000E+04
         0.27000E+04
         0.27000E+04
         0.27000E+04
         0.27000E+04
         0.27000E+04
         0.27000E+04
         0.27000E+04
         0.27000E+04
         0.27000E+04
         0.27000E+04
         0.27000E+04
         0.27000E+04
         0.27000E+04
         0.27000E+04
         0.27000E+04
         0.27000E+04
         0.27000E+04
         0.27000E+04
         0.27000E+04
         0.27000E+04
         0.27000E+04
         0.27000E+04
         0.27000E+04
         0.27000E+04
         0.27000E+04
         0.27000E+04
         0.27000E+04
         0.27000E+04
         0.27000E+04
         0.27000E+04
         0.27000E+04
         0.27000E+04
         0.27000E+04
         0.27000E+04
         0.27000E+04
         0.27000E+04
         0.27000E+04
         0.27000E+04
         0.27000E+04
         0.27000E+04
         0.27000E+04
         0.27000E+04
         0.27000E+04
         0.27000E+04
         0.27000E+04
         0.27000E+04
         0.27000E+04
         0.27000E+04
         0.27000E+04
         0.27000E+04
         0.27000E+04
         0.27000E+04
         0.27000E+04
         0.27000E+04
         0.27000E+04
         0.27000E+04
         0.27000E+04
         0.27000E+04
         0.27000E+04
         0.27000E+04
         0.27000E+04
         0.27000E+04
         0.27000E+04
         0.27000E+04
         0.27000E+04
         0.27000E+04
         0.27000E+04
         0.27000E+04
         0.27000E+04
         0.27000E+04
         0.27000E+04
         0.27000E+04
         0.27000E+04
         0.27000E+04
         0.27000E+04
         0.27000E+04
         0.27000E+04
         0.27000E+04
         0.27000E+04
         0.27000E+04
         0.27000E+04
         0.27000E+04
         0.27000E+04
         0.27000E+04
         0.27000E+04
         0.27000E+04
         0.27000E+04
         0.27000E+04
         0.27000E+04
         0.27000E+04
         0.27000E+04
         0.27000E+04
         0.27000E+04
         0.27000E+04
         0.27000E+04
         0.27000E+04
         0.27000E+04
         0.27000E+04
         0.27000E+04
         0.27000E+04
         0.27000E+04
         0.27000E+04
         0.27000E+04
         0.27000E+04
         0.27000E+04
         0.27000E+04
         0.27000E+04
         0.27000E+04
         0.27000E+04
         0.27000E+04
         0.27000E+04
         0.27000E+04
         0.27000E+04
         0.27000E+04
         0.27000E+04
         0.27000E+04
         0.27000E+04
         0.27000E+04
         0.27000E+04
         0.27000E+04
         0.27000E+04
         0.27000E+04
         0.27000E+04
         0.27000E+04
         0.27000E+04
         0.27000E+04
         0.27000E+04
         0.27000E+04
         0.27000E+04
         0.27000E+04
         0.27000E+04
         0.27000E+04
         0.27000E+04
         0.27000E+04
         0.27000E+04
         0.27000E+04
         0.27000E+04
         0.27000E+04
         0.27000E+04
         0.27000E+04
         0.27000E+04
         0.27000E+04
         0.27000E+04
         0.27000E+04
         0.27000E+04
         0.27000E+04
         0.27000E+04
         0.27000E+04
         0.27000E+04
         0.27000E+04
         0.27000E+04
         0.27000E+04
         0.27000E+04
         0.27000E+04
         0.27000E+04
         0.27000E+04
         0.27000E+04
         0.27000E+04
         0.27000E+04
         0.27000E+04
         0.27000E+04
         0.27000E+04
         0.27000E+04
         0.27000E+04
         0.27000E+04
         0.27000E+04
         0.27000E+04
         0.27000E+04
         0.27000E+04
         0.27000E+04
         0.27000E+04
         0.27000E+04
         0.27000E+04
         0.27000E+04
         0.27000E+04
         0.27000E+04
         0.27000E+04
         0.27000E+04
         0.27000E+04
         0.27000E+04
         0.27000E+04
         0.27000E+04
         0.27000E+04
         0.27000E+04
         0.27000E+04
         0.27000E+04
         0.27000E+04
         0.27000E+04
         0.27000E+04
         0.27000E+04
         0.27000E+04
         0.27000E+04
         0.27000E+04
         0.27000E+04
         0.27000E+04
         0.27000E+04
         0.27000E+04
         0.27000E+04
         0.27000E+04
         0.27000E+04
         0.27000E+04
         0.27000E+04
         0.27000E+04
         0.27000E+04
         0.27000E+04
         0.27000E+04
         0.27000E+04
         0.27000E+04
         0.27000E+04
         0.27000E+04
         0.27000E+04
         0.27000E+04
         0.27000E+04
         0.27000E+04
         0.27000E+04
         0.27000E+04
         0.27000E+04
         0.27000E+04
         0.27000E+04
         0.27000E+04
         0.27000E+04
         0.27000E+04
         0.27000E+04
         0.27000E+04
         0.27000E+04
         0.27000E+04
         0.27000E+04
         0.27000E+04
         0.27000E+04
         0.27000E+04
         0.27000E+04
         0.27000E+04
         0.27000E+04
         0.27000E+04
         0.27000E+04
         0.27000E+04
         0.27000E+04
         0.27000E+04
         0.27000E+04
         0.27000E+04
         0.27000E+04
         0.27000E+04
         0.27000E+04
         0.27000E+04
         0.27000E+04
         0.27000E+04
         0.27000E+04
         0.27000E+04
         0.27000E+04
         0.27000E+04
         0.27000E+04
         0.27000E+04
         0.27000E+04
         0.27000E+04
         0.27000E+04
         0.27000E+04
         0.27000E+04
         0.27000E+04
         0.27000E+04
         0.27000E+04
         0.27000E+04
         0.27000E+04
         0.27000E+04
         0.27000E+04
         0.27000E+04
         0.27000E+04
         0.27000E+04
         0.27000E+04
         0.27000E+04
         0.27000E+04
         0.27000E+04
         0.27000E+04
         0.27000E+04
         0.27000E+04
         0.27000E+04
         0.27000E+04
         0.27000E+04
         0.27000E+04
         0.27000E+04
         0.27000E+04
         0.27000E+04
         0.27000E+04
         0.27000E+04
         0.27000E+04
         0.27000E+04
         0.27000E+04
         0.27000E+04
         0.27000E+04
         0.27000E+04
         0.27000E+04
         0.27000E+04
         0.27000E+04
         0.27000E+04
         0.27000E+04
         0.27000E+04
         0.27000E+04
         0.27000E+04
         0.27000E+04
         0.27000E+04
         0.27000E+04
         0.27000E+04
         0.27000E+04
         0.27000E+04
         0.27000E+04
         0.27000E+04
         0.27000E+04
         0.27000E+04
         0.27000E+04
         0.27000E+04
         0.27000E+04
         0.27000E+04
         0.27000E+04
         0.27000E+04
         0.27000E+04
         0.27000E+04
         0.27000E+04
         0.27000E+04
         0.27000E+04
         0.27000E+04
         0.27000E+04
         0.27000E+04
         0.27000E+04
         0.27000E+04
         0.27000E+04
         0.27000E+04
         0.27000E+04
         0.27000E+04
         0.27000E+04
         0.27000E+04
         0.27000E+04
         0.27000E+04
         0.27000E+04
         0.27000E+04
         0.27000E+04
         0.27000E+04
         0.27000E+04
         0.27000E+04
         0.27000E+04
         0.27000E+04
         0.27000E+04
         0.27000E+04
         0.27000E+04
         0.27000E+04
         0.27000E+04
         0.27000E+04
         0.27000E+04
         0.27000E+04
         0.27000E+04
         0.27000E+04
         0.27000E+04
         0.27000E+04
         0.27000E+04
         0.27000E+04
         0.27000E+04
         0.27000E+04
         0.27000E+04
         0.27000E+04
         0.27000E+04
         0.27000E+04
         0.27000E+04
         0.27000E+04
         0.27000E+04
         0.27000E+04
         0.27000E+04
         0.27000E+04
         0.27000E+04
         0.27000E+04
         0.27000E+04
         0.27000E+04
         0.27000E+04
         0.27000E+04
         0.27000E+04
         0.27000E+04
         0.27000E+04
         0.27000E+04
         0.27000E+04
         0.27000E+04
         0.27000E+04
         0.27000E+04
         0.27000E+04
         0.27000E+04
         0.27000E+04
         0.27000E+04
         0.27000E+04
         0.27000E+04
         0.27000E+04
         0.27000E+04
         0.27000E+04
         0.27000E+04
         0.27000E+04
         0.27000E+04
         0.27000E+04
         0.27000E+04
         0.27000E+04
         0.27000E+04
         0.27000E+04
         0.27000E+04
         0.27000E+04
         0.27000E+04
         0.27000E+04
         0.27000E+04
         0.27000E+04
         0.27000E+04
         0.27000E+04
         0.27000E+04
         0.27000E+04
         0.27000E+04
         0.27000E+04
         0.27000E+04
         0.27000E+04
         0.27000E+04
         0.27000E+04
         0.27000E+04
         0.27000E+04
         0.27000E+04
         0.27000E+04
         0.27000E+04
         0.27000E+04
         0.27000E+04
         0.27000E+04
         0.27000E+04
         0.27000E+04
         0.27000E+04
         0.27000E+04
         0.27000E+04
         0.27000E+04
         0.27000E+04
         0.27000E+04
         0.27000E+04
         0.27000E+04
         0.27000E+04
         0.27000E+04
         0.27000E+04
         0.27000E+04
         0.27000E+04
         0.27000E+04
         0.27000E+04
         0.27000E+04
         0.27000E+04
         0.27000E+04
         0.27000E+04
         0.27000E+04
         0.27000E+04
         0.27000E+04
         0.27000E+04
         0.27000E+04
         0.27000E+04
         0.27000E+04
         0.27000E+04
         0.27000E+04
         0.27000E+04
         0.27000E+04
         0.27000E+04
         0.27000E+04
         0.27000E+04
         0.27000E+04
         0.27000E+04
         0.27000E+04
         0.27000E+04
         0.27000E+04
         0.27000E+04
         0.27000E+04
         0.27000E+04
         0.27000E+04
         0.27000E+04
         0.27000E+04
         0.27000E+04
         0.27000E+04
         0.27000E+04
         0.27000E+04
         0.27000E+04
         0.27000E+04
         0.27000E+04
         0.27000E+04
         0.27000E+04
         0.27000E+04
         0.27000E+04
         0.27000E+04
         0.27000E+04
         0.27000E+04
         0.27000E+04
         0.27000E+04
         0.27000E+04
         0.27000E+04
         0.27000E+04
         0.27000E+04
         0.27000E+04
         0.27000E+04
         0.27000E+04
         0.27000E+04
         0.27000E+04
         0.27000E+04
         0.27000E+04
         0.27000E+04
         0.27000E+04
         0.27000E+04
         0.27000E+04
         0.27000E+04
         0.27000E+04
         0.27000E+04
         0.27000E+04
         0.27000E+04
         0.27000E+04
         0.27000E+04
         0.27000E+04
         0.27000E+04
         0.27000E+04
         0.27000E+04
         0.27000E+04
         0.27000E+04
         0.27000E+04
         0.27000E+04
         0.27000E+04
         0.27000E+04
         0.27000E+04
         0.27000E+04
         0.27000E+04
         0.27000E+04
         0.27000E+04
         0.27000E+04
         0.27000E+04
         0.27000E+04
         0.27000E+04
         0.27000E+04
         0.27000E+04
         0.27000E+04
         0.27000E+04
         0.27000E+04
         0.27000E+04
         0.27000E+04
         0.27000E+04
         0.27000E+04
         0.27000E+04
         0.27000E+04
         0.27000E+04
         0.27000E+04
         0.27000E+04
         0.27000E+04
         0.27000E+04
         0.27000E+04
         0.27000E+04
         0.27000E+04
         0.27000E+04
         0.27000E+04
         0.27000E+04
         0.27000E+04
         0.27000E+04
         0.27000E+04
         0.27000E+04
         0.27000E+04
         0.27000E+04
         0.27000E+04
         0.27000E+04
         0.27000E+04
         0.27000E+04
         0.27000E+04
         0.27000E+04
         0.27000E+04
         0.27000E+04
         0.27000E+04
         0.27000E+04
         0.27000E+04
         0.27000E+04
         0.27000E+04
         0.27000E+04
         0.27000E+04
         0.27000E+04
         0.27000E+04
         0.27000E+04
         0.27000E+04
         0.27000E+04
         0.27000E+04
         0.27000E+04
         0.27000E+04
         0.27000E+04
         0.27000E+04
         0.27000E+04
         0.27000E+04
         0.27000E+04
         0.27000E+04
         0.27000E+04
         0.27000E+04
         0.27000E+04
         0.27000E+04
         0.27000E+04
         0.27000E+04
         0.27000E+04
         0.27000E+04
         0.27000E+04
         0.27000E+04
         0.27000E+04
         0.27000E+04
         0.27000E+04
         0.27000E+04
         0.27000E+04
         0.27000E+04
         0.27000E+04
         0.27000E+04
         0.27000E+04
         0.27000E+04
         0.27000E+04
         0.27000E+04
         0.27000E+04
         0.27000E+04
         0.27000E+04
         0.27000E+04
         0.27000E+04
         0.27000E+04
         0.27000E+04
         0.27000E+04
         0.27000E+04
         0.27000E+04
         0.27000E+04
         0.27000E+04
         0.27000E+04
         0.27000E+04
         0.27000E+04
         0.27000E+04
         0.27000E+04
         0.27000E+04
         0.27000E+04
         0.27000E+04
         0.27000E+04
         0.27000E+04
         0.27000E+04
         0.27000E+04
         0.27000E+04
         0.27000E+04
         0.27000E+04
         0.27000E+04
         0.27000E+04
         0.27000E+04
         0.27000E+04
         0.27000E+04
         0.27000E+04
         0.27000E+04
         0.27000E+04
         0.27000E+04
         0.27000E+04
         0.27000E+04
         0.27000E+04
         0.27000E+04
         0.27000E+04
         0.27000E+04
         0.27000E+04
         0.27000E+04
         0.27000E+04
         0.27000E+04
         0.27000E+04
         0.27000E+04
         0.27000E+04
         0.27000E+04
         0.27000E+04
         0.27000E+04
         0.27000E+04
         0.27000E+04
         0.27000E+04
         0.27000E+04
         0.27000E+04
         0.27000E+04
         0.27000E+04
         0.27000E+04
         0.27000E+04
         0.27000E+04
         0.27000E+04
         0.27000E+04
         0.27000E+04
         0.27000E+04
         0.27000E+04
         0.27000E+04
         0.27000E+04
         0.27000E+04
         0.27000E+04
         0.27000E+04
         0.27000E+04
         0.27000E+04
         0.27000E+04
         0.27000E+04
         0.27000E+04
         0.27000E+04
         0.27000E+04
         0.27000E+04
         0.27000E+04
         0.27000E+04
         0.27000E+04
         0.27000E+04
         0.27000E+04
         0.27000E+04
         0.27000E+04
         0.27000E+04
         0.27000E+04
         0.27000E+04
         0.27000E+04
         0.27000E+04
         0.27000E+04
         0.27000E+04
         0.27000E+04
         0.27000E+04
         0.27000E+04
         0.27000E+04
         0.27000E+04
         0.27000E+04
         0.27000E+04
         0.27000E+04
         0.27000E+04
         0.27000E+04
         0.27000E+04
         0.27000E+04
         0.27000E+04
         0.27000E+04
         0.27000E+04
         0.27000E+04
         0.27000E+04
         0.27000E+04
         0.27000E+04
         0.27000E+04
         0.27000E+04
         0.27000E+04
         0.27000E+04
         0.27000E+04
         0.27000E+04
         0.27000E+04
         0.27000E+04
         0.27000E+04
         0.27000E+04
         0.27000E+04
         0.27000E+04
         0.27000E+04
         0.27000E+04
         0.27000E+04
         0.27000E+04
         0.27000E+04
         0.27000E+04
         0.27000E+04
         0.27000E+04
         0.27000E+04
         0.27000E+04
         0.27000E+04
         0.27000E+04
         0.27000E+04
         0.27000E+04
         0.27000E+04
         0.27000E+04
         0.27000E+04
         0.27000E+04
         0.27000E+04
         0.27000E+04
         0.27000E+04
         0.27000E+04
         0.27000E+04
         0.27000E+04
         0.27000E+04
         0.27000E+04
         0.27000E+04
         0.27000E+04
         0.27000E+04
         0.27000E+04
         0.27000E+04
         0.27000E+04
         0.27000E+04
         0.27000E+04
         0.27000E+04
         0.27000E+04
         0.27000E+04
         0.27000E+04
         0.27000E+04
         0.27000E+04
         0.27000E+04
         0.27000E+04
         0.27000E+04
         0.27000E+04
         0.27000E+04
         0.27000E+04
         0.27000E+04
         0.27000E+04
         0.27000E+04
         0.27000E+04
         0.27000E+04
         0.27000E+04
         0.27000E+04
         0.27000E+04
         0.27000E+04
         0.27000E+04
         0.27000E+04
         0.27000E+04
         0.27000E+04
         0.27000E+04
         0.27000E+04
         0.27000E+04
         0.27000E+04
         0.27000E+04
         0.27000E+04
         0.27000E+04
         0.27000E+04
         0.27000E+04
         0.27000E+04
         0.27000E+04
         0.27000E+04
         0.27000E+04
         0.27000E+04
         0.27000E+04
         0.27000E+04
         0.27000E+04
         0.27000E+04
         0.27000E+04
         0.27000E+04
         0.27000E+04
         0.27000E+04
         0.27000E+04
         0.27000E+04
         0.27000E+04
         0.27000E+04
         0.27000E+04
         0.27000E+04
         0.27000E+04
         0.27000E+04
         0.27000E+04
         0.27000E+04
         0.27000E+04
         0.27000E+04
         0.27000E+04
         0.27000E+04
         0.27000E+04
         0.27000E+04
         0.27000E+04
         0.27000E+04
         0.27000E+04
         0.27000E+04
         0.27000E+04
         0.27000E+04
         0.27000E+04
         0.27000E+04
         0.27000E+04
         0.27000E+04
         0.27000E+04
         0.27000E+04
         0.27000E+04
         0.27000E+04
         0.27000E+04
         0.27000E+04
         0.27000E+04
         0.27000E+04
         0.27000E+04
         0.27000E+04
         0.27000E+04
         0.27000E+04
         0.27000E+04
         0.27000E+04
         0.27000E+04
         0.27000E+04
         0.27000E+04
         0.27000E+04
         0.27000E+04
         0.27000E+04
         0.27000E+04
         0.27000E+04
         0.27000E+04
         0.27000E+04
         0.27000E+04
         0.27000E+04
         0.27000E+04
         0.27000E+04
         0.27000E+04
         0.27000E+04
         0.27000E+04
         0.27000E+04
         0.27000E+04
         0.27000E+04
         0.27000E+04
         0.27000E+04
         0.27000E+04
         0.27000E+04
         0.27000E+04
         0.27000E+04
         0.27000E+04
         0.27000E+04
         0.27000E+04
         0.27000E+04
         0.27000E+04
         0.27000E+04
         0.27000E+04
         0.27000E+04
         0.27000E+04
         0.27000E+04
         0.27000E+04
         0.27000E+04
         0.27000E+04
         0.27000E+04
         0.27000E+04
         0.27000E+04
         0.27000E+04
         0.27000E+04
         0.27000E+04
         0.27000E+04
         0.27000E+04
         0.27000E+04
         0.27000E+04
         0.27000E+04
         0.27000E+04
         0.27000E+04
         0.27000E+04
         0.27000E+04
         0.27000E+04
         0.27000E+04
         0.27000E+04
         0.27000E+04
         0.27000E+04
         0.27000E+04
         0.27000E+04
         0.27000E+04
         0.27000E+04
         0.27000E+04
         0.27000E+04
         0.27000E+04
         0.27000E+04
         0.27000E+04
         0.27000E+04
         0.27000E+04
         0.27000E+04
         0.27000E+04
         0.27000E+04
         0.27000E+04
         0.27000E+04
         0.27000E+04
         0.27000E+04
         0.27000E+04
         0.27000E+04
         0.27000E+04
         0.27000E+04
         0.27000E+04
         0.27000E+04
         0.27000E+04
         0.27000E+04
         0.27000E+04
         0.27000E+04
         0.27000E+04
         0.27000E+04
         0.27000E+04
         0.27000E+04
         0.27000E+04
         0.27000E+04
         0.27000E+04
         0.27000E+04
         0.27000E+04
         0.27000E+04
         0.27000E+04
         0.27000E+04
         0.27000E+04
         0.27000E+04
         0.27000E+04
         0.27000E+04
         0.27000E+04
         0.27000E+04
         0.27000E+04
         0.27000E+04
         0.27000E+04
         0.27000E+04
         0.27000E+04
         0.27000E+04
         0.27000E+04
         0.27000E+04
         0.27000E+04
         0.27000E+04
         0.27000E+04
         0.27000E+04
         0.27000E+04
         0.27000E+04
         0.27000E+04
         0.27000E+04
         0.27000E+04
         0.27000E+04
         0.27000E+04
         0.27000E+04
         0.27000E+04
         0.27000E+04
         0.27000E+04
         0.27000E+04
         0.27000E+04
         0.27000E+04
         0.27000E+04
         0.27000E+04
         0.27000E+04
         0.27000E+04
         0.27000E+04
         0.27000E+04
         0.27000E+04
         0.27000E+04
         0.27000E+04
         0.27000E+04
         0.27000E+04
         0.27000E+04
         0.27000E+04
         0.27000E+04
         0.27000E+04
         0.27000E+04
         0.27000E+04
         0.27000E+04
         0.27000E+04
         0.27000E+04
         0.27000E+04
         0.27000E+04
         0.27000E+04
         0.27000E+04
         0.27000E+04
         0.27000E+04
         0.27000E+04
         0.27000E+04
         0.27000E+04
         0.27000E+04
         0.27000E+04
         0.27000E+04
         0.27000E+04
         0.27000E+04
         0.27000E+04
         0.27000E+04
         0.27000E+04
         0.27000E+04
         0.27000E+04
         0.27000E+04
         0.27000E+04
         0.27000E+04
         0.27000E+04
         0.27000E+04
         0.27000E+04
         0.27000E+04
         0.27000E+04
         0.27000E+04
         0.27000E+04
         0.27000E+04
         0.27000E+04
         0.27000E+04
         0.27000E+04
         0.27000E+04
         0.27000E+04
         0.27000E+04
         0.27000E+04
         0.27000E+04
         0.27000E+04
         0.27000E+04
         0.27000E+04
         0.27000E+04
         0.27000E+04
         0.27000E+04
         0.27000E+04
         0.27000E+04
         0.27000E+04
         0.27000E+04
         0.27000E+04
         0.27000E+04
         0.27000E+04
         0.27000E+04
         0.27000E+04
         0.27000E+04
         0.27000E+04
         0.27000E+04
         0.27000E+04
         0.27000E+04
         0.27000E+04
         0.27000E+04
         0.27000E+04
         0.27000E+04
         0.27000E+04
         0.27000E+04
         0.27000E+04
         0.27000E+04
         0.27000E+04
         0.27000E+04
         0.27000E+04
         0.27000E+04
         0.27000E+04
         0.27000E+04
         0.27000E+04
         0.27000E+04
         0.27000E+04
         0.27000E+04
         0.27000E+04
         0.27000E+04
         0.27000E+04
         0.27000E+04
         0.27000E+04
         0.27000E+04
         0.27000E+04
         0.27000E+04
         0.27000E+04
         0.27000E+04
         0.27000E+04
         0.27000E+04
         0.27000E+04
         0.27000E+04
         0.27000E+04
         0.27000E+04
         0.27000E+04
         0.27000E+04
         0.27000E+04
         0.27000E+04
         0.27000E+04
         0.27000E+04
         0.27000E+04
         0.27000E+04
         0.27000E+04
         0.27000E+04
         0.27000E+04
         0.27000E+04
         0.27000E+04
         0.27000E+04
         0.27000E+04
         0.27000E+04
         0.27000E+04
         0.27000E+04
         0.27000E+04
         0.27000E+04
         0.27000E+04
         0.27000E+04
         0.27000E+04
         0.27000E+04
         0.27000E+04
         0.27000E+04
         0.27000E+04
         0.27000E+04
         0.27000E+04
         0.27000E+04
         0.27000E+04
         0.27000E+04
         0.27000E+04
         0.27000E+04
         0.27000E+04
         0.27000E+04
         0.27000E+04
         0.27000E+04
         0.27000E+04
         0.27000E+04
         0.27000E+04
         0.27000E+04
         0.27000E+04
         0.27000E+04
         0.27000E+04
         0.27000E+04
         0.27000E+04
         0.27000E+04
         0.27000E+04
         0.27000E+04
         0.27000E+04
         0.27000E+04
         0.27000E+04
         0.27000E+04
         0.27000E+04
         0.27000E+04
         0.27000E+04
         0.27000E+04
         0.27000E+04
         0.27000E+04
         0.27000E+04
         0.27000E+04
         0.27000E+04
         0.27000E+04
         0.27000E+04
         0.27000E+04
         0.27000E+04
         0.27000E+04
         0.27000E+04
         0.27000E+04
         0.27000E+04
         0.27000E+04
         0.27000E+04
         0.27000E+04
         0.27000E+04
         0.27000E+04
         0.27000E+04
         0.27000E+04
         0.27000E+04
         0.27000E+04
         0.27000E+04
         0.27000E+04
         0.27000E+04
         0.27000E+04
         0.27000E+04
         0.27000E+04
         0.27000E+04
         0.27000E+04
         0.27000E+04
         0.27000E+04
         0.27000E+04
         0.27000E+04
         0.27000E+04
         0.27000E+04
         0.27000E+04
         0.27000E+04
         0.27000E+04
         0.27000E+04
         0.27000E+04
         0.27000E+04
         0.27000E+04
         0.27000E+04
         0.27000E+04
         0.27000E+04
         0.27000E+04
         0.27000E+04
         0.27000E+04
         0.27000E+04
         0.27000E+04
         0.27000E+04
         0.27000E+04
         0.27000E+04
         0.27000E+04
         0.27000E+04
         0.27000E+04
         0.27000E+04
         0.27000E+04
         0.27000E+04
         0.27000E+04
         0.27000E+04
         0.27000E+04
         0.27000E+04
         0.27000E+04
         0.27000E+04
         0.27000E+04
         0.27000E+04
         0.27000E+04
         0.27000E+04
         0.27000E+04
         0.27000E+04
         0.27000E+04
         0.27000E+04
         0.27000E+04
         0.27000E+04
         0.27000E+04
         0.27000E+04
         0.27000E+04
         0.27000E+04
         0.27000E+04
         0.27000E+04
         0.27000E+04
         0.27000E+04
         0.27000E+04
         0.27000E+04
         0.27000E+04
         0.27000E+04
         0.27000E+04
         0.27000E+04
         0.27000E+04
         0.27000E+04
         0.27000E+04
         0.27000E+04
         0.27000E+04
         0.27000E+04
         0.27000E+04
         0.27000E+04
         0.27000E+04
         0.27000E+04
         0.27000E+04
         0.27000E+04
         0.27000E+04
         0.27000E+04
         0.27000E+04
         0.27000E+04
         0.27000E+04
         0.27000E+04
         0.27000E+04
         0.27000E+04
         0.27000E+04
         0.27000E+04
         0.27000E+04
         0.27000E+04
         0.27000E+04
         0.27000E+04
         0.27000E+04
         0.27000E+04
         0.27000E+04
         0.27000E+04
         0.27000E+04
         0.27000E+04
         0.27000E+04
         0.27000E+04
         0.27000E+04
         0.27000E+04
         0.27000E+04
         0.27000E+04
         0.27000E+04
         0.27000E+04
         0.27000E+04
         0.27000E+04
         0.27000E+04
         0.27000E+04
         0.27000E+04
         0.27000E+04
         0.27000E+04
         0.27000E+04
         0.27000E+04
         0.27000E+04
         0.27000E+04
         0.27000E+04
         0.27000E+04
         0.27000E+04
         0.27000E+04
         0.27000E+04
         0.27000E+04
         0.27000E+04
         0.27000E+04
         0.27000E+04
         0.27000E+04
         0.27000E+04
         0.27000E+04
         0.27000E+04
         0.27000E+04
         0.27000E+04
         0.27000E+04
         0.27000E+04
         0.27000E+04
         0.27000E+04
         0.27000E+04
         0.27000E+04
         0.27000E+04
         0.27000E+04
         0.27000E+04
         0.27000E+04
         0.27000E+04
         0.27000E+04
         0.27000E+04
         0.27000E+04
         0.27000E+04
         0.27000E+04
         0.27000E+04
         0.27000E+04
         0.27000E+04
         0.27000E+04
         0.27000E+04
         0.27000E+04
         0.27000E+04
         0.27000E+04
         0.27000E+04
         0.27000E+04
         0.27000E+04
         0.27000E+04
         0.27000E+04
         0.27000E+04
         0.27000E+04
         0.27000E+04
         0.27000E+04
         0.27000E+04
         0.27000E+04
         0.27000E+04
         0.27000E+04
         0.27000E+04
         0.27000E+04
         0.27000E+04
         0.27000E+04
         0.27000E+04
         0.27000E+04
         0.27000E+04
         0.27000E+04
         0.27000E+04
         0.27000E+04
         0.27000E+04
         0.27000E+04
         0.27000E+04
         0.27000E+04
         0.27000E+04
         0.27000E+04
         0.27000E+04
         0.27000E+04
         0.27000E+04
         0.27000E+04
         0.27000E+04
         0.27000E+04
         0.27000E+04
         0.27000E+04
         0.27000E+04
         0.27000E+04
         0.27000E+04
         0.27000E+04
         0.27000E+04
         0.27000E+04
         0.27000E+04
         0.27000E+04
         0.27000E+04
         0.27000E+04
         0.27000E+04
         0.27000E+04
         0.27000E+04
         0.27000E+04
         0.27000E+04
         0.27000E+04
         0.27000E+04
         0.27000E+04
         0.27000E+04
         0.27000E+04
         0.27000E+04
         0.27000E+04
         0.27000E+04
         0.27000E+04
         0.27000E+04
         0.27000E+04
         0.27000E+04
         0.27000E+04
         0.27000E+04
         0.27000E+04
         0.27000E+04
         0.27000E+04
         0.27000E+04
         0.27000E+04
         0.27000E+04
         0.27000E+04
         0.27000E+04
         0.27000E+04
         0.27000E+04
         0.27000E+04
         0.27000E+04
         0.27000E+04
         0.27000E+04
         0.27000E+04
         0.27000E+04
         0.27000E+04
         0.27000E+04
         0.27000E+04
         0.27000E+04
         0.27000E+04
         0.27000E+04
         0.27000E+04
         0.27000E+04
         0.27000E+04
         0.27000E+04
         0.27000E+04
         0.27000E+04
         0.27000E+04
         0.27000E+04
         0.27000E+04
         0.27000E+04
         0.27000E+04
         0.27000E+04
         0.27000E+04
         0.27000E+04
         0.27000E+04
         0.27000E+04
         0.27000E+04
         0.27000E+04
         0.27000E+04
         0.27000E+04
         0.27000E+04
         0.27000E+04
         0.27000E+04
         0.27000E+04
         0.27000E+04
         0.27000E+04
         0.27000E+04
         0.27000E+04
         0.27000E+04
         0.27000E+04
         0.27000E+04
         0.27000E+04
         0.27000E+04
         0.27000E+04
         0.27000E+04
         0.27000E+04
         0.27000E+04
         0.27000E+04
         0.27000E+04
         0.27000E+04
         0.27000E+04
         0.27000E+04
         0.27000E+04
         0.27000E+04
         0.27000E+04
         0.27000E+04
         0.27000E+04
         0.27000E+04
         0.27000E+04
         0.27000E+04
         0.27000E+04
         0.27000E+04
         0.27000E+04
         0.27000E+04
         0.27000E+04
         0.27000E+04
         0.27000E+04
         0.27000E+04
         0.27000E+04
         0.27000E+04
         0.27000E+04
         0.27000E+04
         0.27000E+04
         0.27000E+04
         0.27000E+04
         0.27000E+04
         0.27000E+04
         0.27000E+04
         0.27000E+04
         0.27000E+04
         0.27000E+04
         0.27000E+04
         0.27000E+04
         0.27000E+04
         0.27000E+04
         0.27000E+04
         0.27000E+04
         0.27000E+04
         0.27000E+04
         0.27000E+04
         0.27000E+04
         0.27000E+04
         0.27000E+04
         0.27000E+04
         0.27000E+04
         0.27000E+04
         0.27000E+04
         0.27000E+04
         0.27000E+04
         0.27000E+04
         0.27000E+04
         0.27000E+04
         0.27000E+04
         0.27000E+04
         0.27000E+04
         0.27000E+04
         0.27000E+04
         0.27000E+04
         0.27000E+04
         0.27000E+04
         0.27000E+04
         0.27000E+04
         0.27000E+04
         0.27000E+04
         0.27000E+04
         0.27000E+04
         0.27000E+04
         0.27000E+04
         0.27000E+04
         0.27000E+04
         0.27000E+04
         0.27000E+04
         0.27000E+04
         0.27000E+04
         0.27000E+04
         0.27000E+04
         0.27000E+04
         0.27000E+04
         0.27000E+04
         0.27000E+04
         0.27000E+04
         0.27000E+04
         0.27000E+04
         0.27000E+04
         0.27000E+04
         0.27000E+04
         0.27000E+04
         0.27000E+04
         0.27000E+04
         0.27000E+04
         0.27000E+04
         0.27000E+04
         0.27000E+04
         0.27000E+04
         0.27000E+04
         0.27000E+04
         0.27000E+04
         0.27000E+04
         0.27000E+04
         0.27000E+04
         0.27000E+04
         0.27000E+04
         0.27000E+04
         0.27000E+04
         0.27000E+04
         0.27000E+04
         0.27000E+04
         0.27000E+04
         0.27000E+04
         0.27000E+04
         0.27000E+04
         0.27000E+04
         0.27000E+04
         0.27000E+04
         0.27000E+04
         0.27000E+04
         0.27000E+04
         0.27000E+04
         0.27000E+04
         0.27000E+04
         0.27000E+04
         0.27000E+04
         0.27000E+04
         0.27000E+04
         0.27000E+04
         0.27000E+04
         0.27000E+04
         0.27000E+04
         0.27000E+04
         0.27000E+04
         0.27000E+04
         0.27000E+04
         0.27000E+04
         0.27000E+04
         0.27000E+04
         0.27000E+04
         0.27000E+04
         0.27000E+04
         0.27000E+04
         0.27000E+04
         0.27000E+04
         0.27000E+04
         0.27000E+04
         0.27000E+04
         0.27000E+04
         0.27000E+04
         0.27000E+04
         0.27000E+04
         0.27000E+04
         0.27000E+04
         0.27000E+04
         0.27000E+04
         0.27000E+04
         0.27000E+04
         0.27000E+04
         0.27000E+04
         0.27000E+04
         0.27000E+04
         0.27000E+04
         0.27000E+04
         0.27000E+04
         0.27000E+04
         0.27000E+04
         0.27000E+04
         0.27000E+04
         0.27000E+04
         0.27000E+04
         0.27000E+04
         0.27000E+04
         0.27000E+04
         0.27000E+04
         0.27000E+04
         0.27000E+04
         0.27000E+04
         0.27000E+04
         0.27000E+04
         0.27000E+04
         0.27000E+04
         0.27000E+04
         0.27000E+04
         0.27000E+04
         0.27000E+04
         0.27000E+04
         0.27000E+04
         0.27000E+04
         0.27000E+04
         0.27000E+04
         0.27000E+04
         0.27000E+04
         0.27000E+04
         0.27000E+04
         0.27000E+04
         0.27000E+04
         0.27000E+04
         0.27000E+04
         0.27000E+04
         0.27000E+04
         0.27000E+04
