# vtk DataFile Version 2.0
               (MEGA VTK FILE)
ASCII
DATASET UNSTRUCTURED_GRID
POINTS       1950    double
  0.28316E-02  0.19288E-02 -0.11605E-01
  0.42920E-02  0.30587E-02 -0.11525E-01
  0.55020E-02  0.14611E-02 -0.11505E-01
  0.42967E-02 -0.79016E-03 -0.11595E-01
  0.34341E-02  0.22025E-02 -0.11750E-01
  0.50746E-02  0.31368E-02 -0.11750E-01
  0.60718E-02  0.20025E-02 -0.11750E-01
  0.53208E-02 -0.46539E-03 -0.11750E-01
  0.65946E-02  0.39564E-03 -0.11425E-01
  0.61708E-02 -0.14373E-02 -0.11467E-01
  0.67931E-02  0.74202E-03 -0.11750E-01
  0.75616E-02 -0.15539E-02 -0.11750E-01
  0.31885E-02  0.44619E-02 -0.11493E-01
  0.18866E-02  0.38578E-02 -0.11577E-01
  0.32971E-02  0.49672E-02 -0.11750E-01
  0.28636E-02  0.47000E-02 -0.11750E-01
  0.35924E-03  0.95471E-03 -0.11638E-01
 -0.20044E-03  0.32455E-02 -0.11620E-01
  0.48499E-03  0.16923E-02 -0.11750E-01
  0.19932E-03  0.35137E-02 -0.11750E-01
  0.23980E-02  0.53166E-02 -0.11465E-01
  0.25981E-02  0.60855E-02 -0.11381E-01
  0.37992E-02  0.52791E-02 -0.11391E-01
  0.24903E-02  0.53736E-02 -0.11750E-01
  0.31056E-02  0.66754E-02 -0.11750E-01
  0.34723E-02  0.61703E-02 -0.11750E-01
  0.12515E-02  0.52486E-02 -0.11527E-01
  0.11128E-02  0.63657E-02 -0.11440E-01
  0.17717E-02  0.57694E-02 -0.11750E-01
  0.14561E-02  0.69295E-02 -0.11750E-01
 -0.20913E-02 -0.27723E-02 -0.11605E-01
 -0.24115E-02  0.16467E-03 -0.11631E-01
  0.11844E-02 -0.19067E-02 -0.11633E-01
 -0.31308E-02 -0.36991E-02 -0.11750E-01
 -0.28128E-02  0.24646E-04 -0.11750E-01
  0.12602E-02 -0.20817E-02 -0.11750E-01
 -0.45437E-02 -0.20357E-02 -0.11555E-01
 -0.46924E-02  0.26670E-04 -0.11588E-01
 -0.49936E-02 -0.29169E-02 -0.11750E-01
 -0.55711E-02 -0.75003E-03 -0.11750E-01
 -0.60001E-02 -0.19962E-02 -0.11449E-01
 -0.62409E-02 -0.75833E-04 -0.11484E-01
 -0.66298E-02 -0.23223E-02 -0.11750E-01
 -0.69245E-02 -0.73363E-04 -0.11750E-01
 -0.54646E-02 -0.34948E-02 -0.11397E-01
 -0.45365E-02 -0.33390E-02 -0.11489E-01
 -0.60292E-02 -0.37526E-02 -0.11750E-01
 -0.46685E-02 -0.35201E-02 -0.11750E-01
 -0.26165E-02  0.26604E-02 -0.11618E-01
 -0.32971E-02  0.33876E-02 -0.11750E-01
 -0.34533E-02 -0.42723E-02 -0.11500E-01
 -0.37782E-02 -0.48212E-02 -0.11750E-01
 -0.59125E-03  0.50330E-02 -0.11568E-01
 -0.36062E-03  0.57874E-02 -0.11750E-01
 -0.26612E-02  0.45995E-02 -0.11560E-01
 -0.31507E-02  0.54627E-02 -0.11750E-01
 -0.44012E-02  0.40636E-02 -0.11506E-01
 -0.46506E-02  0.22318E-02 -0.11575E-01
 -0.49285E-02  0.45146E-02 -0.11750E-01
 -0.54519E-02  0.27936E-02 -0.11750E-01
 -0.50653E-03 -0.49618E-02 -0.11564E-01
 -0.22844E-02 -0.54859E-02 -0.11474E-01
 -0.98750E-03 -0.58808E-02 -0.11750E-01
 -0.27834E-02 -0.55835E-02 -0.11750E-01
  0.19620E-02 -0.43473E-02 -0.11586E-01
  0.26374E-02 -0.54662E-02 -0.11750E-01
  0.41663E-02 -0.36116E-02 -0.11541E-01
  0.48147E-02 -0.46712E-02 -0.11750E-01
  0.67130E-02  0.15975E-02 -0.11362E-01
  0.60483E-02  0.26470E-02 -0.11395E-01
  0.76652E-02  0.16571E-02 -0.11750E-01
  0.64984E-02  0.24189E-02 -0.11750E-01
  0.50060E-02  0.40407E-02 -0.11419E-01
  0.55444E-02  0.44619E-02 -0.11750E-01
 -0.75751E-03  0.63457E-02 -0.11470E-01
 -0.86956E-03  0.70013E-02 -0.11750E-01
 -0.26635E-02  0.59283E-02 -0.11450E-01
 -0.34815E-02  0.64999E-02 -0.11750E-01
 -0.42190E-02  0.52764E-02 -0.11386E-01
 -0.46661E-02  0.55166E-02 -0.11750E-01
 -0.51776E-02  0.47070E-02 -0.11322E-01
 -0.56154E-02  0.36568E-02 -0.11405E-01
 -0.58007E-02  0.52207E-02 -0.11750E-01
 -0.57572E-02  0.43181E-02 -0.11750E-01
 -0.60839E-02  0.19470E-02 -0.11469E-01
 -0.68420E-02  0.26088E-02 -0.11750E-01
 -0.45069E-02 -0.47322E-02 -0.11389E-01
 -0.49062E-02 -0.49702E-02 -0.11750E-01
 -0.34340E-02 -0.57924E-02 -0.11367E-01
 -0.33761E-02 -0.64703E-02 -0.11750E-01
 -0.25756E-02 -0.64906E-02 -0.11334E-01
 -0.14226E-02 -0.65108E-02 -0.11398E-01
 -0.29612E-02 -0.72822E-02 -0.11750E-01
 -0.18650E-02 -0.68024E-02 -0.11750E-01
  0.34178E-03 -0.63576E-02 -0.11456E-01
 -0.23435E-03 -0.72147E-02 -0.11750E-01
  0.23754E-02 -0.59027E-02 -0.11461E-01
  0.32363E-02 -0.63460E-02 -0.11750E-01
  0.40799E-02 -0.52156E-02 -0.11418E-01
  0.45509E-02 -0.54652E-02 -0.11750E-01
  0.51727E-02 -0.45675E-02 -0.11368E-01
  0.56435E-02 -0.33029E-02 -0.11434E-01
  0.61846E-02 -0.50460E-02 -0.11750E-01
  0.54345E-02 -0.39212E-02 -0.11750E-01
  0.72682E-02  0.17942E-02 -0.11244E-01
  0.74941E-02  0.66046E-04 -0.11263E-01
  0.78479E-02  0.20597E-02 -0.11750E-01
  0.79877E-02  0.12086E-03 -0.11750E-01
  0.65913E-02  0.33930E-02 -0.11260E-01
  0.69411E-02  0.36613E-02 -0.11750E-01
  0.55365E-02  0.48961E-02 -0.11288E-01
  0.59484E-02  0.51519E-02 -0.11750E-01
  0.42267E-02  0.61656E-02 -0.11259E-01
  0.45127E-02  0.65642E-02 -0.11750E-01
  0.28224E-02  0.69725E-02 -0.11249E-01
  0.32299E-02  0.74257E-02 -0.11750E-01
  0.10930E-02  0.73544E-02 -0.11293E-01
  0.11518E-02  0.78414E-02 -0.11750E-01
 -0.80616E-03  0.73709E-02 -0.11310E-01
 -0.83045E-03  0.79665E-02 -0.11750E-01
 -0.26298E-02  0.69371E-02 -0.11279E-01
 -0.26682E-02  0.75332E-02 -0.11750E-01
 -0.42713E-02  0.60811E-02 -0.11202E-01
 -0.45775E-02  0.64604E-02 -0.11750E-01
 -0.55533E-02  0.50051E-02 -0.11183E-01
 -0.60108E-02  0.54550E-02 -0.11750E-01
 -0.65134E-02  0.35403E-02 -0.11243E-01
 -0.69106E-02  0.37773E-02 -0.11750E-01
 -0.72097E-02  0.17288E-02 -0.11300E-01
 -0.78278E-02  0.16505E-02 -0.11750E-01
 -0.74263E-02 -0.17510E-03 -0.11299E-01
 -0.79762E-02 -0.26710E-03 -0.11750E-01
 -0.71875E-02 -0.20113E-02 -0.11268E-01
 -0.76887E-02 -0.22098E-02 -0.11750E-01
 -0.65532E-02 -0.36214E-02 -0.11250E-01
 -0.70252E-02 -0.39248E-02 -0.11750E-01
 -0.54793E-02 -0.50299E-02 -0.11259E-01
 -0.59118E-02 -0.53416E-02 -0.11750E-01
 -0.41783E-02 -0.61975E-02 -0.11232E-01
 -0.44377E-02 -0.65980E-02 -0.11750E-01
 -0.27346E-02 -0.69917E-02 -0.11242E-01
 -0.30138E-02 -0.75680E-02 -0.11750E-01
 -0.94378E-03 -0.73736E-02 -0.11268E-01
 -0.75430E-03 -0.78366E-02 -0.11750E-01
  0.86877E-03 -0.73929E-02 -0.11292E-01
  0.10877E-02 -0.80088E-02 -0.11750E-01
  0.26440E-02 -0.69742E-02 -0.11276E-01
  0.27747E-02 -0.75520E-02 -0.11750E-01
  0.42745E-02 -0.61485E-02 -0.11227E-01
  0.44067E-02 -0.65844E-02 -0.11750E-01
  0.56064E-02 -0.50038E-02 -0.11229E-01
  0.60750E-02 -0.54243E-02 -0.11750E-01
  0.65640E-02 -0.34686E-02 -0.11267E-01
  0.68216E-02 -0.37584E-02 -0.11750E-01
  0.72599E-02 -0.17142E-02 -0.11292E-01
  0.78766E-02 -0.17734E-02 -0.11750E-01
  0.26035E-02  0.18010E-02 -0.11446E-01
  0.40233E-02  0.28862E-02 -0.11305E-01
  0.51774E-02  0.13599E-02 -0.11267E-01
  0.40244E-02 -0.76572E-03 -0.11418E-01
  0.62036E-02  0.35426E-03 -0.11105E-01
  0.58006E-02 -0.13618E-02 -0.11179E-01
  0.29668E-02  0.42075E-02 -0.11250E-01
  0.16976E-02  0.36280E-02 -0.11393E-01
  0.29983E-03  0.88428E-03 -0.11501E-01
 -0.23790E-03  0.30410E-02 -0.11464E-01
  0.22102E-02  0.50063E-02 -0.11193E-01
  0.24113E-02  0.57263E-02 -0.11020E-01
  0.35874E-02  0.49727E-02 -0.11044E-01
  0.11202E-02  0.49347E-02 -0.11295E-01
  0.10107E-02  0.59884E-02 -0.11120E-01
 -0.19428E-02 -0.25673E-02 -0.11443E-01
 -0.22555E-02  0.17760E-03 -0.11486E-01
  0.11057E-02 -0.17922E-02 -0.11490E-01
 -0.42627E-02 -0.18392E-02 -0.11357E-01
 -0.43893E-02  0.74563E-04 -0.11404E-01
 -0.56467E-02 -0.18236E-02 -0.11162E-01
 -0.58601E-02 -0.48864E-04 -0.11217E-01
 -0.51548E-02 -0.32620E-02 -0.11072E-01
 -0.42703E-02 -0.30959E-02 -0.11248E-01
 -0.24561E-02  0.24873E-02 -0.11458E-01
 -0.32377E-02 -0.40026E-02 -0.11268E-01
 -0.58219E-03  0.47209E-02 -0.11360E-01
 -0.24922E-02  0.43019E-02 -0.11355E-01
 -0.41245E-02  0.37927E-02 -0.11272E-01
 -0.43537E-02  0.20892E-02 -0.11379E-01
 -0.45104E-03 -0.46515E-02 -0.11365E-01
 -0.21217E-02 -0.51688E-02 -0.11212E-01
  0.18418E-02 -0.40665E-02 -0.11403E-01
  0.39059E-02 -0.33852E-02 -0.11330E-01
  0.63151E-02  0.14973E-02 -0.10992E-01
  0.57096E-02  0.24974E-02 -0.11055E-01
  0.47431E-02  0.38154E-02 -0.11088E-01
 -0.70756E-03  0.59615E-02 -0.11180E-01
 -0.24667E-02  0.55619E-02 -0.11163E-01
 -0.39321E-02  0.49412E-02 -0.11068E-01
 -0.48445E-02  0.43868E-02 -0.10953E-01
 -0.52753E-02  0.33922E-02 -0.11092E-01
 -0.57089E-02  0.18037E-02 -0.11192E-01
 -0.42476E-02 -0.44634E-02 -0.11048E-01
 -0.32201E-02 -0.54625E-02 -0.10999E-01
 -0.24047E-02 -0.61091E-02 -0.10929E-01
 -0.13142E-02 -0.61384E-02 -0.11060E-01
  0.33972E-03 -0.59811E-02 -0.11168E-01
  0.22282E-02 -0.55425E-02 -0.11189E-01
  0.38173E-02 -0.48927E-02 -0.11124E-01
  0.48383E-02 -0.42785E-02 -0.11032E-01
  0.53020E-02 -0.30946E-02 -0.11138E-01
  0.68323E-02  0.16939E-02 -0.10743E-01
  0.70450E-02  0.60977E-04 -0.10788E-01
  0.62233E-02  0.32162E-02 -0.10744E-01
  0.52522E-02  0.46171E-02 -0.10793E-01
  0.39926E-02  0.57814E-02 -0.10751E-01
  0.26196E-02  0.65477E-02 -0.10724E-01
  0.10125E-02  0.69332E-02 -0.10814E-01
 -0.76282E-03  0.69249E-02 -0.10857E-01
 -0.24751E-02  0.65025E-02 -0.10835E-01
 -0.39884E-02  0.57100E-02 -0.10722E-01
 -0.51932E-02  0.46693E-02 -0.10675E-01
 -0.61192E-02  0.33040E-02 -0.10783E-01
 -0.67662E-02  0.16546E-02 -0.10856E-01
 -0.69905E-02 -0.14406E-03 -0.10854E-01
 -0.67612E-02 -0.18684E-02 -0.10788E-01
 -0.61632E-02 -0.33926E-02 -0.10747E-01
 -0.51606E-02 -0.47445E-02 -0.10750E-01
 -0.39436E-02 -0.58338E-02 -0.10696E-01
 -0.25855E-02 -0.65624E-02 -0.10711E-01
 -0.92426E-03 -0.69454E-02 -0.10782E-01
  0.79392E-03 -0.69479E-02 -0.10829E-01
  0.24912E-02 -0.65546E-02 -0.10821E-01
  0.40182E-02 -0.57900E-02 -0.10757E-01
  0.52490E-02 -0.46920E-02 -0.10764E-01
  0.61765E-02 -0.32385E-02 -0.10820E-01
  0.68100E-02 -0.16051E-02 -0.10831E-01
  0.23518E-02  0.16336E-02 -0.11273E-01
  0.36934E-02  0.26581E-02 -0.11091E-01
  0.47708E-02  0.12504E-02 -0.11035E-01
  0.36821E-02 -0.71281E-03 -0.11233E-01
  0.57512E-02  0.31481E-03 -0.10805E-01
  0.53764E-02 -0.12759E-02 -0.10901E-01
  0.27185E-02  0.38764E-02 -0.11016E-01
  0.15214E-02  0.33123E-02 -0.11200E-01
  0.27102E-03  0.78262E-03 -0.11343E-01
 -0.23150E-03  0.27548E-02 -0.11293E-01
  0.20157E-02  0.46245E-02 -0.10933E-01
  0.22172E-02  0.53137E-02 -0.10695E-01
  0.33338E-02  0.46084E-02 -0.10731E-01
  0.99753E-03  0.45501E-02 -0.11061E-01
  0.90188E-03  0.55629E-02 -0.10818E-01
 -0.17659E-02 -0.23268E-02 -0.11263E-01
 -0.20360E-02  0.16297E-03 -0.11321E-01
  0.10085E-02 -0.16289E-02 -0.11328E-01
 -0.39145E-02 -0.16542E-02 -0.11148E-01
 -0.40248E-02  0.93483E-04 -0.11207E-01
 -0.52337E-02 -0.16442E-02 -0.10889E-01
 -0.54347E-02 -0.22808E-04 -0.10945E-01
 -0.47811E-02 -0.29962E-02 -0.10782E-01
 -0.39417E-02 -0.28279E-02 -0.11014E-01
 -0.22432E-02  0.22695E-02 -0.11284E-01
 -0.29809E-02 -0.36741E-02 -0.11041E-01
 -0.55726E-03  0.43447E-02 -0.11144E-01
 -0.22999E-02  0.39587E-02 -0.11138E-01
 -0.38063E-02  0.34963E-02 -0.11033E-01
 -0.40047E-02  0.19288E-02 -0.11170E-01
 -0.40146E-03 -0.42711E-02 -0.11158E-01
 -0.19388E-02 -0.47676E-02 -0.10964E-01
  0.16916E-02 -0.37331E-02 -0.11205E-01
  0.35906E-02 -0.31258E-02 -0.11107E-01
  0.58616E-02  0.13826E-02 -0.10658E-01
  0.52959E-02  0.23142E-02 -0.10753E-01
  0.44087E-02  0.35365E-02 -0.10794E-01
 -0.67115E-03  0.55369E-02 -0.10888E-01
 -0.22752E-02  0.51600E-02 -0.10873E-01
 -0.36269E-02  0.45760E-02 -0.10772E-01
 -0.44850E-02  0.40491E-02 -0.10635E-01
 -0.48902E-02  0.31170E-02 -0.10799E-01
 -0.52960E-02  0.16591E-02 -0.10912E-01
 -0.39344E-02 -0.41274E-02 -0.10750E-01
 -0.29672E-02 -0.50574E-02 -0.10681E-01
 -0.22035E-02 -0.56681E-02 -0.10578E-01
 -0.11868E-02 -0.56972E-02 -0.10751E-01
  0.33512E-03 -0.55463E-02 -0.10889E-01
  0.20646E-02 -0.51293E-02 -0.10917E-01
  0.35254E-02 -0.45252E-02 -0.10833E-01
  0.44824E-02 -0.39618E-02 -0.10708E-01
  0.49143E-02 -0.28719E-02 -0.10844E-01
  0.63665E-02  0.15711E-02 -0.10305E-01
  0.65756E-02  0.42433E-04 -0.10339E-01
  0.58117E-02  0.30130E-02 -0.10294E-01
  0.49264E-02  0.43187E-02 -0.10339E-01
  0.37372E-02  0.53954E-02 -0.10277E-01
  0.24167E-02  0.61194E-02 -0.10254E-01
  0.91502E-03  0.64894E-02 -0.10383E-01
 -0.72133E-03  0.64871E-02 -0.10446E-01
 -0.22987E-02  0.60864E-02 -0.10433E-01
 -0.36922E-02  0.53225E-02 -0.10322E-01
 -0.48303E-02  0.43199E-02 -0.10267E-01
 -0.57197E-02  0.30490E-02 -0.10381E-01
 -0.63420E-02  0.15450E-02 -0.10450E-01
 -0.65500E-02 -0.11424E-03 -0.10439E-01
 -0.63216E-02 -0.17010E-02 -0.10355E-01
 -0.57527E-02 -0.31346E-02 -0.10302E-01
 -0.48187E-02 -0.44138E-02 -0.10299E-01
 -0.36741E-02 -0.54275E-02 -0.10231E-01
 -0.23926E-02 -0.61135E-02 -0.10252E-01
 -0.84766E-03 -0.64952E-02 -0.10343E-01
  0.74664E-03 -0.64959E-02 -0.10395E-01
  0.23290E-02 -0.61158E-02 -0.10406E-01
  0.37424E-02 -0.54006E-02 -0.10348E-01
  0.48908E-02 -0.43620E-02 -0.10349E-01
  0.57795E-02 -0.30248E-02 -0.10387E-01
  0.63641E-02 -0.15106E-02 -0.10371E-01
  0.20829E-02  0.14490E-02 -0.11064E-01
  0.33259E-02  0.24029E-02 -0.10860E-01
  0.43184E-02  0.11377E-02 -0.10796E-01
  0.33008E-02 -0.64179E-03 -0.11017E-01
  0.52734E-02  0.28457E-03 -0.10531E-01
  0.49224E-02 -0.11764E-02 -0.10639E-01
  0.24472E-02  0.35053E-02 -0.10778E-01
  0.13401E-02  0.29550E-02 -0.10982E-01
  0.24601E-03  0.67325E-03 -0.11137E-01
 -0.21419E-03  0.24321E-02 -0.11085E-01
  0.18106E-02  0.42000E-02 -0.10678E-01
  0.20166E-02  0.48766E-02 -0.10398E-01
  0.30609E-02  0.42211E-02 -0.10445E-01
  0.87490E-03  0.41145E-02 -0.10816E-01
  0.79270E-03  0.51057E-02 -0.10523E-01
 -0.15771E-02 -0.20648E-02 -0.11047E-01
 -0.17940E-02  0.14235E-03 -0.11114E-01
  0.90173E-03 -0.14438E-02 -0.11123E-01
 -0.35278E-02 -0.14655E-02 -0.10919E-01
 -0.36151E-02  0.10179E-03 -0.10984E-01
 -0.47880E-02 -0.14727E-02 -0.10623E-01
 -0.49744E-02 -0.40302E-05 -0.10677E-01
 -0.43853E-02 -0.27233E-02 -0.10507E-01
 -0.35807E-02 -0.25407E-02 -0.10770E-01
 -0.19997E-02  0.20218E-02 -0.11077E-01
 -0.27052E-02 -0.33101E-02 -0.10800E-01
 -0.52087E-03  0.39155E-02 -0.10911E-01
 -0.20808E-02  0.35721E-02 -0.10906E-01
 -0.34518E-02  0.31707E-02 -0.10785E-01
 -0.36086E-02  0.17465E-02 -0.10942E-01
 -0.35678E-03 -0.38457E-02 -0.10930E-01
 -0.17528E-02 -0.43264E-02 -0.10712E-01
  0.15218E-02 -0.33608E-02 -0.10982E-01
  0.32461E-02 -0.28376E-02 -0.10874E-01
  0.54023E-02  0.12776E-02 -0.10362E-01
  0.48633E-02  0.21334E-02 -0.10472E-01
  0.40497E-02  0.32458E-02 -0.10516E-01
 -0.63146E-03  0.50799E-02 -0.10598E-01
 -0.20753E-02  0.47343E-02 -0.10591E-01
 -0.33118E-02  0.41982E-02 -0.10492E-01
 -0.41265E-02  0.37136E-02 -0.10344E-01
 -0.44880E-02  0.28381E-02 -0.10521E-01
 -0.48525E-02  0.15116E-02 -0.10641E-01
 -0.36149E-02 -0.37711E-02 -0.10470E-01
 -0.27215E-02 -0.46396E-02 -0.10391E-01
 -0.20153E-02 -0.52318E-02 -0.10269E-01
 -0.10662E-02 -0.52398E-02 -0.10466E-01
  0.32157E-03 -0.50858E-02 -0.10623E-01
  0.18877E-02 -0.46991E-02 -0.10652E-01
  0.32237E-02 -0.41547E-02 -0.10560E-01
  0.41293E-02 -0.36540E-02 -0.10420E-01
  0.45126E-02 -0.26420E-02 -0.10575E-01
  0.59594E-02  0.14717E-02 -0.99398E-02
  0.61684E-02  0.33579E-04 -0.99719E-02
  0.54554E-02  0.28555E-02 -0.99170E-02
  0.46374E-02  0.40708E-02 -0.99553E-02
  0.35110E-02  0.50598E-02 -0.98902E-02
  0.22380E-02  0.57408E-02 -0.98710E-02
  0.81907E-03  0.60914E-02 -0.10002E-01
 -0.68988E-03  0.60964E-02 -0.10065E-01
 -0.21424E-02  0.57205E-02 -0.10063E-01
 -0.34379E-02  0.49955E-02 -0.99720E-02
 -0.45254E-02  0.40262E-02 -0.99254E-02
 -0.53761E-02  0.28252E-02 -0.10029E-01
 -0.59571E-02  0.14473E-02 -0.10081E-01
 -0.61494E-02 -0.81760E-04 -0.10071E-01
 -0.59317E-02 -0.15614E-02 -0.99987E-02
 -0.53991E-02 -0.29207E-02 -0.99431E-02
 -0.45371E-02 -0.41289E-02 -0.99318E-02
 -0.34602E-02 -0.50791E-02 -0.98554E-02
 -0.22299E-02 -0.57276E-02 -0.98763E-02
 -0.78447E-03 -0.61055E-02 -0.99675E-02
  0.70427E-03 -0.61133E-02 -0.10027E-01
  0.21903E-02 -0.57490E-02 -0.10043E-01
  0.35046E-02 -0.50757E-02 -0.99859E-02
  0.45827E-02 -0.40809E-02 -0.99914E-02
  0.54417E-02 -0.28497E-02 -0.10023E-01
  0.59836E-02 -0.14297E-02 -0.10003E-01
  0.18364E-02  0.12793E-02 -0.10802E-01
  0.29771E-02  0.21583E-02 -0.10586E-01
  0.38879E-02  0.10291E-02 -0.10516E-01
  0.29398E-02 -0.57117E-03 -0.10755E-01
  0.48181E-02  0.25252E-03 -0.10227E-01
  0.44842E-02 -0.10805E-02 -0.10344E-01
  0.21879E-02  0.31421E-02 -0.10496E-01
  0.11740E-02  0.26121E-02 -0.10712E-01
  0.22103E-03  0.58511E-03 -0.10875E-01
 -0.19904E-03  0.21358E-02 -0.10826E-01
  0.16152E-02  0.37801E-02 -0.10387E-01
  0.18289E-02  0.44587E-02 -0.10082E-01
  0.27985E-02  0.38515E-02 -0.10138E-01
  0.76186E-03  0.36819E-02 -0.10537E-01
  0.69665E-03  0.46678E-02 -0.10209E-01
 -0.13993E-02 -0.18192E-02 -0.10780E-01
 -0.15718E-02  0.13037E-03 -0.10853E-01
  0.80022E-03 -0.12699E-02 -0.10868E-01
 -0.31545E-02 -0.12884E-02 -0.10640E-01
 -0.32187E-02  0.10689E-03 -0.10716E-01
 -0.43632E-02 -0.13157E-02 -0.10313E-01
 -0.45320E-02  0.11698E-04 -0.10372E-01
 -0.40096E-02 -0.24654E-02 -0.10194E-01
 -0.32325E-02 -0.22673E-02 -0.10478E-01
 -0.17699E-02  0.17885E-02 -0.10821E-01
 -0.24433E-02 -0.29624E-02 -0.10510E-01
 -0.48548E-03  0.34937E-02 -0.10642E-01
 -0.18726E-02  0.31945E-02 -0.10631E-01
 -0.31130E-02  0.28590E-02 -0.10493E-01
 -0.32220E-02  0.15688E-02 -0.10671E-01
 -0.31711E-03 -0.34372E-02 -0.10657E-01
 -0.15815E-02 -0.39057E-02 -0.10419E-01
  0.13605E-02 -0.30022E-02 -0.10713E-01
  0.29225E-02 -0.25572E-02 -0.10591E-01
  0.49707E-02  0.11755E-02 -0.10038E-01
  0.44542E-02  0.19617E-02 -0.10161E-01
  0.37057E-02  0.29707E-02 -0.10213E-01
 -0.59449E-03  0.46432E-02 -0.10283E-01
 -0.19001E-02  0.43317E-02 -0.10272E-01
 -0.30331E-02  0.38512E-02 -0.10170E-01
 -0.38115E-02  0.34196E-02 -0.10013E-01
 -0.41169E-02  0.25904E-02 -0.10200E-01
 -0.44293E-02  0.13793E-02 -0.10332E-01
 -0.33165E-02 -0.34329E-02 -0.10157E-01
 -0.24970E-02 -0.42469E-02 -0.10072E-01
 -0.18408E-02 -0.48229E-02 -0.99414E-02
 -0.95197E-03 -0.48036E-02 -0.10154E-01
  0.30928E-03 -0.46400E-02 -0.10323E-01
  0.17191E-02 -0.42851E-02 -0.10346E-01
  0.29423E-02 -0.38026E-02 -0.10240E-01
  0.38009E-02 -0.33626E-02 -0.10090E-01
  0.41302E-02 -0.24201E-02 -0.10265E-01
  0.55776E-02  0.13738E-02 -0.95722E-02
  0.57747E-02  0.19110E-04 -0.96064E-02
  0.51150E-02  0.26924E-02 -0.95492E-02
  0.43555E-02  0.38178E-02 -0.95807E-02
  0.32975E-02  0.47351E-02 -0.95176E-02
  0.20821E-02  0.53950E-02 -0.94986E-02
  0.73452E-03  0.57387E-02 -0.96187E-02
 -0.66500E-03  0.57458E-02 -0.96797E-02
 -0.20166E-02  0.53958E-02 -0.96869E-02
 -0.32348E-02  0.47147E-02 -0.96152E-02
 -0.42735E-02  0.37890E-02 -0.95775E-02
 -0.50757E-02  0.26448E-02 -0.96669E-02
 -0.56087E-02  0.13621E-02 -0.97093E-02
 -0.57815E-02 -0.53606E-04 -0.96921E-02
 -0.55719E-02 -0.14332E-02 -0.96261E-02
 -0.50665E-02 -0.27183E-02 -0.95759E-02
 -0.42657E-02 -0.38557E-02 -0.95618E-02
 -0.32535E-02 -0.47508E-02 -0.94815E-02
 -0.20704E-02 -0.53653E-02 -0.95093E-02
 -0.71021E-03 -0.57343E-02 -0.95996E-02
  0.67485E-03 -0.57395E-02 -0.96595E-02
  0.20551E-02 -0.53963E-02 -0.96710E-02
  0.32828E-02 -0.47698E-02 -0.96142E-02
  0.42971E-02 -0.38193E-02 -0.96209E-02
  0.51050E-02 -0.26817E-02 -0.96542E-02
  0.56011E-02 -0.13576E-02 -0.96396E-02
  0.16244E-02  0.11225E-02 -0.10462E-01
  0.26706E-02  0.19272E-02 -0.10246E-01
  0.35036E-02  0.92264E-03 -0.10177E-01
  0.26157E-02 -0.51023E-03 -0.10422E-01
  0.44211E-02  0.22331E-03 -0.98829E-02
  0.40972E-02 -0.99123E-03 -0.10004E-01
  0.19581E-02  0.28126E-02 -0.10153E-01
  0.10218E-02  0.23082E-02 -0.10368E-01
  0.19225E-03  0.51857E-03 -0.10532E-01
 -0.20084E-03  0.18870E-02 -0.10484E-01
  0.14380E-02  0.34076E-02 -0.10042E-01
  0.16656E-02  0.41022E-02 -0.97350E-02
  0.25720E-02  0.35325E-02 -0.97903E-02
  0.65249E-03  0.32985E-02 -0.10194E-01
  0.61094E-03  0.42886E-02 -0.98567E-02
 -0.12343E-02 -0.15988E-02 -0.10440E-01
 -0.13866E-02  0.13435E-03 -0.10514E-01
  0.71433E-03 -0.11185E-02 -0.10535E-01
 -0.28208E-02 -0.11227E-02 -0.10295E-01
 -0.28683E-02  0.11721E-03 -0.10378E-01
 -0.39956E-02 -0.11732E-02 -0.99615E-02
 -0.41427E-02  0.29354E-04 -0.10024E-01
 -0.36882E-02 -0.22415E-02 -0.98387E-02
 -0.29182E-02 -0.20213E-02 -0.10127E-01
 -0.15757E-02  0.15894E-02 -0.10484E-01
 -0.22004E-02 -0.26518E-02 -0.10160E-01
 -0.46238E-03  0.31202E-02 -0.10305E-01
 -0.16885E-02  0.28574E-02 -0.10292E-01
 -0.28117E-02  0.25797E-02 -0.10146E-01
 -0.28789E-02  0.14082E-02 -0.10332E-01
 -0.27587E-03 -0.30705E-02 -0.10318E-01
 -0.14236E-02 -0.35320E-02 -0.10072E-01
  0.12151E-02 -0.26788E-02 -0.10377E-01
  0.26295E-02 -0.23009E-02 -0.10255E-01
  0.46023E-02  0.10856E-02 -0.96888E-02
  0.40970E-02  0.18060E-02 -0.98129E-02
  0.34058E-02  0.27258E-02 -0.98648E-02
 -0.56422E-03  0.42597E-02 -0.99306E-02
 -0.17483E-02  0.39775E-02 -0.99204E-02
 -0.27928E-02  0.35513E-02 -0.98153E-02
 -0.35459E-02  0.31729E-02 -0.96579E-02
 -0.37976E-02  0.23765E-02 -0.98466E-02
 -0.40589E-02  0.12631E-02 -0.99835E-02
 -0.30591E-02 -0.31424E-02 -0.98001E-02
 -0.23054E-02 -0.39138E-02 -0.97179E-02
 -0.16946E-02 -0.44827E-02 -0.95876E-02
 -0.85207E-03 -0.44251E-02 -0.98068E-02
  0.29840E-03 -0.42447E-02 -0.99777E-02
  0.15677E-02 -0.39176E-02 -0.10000E-01
  0.26957E-02 -0.34924E-02 -0.98941E-02
  0.35220E-02 -0.31101E-02 -0.97415E-02
  0.37969E-02 -0.22201E-02 -0.99223E-02
  0.52841E-02  0.12981E-02 -0.92097E-02
  0.54740E-02  0.58603E-05 -0.92492E-02
  0.48496E-02  0.25604E-02 -0.91784E-02
  0.41380E-02  0.36231E-02 -0.91989E-02
  0.31364E-02  0.44965E-02 -0.91455E-02
  0.19618E-02  0.51362E-02 -0.91377E-02
  0.66771E-03  0.54574E-02 -0.92402E-02
 -0.64419E-03  0.54580E-02 -0.92863E-02
 -0.19099E-02  0.51291E-02 -0.93023E-02
 -0.30698E-02  0.44870E-02 -0.92523E-02
 -0.40705E-02  0.35973E-02 -0.92279E-02
 -0.48293E-02  0.25002E-02 -0.92981E-02
 -0.53205E-02  0.12907E-02 -0.93279E-02
 -0.54835E-02 -0.29724E-04 -0.93117E-02
 -0.53022E-02 -0.13320E-02 -0.92565E-02
 -0.48296E-02 -0.25656E-02 -0.92081E-02
 -0.40746E-02 -0.36510E-02 -0.91899E-02
 -0.31033E-02 -0.45107E-02 -0.91109E-02
 -0.19465E-02 -0.50970E-02 -0.91430E-02
 -0.64888E-03 -0.54484E-02 -0.92302E-02
  0.65120E-03 -0.54495E-02 -0.92889E-02
  0.19397E-02 -0.51220E-02 -0.92997E-02
  0.31037E-02 -0.45246E-02 -0.92495E-02
  0.40748E-02 -0.36117E-02 -0.92571E-02
  0.48476E-02 -0.25421E-02 -0.92904E-02
  0.53140E-02 -0.12989E-02 -0.92813E-02
  0.14631E-02  0.98661E-03 -0.10034E-01
  0.24273E-02  0.17353E-02 -0.98206E-02
  0.31920E-02  0.83140E-03 -0.97544E-02
  0.23559E-02 -0.46516E-03 -0.10000E-01
  0.40896E-02  0.19832E-03 -0.94637E-02
  0.37732E-02 -0.91740E-03 -0.95838E-02
  0.17786E-02  0.25456E-02 -0.97274E-02
  0.90544E-03  0.20599E-02 -0.99352E-02
  0.17443E-03  0.45426E-03 -0.10103E-01
 -0.19811E-03  0.16817E-02 -0.10051E-01
  0.12995E-02  0.31092E-02 -0.96199E-02
  0.15362E-02  0.38127E-02 -0.93272E-02
  0.23852E-02  0.32724E-02 -0.93807E-02
  0.56508E-03  0.29918E-02 -0.97690E-02
  0.54303E-03  0.39820E-02 -0.94413E-02
 -0.10970E-02 -0.14271E-02 -0.10013E-01
 -0.12364E-02  0.12921E-03 -0.10084E-01
  0.65020E-03 -0.10049E-02 -0.10116E-01
 -0.25516E-02 -0.99233E-03 -0.98640E-02
 -0.25860E-02  0.12187E-03 -0.99489E-02
 -0.36960E-02 -0.10588E-02 -0.95311E-02
 -0.38221E-02  0.46173E-04 -0.95944E-02
 -0.34284E-02 -0.20596E-02 -0.94133E-02
 -0.26654E-02 -0.18247E-02 -0.96952E-02
 -0.14172E-02  0.14223E-02 -0.10049E-01
 -0.20014E-02 -0.24015E-02 -0.97297E-02
 -0.44346E-03  0.28196E-02 -0.98792E-02
 -0.15376E-02  0.25836E-02 -0.98586E-02
 -0.25722E-02  0.23529E-02 -0.97100E-02
 -0.26060E-02  0.12743E-02 -0.99009E-02
 -0.23887E-03 -0.27741E-02 -0.98906E-02
 -0.12932E-02 -0.32278E-02 -0.96477E-02
  0.10977E-02 -0.24147E-02 -0.99525E-02
  0.23872E-02 -0.20871E-02 -0.98310E-02
  0.42915E-02  0.10092E-02 -0.92711E-02
  0.37969E-02  0.16743E-02 -0.93957E-02
  0.31538E-02  0.25228E-02 -0.94505E-02
 -0.54468E-03  0.39462E-02 -0.95111E-02
 -0.16302E-02  0.36874E-02 -0.94953E-02
 -0.26023E-02  0.33093E-02 -0.93898E-02
 -0.33336E-02  0.29780E-02 -0.92406E-02
 -0.35417E-02  0.22083E-02 -0.94217E-02
 -0.37568E-02  0.11735E-02 -0.95572E-02
 -0.28474E-02 -0.29042E-02 -0.93787E-02
 -0.21455E-02 -0.36387E-02 -0.93029E-02
 -0.15742E-02 -0.41978E-02 -0.91789E-02
 -0.77300E-03 -0.41094E-02 -0.93920E-02
  0.28759E-03 -0.39142E-02 -0.95549E-02
  0.14434E-02 -0.36071E-02 -0.95734E-02
  0.24904E-02 -0.32279E-02 -0.94691E-02
  0.32841E-02 -0.28956E-02 -0.93187E-02
  0.35141E-02 -0.20519E-02 -0.95003E-02
  0.50263E-02  0.12271E-02 -0.88016E-02
  0.51996E-02 -0.57985E-05 -0.88437E-02
  0.46140E-02  0.24295E-02 -0.87692E-02
  0.39338E-02  0.34450E-02 -0.87838E-02
  0.29803E-02  0.42824E-02 -0.87457E-02
  0.18547E-02  0.48985E-02 -0.87490E-02
  0.62233E-03  0.52026E-02 -0.88297E-02
 -0.62482E-03  0.51977E-02 -0.88645E-02
 -0.18292E-02  0.48916E-02 -0.88855E-02
 -0.29402E-02  0.42914E-02 -0.88527E-02
 -0.38965E-02  0.34387E-02 -0.88388E-02
 -0.46124E-02  0.23848E-02 -0.88913E-02
 -0.50680E-02  0.12319E-02 -0.89099E-02
 -0.52212E-02 -0.14183E-04 -0.88862E-02
 -0.50553E-02 -0.12457E-02 -0.88407E-02
 -0.46101E-02 -0.24211E-02 -0.88018E-02
 -0.38955E-02 -0.34632E-02 -0.87816E-02
 -0.29628E-02 -0.42969E-02 -0.87063E-02
 -0.18377E-02 -0.48593E-02 -0.87438E-02
 -0.59802E-03 -0.51883E-02 -0.88258E-02
  0.63091E-03 -0.51793E-02 -0.88734E-02
  0.18452E-02 -0.48691E-02 -0.88808E-02
  0.29509E-02 -0.43039E-02 -0.88371E-02
  0.38746E-02 -0.34315E-02 -0.88418E-02
  0.46065E-02 -0.24190E-02 -0.88753E-02
  0.50452E-02 -0.12460E-02 -0.88728E-02
  0.13344E-02  0.87548E-03 -0.95040E-02
  0.22279E-02  0.15773E-02 -0.93043E-02
  0.29370E-02  0.75394E-03 -0.92446E-02
  0.21435E-02 -0.43051E-03 -0.94733E-02
  0.38263E-02  0.17846E-03 -0.89858E-02
  0.35160E-02 -0.85702E-03 -0.90969E-02
  0.16357E-02  0.23332E-02 -0.92215E-02
  0.82037E-03  0.18671E-02 -0.94123E-02
  0.16236E-03  0.39839E-03 -0.95734E-02
 -0.18620E-03  0.15215E-02 -0.95156E-02
  0.11928E-02  0.28736E-02 -0.91279E-02
  0.14317E-02  0.35782E-02 -0.88692E-02
  0.22304E-02  0.30630E-02 -0.89133E-02
  0.50401E-03  0.27529E-02 -0.92638E-02
  0.49151E-03  0.37308E-02 -0.89706E-02
 -0.98747E-03 -0.12939E-02 -0.94894E-02
 -0.11190E-02  0.11733E-03 -0.95503E-02
  0.59862E-03 -0.91621E-03 -0.95877E-02
 -0.23378E-02 -0.89518E-03 -0.93481E-02
 -0.23651E-02  0.11747E-03 -0.94239E-02
 -0.34542E-02 -0.97351E-03 -0.90431E-02
 -0.35637E-02  0.55025E-04 -0.91008E-02
 -0.32173E-02 -0.19176E-02 -0.89345E-02
 -0.24605E-02 -0.16717E-02 -0.91881E-02
 -0.12896E-02  0.12886E-02 -0.95063E-02
 -0.18383E-02 -0.22024E-02 -0.92181E-02
 -0.41880E-03  0.25878E-02 -0.93599E-02
 -0.14144E-02  0.23727E-02 -0.93352E-02
 -0.23859E-02  0.21745E-02 -0.92021E-02
 -0.23943E-02  0.11637E-02 -0.93759E-02
 -0.20590E-03 -0.25348E-02 -0.93678E-02
 -0.11867E-02 -0.29807E-02 -0.91475E-02
  0.10045E-02 -0.22001E-02 -0.94306E-02
  0.21914E-02 -0.19119E-02 -0.93249E-02
  0.40446E-02  0.94998E-03 -0.88109E-02
  0.35533E-02  0.15680E-02 -0.89223E-02
  0.29457E-02  0.23575E-02 -0.89731E-02
 -0.52576E-03  0.36894E-02 -0.90278E-02
 -0.15340E-02  0.34537E-02 -0.90105E-02
 -0.24518E-02  0.31161E-02 -0.89188E-02
 -0.31630E-02  0.28214E-02 -0.87873E-02
 -0.33358E-02  0.20744E-02 -0.89466E-02
 -0.35129E-02  0.11008E-02 -0.90679E-02
 -0.26754E-02 -0.27151E-02 -0.89051E-02
 -0.20183E-02 -0.34173E-02 -0.88428E-02
 -0.14828E-02 -0.39673E-02 -0.87337E-02
 -0.71464E-03 -0.38529E-02 -0.89219E-02
  0.27527E-03 -0.36495E-02 -0.90648E-02
  0.13417E-02 -0.33589E-02 -0.90846E-02
  0.23262E-02 -0.30155E-02 -0.89967E-02
  0.30981E-02 -0.27256E-02 -0.88613E-02
  0.32909E-02 -0.19157E-02 -0.90254E-02
  0.48307E-02  0.11764E-02 -0.83888E-02
  0.49981E-02 -0.11960E-04 -0.84310E-02
  0.44324E-02  0.23317E-02 -0.83509E-02
  0.37717E-02  0.33129E-02 -0.83597E-02
  0.28503E-02  0.41237E-02 -0.83386E-02
  0.17625E-02  0.47101E-02 -0.83483E-02
  0.58225E-03  0.49884E-02 -0.84054E-02
 -0.61352E-03  0.49767E-02 -0.84258E-02
 -0.17658E-02  0.46872E-02 -0.84482E-02
 -0.28341E-02  0.41220E-02 -0.84349E-02
 -0.37484E-02  0.33063E-02 -0.84286E-02
 -0.44289E-02  0.22971E-02 -0.84619E-02
 -0.48563E-02  0.11919E-02 -0.84683E-02
 -0.50062E-02  0.51562E-05 -0.84484E-02
 -0.48643E-02 -0.11788E-02 -0.84150E-02
 -0.44445E-02 -0.23115E-02 -0.83856E-02
 -0.37599E-02 -0.33217E-02 -0.83709E-02
 -0.28566E-02 -0.41360E-02 -0.83046E-02
 -0.17593E-02 -0.46759E-02 -0.83394E-02
 -0.57032E-03 -0.49860E-02 -0.84052E-02
  0.60637E-03 -0.49779E-02 -0.84418E-02
  0.17689E-02 -0.46785E-02 -0.84512E-02
  0.28311E-02 -0.41346E-02 -0.84183E-02
  0.37251E-02 -0.32995E-02 -0.84223E-02
  0.44317E-02 -0.23226E-02 -0.84516E-02
  0.48528E-02 -0.12000E-02 -0.84540E-02
  0.12404E-02  0.80351E-03 -0.88749E-02
  0.20874E-02  0.14707E-02 -0.86955E-02
  0.27634E-02  0.69873E-03 -0.86410E-02
  0.19986E-02 -0.40790E-03 -0.88435E-02
  0.36376E-02  0.15977E-03 -0.84238E-02
  0.33325E-02 -0.81832E-03 -0.85214E-02
  0.15317E-02  0.21900E-02 -0.86276E-02
  0.76137E-03  0.17381E-02 -0.87944E-02
  0.14926E-03  0.36434E-03 -0.89468E-02
 -0.17510E-03  0.14125E-02 -0.88839E-02
  0.11160E-02  0.27110E-02 -0.85515E-02
  0.13539E-02  0.34046E-02 -0.83381E-02
  0.21136E-02  0.29120E-02 -0.83744E-02
  0.46605E-03  0.25865E-02 -0.86692E-02
  0.46011E-03  0.35432E-02 -0.84234E-02
 -0.91470E-03 -0.11984E-02 -0.88665E-02
 -0.10397E-02  0.10873E-03 -0.89174E-02
  0.55730E-03 -0.84922E-03 -0.89579E-02
 -0.21876E-02 -0.82918E-03 -0.87340E-02
 -0.22106E-02  0.11144E-03 -0.87969E-02
 -0.32751E-02 -0.91298E-03 -0.84702E-02
 -0.33743E-02  0.58358E-04 -0.85156E-02
 -0.30595E-02 -0.18125E-02 -0.83814E-02
 -0.23159E-02 -0.15635E-02 -0.85931E-02
 -0.12030E-02  0.11978E-02 -0.88662E-02
 -0.17258E-02 -0.20629E-02 -0.86189E-02
 -0.39535E-03  0.24254E-02 -0.87468E-02
 -0.13303E-02  0.22274E-02 -0.87174E-02
 -0.22585E-02  0.20527E-02 -0.86052E-02
 -0.22487E-02  0.10888E-02 -0.87533E-02
 -0.18365E-03 -0.23685E-02 -0.87479E-02
 -0.11144E-02 -0.28084E-02 -0.85609E-02
  0.94192E-03 -0.20509E-02 -0.88044E-02
  0.20579E-02 -0.17920E-02 -0.87143E-02
  0.38614E-02  0.90078E-03 -0.82731E-02
  0.33781E-02  0.14871E-02 -0.83698E-02
  0.27933E-02  0.22369E-02 -0.84214E-02
 -0.50492E-03  0.34966E-02 -0.84641E-02
 -0.14653E-02  0.32783E-02 -0.84428E-02
 -0.23449E-02  0.29706E-02 -0.83685E-02
 -0.30314E-02  0.27023E-02 -0.82625E-02
 -0.31821E-02  0.19800E-02 -0.83925E-02
 -0.33347E-02  0.10494E-02 -0.84898E-02
 -0.25468E-02 -0.25753E-02 -0.83608E-02
 -0.19236E-02 -0.32523E-02 -0.83110E-02
 -0.14143E-02 -0.37891E-02 -0.82194E-02
 -0.67341E-03 -0.36637E-02 -0.83743E-02
  0.26872E-03 -0.34572E-02 -0.84907E-02
  0.12729E-02 -0.31773E-02 -0.85057E-02
  0.22081E-02 -0.28570E-02 -0.84325E-02
  0.29536E-02 -0.25940E-02 -0.83192E-02
  0.31249E-02 -0.18180E-02 -0.84610E-02
  0.46526E-02  0.11216E-02 -0.79188E-02
  0.48025E-02 -0.22302E-04 -0.79561E-02
  0.42684E-02  0.22317E-02 -0.78818E-02
  0.36246E-02  0.31846E-02 -0.78907E-02
  0.27360E-02  0.39705E-02 -0.78806E-02
  0.16920E-02  0.45269E-02 -0.78931E-02
  0.55887E-03  0.47935E-02 -0.79329E-02
 -0.59759E-03  0.47815E-02 -0.79414E-02
 -0.17137E-02  0.45046E-02 -0.79667E-02
 -0.27416E-02  0.39683E-02 -0.79673E-02
 -0.36139E-02  0.31885E-02 -0.79662E-02
 -0.42643E-02  0.22203E-02 -0.79851E-02
 -0.46717E-02  0.11542E-02 -0.79794E-02
 -0.48146E-02  0.11126E-04 -0.79551E-02
 -0.46797E-02 -0.11263E-02 -0.79327E-02
 -0.42773E-02 -0.22147E-02 -0.79168E-02
 -0.36196E-02 -0.31895E-02 -0.79097E-02
 -0.27460E-02 -0.39790E-02 -0.78547E-02
 -0.16883E-02 -0.45014E-02 -0.78870E-02
 -0.54541E-03 -0.47942E-02 -0.79354E-02
  0.59073E-03 -0.47818E-02 -0.79570E-02
  0.17081E-02 -0.44908E-02 -0.79654E-02
  0.27260E-02 -0.39666E-02 -0.79431E-02
  0.35810E-02 -0.31714E-02 -0.79477E-02
  0.42516E-02 -0.22323E-02 -0.79700E-02
  0.46581E-02 -0.11588E-02 -0.79737E-02
  0.11747E-02  0.75639E-03 -0.81634E-02
  0.19920E-02  0.14015E-02 -0.80160E-02
  0.26454E-02  0.66412E-03 -0.79680E-02
  0.18992E-02 -0.39137E-03 -0.81319E-02
  0.35081E-02  0.14984E-03 -0.78042E-02
  0.32086E-02 -0.79153E-03 -0.78823E-02
  0.14641E-02  0.20973E-02 -0.79669E-02
  0.72292E-03  0.16532E-02 -0.81012E-02
  0.14263E-03  0.34034E-03 -0.82279E-02
 -0.16488E-03  0.13364E-02 -0.81700E-02
  0.10679E-02  0.26045E-02 -0.79096E-02
  0.13031E-02  0.32845E-02 -0.77475E-02
  0.20336E-02  0.28100E-02 -0.77766E-02
  0.44284E-03  0.24761E-02 -0.80041E-02
  0.44016E-03  0.34120E-02 -0.78135E-02
 -0.86428E-03 -0.11361E-02 -0.81609E-02
 -0.97998E-03  0.10147E-03 -0.81964E-02
  0.52882E-03 -0.80088E-03 -0.82366E-02
 -0.20876E-02 -0.79038E-03 -0.80500E-02
 -0.21042E-02  0.10887E-03 -0.80973E-02
 -0.31571E-02 -0.87800E-03 -0.78416E-02
 -0.32468E-02  0.62579E-04 -0.78758E-02
 -0.29558E-02 -0.17503E-02 -0.77719E-02
 -0.22219E-02 -0.14993E-02 -0.79347E-02
 -0.11409E-02  0.11377E-02 -0.81479E-02
 -0.16526E-02 -0.19761E-02 -0.79539E-02
 -0.37937E-03  0.23160E-02 -0.80621E-02
 -0.12758E-02  0.21323E-02 -0.80347E-02
 -0.21760E-02  0.19775E-02 -0.79493E-02
 -0.21496E-02  0.10455E-02 -0.80626E-02
 -0.17145E-03 -0.22591E-02 -0.80541E-02
 -0.10701E-02 -0.26974E-02 -0.79092E-02
  0.89998E-03 -0.19507E-02 -0.81018E-02
  0.19698E-02 -0.17132E-02 -0.80335E-02
  0.37329E-02  0.86927E-03 -0.76868E-02
  0.32552E-02  0.14335E-02 -0.77624E-02
  0.26857E-02  0.21558E-02 -0.78104E-02
 -0.49033E-03  0.33647E-02 -0.78396E-02
 -0.14192E-02  0.31616E-02 -0.78188E-02
 -0.22735E-02  0.28740E-02 -0.77644E-02
 -0.29406E-02  0.26210E-02 -0.76830E-02
 -0.30791E-02  0.19200E-02 -0.77822E-02
 -0.32147E-02  0.10203E-02 -0.78557E-02
 -0.24611E-02 -0.24868E-02 -0.77602E-02
 -0.18609E-02 -0.31427E-02 -0.77239E-02
 -0.13710E-02 -0.36656E-02 -0.76521E-02
 -0.65177E-03 -0.35353E-02 -0.77688E-02
  0.25945E-03 -0.33281E-02 -0.78565E-02
  0.12264E-02 -0.30555E-02 -0.78685E-02
  0.21306E-02 -0.27507E-02 -0.78142E-02
  0.28569E-02 -0.25055E-02 -0.77273E-02
  0.30137E-02 -0.17530E-02 -0.78383E-02
  0.45188E-02  0.10825E-02 -0.74175E-02
  0.46565E-02 -0.25308E-04 -0.74452E-02
  0.41416E-02  0.21572E-02 -0.73810E-02
  0.35097E-02  0.30898E-02 -0.73873E-02
  0.26503E-02  0.38531E-02 -0.73850E-02
  0.16401E-02  0.43850E-02 -0.73960E-02
  0.54085E-03  0.46416E-02 -0.74181E-02
 -0.58345E-03  0.46311E-02 -0.74160E-02
 -0.16704E-02  0.43624E-02 -0.74359E-02
 -0.26638E-02  0.38421E-02 -0.74444E-02
 -0.35037E-02  0.30939E-02 -0.74508E-02
 -0.41325E-02  0.21598E-02 -0.74540E-02
 -0.45298E-02  0.11270E-02 -0.74422E-02
 -0.46727E-02  0.15812E-04 -0.74240E-02
 -0.45463E-02 -0.10940E-02 -0.74149E-02
 -0.41536E-02 -0.21547E-02 -0.74108E-02
 -0.35131E-02 -0.31004E-02 -0.74139E-02
 -0.26631E-02 -0.38641E-02 -0.73712E-02
 -0.16380E-02 -0.43670E-02 -0.73953E-02
 -0.53314E-03 -0.46451E-02 -0.74252E-02
  0.57301E-03 -0.46364E-02 -0.74364E-02
  0.16580E-02 -0.43540E-02 -0.74431E-02
  0.26450E-02 -0.38432E-02 -0.74283E-02
  0.34778E-02 -0.30799E-02 -0.74365E-02
  0.41253E-02 -0.21642E-02 -0.74503E-02
  0.45190E-02 -0.11243E-02 -0.74555E-02
  0.11362E-02  0.73393E-03 -0.73885E-02
  0.19353E-02  0.13648E-02 -0.72836E-02
  0.25762E-02  0.64775E-03 -0.72429E-02
  0.18419E-02 -0.37830E-03 -0.73640E-02
  0.34181E-02  0.14674E-03 -0.71226E-02
  0.31234E-02 -0.77159E-03 -0.71807E-02
  0.14233E-02  0.20432E-02 -0.72513E-02
  0.70228E-03  0.16079E-02 -0.73479E-02
  0.13690E-03  0.33091E-03 -0.74374E-02
 -0.15687E-03  0.12966E-02 -0.73965E-02
  0.10400E-02  0.25371E-02 -0.72112E-02
  0.12684E-02  0.31923E-02 -0.70951E-02
  0.19739E-02  0.27348E-02 -0.71178E-02
  0.43321E-03  0.24093E-02 -0.72815E-02
  0.43198E-03  0.33146E-02 -0.71440E-02
 -0.83812E-03 -0.11006E-02 -0.73923E-02
 -0.94807E-03  0.99398E-04 -0.74129E-02
  0.50875E-03 -0.76950E-03 -0.74467E-02
 -0.20297E-02 -0.77021E-03 -0.73085E-02
 -0.20426E-02  0.10581E-03 -0.73409E-02
 -0.30725E-02 -0.85773E-03 -0.71565E-02
 -0.31569E-02  0.59758E-04 -0.71777E-02
 -0.28765E-02 -0.17058E-02 -0.71077E-02
 -0.21628E-02 -0.14623E-02 -0.72232E-02
 -0.11042E-02  0.11057E-02 -0.73764E-02
 -0.16092E-02 -0.19258E-02 -0.72369E-02
 -0.36500E-03  0.22501E-02 -0.73216E-02
 -0.12391E-02  0.20723E-02 -0.72975E-02
 -0.21170E-02  0.19252E-02 -0.72345E-02
 -0.20875E-02  0.10189E-02 -0.73162E-02
 -0.16767E-03 -0.21963E-02 -0.73074E-02
 -0.10471E-02 -0.26288E-02 -0.72047E-02
  0.87313E-03 -0.18918E-02 -0.73403E-02
  0.19144E-02 -0.16647E-02 -0.72897E-02
  0.36350E-02  0.84904E-03 -0.70362E-02
  0.31672E-02  0.13981E-02 -0.70969E-02
  0.26070E-02  0.20996E-02 -0.71415E-02
 -0.47391E-03  0.32661E-02 -0.71570E-02
 -0.13801E-02  0.30695E-02 -0.71369E-02
 -0.22116E-02  0.27911E-02 -0.70968E-02
 -0.28549E-02  0.25463E-02 -0.70361E-02
 -0.29906E-02  0.18698E-02 -0.71102E-02
 -0.31234E-02  0.99437E-03 -0.71638E-02
 -0.23963E-02 -0.24200E-02 -0.71022E-02
 -0.18162E-02 -0.30573E-02 -0.70742E-02
 -0.13410E-02 -0.35637E-02 -0.70182E-02
 -0.64143E-03 -0.34407E-02 -0.71035E-02
  0.25062E-03 -0.32391E-02 -0.71637E-02
  0.11942E-02 -0.29718E-02 -0.71661E-02
  0.20739E-02 -0.26734E-02 -0.71242E-02
  0.27778E-02 -0.24354E-02 -0.70612E-02
  0.29304E-02 -0.17063E-02 -0.71468E-02
  0.43820E-02  0.10498E-02 -0.68359E-02
  0.45102E-02 -0.23790E-04 -0.68497E-02
  0.40116E-02  0.20851E-02 -0.68081E-02
  0.33941E-02  0.29917E-02 -0.68181E-02
  0.25634E-02  0.37269E-02 -0.68178E-02
  0.15917E-02  0.42362E-02 -0.68260E-02
  0.53109E-03  0.44909E-02 -0.68410E-02
 -0.56127E-03  0.44845E-02 -0.68316E-02
 -0.16199E-02  0.42253E-02 -0.68445E-02
 -0.25840E-02  0.37183E-02 -0.68514E-02
 -0.33899E-02  0.29960E-02 -0.68622E-02
 -0.40021E-02  0.20990E-02 -0.68582E-02
 -0.43911E-02  0.10925E-02 -0.68456E-02
 -0.45282E-02  0.12554E-04 -0.68276E-02
 -0.44020E-02 -0.10647E-02 -0.68267E-02
 -0.40173E-02 -0.20875E-02 -0.68317E-02
 -0.33945E-02 -0.29985E-02 -0.68425E-02
 -0.25727E-02 -0.37343E-02 -0.68070E-02
 -0.15889E-02 -0.42275E-02 -0.68245E-02
 -0.52093E-03 -0.44963E-02 -0.68420E-02
  0.55550E-03 -0.44899E-02 -0.68430E-02
  0.16083E-02 -0.42169E-02 -0.68471E-02
  0.25656E-02 -0.37169E-02 -0.68382E-02
  0.33698E-02 -0.29839E-02 -0.68485E-02
  0.39909E-02 -0.20977E-02 -0.68531E-02
  0.43751E-02 -0.10906E-02 -0.68550E-02
  0.11152E-02  0.72629E-03 -0.65765E-02
  0.18965E-02  0.13439E-02 -0.65099E-02
  0.25261E-02  0.64175E-03 -0.64767E-02
  0.18074E-02 -0.36605E-03 -0.65601E-02
  0.33449E-02  0.15199E-03 -0.63963E-02
  0.30590E-02 -0.74983E-03 -0.64371E-02
  0.13952E-02  0.20082E-02 -0.64894E-02
  0.69211E-03  0.15846E-02 -0.65545E-02
  0.13234E-03  0.32894E-03 -0.66047E-02
 -0.15013E-03  0.12767E-02 -0.65822E-02
  0.10206E-02  0.24888E-02 -0.64624E-02
  0.12391E-02  0.31176E-02 -0.63832E-02
  0.19247E-02  0.26743E-02 -0.64007E-02
  0.42996E-03  0.23636E-02 -0.65141E-02
  0.42663E-03  0.32367E-02 -0.64200E-02
 -0.82880E-03 -0.10838E-02 -0.65868E-02
 -0.93376E-03  0.96022E-04 -0.65901E-02
  0.49436E-03 -0.75278E-03 -0.66190E-02
 -0.19940E-02 -0.76285E-03 -0.65297E-02
 -0.20041E-02  0.98696E-04 -0.65497E-02
 -0.30039E-02 -0.84468E-03 -0.64272E-02
 -0.30868E-02  0.55573E-04 -0.64407E-02
 -0.28094E-02 -0.16711E-02 -0.63897E-02
 -0.21207E-02 -0.14386E-02 -0.64677E-02
 -0.10808E-02  0.10863E-02 -0.65659E-02
 -0.15804E-02 -0.18906E-02 -0.64775E-02
 -0.35091E-03  0.22056E-02 -0.65398E-02
 -0.12099E-02  0.20306E-02 -0.65203E-02
 -0.20712E-02  0.18856E-02 -0.64782E-02
 -0.20444E-02  0.99801E-03 -0.65324E-02
 -0.17134E-03 -0.21563E-02 -0.65243E-02
 -0.10325E-02 -0.25759E-02 -0.64557E-02
  0.85206E-03 -0.18571E-02 -0.65447E-02
  0.18774E-02 -0.16321E-02 -0.65099E-02
  0.35510E-02  0.83813E-03 -0.63368E-02
  0.30937E-02  0.13723E-02 -0.63816E-02
  0.25429E-02  0.20550E-02 -0.64195E-02
 -0.45676E-03  0.31889E-02 -0.64249E-02
 -0.13445E-02  0.29982E-02 -0.64086E-02
 -0.21588E-02  0.27258E-02 -0.63817E-02
 -0.27847E-02  0.24855E-02 -0.63365E-02
 -0.29203E-02  0.18291E-02 -0.63899E-02
 -0.30523E-02  0.97330E-03 -0.64289E-02
 -0.23410E-02 -0.23643E-02 -0.63889E-02
 -0.17769E-02 -0.29846E-02 -0.63696E-02
 -0.13154E-02 -0.34765E-02 -0.63277E-02
 -0.63702E-03 -0.33615E-02 -0.63872E-02
  0.23702E-03 -0.31692E-02 -0.64277E-02
  0.11654E-02 -0.29103E-02 -0.64248E-02
  0.20297E-02 -0.26160E-02 -0.63932E-02
  0.27165E-02 -0.23803E-02 -0.63496E-02
  0.28684E-02 -0.16680E-02 -0.64125E-02
  0.42612E-02  0.10290E-02 -0.62014E-02
  0.43874E-02 -0.15496E-04 -0.62051E-02
  0.38943E-02  0.20294E-02 -0.61814E-02
  0.32931E-02  0.29091E-02 -0.61917E-02
  0.24908E-02  0.36188E-02 -0.61902E-02
  0.15481E-02  0.41101E-02 -0.61949E-02
  0.51787E-03  0.43623E-02 -0.62031E-02
 -0.54192E-03  0.43593E-02 -0.61887E-02
 -0.15738E-02  0.41065E-02 -0.61986E-02
 -0.25092E-02  0.36138E-02 -0.61985E-02
 -0.32935E-02  0.29128E-02 -0.62052E-02
 -0.38888E-02  0.20463E-02 -0.62036E-02
 -0.42693E-02  0.10652E-02 -0.61945E-02
 -0.44045E-02  0.10953E-04 -0.61812E-02
 -0.42771E-02 -0.10414E-02 -0.61892E-02
 -0.38993E-02 -0.20371E-02 -0.61981E-02
 -0.32950E-02 -0.29178E-02 -0.62129E-02
 -0.24984E-02 -0.36278E-02 -0.61825E-02
 -0.15498E-02 -0.41095E-02 -0.61922E-02
 -0.51816E-03 -0.43664E-02 -0.62012E-02
  0.53567E-03 -0.43643E-02 -0.62002E-02
  0.15641E-02 -0.41023E-02 -0.62013E-02
  0.24959E-02 -0.36125E-02 -0.61932E-02
  0.32798E-02 -0.29045E-02 -0.62025E-02
  0.38826E-02 -0.20436E-02 -0.62027E-02
  0.42575E-02 -0.10597E-02 -0.62063E-02
  0.11025E-02  0.72204E-03 -0.57375E-02
  0.18683E-02  0.13271E-02 -0.56968E-02
  0.24871E-02  0.63681E-03 -0.56704E-02
  0.17822E-02 -0.35673E-03 -0.57305E-02
  0.32808E-02  0.15564E-03 -0.56138E-02
  0.30024E-02 -0.73078E-03 -0.56434E-02
  0.13749E-02  0.19787E-02 -0.56826E-02
  0.68710E-03  0.15688E-02 -0.57257E-02
  0.13063E-03  0.32916E-03 -0.57515E-02
 -0.14461E-03  0.12671E-02 -0.57426E-02
  0.10059E-02  0.24481E-02 -0.56631E-02
  0.12155E-02  0.30532E-02 -0.56092E-02
  0.18856E-02  0.26209E-02 -0.56245E-02
  0.42742E-03  0.23280E-02 -0.57018E-02
  0.42107E-03  0.31704E-02 -0.56383E-02
 -0.82105E-03 -0.10728E-02 -0.57507E-02
 -0.92566E-03  0.94408E-04 -0.57449E-02
  0.48477E-03 -0.74248E-03 -0.57698E-02
 -0.19668E-02 -0.75584E-03 -0.57113E-02
 -0.19776E-02  0.95013E-04 -0.57243E-02
 -0.29441E-02 -0.83147E-03 -0.56401E-02
 -0.30262E-02  0.53441E-04 -0.56499E-02
 -0.27510E-02 -0.16395E-02 -0.56118E-02
 -0.20855E-02 -0.14179E-02 -0.56661E-02
 -0.10668E-02  0.10756E-02 -0.57315E-02
 -0.15550E-02 -0.18617E-02 -0.56739E-02
 -0.34191E-03  0.21746E-02 -0.57206E-02
 -0.11898E-02  0.20010E-02 -0.57056E-02
 -0.20351E-02  0.18534E-02 -0.56751E-02
 -0.20141E-02  0.98285E-03 -0.57129E-02
 -0.17309E-03 -0.21248E-02 -0.57045E-02
 -0.10184E-02 -0.25318E-02 -0.56584E-02
  0.83569E-03 -0.18305E-02 -0.57173E-02
  0.18469E-02 -0.16056E-02 -0.56924E-02
  0.34765E-02  0.82714E-03 -0.55700E-02
  0.30319E-02  0.13490E-02 -0.56060E-02
  0.24911E-02  0.20155E-02 -0.56402E-02
 -0.44479E-03  0.31241E-02 -0.56399E-02
 -0.13155E-02  0.29391E-02 -0.56256E-02
 -0.21124E-02  0.26700E-02 -0.56045E-02
 -0.27210E-02  0.24305E-02 -0.55695E-02
 -0.28586E-02  0.17911E-02 -0.56100E-02
 -0.29916E-02  0.95416E-03 -0.56411E-02
 -0.22912E-02 -0.23153E-02 -0.56147E-02
 -0.17401E-02 -0.29203E-02 -0.56005E-02
 -0.12897E-02 -0.33969E-02 -0.55674E-02
 -0.63037E-03 -0.32904E-02 -0.56109E-02
  0.22567E-03 -0.31062E-02 -0.56380E-02
  0.11391E-02 -0.28547E-02 -0.56301E-02
  0.19890E-02 -0.25641E-02 -0.56029E-02
  0.26587E-02 -0.23290E-02 -0.55697E-02
  0.28117E-02 -0.16328E-02 -0.56209E-02
  0.41455E-02  0.10071E-02 -0.54704E-02
  0.42675E-02 -0.10200E-04 -0.54666E-02
  0.37862E-02  0.19773E-02 -0.54619E-02
  0.32013E-02  0.28303E-02 -0.54765E-02
  0.24257E-02  0.35172E-02 -0.54727E-02
  0.15115E-02  0.39953E-02 -0.54752E-02
  0.50912E-03  0.42420E-02 -0.54846E-02
 -0.52150E-03  0.42422E-02 -0.54699E-02
 -0.15255E-02  0.40007E-02 -0.54740E-02
 -0.24395E-02  0.35217E-02 -0.54685E-02
 -0.32056E-02  0.28383E-02 -0.54759E-02
 -0.37865E-02  0.19924E-02 -0.54718E-02
 -0.41541E-02  0.10326E-02 -0.54693E-02
 -0.42792E-02  0.61209E-05 -0.54585E-02
 -0.41546E-02 -0.10175E-02 -0.54665E-02
 -0.37885E-02 -0.19845E-02 -0.54761E-02
 -0.31983E-02 -0.28365E-02 -0.54915E-02
 -0.24264E-02 -0.35220E-02 -0.54635E-02
 -0.15098E-02 -0.39937E-02 -0.54677E-02
 -0.50752E-03 -0.42423E-02 -0.54740E-02
  0.51724E-03 -0.42408E-02 -0.54724E-02
  0.15166E-02 -0.39886E-02 -0.54695E-02
  0.24265E-02 -0.35126E-02 -0.54598E-02
  0.31916E-02 -0.28252E-02 -0.54634E-02
  0.37765E-02 -0.19844E-02 -0.54624E-02
  0.41421E-02 -0.10266E-02 -0.54679E-02
  0.10849E-02  0.71537E-03 -0.48730E-02
  0.18355E-02  0.13085E-02 -0.48479E-02
  0.24414E-02  0.63075E-03 -0.48262E-02
  0.17519E-02 -0.34654E-03 -0.48713E-02
  0.32145E-02  0.15918E-03 -0.47895E-02
  0.29436E-02 -0.71207E-03 -0.48109E-02
  0.13501E-02  0.19469E-02 -0.48392E-02
  0.67476E-03  0.15489E-02 -0.48687E-02
  0.12615E-03  0.32939E-03 -0.48790E-02
 -0.14395E-03  0.12535E-02 -0.48778E-02
  0.98685E-03  0.24058E-02 -0.48247E-02
  0.11908E-02  0.29923E-02 -0.47882E-02
  0.18462E-02  0.25705E-02 -0.48008E-02
  0.41951E-03  0.22901E-02 -0.48531E-02
  0.41473E-03  0.31080E-02 -0.48095E-02
 -0.81079E-03 -0.10551E-02 -0.48876E-02
 -0.91451E-03  0.96777E-04 -0.48774E-02
  0.47501E-03 -0.72856E-03 -0.48988E-02
 -0.19352E-02 -0.74251E-03 -0.48610E-02
 -0.19450E-02  0.94533E-04 -0.48689E-02
 -0.28865E-02 -0.81593E-03 -0.48137E-02
 -0.29666E-02  0.51214E-04 -0.48192E-02
 -0.26948E-02 -0.16065E-02 -0.47899E-02
 -0.20477E-02 -0.13920E-02 -0.48261E-02
 -0.10494E-02  0.10629E-02 -0.48695E-02
 -0.15281E-02 -0.18270E-02 -0.48311E-02
 -0.33587E-03  0.21398E-02 -0.48654E-02
 -0.11673E-02  0.19671E-02 -0.48551E-02
 -0.19947E-02  0.18197E-02 -0.48356E-02
 -0.19771E-02  0.96701E-03 -0.48609E-02
 -0.17356E-03 -0.20866E-02 -0.48519E-02
 -0.10045E-02 -0.24816E-02 -0.48195E-02
  0.81866E-03 -0.17978E-02 -0.48618E-02
  0.18123E-02 -0.15742E-02 -0.48458E-02
  0.34032E-02  0.81955E-03 -0.47588E-02
  0.29688E-02  0.13290E-02 -0.47855E-02
  0.24397E-02  0.19791E-02 -0.48139E-02
 -0.43290E-03  0.30616E-02 -0.48094E-02
 -0.12864E-02  0.28795E-02 -0.48009E-02
 -0.20665E-02  0.26148E-02 -0.47872E-02
 -0.26607E-02  0.23788E-02 -0.47599E-02
 -0.27982E-02  0.17540E-02 -0.47899E-02
 -0.29306E-02  0.93365E-03 -0.48129E-02
 -0.22456E-02 -0.22657E-02 -0.47922E-02
 -0.17091E-02 -0.28561E-02 -0.47813E-02
 -0.12700E-02 -0.33208E-02 -0.47550E-02
 -0.62552E-03 -0.32193E-02 -0.47867E-02
  0.21574E-03 -0.30428E-02 -0.48056E-02
  0.11141E-02 -0.27987E-02 -0.47980E-02
  0.19487E-02 -0.25123E-02 -0.47786E-02
  0.26050E-02 -0.22811E-02 -0.47549E-02
  0.27559E-02 -0.15980E-02 -0.47940E-02
  0.40509E-02  0.99729E-03 -0.46917E-02
  0.41721E-02 -0.95962E-06 -0.46843E-02
  0.36948E-02  0.19418E-02 -0.46890E-02
  0.31219E-02  0.27694E-02 -0.47013E-02
  0.23677E-02  0.34369E-02 -0.46961E-02
  0.14773E-02  0.39036E-02 -0.47006E-02
  0.50017E-03  0.41444E-02 -0.47063E-02
 -0.50516E-03  0.41455E-02 -0.46911E-02
 -0.14855E-02  0.39073E-02 -0.46953E-02
 -0.23786E-02  0.34389E-02 -0.46864E-02
 -0.31267E-02  0.27701E-02 -0.46889E-02
 -0.36977E-02  0.19448E-02 -0.46884E-02
 -0.40595E-02  0.10055E-02 -0.46883E-02
 -0.41842E-02  0.41917E-05 -0.46799E-02
 -0.40608E-02 -0.99737E-03 -0.46925E-02
 -0.37004E-02 -0.19393E-02 -0.47003E-02
 -0.31253E-02 -0.27671E-02 -0.47120E-02
 -0.23738E-02 -0.34349E-02 -0.46863E-02
 -0.14816E-02 -0.38981E-02 -0.46851E-02
 -0.50419E-03 -0.41397E-02 -0.46898E-02
  0.49938E-03 -0.41425E-02 -0.46924E-02
  0.14786E-02 -0.39018E-02 -0.46890E-02
  0.23719E-02 -0.34369E-02 -0.46790E-02
  0.31250E-02 -0.27661E-02 -0.46811E-02
  0.36975E-02 -0.19399E-02 -0.46781E-02
  0.40517E-02 -0.99911E-03 -0.46846E-02
  0.10684E-02  0.70789E-03 -0.39805E-02
  0.18044E-02  0.12927E-02 -0.39641E-02
  0.24003E-02  0.62495E-03 -0.39471E-02
  0.17239E-02 -0.33790E-03 -0.39808E-02
  0.31560E-02  0.16130E-03 -0.39213E-02
  0.28909E-02 -0.69416E-03 -0.39357E-02
  0.13276E-02  0.19203E-02 -0.39571E-02
  0.66493E-03  0.15301E-02 -0.39789E-02
  0.12393E-03  0.32689E-03 -0.39815E-02
 -0.14130E-03  0.12388E-02 -0.39844E-02
  0.97096E-03  0.23704E-02 -0.39449E-02
  0.11696E-02  0.29420E-02 -0.39183E-02
  0.18115E-02  0.25292E-02 -0.39280E-02
  0.41408E-03  0.22573E-02 -0.39660E-02
  0.40929E-03  0.30567E-02 -0.39353E-02
 -0.80092E-03 -0.10376E-02 -0.39928E-02
 -0.90377E-03  0.96179E-04 -0.39819E-02
  0.46705E-03 -0.71624E-03 -0.39995E-02
 -0.19090E-02 -0.73031E-03 -0.39722E-02
 -0.19181E-02  0.92997E-04 -0.39772E-02
 -0.28379E-02 -0.80057E-03 -0.39384E-02
 -0.29154E-02  0.51428E-04 -0.39415E-02
 -0.26479E-02 -0.15741E-02 -0.39177E-02
 -0.20164E-02 -0.13662E-02 -0.39445E-02
 -0.10341E-02  0.10489E-02 -0.39783E-02
 -0.15046E-02 -0.17925E-02 -0.39492E-02
 -0.32959E-03  0.21094E-02 -0.39740E-02
 -0.11482E-02  0.19373E-02 -0.39676E-02
 -0.19623E-02  0.17903E-02 -0.39544E-02
 -0.19473E-02  0.95233E-03 -0.39724E-02
 -0.17271E-03 -0.20495E-02 -0.39645E-02
 -0.98981E-03 -0.24346E-02 -0.39413E-02
  0.80375E-03 -0.17673E-02 -0.39710E-02
  0.17820E-02 -0.15464E-02 -0.39599E-02
  0.33391E-02  0.80919E-03 -0.38976E-02
  0.29142E-02  0.13093E-02 -0.39176E-02
  0.23943E-02  0.19482E-02 -0.39396E-02
 -0.42378E-03  0.30112E-02 -0.39331E-02
 -0.12624E-02  0.28312E-02 -0.39267E-02
 -0.20286E-02  0.25690E-02 -0.39177E-02
 -0.26119E-02  0.23364E-02 -0.38959E-02
 -0.27488E-02  0.17243E-02 -0.39196E-02
 -0.28789E-02  0.91903E-03 -0.39371E-02
 -0.22060E-02 -0.22189E-02 -0.39203E-02
 -0.16792E-02 -0.27983E-02 -0.39131E-02
 -0.12481E-02 -0.32545E-02 -0.38928E-02
 -0.61693E-03 -0.31570E-02 -0.39180E-02
  0.20902E-03 -0.29854E-02 -0.39306E-02
  0.10918E-02 -0.27469E-02 -0.39223E-02
  0.19123E-02 -0.24650E-02 -0.39074E-02
  0.25549E-02 -0.22361E-02 -0.38894E-02
  0.27051E-02 -0.15654E-02 -0.39208E-02
  0.39637E-02  0.98006E-03 -0.38459E-02
  0.40838E-02  0.25949E-05 -0.38382E-02
  0.36154E-02  0.19034E-02 -0.38453E-02
  0.30564E-02  0.27133E-02 -0.38557E-02
  0.23191E-02  0.33666E-02 -0.38517E-02
  0.14470E-02  0.38246E-02 -0.38568E-02
  0.49135E-03  0.40618E-02 -0.38636E-02
 -0.49371E-03  0.40634E-02 -0.38551E-02
 -0.14540E-02  0.38286E-02 -0.38560E-02
 -0.23285E-02  0.33720E-02 -0.38444E-02
 -0.30633E-02  0.27179E-02 -0.38418E-02
 -0.36237E-02  0.19089E-02 -0.38484E-02
 -0.39728E-02  0.98434E-03 -0.38504E-02
 -0.40932E-02  0.40281E-05 -0.38433E-02
 -0.39733E-02 -0.97482E-03 -0.38511E-02
 -0.36225E-02 -0.18955E-02 -0.38554E-02
 -0.30611E-02 -0.27064E-02 -0.38655E-02
 -0.23245E-02 -0.33604E-02 -0.38409E-02
 -0.14522E-02 -0.38159E-02 -0.38398E-02
 -0.49493E-03 -0.40529E-02 -0.38442E-02
  0.48842E-03 -0.40549E-02 -0.38486E-02
  0.14451E-02 -0.38177E-02 -0.38473E-02
  0.23181E-02 -0.33603E-02 -0.38382E-02
  0.30545E-02 -0.27051E-02 -0.38371E-02
  0.36150E-02 -0.18958E-02 -0.38334E-02
  0.39652E-02 -0.97521E-03 -0.38390E-02
  0.10529E-02  0.70184E-03 -0.30602E-02
  0.17786E-02  0.12767E-02 -0.30502E-02
  0.23650E-02  0.61945E-03 -0.30354E-02
  0.16970E-02 -0.32805E-03 -0.30611E-02
  0.31083E-02  0.16380E-03 -0.30192E-02
  0.28462E-02 -0.67833E-03 -0.30292E-02
  0.13093E-02  0.18949E-02 -0.30457E-02
  0.65632E-03  0.15117E-02 -0.30624E-02
  0.12128E-03  0.32788E-03 -0.30565E-02
 -0.13930E-03  0.12256E-02 -0.30653E-02
  0.95741E-03  0.23387E-02 -0.30355E-02
  0.11516E-02  0.29029E-02 -0.30158E-02
  0.17847E-02  0.24963E-02 -0.30237E-02
  0.40839E-03  0.22262E-02 -0.30522E-02
  0.40188E-03  0.30142E-02 -0.30289E-02
 -0.79065E-03 -0.10217E-02 -0.30694E-02
 -0.89114E-03  0.98445E-04 -0.30591E-02
  0.45772E-03 -0.70159E-03 -0.30724E-02
 -0.18811E-02 -0.71990E-03 -0.30559E-02
 -0.18895E-02  0.93564E-04 -0.30588E-02
 -0.27973E-02 -0.78858E-03 -0.30320E-02
 -0.28730E-02  0.53142E-04 -0.30333E-02
 -0.26104E-02 -0.15521E-02 -0.30144E-02
 -0.19872E-02 -0.13476E-02 -0.30336E-02
 -0.10195E-02  0.10379E-02 -0.30607E-02
 -0.14834E-02 -0.17675E-02 -0.30361E-02
 -0.32622E-03  0.20801E-02 -0.30583E-02
 -0.11336E-02  0.19105E-02 -0.30547E-02
 -0.19352E-02  0.17664E-02 -0.30458E-02
 -0.19188E-02  0.94167E-03 -0.30568E-02
 -0.17313E-03 -0.20182E-02 -0.30462E-02
 -0.97831E-03 -0.23989E-02 -0.30298E-02
  0.78844E-03 -0.17390E-02 -0.30522E-02
  0.17531E-02 -0.15208E-02 -0.30463E-02
  0.32900E-02  0.80193E-03 -0.30019E-02
  0.28717E-02  0.12930E-02 -0.30158E-02
  0.23595E-02  0.19222E-02 -0.30335E-02
 -0.42027E-03  0.29674E-02 -0.30273E-02
 -0.12463E-02  0.27905E-02 -0.30245E-02
 -0.20001E-02  0.25328E-02 -0.30203E-02
 -0.25749E-02  0.23033E-02 -0.30043E-02
 -0.27100E-02  0.17004E-02 -0.30208E-02
 -0.28372E-02  0.90851E-03 -0.30322E-02
 -0.21754E-02 -0.21877E-02 -0.30165E-02
 -0.16573E-02 -0.27574E-02 -0.30120E-02
 -0.12333E-02 -0.32052E-02 -0.29974E-02
 -0.61208E-03 -0.31083E-02 -0.30155E-02
  0.20152E-03 -0.29387E-02 -0.30236E-02
  0.10719E-02 -0.27046E-02 -0.30167E-02
  0.18814E-02 -0.24269E-02 -0.30069E-02
  0.25152E-02 -0.22014E-02 -0.29940E-02
  0.26628E-02 -0.15383E-02 -0.30180E-02
  0.39043E-02  0.97055E-03 -0.29683E-02
  0.40200E-02  0.70013E-05 -0.29623E-02
  0.35597E-02  0.18796E-02 -0.29684E-02
  0.30086E-02  0.26774E-02 -0.29759E-02
  0.22827E-02  0.33214E-02 -0.29725E-02
  0.14215E-02  0.37729E-02 -0.29771E-02
  0.48013E-03  0.40042E-02 -0.29800E-02
 -0.48904E-03  0.40042E-02 -0.29749E-02
 -0.14323E-02  0.37728E-02 -0.29781E-02
 -0.22923E-02  0.33235E-02 -0.29684E-02
 -0.30193E-02  0.26777E-02 -0.29680E-02
 -0.35722E-02  0.18781E-02 -0.29723E-02
 -0.39152E-02  0.97027E-03 -0.29730E-02
 -0.40334E-02  0.62953E-05 -0.29633E-02
 -0.39165E-02 -0.95741E-03 -0.29720E-02
 -0.35706E-02 -0.18651E-02 -0.29769E-02
 -0.30191E-02 -0.26640E-02 -0.29874E-02
 -0.22942E-02 -0.33079E-02 -0.29669E-02
 -0.14343E-02 -0.37570E-02 -0.29639E-02
 -0.49209E-03 -0.39879E-02 -0.29669E-02
  0.47666E-03 -0.39880E-02 -0.29712E-02
  0.14191E-02 -0.37565E-02 -0.29684E-02
  0.22812E-02 -0.33081E-02 -0.29598E-02
  0.30087E-02 -0.26638E-02 -0.29583E-02
  0.35593E-02 -0.18643E-02 -0.29560E-02
  0.39023E-02 -0.95628E-03 -0.29621E-02
  0.10397E-02  0.69869E-03 -0.21131E-02
  0.17555E-02  0.12659E-02 -0.21086E-02
  0.23366E-02  0.61696E-03 -0.20968E-02
  0.16783E-02 -0.32011E-03 -0.21150E-02
  0.30709E-02  0.16494E-03 -0.20869E-02
  0.28138E-02 -0.66874E-03 -0.20921E-02
  0.12909E-02  0.18743E-02 -0.21062E-02
  0.64649E-03  0.14980E-02 -0.21166E-02
  0.11740E-03  0.33054E-03 -0.21090E-02
 -0.14003E-03  0.12174E-02 -0.21189E-02
  0.94289E-03  0.23118E-02 -0.20988E-02
  0.11347E-02  0.28678E-02 -0.20865E-02
  0.17593E-02  0.24674E-02 -0.20914E-02
  0.40172E-03  0.22014E-02 -0.21093E-02
  0.39580E-03  0.29785E-02 -0.20958E-02
 -0.78459E-03 -0.10068E-02 -0.21208E-02
 -0.88439E-03  0.10243E-03 -0.21126E-02
  0.45130E-03 -0.68896E-03 -0.21220E-02
 -0.18619E-02 -0.70709E-03 -0.21127E-02
 -0.18696E-02  0.95756E-04 -0.21128E-02
 -0.27645E-02 -0.77402E-03 -0.20979E-02
 -0.28390E-02  0.55939E-04 -0.20974E-02
 -0.25797E-02 -0.15276E-02 -0.20815E-02
 -0.19660E-02 -0.13268E-02 -0.20952E-02
 -0.10098E-02  0.10305E-02 -0.21150E-02
 -0.14686E-02 -0.17436E-02 -0.20963E-02
 -0.32313E-03  0.20579E-02 -0.21117E-02
 -0.11204E-02  0.18891E-02 -0.21088E-02
 -0.19116E-02  0.17457E-02 -0.21024E-02
 -0.18971E-02  0.93278E-03 -0.21103E-02
 -0.17266E-03 -0.19929E-02 -0.21012E-02
 -0.96955E-03 -0.23694E-02 -0.20914E-02
  0.77902E-03 -0.17166E-02 -0.21068E-02
  0.17341E-02 -0.15018E-02 -0.21055E-02
  0.32486E-02  0.79715E-03 -0.20753E-02
  0.28345E-02  0.12823E-02 -0.20850E-02
  0.23274E-02  0.19021E-02 -0.20983E-02
 -0.41472E-03  0.29317E-02 -0.20919E-02
 -0.12305E-02  0.27560E-02 -0.20893E-02
 -0.19746E-02  0.25000E-02 -0.20869E-02
 -0.25408E-02  0.22737E-02 -0.20761E-02
 -0.26747E-02  0.16803E-02 -0.20871E-02
 -0.28022E-02  0.89974E-03 -0.20960E-02
 -0.21506E-02 -0.21570E-02 -0.20824E-02
 -0.16393E-02 -0.27219E-02 -0.20803E-02
 -0.12201E-02 -0.31645E-02 -0.20694E-02
 -0.60638E-03 -0.30697E-02 -0.20821E-02
  0.19823E-03 -0.29021E-02 -0.20852E-02
  0.10591E-02 -0.26713E-02 -0.20807E-02
  0.18593E-02 -0.23969E-02 -0.20770E-02
  0.24849E-02 -0.21742E-02 -0.20683E-02
  0.26319E-02 -0.15193E-02 -0.20852E-02
  0.38513E-02  0.96159E-03 -0.20501E-02
  0.39663E-02  0.84326E-05 -0.20440E-02
  0.35107E-02  0.18583E-02 -0.20499E-02
  0.29666E-02  0.26449E-02 -0.20545E-02
  0.22517E-02  0.32789E-02 -0.20524E-02
  0.14036E-02  0.37249E-02 -0.20578E-02
  0.47394E-03  0.39548E-02 -0.20628E-02
 -0.48367E-03  0.39537E-02 -0.20612E-02
 -0.14151E-02  0.37226E-02 -0.20639E-02
 -0.22631E-02  0.32759E-02 -0.20550E-02
 -0.29772E-02  0.26420E-02 -0.20549E-02
 -0.35206E-02  0.18580E-02 -0.20585E-02
 -0.38629E-02  0.96263E-03 -0.20586E-02
 -0.39806E-02  0.10189E-04 -0.20494E-02
 -0.38647E-02 -0.94175E-03 -0.20540E-02
 -0.35236E-02 -0.18371E-02 -0.20544E-02
 -0.29795E-02 -0.26245E-02 -0.20621E-02
 -0.22653E-02 -0.32594E-02 -0.20462E-02
 -0.14171E-02 -0.37047E-02 -0.20450E-02
 -0.48627E-03 -0.39336E-02 -0.20468E-02
  0.47002E-03 -0.39345E-02 -0.20512E-02
  0.13998E-02 -0.37077E-02 -0.20510E-02
  0.22508E-02 -0.32644E-02 -0.20462E-02
  0.29686E-02 -0.26270E-02 -0.20442E-02
  0.35127E-02 -0.18384E-02 -0.20407E-02
  0.38511E-02 -0.94289E-03 -0.20435E-02
  0.10347E-02  0.69767E-03 -0.11498E-02
  0.17473E-02  0.12613E-02 -0.11494E-02
  0.23245E-02  0.61596E-03 -0.11409E-02
  0.16699E-02 -0.31556E-03 -0.11540E-02
  0.30538E-02  0.16713E-03 -0.11378E-02
  0.27982E-02 -0.66213E-03 -0.11389E-02
  0.12855E-02  0.18673E-02 -0.11479E-02
  0.64329E-03  0.14946E-02 -0.11533E-02
  0.11541E-03  0.33197E-03 -0.11427E-02
 -0.14043E-03  0.12152E-02 -0.11540E-02
  0.93827E-03  0.23032E-02 -0.11426E-02
  0.11276E-02  0.28532E-02 -0.11368E-02
  0.17499E-02  0.24551E-02 -0.11396E-02
  0.39912E-03  0.21938E-02 -0.11490E-02
  0.39162E-03  0.29639E-02 -0.11426E-02
 -0.78192E-03 -0.10005E-02 -0.11562E-02
 -0.88157E-03  0.10502E-03 -0.11462E-02
  0.44848E-03 -0.68347E-03 -0.11568E-02
 -0.18540E-02 -0.70103E-03 -0.11508E-02
 -0.18618E-02  0.98387E-04 -0.11484E-02
 -0.27496E-02 -0.76815E-03 -0.11430E-02
 -0.28252E-02  0.58611E-04 -0.11405E-02
 -0.25651E-02 -0.15172E-02 -0.11311E-02
 -0.19562E-02 -0.13180E-02 -0.11393E-02
 -0.10055E-02  0.10289E-02 -0.11508E-02
 -0.14613E-02 -0.17325E-02 -0.11396E-02
 -0.32263E-03  0.20506E-02 -0.11500E-02
 -0.11159E-02  0.18826E-02 -0.11479E-02
 -0.19041E-02  0.17411E-02 -0.11438E-02
 -0.18893E-02  0.93171E-03 -0.11474E-02
 -0.17247E-03 -0.19819E-02 -0.11429E-02
 -0.96573E-03 -0.23544E-02 -0.11366E-02
  0.77442E-03 -0.17068E-02 -0.11476E-02
  0.17245E-02 -0.14922E-02 -0.11481E-02
  0.32302E-02  0.79577E-03 -0.11305E-02
  0.28187E-02  0.12764E-02 -0.11347E-02
  0.23151E-02  0.18918E-02 -0.11439E-02
 -0.41496E-03  0.29173E-02 -0.11388E-02
 -0.12259E-02  0.27443E-02 -0.11371E-02
 -0.19660E-02  0.24911E-02 -0.11364E-02
 -0.25297E-02  0.22657E-02 -0.11296E-02
 -0.26637E-02  0.16750E-02 -0.11355E-02
 -0.27898E-02  0.89867E-03 -0.11407E-02
 -0.21385E-02 -0.21419E-02 -0.11314E-02
 -0.16305E-02 -0.27026E-02 -0.11302E-02
 -0.12143E-02 -0.31424E-02 -0.11230E-02
 -0.60506E-03 -0.30499E-02 -0.11329E-02
  0.19565E-03 -0.28850E-02 -0.11335E-02
  0.10525E-02 -0.26556E-02 -0.11298E-02
  0.18477E-02 -0.23816E-02 -0.11286E-02
  0.24686E-02 -0.21603E-02 -0.11227E-02
  0.26158E-02 -0.15089E-02 -0.11344E-02
  0.38272E-02  0.95794E-03 -0.11178E-02
  0.39421E-02  0.11659E-04 -0.11126E-02
  0.34889E-02  0.18468E-02 -0.11161E-02
  0.29476E-02  0.26292E-02 -0.11175E-02
  0.22351E-02  0.32604E-02 -0.11168E-02
  0.13913E-02  0.37015E-02 -0.11226E-02
  0.46834E-03  0.39283E-02 -0.11249E-02
 -0.48227E-03  0.39283E-02 -0.11240E-02
 -0.14066E-02  0.37010E-02 -0.11268E-02
 -0.22479E-02  0.32591E-02 -0.11190E-02
 -0.29609E-02  0.26286E-02 -0.11173E-02
 -0.35012E-02  0.18457E-02 -0.11191E-02
 -0.38380E-02  0.95650E-03 -0.11206E-02
 -0.39532E-02  0.11667E-04 -0.11132E-02
 -0.38390E-02 -0.93354E-03 -0.11180E-02
 -0.35027E-02 -0.18217E-02 -0.11197E-02
 -0.29628E-02 -0.26051E-02 -0.11249E-02
 -0.22515E-02 -0.32363E-02 -0.11094E-02
 -0.14087E-02 -0.36783E-02 -0.11080E-02
 -0.48504E-03 -0.39075E-02 -0.11094E-02
  0.46665E-03 -0.39087E-02 -0.11136E-02
  0.13912E-02 -0.36812E-02 -0.11151E-02
  0.22346E-02 -0.32395E-02 -0.11125E-02
  0.29472E-02 -0.26084E-02 -0.11090E-02
  0.34891E-02 -0.18257E-02 -0.11065E-02
  0.38268E-02 -0.93441E-03 -0.11092E-02
  0.10318E-02  0.69810E-03 -0.18069E-03
  0.17399E-02  0.12606E-02 -0.18021E-03
  0.23154E-02  0.61697E-03 -0.17327E-03
  0.16642E-02 -0.31214E-03 -0.18332E-03
  0.30402E-02  0.16958E-03 -0.17230E-03
  0.27864E-02 -0.65648E-03 -0.17208E-03
  0.12801E-02  0.18636E-02 -0.17971E-03
  0.64243E-03  0.14940E-02 -0.18432E-03
  0.11606E-03  0.33305E-03 -0.17629E-03
 -0.13892E-03  0.12163E-02 -0.18635E-03
  0.93500E-03  0.22967E-02 -0.17573E-03
  0.11227E-02  0.28410E-02 -0.17216E-03
  0.17406E-02  0.24467E-02 -0.17349E-03
  0.39961E-03  0.21890E-02 -0.18045E-03
  0.39177E-03  0.29526E-02 -0.17585E-03
 -0.77943E-03 -0.99667E-03 -0.18629E-03
 -0.87909E-03  0.10573E-03 -0.17848E-03
  0.44806E-03 -0.67986E-03 -0.18710E-03
 -0.18492E-02 -0.69843E-03 -0.18115E-03
 -0.18564E-02  0.98128E-04 -0.17807E-03
 -0.27401E-02 -0.76471E-03 -0.17541E-03
 -0.28142E-02  0.58506E-04 -0.17237E-03
 -0.25559E-02 -0.15091E-02 -0.16434E-03
 -0.19509E-02 -0.13113E-02 -0.17123E-03
 -0.10026E-02  0.10294E-02 -0.18253E-03
 -0.14575E-02 -0.17235E-02 -0.17086E-03
 -0.32014E-03  0.20473E-02 -0.18082E-03
 -0.11121E-02  0.18790E-02 -0.17829E-03
 -0.18977E-02  0.17367E-02 -0.17452E-03
 -0.18833E-02  0.92997E-03 -0.17748E-03
 -0.17174E-03 -0.19726E-02 -0.17328E-03
 -0.96387E-03 -0.23431E-02 -0.16845E-03
  0.77227E-03 -0.16983E-02 -0.17723E-03
  0.17181E-02 -0.14848E-02 -0.17854E-03
  0.32147E-02  0.79532E-03 -0.16670E-03
  0.28059E-02  0.12740E-02 -0.16950E-03
  0.23039E-02  0.18869E-02 -0.17615E-03
 -0.41197E-03  0.29060E-02 -0.17164E-03
 -0.12209E-02  0.27338E-02 -0.16958E-03
 -0.19580E-02  0.24815E-02 -0.16925E-03
 -0.25176E-02  0.22563E-02 -0.16538E-03
 -0.26511E-02  0.16686E-02 -0.16906E-03
 -0.27775E-02  0.89548E-03 -0.17268E-03
 -0.21305E-02 -0.21295E-02 -0.16373E-03
 -0.16245E-02 -0.26879E-02 -0.16350E-03
 -0.12100E-02 -0.31257E-02 -0.15879E-03
 -0.60410E-03 -0.30343E-02 -0.16750E-03
  0.19393E-03 -0.28696E-02 -0.16637E-03
  0.10478E-02 -0.26408E-02 -0.16307E-03
  0.18389E-02 -0.23682E-02 -0.16384E-03
  0.24559E-02 -0.21483E-02 -0.16045E-03
  0.26035E-02 -0.15002E-02 -0.16955E-03
  0.38029E-02  0.95310E-03 -0.15565E-03
  0.39174E-02  0.13974E-04 -0.15271E-03
  0.34682E-02  0.18371E-02 -0.15652E-03
  0.29312E-02  0.26158E-02 -0.15797E-03
  0.22229E-02  0.32428E-02 -0.15809E-03
  0.13854E-02  0.36811E-02 -0.16423E-03
  0.46788E-03  0.39093E-02 -0.16583E-03
 -0.47805E-03  0.39104E-02 -0.16611E-03
 -0.13978E-02  0.36826E-02 -0.16786E-03
 -0.22367E-02  0.32437E-02 -0.15891E-03
 -0.29445E-02  0.26151E-02 -0.15846E-03
 -0.34827E-02  0.18361E-02 -0.15924E-03
 -0.38194E-02  0.95170E-03 -0.15943E-03
 -0.39344E-02  0.12238E-04 -0.15373E-03
 -0.38203E-02 -0.92675E-03 -0.15803E-03
 -0.34831E-02 -0.18116E-02 -0.15808E-03
 -0.29443E-02 -0.25887E-02 -0.16209E-03
 -0.22376E-02 -0.32149E-02 -0.14859E-03
 -0.14006E-02 -0.36554E-02 -0.14788E-03
 -0.48209E-03 -0.38813E-02 -0.15077E-03
  0.46391E-03 -0.38814E-02 -0.15464E-03
  0.13815E-02 -0.36567E-02 -0.15512E-03
  0.22191E-02 -0.32182E-02 -0.15451E-03
  0.29289E-02 -0.25906E-02 -0.15173E-03
  0.34676E-02 -0.18121E-02 -0.15130E-03
  0.38032E-02 -0.92574E-03 -0.15161E-03
  0.10301E-02  0.69871E-03  0.79661E-03
  0.17373E-02  0.12590E-02  0.79611E-03
  0.23118E-02  0.61606E-03  0.80066E-03
  0.16617E-02 -0.30929E-03  0.79297E-03
  0.30362E-02  0.16964E-03  0.79902E-03
  0.27842E-02 -0.65405E-03  0.80101E-03
  0.12781E-02  0.18614E-02  0.79626E-03
  0.64066E-03  0.14926E-02  0.79270E-03
  0.11546E-03  0.33615E-03  0.80041E-03
 -0.13941E-03  0.12164E-02  0.79020E-03
  0.93325E-03  0.22947E-02  0.79904E-03
  0.11211E-02  0.28391E-02  0.80081E-03
  0.17381E-02  0.24447E-02  0.79998E-03
  0.39825E-03  0.21862E-02  0.79540E-03
  0.39099E-03  0.29505E-02  0.79825E-03
 -0.77831E-03 -0.99308E-03  0.79100E-03
 -0.87680E-03  0.10848E-03  0.79830E-03
  0.44656E-03 -0.67516E-03  0.78955E-03
 -0.18458E-02 -0.69639E-03  0.79466E-03
 -0.18520E-02  0.98705E-04  0.79788E-03
 -0.27360E-02 -0.76290E-03  0.79798E-03
 -0.28101E-02  0.59361E-04  0.80082E-03
 -0.25527E-02 -0.15071E-02  0.80854E-03
 -0.19483E-02 -0.13091E-02  0.80334E-03
 -0.99998E-03  0.10298E-02  0.79335E-03
 -0.14549E-02 -0.17205E-02  0.80431E-03
 -0.31991E-03  0.20444E-02  0.79483E-03
 -0.11096E-02  0.18763E-02  0.79652E-03
 -0.18952E-02  0.17348E-02  0.79918E-03
 -0.18794E-02  0.92895E-03  0.79753E-03
 -0.17169E-03 -0.19689E-02  0.80139E-03
 -0.96102E-03 -0.23391E-02  0.80529E-03
  0.76962E-03 -0.16947E-02  0.79740E-03
  0.17156E-02 -0.14816E-02  0.79657E-03
  0.32105E-02  0.79488E-03  0.80214E-03
  0.28018E-02  0.12718E-02  0.80122E-03
  0.23008E-02  0.18841E-02  0.79759E-03
 -0.41140E-03  0.29027E-02  0.80143E-03
 -0.12189E-02  0.27314E-02  0.80229E-03
 -0.19560E-02  0.24797E-02  0.80181E-03
 -0.25164E-02  0.22548E-02  0.80403E-03
 -0.26497E-02  0.16670E-02  0.80252E-03
 -0.27744E-02  0.89477E-03  0.80005E-03
 -0.21271E-02 -0.21270E-02  0.80947E-03
 -0.16200E-02 -0.26842E-02  0.80806E-03
 -0.12060E-02 -0.31207E-02  0.81060E-03
 -0.60179E-03 -0.30293E-02  0.80388E-03
  0.19304E-03 -0.28654E-02  0.80603E-03
  0.10451E-02 -0.26371E-02  0.80818E-03
  0.18364E-02 -0.23642E-02  0.80703E-03
  0.24536E-02 -0.21446E-02  0.80947E-03
  0.26014E-02 -0.14966E-02  0.80266E-03
  0.37992E-02  0.95430E-03  0.80876E-03
  0.39147E-02  0.15183E-04  0.81176E-03
  0.34633E-02  0.18375E-02  0.80779E-03
  0.29262E-02  0.26135E-02  0.80773E-03
  0.22191E-02  0.32396E-02  0.80783E-03
  0.13821E-02  0.36780E-02  0.80287E-03
  0.46572E-03  0.39040E-02  0.79842E-03
 -0.47794E-03  0.39052E-02  0.79762E-03
 -0.13958E-02  0.36796E-02  0.79612E-03
 -0.22332E-02  0.32399E-02  0.80343E-03
 -0.29415E-02  0.26122E-02  0.80506E-03
 -0.34793E-02  0.18337E-02  0.80502E-03
 -0.38137E-02  0.95011E-03  0.80602E-03
 -0.39270E-02  0.12628E-04  0.81239E-03
 -0.38136E-02 -0.92414E-03  0.80920E-03
 -0.34784E-02 -0.18068E-02  0.80771E-03
 -0.29429E-02 -0.25840E-02  0.80393E-03
 -0.22367E-02 -0.32109E-02  0.81677E-03
 -0.13999E-02 -0.36504E-02  0.81713E-03
 -0.48213E-03 -0.38770E-02  0.81684E-03
  0.46246E-03 -0.38776E-02  0.81209E-03
  0.13807E-02 -0.36518E-02  0.80921E-03
  0.22183E-02 -0.32128E-02  0.80779E-03
  0.29266E-02 -0.25854E-02  0.81140E-03
  0.34658E-02 -0.18079E-02  0.81059E-03
  0.38016E-02 -0.92337E-03  0.81203E-03
  0.10292E-02  0.69927E-03  0.17733E-02
  0.17354E-02  0.12595E-02  0.17729E-02
  0.23101E-02  0.61679E-03  0.17767E-02
  0.16594E-02 -0.30787E-03  0.17703E-02
  0.30330E-02  0.17072E-03  0.17738E-02
  0.27808E-02 -0.65226E-03  0.17757E-02
  0.12764E-02  0.18612E-02  0.17726E-02
  0.64016E-03  0.14938E-02  0.17692E-02
  0.11558E-03  0.33767E-03  0.17752E-02
 -0.13938E-03  0.12186E-02  0.17654E-02
  0.93167E-03  0.22938E-02  0.17747E-02
  0.11190E-02  0.28368E-02  0.17753E-02
  0.17348E-02  0.24431E-02  0.17744E-02
  0.39808E-03  0.21855E-02  0.17716E-02
  0.39056E-03  0.29484E-02  0.17742E-02
 -0.77726E-03 -0.99112E-03  0.17677E-02
 -0.87619E-03  0.11038E-03  0.17734E-02
  0.44594E-03 -0.67347E-03  0.17667E-02
 -0.18444E-02 -0.69442E-03  0.17707E-02
 -0.18511E-02  0.10005E-03  0.17742E-02
 -0.27321E-02 -0.76047E-03  0.17746E-02
 -0.28072E-02  0.60487E-04  0.17772E-02
 -0.25487E-02 -0.15036E-02  0.17845E-02
 -0.19461E-02 -0.13060E-02  0.17789E-02
 -0.99965E-03  0.10320E-02  0.17686E-02
 -0.14534E-02 -0.17169E-02  0.17801E-02
 -0.31923E-03  0.20445E-02  0.17704E-02
 -0.11088E-02  0.18763E-02  0.17715E-02
 -0.18934E-02  0.17344E-02  0.17732E-02
 -0.18783E-02  0.92988E-03  0.17732E-02
 -0.17085E-03 -0.19655E-02  0.17781E-02
 -0.96045E-03 -0.23352E-02  0.17811E-02
  0.76885E-03 -0.16921E-02  0.17748E-02
  0.17137E-02 -0.14797E-02  0.17735E-02
  0.32079E-02  0.79580E-03  0.17772E-02
  0.27993E-02  0.12716E-02  0.17768E-02
  0.22976E-02  0.18828E-02  0.17735E-02
 -0.41055E-03  0.29003E-02  0.17763E-02
 -0.12176E-02  0.27301E-02  0.17763E-02
 -0.19535E-02  0.24782E-02  0.17750E-02
 -0.25126E-02  0.22528E-02  0.17760E-02
 -0.26459E-02  0.16659E-02  0.17760E-02
 -0.27714E-02  0.89485E-03  0.17754E-02
 -0.21243E-02 -0.21231E-02  0.17845E-02
 -0.16182E-02 -0.26800E-02  0.17825E-02
 -0.12042E-02 -0.31162E-02  0.17847E-02
 -0.60033E-03 -0.30249E-02  0.17788E-02
  0.19473E-03 -0.28611E-02  0.17811E-02
  0.10457E-02 -0.26334E-02  0.17831E-02
  0.18351E-02 -0.23610E-02  0.17814E-02
  0.24505E-02 -0.21420E-02  0.17827E-02
  0.25979E-02 -0.14944E-02  0.17767E-02
  0.37927E-02  0.95225E-03  0.17834E-02
  0.39061E-02  0.15001E-04  0.17838E-02
  0.34570E-02  0.18334E-02  0.17824E-02
  0.29214E-02  0.26090E-02  0.17825E-02
  0.22171E-02  0.32352E-02  0.17811E-02
  0.13806E-02  0.36746E-02  0.17778E-02
  0.46546E-03  0.39020E-02  0.17747E-02
 -0.47740E-03  0.39023E-02  0.17736E-02
 -0.13951E-02  0.36767E-02  0.17703E-02
 -0.22299E-02  0.32377E-02  0.17788E-02
 -0.29377E-02  0.26096E-02  0.17777E-02
 -0.34742E-02  0.18323E-02  0.17797E-02
 -0.38095E-02  0.95023E-03  0.17813E-02
 -0.39217E-02  0.13764E-04  0.17882E-02
 -0.38067E-02 -0.92162E-03  0.17862E-02
 -0.34724E-02 -0.18033E-02  0.17858E-02
 -0.29372E-02 -0.25796E-02  0.17795E-02
 -0.22312E-02 -0.32047E-02  0.17890E-02
 -0.13954E-02 -0.36439E-02  0.17889E-02
 -0.47849E-03 -0.38695E-02  0.17897E-02
  0.46479E-03 -0.38689E-02  0.17839E-02
  0.13802E-02 -0.36430E-02  0.17819E-02
  0.22139E-02 -0.32047E-02  0.17789E-02
  0.29203E-02 -0.25799E-02  0.17827E-02
  0.34572E-02 -0.18042E-02  0.17826E-02
  0.37917E-02 -0.92206E-03  0.17842E-02
  0.10279E-02  0.70143E-03  0.27523E-02
  0.17347E-02  0.12612E-02  0.27512E-02
  0.23083E-02  0.61871E-03  0.27546E-02
  0.16584E-02 -0.30522E-03  0.27490E-02
  0.30309E-02  0.17269E-03  0.27511E-02
  0.27800E-02 -0.64945E-03  0.27538E-02
  0.12760E-02  0.18621E-02  0.27510E-02
  0.63876E-03  0.14956E-02  0.27483E-02
  0.11461E-03  0.34055E-03  0.27545E-02
 -0.13957E-03  0.12208E-02  0.27442E-02
  0.93110E-03  0.22948E-02  0.27530E-02
  0.11191E-02  0.28371E-02  0.27519E-02
  0.17350E-02  0.24438E-02  0.27512E-02
  0.39734E-03  0.21864E-02  0.27501E-02
  0.39021E-03  0.29490E-02  0.27509E-02
 -0.77719E-03 -0.98971E-03  0.27460E-02
 -0.87514E-03  0.11320E-03  0.27524E-02
  0.44476E-03 -0.67094E-03  0.27455E-02
 -0.18434E-02 -0.69230E-03  0.27493E-02
 -0.18496E-02  0.10241E-03  0.27530E-02
 -0.27312E-02 -0.75881E-03  0.27523E-02
 -0.28053E-02  0.62764E-04  0.27549E-02
 -0.25473E-02 -0.15026E-02  0.27609E-02
 -0.19448E-02 -0.13047E-02  0.27564E-02
 -0.99761E-03  0.10340E-02  0.27468E-02
 -0.14524E-02 -0.17158E-02  0.27573E-02
 -0.31873E-03  0.20453E-02  0.27484E-02
 -0.11067E-02  0.18759E-02  0.27488E-02
 -0.18914E-02  0.17339E-02  0.27497E-02
 -0.18765E-02  0.93117E-03  0.27511E-02
 -0.17158E-03 -0.19646E-02  0.27559E-02
 -0.96068E-03 -0.23341E-02  0.27581E-02
  0.76796E-03 -0.16909E-02  0.27533E-02
  0.17137E-02 -0.14783E-02  0.27520E-02
  0.32061E-02  0.79745E-03  0.27529E-02
  0.27982E-02  0.12728E-02  0.27531E-02
  0.22977E-02  0.18836E-02  0.27504E-02
 -0.41032E-03  0.28997E-02  0.27527E-02
 -0.12165E-02  0.27290E-02  0.27524E-02
 -0.19517E-02  0.24764E-02  0.27500E-02
 -0.25106E-02  0.22521E-02  0.27501E-02
 -0.26441E-02  0.16661E-02  0.27514E-02
 -0.27693E-02  0.89622E-03  0.27520E-02
 -0.21226E-02 -0.21220E-02  0.27603E-02
 -0.16171E-02 -0.26788E-02  0.27582E-02
 -0.12036E-02 -0.31146E-02  0.27597E-02
 -0.60087E-03 -0.30233E-02  0.27547E-02
  0.19364E-03 -0.28598E-02  0.27577E-02
  0.10455E-02 -0.26324E-02  0.27607E-02
  0.18357E-02 -0.23597E-02  0.27596E-02
  0.24506E-02 -0.21407E-02  0.27604E-02
  0.25976E-02 -0.14921E-02  0.27546E-02
  0.37923E-02  0.95194E-03  0.27562E-02
  0.39057E-02  0.16166E-04  0.27586E-02
  0.34588E-02  0.18349E-02  0.27536E-02
  0.29234E-02  0.26114E-02  0.27550E-02
  0.22174E-02  0.32359E-02  0.27528E-02
  0.13814E-02  0.36747E-02  0.27490E-02
  0.46459E-03  0.39013E-02  0.27463E-02
 -0.47867E-03  0.39004E-02  0.27445E-02
 -0.13951E-02  0.36744E-02  0.27426E-02
 -0.22292E-02  0.32344E-02  0.27494E-02
 -0.29352E-02  0.26088E-02  0.27469E-02
 -0.34709E-02  0.18337E-02  0.27510E-02
 -0.38049E-02  0.95237E-03  0.27521E-02
 -0.39193E-02  0.16245E-04  0.27615E-02
 -0.38066E-02 -0.92063E-03  0.27582E-02
 -0.34711E-02 -0.18029E-02  0.27572E-02
 -0.29354E-02 -0.25793E-02  0.27522E-02
 -0.22300E-02 -0.32045E-02  0.27612E-02
 -0.13943E-02 -0.36420E-02  0.27609E-02
 -0.47846E-03 -0.38681E-02  0.27636E-02
  0.46434E-03 -0.38679E-02  0.27594E-02
  0.13801E-02 -0.36419E-02  0.27583E-02
  0.22139E-02 -0.32029E-02  0.27564E-02
  0.29200E-02 -0.25779E-02  0.27600E-02
  0.34566E-02 -0.18014E-02  0.27584E-02
  0.37914E-02 -0.91943E-03  0.27595E-02
  0.10280E-02  0.70300E-03  0.37308E-02
  0.17343E-02  0.12630E-02  0.37289E-02
  0.23075E-02  0.61994E-03  0.37335E-02
  0.16578E-02 -0.30348E-03  0.37276E-02
  0.30296E-02  0.17364E-03  0.37306E-02
  0.27794E-02 -0.64783E-03  0.37328E-02
  0.12759E-02  0.18636E-02  0.37283E-02
  0.63874E-03  0.14979E-02  0.37262E-02
  0.11384E-03  0.34298E-03  0.37343E-02
 -0.13988E-03  0.12246E-02  0.37240E-02
  0.93059E-03  0.22965E-02  0.37301E-02
  0.11177E-02  0.28377E-02  0.37296E-02
  0.17336E-02  0.24451E-02  0.37287E-02
  0.39721E-03  0.21883E-02  0.37275E-02
  0.38946E-03  0.29499E-02  0.37289E-02
 -0.77717E-03 -0.98937E-03  0.37246E-02
 -0.87566E-03  0.11493E-03  0.37323E-02
  0.44398E-03 -0.66976E-03  0.37243E-02
 -0.18427E-02 -0.69137E-03  0.37282E-02
 -0.18488E-02  0.10334E-03  0.37316E-02
 -0.27296E-02 -0.75704E-03  0.37305E-02
 -0.28032E-02  0.64888E-04  0.37332E-02
 -0.25461E-02 -0.15001E-02  0.37396E-02
 -0.19442E-02 -0.13027E-02  0.37353E-02
 -0.99764E-03  0.10372E-02  0.37264E-02
 -0.14516E-02 -0.17138E-02  0.37358E-02
 -0.31888E-03  0.20473E-02  0.37270E-02
 -0.11064E-02  0.18771E-02  0.37271E-02
 -0.18906E-02  0.17355E-02  0.37278E-02
 -0.18757E-02  0.93300E-03  0.37291E-02
 -0.17110E-03 -0.19636E-02  0.37348E-02
 -0.96012E-03 -0.23323E-02  0.37367E-02
  0.76700E-03 -0.16901E-02  0.37321E-02
  0.17129E-02 -0.14768E-02  0.37301E-02
  0.32044E-02  0.79938E-03  0.37320E-02
  0.27965E-02  0.12742E-02  0.37314E-02
  0.22964E-02  0.18849E-02  0.37276E-02
 -0.41116E-03  0.28987E-02  0.37318E-02
 -0.12171E-02  0.27283E-02  0.37308E-02
 -0.19514E-02  0.24770E-02  0.37283E-02
 -0.25097E-02  0.22539E-02  0.37296E-02
 -0.26423E-02  0.16683E-02  0.37302E-02
 -0.27671E-02  0.89889E-03  0.37307E-02
 -0.21214E-02 -0.21191E-02  0.37385E-02
 -0.16159E-02 -0.26760E-02  0.37369E-02
 -0.12025E-02 -0.31122E-02  0.37390E-02
 -0.60010E-03 -0.30216E-02  0.37337E-02
  0.19378E-03 -0.28583E-02  0.37364E-02
  0.10448E-02 -0.26307E-02  0.37391E-02
  0.18350E-02 -0.23573E-02  0.37374E-02
  0.24501E-02 -0.21386E-02  0.37383E-02
  0.25967E-02 -0.14899E-02  0.37328E-02
  0.37888E-02  0.95347E-03  0.37342E-02
  0.39035E-02  0.17119E-04  0.37376E-02
  0.34550E-02  0.18346E-02  0.37330E-02
  0.29200E-02  0.26099E-02  0.37335E-02
  0.22143E-02  0.32351E-02  0.37315E-02
  0.13795E-02  0.36729E-02  0.37277E-02
  0.46311E-03  0.38989E-02  0.37249E-02
 -0.47986E-03  0.38982E-02  0.37250E-02
 -0.13942E-02  0.36729E-02  0.37231E-02
 -0.22284E-02  0.32341E-02  0.37279E-02
 -0.29337E-02  0.26097E-02  0.37266E-02
 -0.34676E-02  0.18334E-02  0.37308E-02
 -0.38028E-02  0.95457E-03  0.37336E-02
 -0.39160E-02  0.19020E-04  0.37398E-02
 -0.38031E-02 -0.91850E-03  0.37362E-02
 -0.34678E-02 -0.18004E-02  0.37356E-02
 -0.29321E-02 -0.25757E-02  0.37294E-02
 -0.22272E-02 -0.31998E-02  0.37404E-02
 -0.13923E-02 -0.36385E-02  0.37412E-02
 -0.47651E-03 -0.38642E-02  0.37426E-02
  0.46573E-03 -0.38634E-02  0.37387E-02
  0.13805E-02 -0.36375E-02  0.37367E-02
  0.22138E-02 -0.31994E-02  0.37356E-02
  0.29197E-02 -0.25752E-02  0.37386E-02
  0.34551E-02 -0.17998E-02  0.37375E-02
  0.37896E-02 -0.91849E-03  0.37383E-02
  0.10272E-02  0.70612E-03  0.47082E-02
  0.17335E-02  0.12663E-02  0.47070E-02
  0.23068E-02  0.62198E-03  0.47111E-02
  0.16571E-02 -0.30112E-03  0.47067E-02
  0.30309E-02  0.17475E-03  0.47064E-02
  0.27789E-02 -0.64626E-03  0.47107E-02
  0.12751E-02  0.18654E-02  0.47064E-02
  0.63818E-03  0.15004E-02  0.47042E-02
  0.11228E-03  0.34710E-03  0.47093E-02
 -0.14011E-03  0.12291E-02  0.47026E-02
  0.92969E-03  0.22970E-02  0.47074E-02
  0.11165E-02  0.28377E-02  0.47074E-02
  0.17326E-02  0.24466E-02  0.47071E-02
  0.39766E-03  0.21884E-02  0.47051E-02
  0.39088E-03  0.29508E-02  0.47068E-02
 -0.77801E-03 -0.98809E-03  0.47042E-02
 -0.87700E-03  0.11942E-03  0.47093E-02
  0.44286E-03 -0.66776E-03  0.47020E-02
 -0.18425E-02 -0.68923E-03  0.47076E-02
 -0.18481E-02  0.10578E-03  0.47107E-02
 -0.27282E-02 -0.75449E-03  0.47101E-02
 -0.28028E-02  0.65264E-04  0.47121E-02
 -0.25463E-02 -0.14979E-02  0.47175E-02
 -0.19450E-02 -0.13011E-02  0.47145E-02
 -0.99807E-03  0.10418E-02  0.47054E-02
 -0.14528E-02 -0.17128E-02  0.47153E-02
 -0.31764E-03  0.20477E-02  0.47052E-02
 -0.11056E-02  0.18782E-02  0.47047E-02
 -0.18896E-02  0.17372E-02  0.47033E-02
 -0.18745E-02  0.93482E-03  0.47073E-02
 -0.17093E-03 -0.19607E-02  0.47138E-02
 -0.96087E-03 -0.23313E-02  0.47141E-02
  0.76670E-03 -0.16867E-02  0.47112E-02
  0.17124E-02 -0.14741E-02  0.47097E-02
  0.32091E-02  0.80326E-03  0.47053E-02
  0.27983E-02  0.12780E-02  0.47064E-02
  0.22968E-02  0.18883E-02  0.47050E-02
 -0.40893E-03  0.28997E-02  0.47080E-02
 -0.12174E-02  0.27323E-02  0.47039E-02
 -0.19535E-02  0.24818E-02  0.46991E-02
 -0.25140E-02  0.22579E-02  0.46986E-02
 -0.26445E-02  0.16701E-02  0.47022E-02
 -0.27678E-02  0.89927E-03  0.47065E-02
 -0.21236E-02 -0.21199E-02  0.47154E-02
 -0.16182E-02 -0.26779E-02  0.47120E-02
 -0.12048E-02 -0.31156E-02  0.47126E-02
 -0.60064E-03 -0.30235E-02  0.47092E-02
  0.19422E-03 -0.28579E-02  0.47140E-02
  0.10450E-02 -0.26279E-02  0.47176E-02
  0.18349E-02 -0.23547E-02  0.47161E-02
  0.24499E-02 -0.21372E-02  0.47167E-02
  0.25958E-02 -0.14877E-02  0.47113E-02
  0.38013E-02  0.95876E-03  0.47008E-02
  0.39140E-02  0.18129E-04  0.47058E-02
  0.34641E-02  0.18425E-02  0.47042E-02
  0.29242E-02  0.26157E-02  0.47087E-02
  0.22162E-02  0.32382E-02  0.47070E-02
  0.13802E-02  0.36765E-02  0.47023E-02
  0.46670E-03  0.39050E-02  0.46992E-02
 -0.47714E-03  0.39074E-02  0.46958E-02
 -0.13981E-02  0.36844E-02  0.46916E-02
 -0.22385E-02  0.32442E-02  0.46927E-02
 -0.29454E-02  0.26167E-02  0.46914E-02
 -0.34785E-02  0.18400E-02  0.46987E-02
 -0.38115E-02  0.95619E-03  0.47040E-02
 -0.39237E-02  0.17563E-04  0.47115E-02
 -0.38058E-02 -0.91860E-03  0.47103E-02
 -0.34699E-02 -0.18007E-02  0.47086E-02
 -0.29369E-02 -0.25802E-02  0.47031E-02
 -0.22339E-02 -0.32075E-02  0.47123E-02
 -0.13984E-02 -0.36477E-02  0.47131E-02
 -0.47737E-03 -0.38711E-02  0.47182E-02
  0.46913E-03 -0.38683E-02  0.47168E-02
  0.13837E-02 -0.36360E-02  0.47175E-02
  0.22168E-02 -0.31975E-02  0.47150E-02
  0.29218E-02 -0.25730E-02  0.47152E-02
  0.34575E-02 -0.18000E-02  0.47135E-02
  0.37948E-02 -0.92021E-03  0.47114E-02
  
CELLS       1950                3900
       1       0
       1       1
       1       2
       1       3
       1       4
       1       5
       1       6
       1       7
       1       8
       1       9
       1      10
       1      11
       1      12
       1      13
       1      14
       1      15
       1      16
       1      17
       1      18
       1      19
       1      20
       1      21
       1      22
       1      23
       1      24
       1      25
       1      26
       1      27
       1      28
       1      29
       1      30
       1      31
       1      32
       1      33
       1      34
       1      35
       1      36
       1      37
       1      38
       1      39
       1      40
       1      41
       1      42
       1      43
       1      44
       1      45
       1      46
       1      47
       1      48
       1      49
       1      50
       1      51
       1      52
       1      53
       1      54
       1      55
       1      56
       1      57
       1      58
       1      59
       1      60
       1      61
       1      62
       1      63
       1      64
       1      65
       1      66
       1      67
       1      68
       1      69
       1      70
       1      71
       1      72
       1      73
       1      74
       1      75
       1      76
       1      77
       1      78
       1      79
       1      80
       1      81
       1      82
       1      83
       1      84
       1      85
       1      86
       1      87
       1      88
       1      89
       1      90
       1      91
       1      92
       1      93
       1      94
       1      95
       1      96
       1      97
       1      98
       1      99
       1     100
       1     101
       1     102
       1     103
       1     104
       1     105
       1     106
       1     107
       1     108
       1     109
       1     110
       1     111
       1     112
       1     113
       1     114
       1     115
       1     116
       1     117
       1     118
       1     119
       1     120
       1     121
       1     122
       1     123
       1     124
       1     125
       1     126
       1     127
       1     128
       1     129
       1     130
       1     131
       1     132
       1     133
       1     134
       1     135
       1     136
       1     137
       1     138
       1     139
       1     140
       1     141
       1     142
       1     143
       1     144
       1     145
       1     146
       1     147
       1     148
       1     149
       1     150
       1     151
       1     152
       1     153
       1     154
       1     155
       1     156
       1     157
       1     158
       1     159
       1     160
       1     161
       1     162
       1     163
       1     164
       1     165
       1     166
       1     167
       1     168
       1     169
       1     170
       1     171
       1     172
       1     173
       1     174
       1     175
       1     176
       1     177
       1     178
       1     179
       1     180
       1     181
       1     182
       1     183
       1     184
       1     185
       1     186
       1     187
       1     188
       1     189
       1     190
       1     191
       1     192
       1     193
       1     194
       1     195
       1     196
       1     197
       1     198
       1     199
       1     200
       1     201
       1     202
       1     203
       1     204
       1     205
       1     206
       1     207
       1     208
       1     209
       1     210
       1     211
       1     212
       1     213
       1     214
       1     215
       1     216
       1     217
       1     218
       1     219
       1     220
       1     221
       1     222
       1     223
       1     224
       1     225
       1     226
       1     227
       1     228
       1     229
       1     230
       1     231
       1     232
       1     233
       1     234
       1     235
       1     236
       1     237
       1     238
       1     239
       1     240
       1     241
       1     242
       1     243
       1     244
       1     245
       1     246
       1     247
       1     248
       1     249
       1     250
       1     251
       1     252
       1     253
       1     254
       1     255
       1     256
       1     257
       1     258
       1     259
       1     260
       1     261
       1     262
       1     263
       1     264
       1     265
       1     266
       1     267
       1     268
       1     269
       1     270
       1     271
       1     272
       1     273
       1     274
       1     275
       1     276
       1     277
       1     278
       1     279
       1     280
       1     281
       1     282
       1     283
       1     284
       1     285
       1     286
       1     287
       1     288
       1     289
       1     290
       1     291
       1     292
       1     293
       1     294
       1     295
       1     296
       1     297
       1     298
       1     299
       1     300
       1     301
       1     302
       1     303
       1     304
       1     305
       1     306
       1     307
       1     308
       1     309
       1     310
       1     311
       1     312
       1     313
       1     314
       1     315
       1     316
       1     317
       1     318
       1     319
       1     320
       1     321
       1     322
       1     323
       1     324
       1     325
       1     326
       1     327
       1     328
       1     329
       1     330
       1     331
       1     332
       1     333
       1     334
       1     335
       1     336
       1     337
       1     338
       1     339
       1     340
       1     341
       1     342
       1     343
       1     344
       1     345
       1     346
       1     347
       1     348
       1     349
       1     350
       1     351
       1     352
       1     353
       1     354
       1     355
       1     356
       1     357
       1     358
       1     359
       1     360
       1     361
       1     362
       1     363
       1     364
       1     365
       1     366
       1     367
       1     368
       1     369
       1     370
       1     371
       1     372
       1     373
       1     374
       1     375
       1     376
       1     377
       1     378
       1     379
       1     380
       1     381
       1     382
       1     383
       1     384
       1     385
       1     386
       1     387
       1     388
       1     389
       1     390
       1     391
       1     392
       1     393
       1     394
       1     395
       1     396
       1     397
       1     398
       1     399
       1     400
       1     401
       1     402
       1     403
       1     404
       1     405
       1     406
       1     407
       1     408
       1     409
       1     410
       1     411
       1     412
       1     413
       1     414
       1     415
       1     416
       1     417
       1     418
       1     419
       1     420
       1     421
       1     422
       1     423
       1     424
       1     425
       1     426
       1     427
       1     428
       1     429
       1     430
       1     431
       1     432
       1     433
       1     434
       1     435
       1     436
       1     437
       1     438
       1     439
       1     440
       1     441
       1     442
       1     443
       1     444
       1     445
       1     446
       1     447
       1     448
       1     449
       1     450
       1     451
       1     452
       1     453
       1     454
       1     455
       1     456
       1     457
       1     458
       1     459
       1     460
       1     461
       1     462
       1     463
       1     464
       1     465
       1     466
       1     467
       1     468
       1     469
       1     470
       1     471
       1     472
       1     473
       1     474
       1     475
       1     476
       1     477
       1     478
       1     479
       1     480
       1     481
       1     482
       1     483
       1     484
       1     485
       1     486
       1     487
       1     488
       1     489
       1     490
       1     491
       1     492
       1     493
       1     494
       1     495
       1     496
       1     497
       1     498
       1     499
       1     500
       1     501
       1     502
       1     503
       1     504
       1     505
       1     506
       1     507
       1     508
       1     509
       1     510
       1     511
       1     512
       1     513
       1     514
       1     515
       1     516
       1     517
       1     518
       1     519
       1     520
       1     521
       1     522
       1     523
       1     524
       1     525
       1     526
       1     527
       1     528
       1     529
       1     530
       1     531
       1     532
       1     533
       1     534
       1     535
       1     536
       1     537
       1     538
       1     539
       1     540
       1     541
       1     542
       1     543
       1     544
       1     545
       1     546
       1     547
       1     548
       1     549
       1     550
       1     551
       1     552
       1     553
       1     554
       1     555
       1     556
       1     557
       1     558
       1     559
       1     560
       1     561
       1     562
       1     563
       1     564
       1     565
       1     566
       1     567
       1     568
       1     569
       1     570
       1     571
       1     572
       1     573
       1     574
       1     575
       1     576
       1     577
       1     578
       1     579
       1     580
       1     581
       1     582
       1     583
       1     584
       1     585
       1     586
       1     587
       1     588
       1     589
       1     590
       1     591
       1     592
       1     593
       1     594
       1     595
       1     596
       1     597
       1     598
       1     599
       1     600
       1     601
       1     602
       1     603
       1     604
       1     605
       1     606
       1     607
       1     608
       1     609
       1     610
       1     611
       1     612
       1     613
       1     614
       1     615
       1     616
       1     617
       1     618
       1     619
       1     620
       1     621
       1     622
       1     623
       1     624
       1     625
       1     626
       1     627
       1     628
       1     629
       1     630
       1     631
       1     632
       1     633
       1     634
       1     635
       1     636
       1     637
       1     638
       1     639
       1     640
       1     641
       1     642
       1     643
       1     644
       1     645
       1     646
       1     647
       1     648
       1     649
       1     650
       1     651
       1     652
       1     653
       1     654
       1     655
       1     656
       1     657
       1     658
       1     659
       1     660
       1     661
       1     662
       1     663
       1     664
       1     665
       1     666
       1     667
       1     668
       1     669
       1     670
       1     671
       1     672
       1     673
       1     674
       1     675
       1     676
       1     677
       1     678
       1     679
       1     680
       1     681
       1     682
       1     683
       1     684
       1     685
       1     686
       1     687
       1     688
       1     689
       1     690
       1     691
       1     692
       1     693
       1     694
       1     695
       1     696
       1     697
       1     698
       1     699
       1     700
       1     701
       1     702
       1     703
       1     704
       1     705
       1     706
       1     707
       1     708
       1     709
       1     710
       1     711
       1     712
       1     713
       1     714
       1     715
       1     716
       1     717
       1     718
       1     719
       1     720
       1     721
       1     722
       1     723
       1     724
       1     725
       1     726
       1     727
       1     728
       1     729
       1     730
       1     731
       1     732
       1     733
       1     734
       1     735
       1     736
       1     737
       1     738
       1     739
       1     740
       1     741
       1     742
       1     743
       1     744
       1     745
       1     746
       1     747
       1     748
       1     749
       1     750
       1     751
       1     752
       1     753
       1     754
       1     755
       1     756
       1     757
       1     758
       1     759
       1     760
       1     761
       1     762
       1     763
       1     764
       1     765
       1     766
       1     767
       1     768
       1     769
       1     770
       1     771
       1     772
       1     773
       1     774
       1     775
       1     776
       1     777
       1     778
       1     779
       1     780
       1     781
       1     782
       1     783
       1     784
       1     785
       1     786
       1     787
       1     788
       1     789
       1     790
       1     791
       1     792
       1     793
       1     794
       1     795
       1     796
       1     797
       1     798
       1     799
       1     800
       1     801
       1     802
       1     803
       1     804
       1     805
       1     806
       1     807
       1     808
       1     809
       1     810
       1     811
       1     812
       1     813
       1     814
       1     815
       1     816
       1     817
       1     818
       1     819
       1     820
       1     821
       1     822
       1     823
       1     824
       1     825
       1     826
       1     827
       1     828
       1     829
       1     830
       1     831
       1     832
       1     833
       1     834
       1     835
       1     836
       1     837
       1     838
       1     839
       1     840
       1     841
       1     842
       1     843
       1     844
       1     845
       1     846
       1     847
       1     848
       1     849
       1     850
       1     851
       1     852
       1     853
       1     854
       1     855
       1     856
       1     857
       1     858
       1     859
       1     860
       1     861
       1     862
       1     863
       1     864
       1     865
       1     866
       1     867
       1     868
       1     869
       1     870
       1     871
       1     872
       1     873
       1     874
       1     875
       1     876
       1     877
       1     878
       1     879
       1     880
       1     881
       1     882
       1     883
       1     884
       1     885
       1     886
       1     887
       1     888
       1     889
       1     890
       1     891
       1     892
       1     893
       1     894
       1     895
       1     896
       1     897
       1     898
       1     899
       1     900
       1     901
       1     902
       1     903
       1     904
       1     905
       1     906
       1     907
       1     908
       1     909
       1     910
       1     911
       1     912
       1     913
       1     914
       1     915
       1     916
       1     917
       1     918
       1     919
       1     920
       1     921
       1     922
       1     923
       1     924
       1     925
       1     926
       1     927
       1     928
       1     929
       1     930
       1     931
       1     932
       1     933
       1     934
       1     935
       1     936
       1     937
       1     938
       1     939
       1     940
       1     941
       1     942
       1     943
       1     944
       1     945
       1     946
       1     947
       1     948
       1     949
       1     950
       1     951
       1     952
       1     953
       1     954
       1     955
       1     956
       1     957
       1     958
       1     959
       1     960
       1     961
       1     962
       1     963
       1     964
       1     965
       1     966
       1     967
       1     968
       1     969
       1     970
       1     971
       1     972
       1     973
       1     974
       1     975
       1     976
       1     977
       1     978
       1     979
       1     980
       1     981
       1     982
       1     983
       1     984
       1     985
       1     986
       1     987
       1     988
       1     989
       1     990
       1     991
       1     992
       1     993
       1     994
       1     995
       1     996
       1     997
       1     998
       1     999
       1    1000
       1    1001
       1    1002
       1    1003
       1    1004
       1    1005
       1    1006
       1    1007
       1    1008
       1    1009
       1    1010
       1    1011
       1    1012
       1    1013
       1    1014
       1    1015
       1    1016
       1    1017
       1    1018
       1    1019
       1    1020
       1    1021
       1    1022
       1    1023
       1    1024
       1    1025
       1    1026
       1    1027
       1    1028
       1    1029
       1    1030
       1    1031
       1    1032
       1    1033
       1    1034
       1    1035
       1    1036
       1    1037
       1    1038
       1    1039
       1    1040
       1    1041
       1    1042
       1    1043
       1    1044
       1    1045
       1    1046
       1    1047
       1    1048
       1    1049
       1    1050
       1    1051
       1    1052
       1    1053
       1    1054
       1    1055
       1    1056
       1    1057
       1    1058
       1    1059
       1    1060
       1    1061
       1    1062
       1    1063
       1    1064
       1    1065
       1    1066
       1    1067
       1    1068
       1    1069
       1    1070
       1    1071
       1    1072
       1    1073
       1    1074
       1    1075
       1    1076
       1    1077
       1    1078
       1    1079
       1    1080
       1    1081
       1    1082
       1    1083
       1    1084
       1    1085
       1    1086
       1    1087
       1    1088
       1    1089
       1    1090
       1    1091
       1    1092
       1    1093
       1    1094
       1    1095
       1    1096
       1    1097
       1    1098
       1    1099
       1    1100
       1    1101
       1    1102
       1    1103
       1    1104
       1    1105
       1    1106
       1    1107
       1    1108
       1    1109
       1    1110
       1    1111
       1    1112
       1    1113
       1    1114
       1    1115
       1    1116
       1    1117
       1    1118
       1    1119
       1    1120
       1    1121
       1    1122
       1    1123
       1    1124
       1    1125
       1    1126
       1    1127
       1    1128
       1    1129
       1    1130
       1    1131
       1    1132
       1    1133
       1    1134
       1    1135
       1    1136
       1    1137
       1    1138
       1    1139
       1    1140
       1    1141
       1    1142
       1    1143
       1    1144
       1    1145
       1    1146
       1    1147
       1    1148
       1    1149
       1    1150
       1    1151
       1    1152
       1    1153
       1    1154
       1    1155
       1    1156
       1    1157
       1    1158
       1    1159
       1    1160
       1    1161
       1    1162
       1    1163
       1    1164
       1    1165
       1    1166
       1    1167
       1    1168
       1    1169
       1    1170
       1    1171
       1    1172
       1    1173
       1    1174
       1    1175
       1    1176
       1    1177
       1    1178
       1    1179
       1    1180
       1    1181
       1    1182
       1    1183
       1    1184
       1    1185
       1    1186
       1    1187
       1    1188
       1    1189
       1    1190
       1    1191
       1    1192
       1    1193
       1    1194
       1    1195
       1    1196
       1    1197
       1    1198
       1    1199
       1    1200
       1    1201
       1    1202
       1    1203
       1    1204
       1    1205
       1    1206
       1    1207
       1    1208
       1    1209
       1    1210
       1    1211
       1    1212
       1    1213
       1    1214
       1    1215
       1    1216
       1    1217
       1    1218
       1    1219
       1    1220
       1    1221
       1    1222
       1    1223
       1    1224
       1    1225
       1    1226
       1    1227
       1    1228
       1    1229
       1    1230
       1    1231
       1    1232
       1    1233
       1    1234
       1    1235
       1    1236
       1    1237
       1    1238
       1    1239
       1    1240
       1    1241
       1    1242
       1    1243
       1    1244
       1    1245
       1    1246
       1    1247
       1    1248
       1    1249
       1    1250
       1    1251
       1    1252
       1    1253
       1    1254
       1    1255
       1    1256
       1    1257
       1    1258
       1    1259
       1    1260
       1    1261
       1    1262
       1    1263
       1    1264
       1    1265
       1    1266
       1    1267
       1    1268
       1    1269
       1    1270
       1    1271
       1    1272
       1    1273
       1    1274
       1    1275
       1    1276
       1    1277
       1    1278
       1    1279
       1    1280
       1    1281
       1    1282
       1    1283
       1    1284
       1    1285
       1    1286
       1    1287
       1    1288
       1    1289
       1    1290
       1    1291
       1    1292
       1    1293
       1    1294
       1    1295
       1    1296
       1    1297
       1    1298
       1    1299
       1    1300
       1    1301
       1    1302
       1    1303
       1    1304
       1    1305
       1    1306
       1    1307
       1    1308
       1    1309
       1    1310
       1    1311
       1    1312
       1    1313
       1    1314
       1    1315
       1    1316
       1    1317
       1    1318
       1    1319
       1    1320
       1    1321
       1    1322
       1    1323
       1    1324
       1    1325
       1    1326
       1    1327
       1    1328
       1    1329
       1    1330
       1    1331
       1    1332
       1    1333
       1    1334
       1    1335
       1    1336
       1    1337
       1    1338
       1    1339
       1    1340
       1    1341
       1    1342
       1    1343
       1    1344
       1    1345
       1    1346
       1    1347
       1    1348
       1    1349
       1    1350
       1    1351
       1    1352
       1    1353
       1    1354
       1    1355
       1    1356
       1    1357
       1    1358
       1    1359
       1    1360
       1    1361
       1    1362
       1    1363
       1    1364
       1    1365
       1    1366
       1    1367
       1    1368
       1    1369
       1    1370
       1    1371
       1    1372
       1    1373
       1    1374
       1    1375
       1    1376
       1    1377
       1    1378
       1    1379
       1    1380
       1    1381
       1    1382
       1    1383
       1    1384
       1    1385
       1    1386
       1    1387
       1    1388
       1    1389
       1    1390
       1    1391
       1    1392
       1    1393
       1    1394
       1    1395
       1    1396
       1    1397
       1    1398
       1    1399
       1    1400
       1    1401
       1    1402
       1    1403
       1    1404
       1    1405
       1    1406
       1    1407
       1    1408
       1    1409
       1    1410
       1    1411
       1    1412
       1    1413
       1    1414
       1    1415
       1    1416
       1    1417
       1    1418
       1    1419
       1    1420
       1    1421
       1    1422
       1    1423
       1    1424
       1    1425
       1    1426
       1    1427
       1    1428
       1    1429
       1    1430
       1    1431
       1    1432
       1    1433
       1    1434
       1    1435
       1    1436
       1    1437
       1    1438
       1    1439
       1    1440
       1    1441
       1    1442
       1    1443
       1    1444
       1    1445
       1    1446
       1    1447
       1    1448
       1    1449
       1    1450
       1    1451
       1    1452
       1    1453
       1    1454
       1    1455
       1    1456
       1    1457
       1    1458
       1    1459
       1    1460
       1    1461
       1    1462
       1    1463
       1    1464
       1    1465
       1    1466
       1    1467
       1    1468
       1    1469
       1    1470
       1    1471
       1    1472
       1    1473
       1    1474
       1    1475
       1    1476
       1    1477
       1    1478
       1    1479
       1    1480
       1    1481
       1    1482
       1    1483
       1    1484
       1    1485
       1    1486
       1    1487
       1    1488
       1    1489
       1    1490
       1    1491
       1    1492
       1    1493
       1    1494
       1    1495
       1    1496
       1    1497
       1    1498
       1    1499
       1    1500
       1    1501
       1    1502
       1    1503
       1    1504
       1    1505
       1    1506
       1    1507
       1    1508
       1    1509
       1    1510
       1    1511
       1    1512
       1    1513
       1    1514
       1    1515
       1    1516
       1    1517
       1    1518
       1    1519
       1    1520
       1    1521
       1    1522
       1    1523
       1    1524
       1    1525
       1    1526
       1    1527
       1    1528
       1    1529
       1    1530
       1    1531
       1    1532
       1    1533
       1    1534
       1    1535
       1    1536
       1    1537
       1    1538
       1    1539
       1    1540
       1    1541
       1    1542
       1    1543
       1    1544
       1    1545
       1    1546
       1    1547
       1    1548
       1    1549
       1    1550
       1    1551
       1    1552
       1    1553
       1    1554
       1    1555
       1    1556
       1    1557
       1    1558
       1    1559
       1    1560
       1    1561
       1    1562
       1    1563
       1    1564
       1    1565
       1    1566
       1    1567
       1    1568
       1    1569
       1    1570
       1    1571
       1    1572
       1    1573
       1    1574
       1    1575
       1    1576
       1    1577
       1    1578
       1    1579
       1    1580
       1    1581
       1    1582
       1    1583
       1    1584
       1    1585
       1    1586
       1    1587
       1    1588
       1    1589
       1    1590
       1    1591
       1    1592
       1    1593
       1    1594
       1    1595
       1    1596
       1    1597
       1    1598
       1    1599
       1    1600
       1    1601
       1    1602
       1    1603
       1    1604
       1    1605
       1    1606
       1    1607
       1    1608
       1    1609
       1    1610
       1    1611
       1    1612
       1    1613
       1    1614
       1    1615
       1    1616
       1    1617
       1    1618
       1    1619
       1    1620
       1    1621
       1    1622
       1    1623
       1    1624
       1    1625
       1    1626
       1    1627
       1    1628
       1    1629
       1    1630
       1    1631
       1    1632
       1    1633
       1    1634
       1    1635
       1    1636
       1    1637
       1    1638
       1    1639
       1    1640
       1    1641
       1    1642
       1    1643
       1    1644
       1    1645
       1    1646
       1    1647
       1    1648
       1    1649
       1    1650
       1    1651
       1    1652
       1    1653
       1    1654
       1    1655
       1    1656
       1    1657
       1    1658
       1    1659
       1    1660
       1    1661
       1    1662
       1    1663
       1    1664
       1    1665
       1    1666
       1    1667
       1    1668
       1    1669
       1    1670
       1    1671
       1    1672
       1    1673
       1    1674
       1    1675
       1    1676
       1    1677
       1    1678
       1    1679
       1    1680
       1    1681
       1    1682
       1    1683
       1    1684
       1    1685
       1    1686
       1    1687
       1    1688
       1    1689
       1    1690
       1    1691
       1    1692
       1    1693
       1    1694
       1    1695
       1    1696
       1    1697
       1    1698
       1    1699
       1    1700
       1    1701
       1    1702
       1    1703
       1    1704
       1    1705
       1    1706
       1    1707
       1    1708
       1    1709
       1    1710
       1    1711
       1    1712
       1    1713
       1    1714
       1    1715
       1    1716
       1    1717
       1    1718
       1    1719
       1    1720
       1    1721
       1    1722
       1    1723
       1    1724
       1    1725
       1    1726
       1    1727
       1    1728
       1    1729
       1    1730
       1    1731
       1    1732
       1    1733
       1    1734
       1    1735
       1    1736
       1    1737
       1    1738
       1    1739
       1    1740
       1    1741
       1    1742
       1    1743
       1    1744
       1    1745
       1    1746
       1    1747
       1    1748
       1    1749
       1    1750
       1    1751
       1    1752
       1    1753
       1    1754
       1    1755
       1    1756
       1    1757
       1    1758
       1    1759
       1    1760
       1    1761
       1    1762
       1    1763
       1    1764
       1    1765
       1    1766
       1    1767
       1    1768
       1    1769
       1    1770
       1    1771
       1    1772
       1    1773
       1    1774
       1    1775
       1    1776
       1    1777
       1    1778
       1    1779
       1    1780
       1    1781
       1    1782
       1    1783
       1    1784
       1    1785
       1    1786
       1    1787
       1    1788
       1    1789
       1    1790
       1    1791
       1    1792
       1    1793
       1    1794
       1    1795
       1    1796
       1    1797
       1    1798
       1    1799
       1    1800
       1    1801
       1    1802
       1    1803
       1    1804
       1    1805
       1    1806
       1    1807
       1    1808
       1    1809
       1    1810
       1    1811
       1    1812
       1    1813
       1    1814
       1    1815
       1    1816
       1    1817
       1    1818
       1    1819
       1    1820
       1    1821
       1    1822
       1    1823
       1    1824
       1    1825
       1    1826
       1    1827
       1    1828
       1    1829
       1    1830
       1    1831
       1    1832
       1    1833
       1    1834
       1    1835
       1    1836
       1    1837
       1    1838
       1    1839
       1    1840
       1    1841
       1    1842
       1    1843
       1    1844
       1    1845
       1    1846
       1    1847
       1    1848
       1    1849
       1    1850
       1    1851
       1    1852
       1    1853
       1    1854
       1    1855
       1    1856
       1    1857
       1    1858
       1    1859
       1    1860
       1    1861
       1    1862
       1    1863
       1    1864
       1    1865
       1    1866
       1    1867
       1    1868
       1    1869
       1    1870
       1    1871
       1    1872
       1    1873
       1    1874
       1    1875
       1    1876
       1    1877
       1    1878
       1    1879
       1    1880
       1    1881
       1    1882
       1    1883
       1    1884
       1    1885
       1    1886
       1    1887
       1    1888
       1    1889
       1    1890
       1    1891
       1    1892
       1    1893
       1    1894
       1    1895
       1    1896
       1    1897
       1    1898
       1    1899
       1    1900
       1    1901
       1    1902
       1    1903
       1    1904
       1    1905
       1    1906
       1    1907
       1    1908
       1    1909
       1    1910
       1    1911
       1    1912
       1    1913
       1    1914
       1    1915
       1    1916
       1    1917
       1    1918
       1    1919
       1    1920
       1    1921
       1    1922
       1    1923
       1    1924
       1    1925
       1    1926
       1    1927
       1    1928
       1    1929
       1    1930
       1    1931
       1    1932
       1    1933
       1    1934
       1    1935
       1    1936
       1    1937
       1    1938
       1    1939
       1    1940
       1    1941
       1    1942
       1    1943
       1    1944
       1    1945
       1    1946
       1    1947
       1    1948
       1    1949
  
CELL_TYPES    1950
       1
       1
       1
       1
       1
       1
       1
       1
       1
       1
       1
       1
       1
       1
       1
       1
       1
       1
       1
       1
       1
       1
       1
       1
       1
       1
       1
       1
       1
       1
       1
       1
       1
       1
       1
       1
       1
       1
       1
       1
       1
       1
       1
       1
       1
       1
       1
       1
       1
       1
       1
       1
       1
       1
       1
       1
       1
       1
       1
       1
       1
       1
       1
       1
       1
       1
       1
       1
       1
       1
       1
       1
       1
       1
       1
       1
       1
       1
       1
       1
       1
       1
       1
       1
       1
       1
       1
       1
       1
       1
       1
       1
       1
       1
       1
       1
       1
       1
       1
       1
       1
       1
       1
       1
       1
       1
       1
       1
       1
       1
       1
       1
       1
       1
       1
       1
       1
       1
       1
       1
       1
       1
       1
       1
       1
       1
       1
       1
       1
       1
       1
       1
       1
       1
       1
       1
       1
       1
       1
       1
       1
       1
       1
       1
       1
       1
       1
       1
       1
       1
       1
       1
       1
       1
       1
       1
       1
       1
       1
       1
       1
       1
       1
       1
       1
       1
       1
       1
       1
       1
       1
       1
       1
       1
       1
       1
       1
       1
       1
       1
       1
       1
       1
       1
       1
       1
       1
       1
       1
       1
       1
       1
       1
       1
       1
       1
       1
       1
       1
       1
       1
       1
       1
       1
       1
       1
       1
       1
       1
       1
       1
       1
       1
       1
       1
       1
       1
       1
       1
       1
       1
       1
       1
       1
       1
       1
       1
       1
       1
       1
       1
       1
       1
       1
       1
       1
       1
       1
       1
       1
       1
       1
       1
       1
       1
       1
       1
       1
       1
       1
       1
       1
       1
       1
       1
       1
       1
       1
       1
       1
       1
       1
       1
       1
       1
       1
       1
       1
       1
       1
       1
       1
       1
       1
       1
       1
       1
       1
       1
       1
       1
       1
       1
       1
       1
       1
       1
       1
       1
       1
       1
       1
       1
       1
       1
       1
       1
       1
       1
       1
       1
       1
       1
       1
       1
       1
       1
       1
       1
       1
       1
       1
       1
       1
       1
       1
       1
       1
       1
       1
       1
       1
       1
       1
       1
       1
       1
       1
       1
       1
       1
       1
       1
       1
       1
       1
       1
       1
       1
       1
       1
       1
       1
       1
       1
       1
       1
       1
       1
       1
       1
       1
       1
       1
       1
       1
       1
       1
       1
       1
       1
       1
       1
       1
       1
       1
       1
       1
       1
       1
       1
       1
       1
       1
       1
       1
       1
       1
       1
       1
       1
       1
       1
       1
       1
       1
       1
       1
       1
       1
       1
       1
       1
       1
       1
       1
       1
       1
       1
       1
       1
       1
       1
       1
       1
       1
       1
       1
       1
       1
       1
       1
       1
       1
       1
       1
       1
       1
       1
       1
       1
       1
       1
       1
       1
       1
       1
       1
       1
       1
       1
       1
       1
       1
       1
       1
       1
       1
       1
       1
       1
       1
       1
       1
       1
       1
       1
       1
       1
       1
       1
       1
       1
       1
       1
       1
       1
       1
       1
       1
       1
       1
       1
       1
       1
       1
       1
       1
       1
       1
       1
       1
       1
       1
       1
       1
       1
       1
       1
       1
       1
       1
       1
       1
       1
       1
       1
       1
       1
       1
       1
       1
       1
       1
       1
       1
       1
       1
       1
       1
       1
       1
       1
       1
       1
       1
       1
       1
       1
       1
       1
       1
       1
       1
       1
       1
       1
       1
       1
       1
       1
       1
       1
       1
       1
       1
       1
       1
       1
       1
       1
       1
       1
       1
       1
       1
       1
       1
       1
       1
       1
       1
       1
       1
       1
       1
       1
       1
       1
       1
       1
       1
       1
       1
       1
       1
       1
       1
       1
       1
       1
       1
       1
       1
       1
       1
       1
       1
       1
       1
       1
       1
       1
       1
       1
       1
       1
       1
       1
       1
       1
       1
       1
       1
       1
       1
       1
       1
       1
       1
       1
       1
       1
       1
       1
       1
       1
       1
       1
       1
       1
       1
       1
       1
       1
       1
       1
       1
       1
       1
       1
       1
       1
       1
       1
       1
       1
       1
       1
       1
       1
       1
       1
       1
       1
       1
       1
       1
       1
       1
       1
       1
       1
       1
       1
       1
       1
       1
       1
       1
       1
       1
       1
       1
       1
       1
       1
       1
       1
       1
       1
       1
       1
       1
       1
       1
       1
       1
       1
       1
       1
       1
       1
       1
       1
       1
       1
       1
       1
       1
       1
       1
       1
       1
       1
       1
       1
       1
       1
       1
       1
       1
       1
       1
       1
       1
       1
       1
       1
       1
       1
       1
       1
       1
       1
       1
       1
       1
       1
       1
       1
       1
       1
       1
       1
       1
       1
       1
       1
       1
       1
       1
       1
       1
       1
       1
       1
       1
       1
       1
       1
       1
       1
       1
       1
       1
       1
       1
       1
       1
       1
       1
       1
       1
       1
       1
       1
       1
       1
       1
       1
       1
       1
       1
       1
       1
       1
       1
       1
       1
       1
       1
       1
       1
       1
       1
       1
       1
       1
       1
       1
       1
       1
       1
       1
       1
       1
       1
       1
       1
       1
       1
       1
       1
       1
       1
       1
       1
       1
       1
       1
       1
       1
       1
       1
       1
       1
       1
       1
       1
       1
       1
       1
       1
       1
       1
       1
       1
       1
       1
       1
       1
       1
       1
       1
       1
       1
       1
       1
       1
       1
       1
       1
       1
       1
       1
       1
       1
       1
       1
       1
       1
       1
       1
       1
       1
       1
       1
       1
       1
       1
       1
       1
       1
       1
       1
       1
       1
       1
       1
       1
       1
       1
       1
       1
       1
       1
       1
       1
       1
       1
       1
       1
       1
       1
       1
       1
       1
       1
       1
       1
       1
       1
       1
       1
       1
       1
       1
       1
       1
       1
       1
       1
       1
       1
       1
       1
       1
       1
       1
       1
       1
       1
       1
       1
       1
       1
       1
       1
       1
       1
       1
       1
       1
       1
       1
       1
       1
       1
       1
       1
       1
       1
       1
       1
       1
       1
       1
       1
       1
       1
       1
       1
       1
       1
       1
       1
       1
       1
       1
       1
       1
       1
       1
       1
       1
       1
       1
       1
       1
       1
       1
       1
       1
       1
       1
       1
       1
       1
       1
       1
       1
       1
       1
       1
       1
       1
       1
       1
       1
       1
       1
       1
       1
       1
       1
       1
       1
       1
       1
       1
       1
       1
       1
       1
       1
       1
       1
       1
       1
       1
       1
       1
       1
       1
       1
       1
       1
       1
       1
       1
       1
       1
       1
       1
       1
       1
       1
       1
       1
       1
       1
       1
       1
       1
       1
       1
       1
       1
       1
       1
       1
       1
       1
       1
       1
       1
       1
       1
       1
       1
       1
       1
       1
       1
       1
       1
       1
       1
       1
       1
       1
       1
       1
       1
       1
       1
       1
       1
       1
       1
       1
       1
       1
       1
       1
       1
       1
       1
       1
       1
       1
       1
       1
       1
       1
       1
       1
       1
       1
       1
       1
       1
       1
       1
       1
       1
       1
       1
       1
       1
       1
       1
       1
       1
       1
       1
       1
       1
       1
       1
       1
       1
       1
       1
       1
       1
       1
       1
       1
       1
       1
       1
       1
       1
       1
       1
       1
       1
       1
       1
       1
       1
       1
       1
       1
       1
       1
       1
       1
       1
       1
       1
       1
       1
       1
       1
       1
       1
       1
       1
       1
       1
       1
       1
       1
       1
       1
       1
       1
       1
       1
       1
       1
       1
       1
       1
       1
       1
       1
       1
       1
       1
       1
       1
       1
       1
       1
       1
       1
       1
       1
       1
       1
       1
       1
       1
       1
       1
       1
       1
       1
       1
       1
       1
       1
       1
       1
       1
       1
       1
       1
       1
       1
       1
       1
       1
       1
       1
       1
       1
       1
       1
       1
       1
       1
       1
       1
       1
       1
       1
       1
       1
       1
       1
       1
       1
       1
       1
       1
       1
       1
       1
       1
       1
       1
       1
       1
       1
       1
       1
       1
       1
       1
       1
       1
       1
       1
       1
       1
       1
       1
       1
       1
       1
       1
       1
       1
       1
       1
       1
       1
       1
       1
       1
       1
       1
       1
       1
       1
       1
       1
       1
       1
       1
       1
       1
       1
       1
       1
       1
       1
       1
       1
       1
       1
       1
       1
       1
       1
       1
       1
       1
       1
       1
       1
       1
       1
       1
       1
       1
       1
       1
       1
       1
       1
       1
       1
       1
       1
       1
       1
       1
       1
       1
       1
       1
       1
       1
       1
       1
       1
       1
       1
       1
       1
       1
       1
       1
       1
       1
       1
       1
       1
       1
       1
       1
       1
       1
       1
       1
       1
       1
       1
       1
       1
       1
       1
       1
       1
       1
       1
       1
       1
       1
       1
       1
       1
       1
       1
       1
       1
       1
       1
       1
       1
       1
       1
       1
       1
       1
       1
       1
       1
       1
       1
       1
       1
       1
       1
       1
       1
       1
       1
       1
       1
       1
       1
       1
       1
       1
       1
       1
       1
       1
       1
       1
       1
       1
       1
       1
       1
       1
       1
       1
       1
       1
       1
       1
       1
       1
       1
       1
       1
       1
       1
       1
       1
       1
       1
       1
       1
       1
       1
       1
       1
       1
       1
       1
       1
       1
       1
       1
       1
       1
       1
       1
       1
       1
       1
       1
       1
       1
       1
       1
       1
       1
       1
       1
       1
       1
       1
       1
       1
       1
       1
       1
       1
       1
       1
       1
       1
       1
       1
       1
       1
       1
       1
       1
       1
       1
       1
       1
       1
       1
       1
       1
       1
       1
       1
       1
       1
       1
       1
       1
       1
       1
       1
       1
       1
       1
       1
       1
       1
       1
       1
       1
       1
       1
       1
       1
       1
       1
       1
       1
       1
       1
       1
       1
       1
       1
       1
       1
       1
       1
       1
       1
       1
       1
       1
       1
       1
       1
       1
       1
       1
       1
       1
       1
       1
       1
       1
       1
       1
       1
       1
       1
       1
       1
       1
       1
       1
       1
       1
       1
       1
       1
       1
       1
       1
       1
       1
       1
       1
       1
       1
       1
       1
       1
       1
       1
       1
       1
       1
       1
       1
       1
       1
       1
       1
       1
       1
       1
       1
       1
       1
       1
       1
       1
       1
       1
       1
       1
       1
       1
       1
       1
       1
       1
       1
       1
       1
       1
       1
       1
       1
       1
       1
       1
       1
       1
       1
       1
       1
       1
       1
       1
       1
       1
       1
       1
       1
       1
       1
       1
       1
       1
       1
       1
       1
       1
       1
       1
       1
       1
       1
       1
       1
       1
       1
       1
       1
       1
       1
       1
       1
       1
       1
       1
       1
       1
       1
       1
       1
       1
       1
       1
       1
       1
       1
       1
       1
       1
       1
       1
       1
       1
       1
       1
       1
       1
       1
       1
       1
       1
       1
       1
       1
       1
       1
       1
       1
       1
       1
       1
       1
       1
       1
       1
       1
       1
       1
       1
       1
       1
       1
       1
       1
       1
       1
       1
       1
       1
       1
       1
       1
       1
       1
       1
       1
       1
       1
       1
       1
       1
       1
       1
       1
       1
       1
       1
       1
       1
       1
       1
       1
       1
       1
       1
       1
       1
       1
       1
       1
       1
       1
       1
       1
       1
       1
       1
       1
       1
       1
       1
       1
       1
       1
       1
       1
       1
       1
       1
       1
       1
       1
       1
       1
       1
       1
       1
       1
       1
       1
       1
       1
       1
       1
       1
       1
       1
       1
       1
       1
       1
       1
       1
       1
       1
       1
       1
       1
       1
       1
       1
       1
       1
       1
       1
       1
       1
       1
       1
       1
       1
       1
       1
       1
       1
       1
       1
       1
       1
       1
       1
       1
       1
       1
       1
       1
       1
       1
       1
       1
       1
       1
       1
       1
       1
       1
       1
       1
       1
       1
       1
       1
       1
       1
       1
       1
       1
       1
       1
       1
       1
       1
       1
       1
       1
       1
       1
       1
       1
       1
       1
       1
       1
       1
       1
       1
       1
       1
       1
       1
       1
       1
       1
       1
       1
       1
       1
       1
       1
       1
       1
       1
       1
       1
       1
       1
       1
       1
       1
       1
       1
       1
       1
       1
       1
       1
       1
       1
       1
       1
       1
       1
       1
       1
       1
       1
       1
       1
       1
       1
       1
       1
       1
       1
       1
       1
       1
       1
       1
       1
       1
       1
       1
       1
       1
       1
       1
       1
       1
       1
       1
       1
       1
       1
       1
       1
       1
       1
       1
       1
       1
       1
       1
       1
       1
       1
       1
       1
       1
       1
       1
       1
       1
       1
       1
       1
       1
       1
       1
       1
       1
       1
       1
       1
       1
       1
       1
       1
       1
       1
       1
       1
       1
       1
       1
       1
       1
       1
       1
       1
       1
       1
       1
       1
       1
       1
       1
       1
       1
       1
       1
       1
       1
       1
       1
       1
       1
       1
       1
       1
       1
       1
       1
       1
       1
       1
       1
       1
       1
       1
       1
       1
       1
       1
       1
       1
  
  
POINT_DATA       1950
  
SCALARS                  material_type  double 1
LOOKUP_TABLE default
                   2
                   2
                   2
                   2
                   2
                   2
                   2
                   2
                   2
                   2
                   2
                   2
                   2
                   2
                   2
                   2
                   2
                   2
                   2
                   2
                   2
                   2
                   2
                   2
                   2
                   2
                   2
                   2
                   2
                   2
                   2
                   2
                   2
                   2
                   2
                   2
                   2
                   2
                   2
                   2
                   2
                   2
                   2
                   2
                   2
                   2
                   2
                   2
                   2
                   2
                   2
                   2
                   2
                   2
                   2
                   2
                   2
                   2
                   2
                   2
                   2
                   2
                   2
                   2
                   2
                   2
                   2
                   2
                   2
                   2
                   2
                   2
                   2
                   2
                   2
                   2
                   2
                   2
                   2
                   2
                   2
                   2
                   2
                   2
                   2
                   2
                   2
                   2
                   2
                   2
                   2
                   2
                   2
                   2
                   2
                   2
                   2
                   2
                   2
                   2
                   2
                   2
                   2
                   2
                   2
                   2
                   2
                   2
                   2
                   2
                   2
                   2
                   2
                   2
                   2
                   2
                   2
                   2
                   2
                   2
                   2
                   2
                   2
                   2
                   2
                   2
                   2
                   2
                   2
                   2
                   2
                   2
                   2
                   2
                   2
                   2
                   2
                   2
                   2
                   2
                   2
                   2
                   2
                   2
                   2
                   2
                   2
                   2
                   2
                   2
                   2
                   2
                   2
                   2
                   2
                   2
                   2
                   2
                   2
                   2
                   2
                   2
                   2
                   2
                   2
                   2
                   2
                   2
                   2
                   2
                   2
                   2
                   2
                   2
                   2
                   2
                   2
                   2
                   2
                   2
                   2
                   2
                   2
                   2
                   2
                   2
                   2
                   2
                   2
                   2
                   2
                   2
                   2
                   2
                   2
                   2
                   2
                   2
                   2
                   2
                   2
                   2
                   2
                   2
                   2
                   2
                   2
                   2
                   2
                   2
                   2
                   2
                   2
                   2
                   2
                   2
                   2
                   2
                   2
                   2
                   2
                   2
                   2
                   2
                   2
                   2
                   2
                   2
                   2
                   2
                   2
                   2
                   2
                   2
                   2
                   2
                   2
                   2
                   2
                   2
                   2
                   2
                   2
                   2
                   2
                   2
                   2
                   2
                   2
                   2
                   2
                   2
                   2
                   2
                   2
                   2
                   2
                   2
                   2
                   2
                   2
                   2
                   2
                   2
                   2
                   2
                   2
                   2
                   2
                   2
                   2
                   2
                   2
                   2
                   2
                   2
                   2
                   2
                   2
                   2
                   2
                   2
                   2
                   2
                   2
                   2
                   2
                   2
                   2
                   2
                   2
                   2
                   2
                   2
                   2
                   2
                   2
                   2
                   2
                   2
                   2
                   2
                   2
                   2
                   2
                   2
                   2
                   2
                   2
                   2
                   2
                   2
                   2
                   2
                   2
                   2
                   2
                   2
                   2
                   2
                   2
                   2
                   2
                   2
                   2
                   2
                   2
                   2
                   2
                   2
                   2
                   2
                   2
                   2
                   2
                   2
                   2
                   2
                   2
                   2
                   2
                   2
                   2
                   2
                   2
                   2
                   2
                   2
                   2
                   2
                   2
                   2
                   2
                   2
                   2
                   2
                   2
                   2
                   2
                   2
                   2
                   2
                   2
                   2
                   2
                   2
                   2
                   2
                   2
                   2
                   2
                   2
                   2
                   2
                   2
                   2
                   2
                   2
                   2
                   2
                   2
                   2
                   2
                   2
                   2
                   2
                   2
                   2
                   2
                   2
                   2
                   2
                   2
                   2
                   2
                   2
                   2
                   2
                   2
                   2
                   2
                   2
                   2
                   2
                   2
                   2
                   2
                   2
                   2
                   2
                   2
                   2
                   2
                   2
                   2
                   2
                   2
                   2
                   2
                   2
                   2
                   2
                   2
                   2
                   2
                   2
                   2
                   2
                   2
                   2
                   2
                   2
                   2
                   2
                   2
                   2
                   2
                   2
                   2
                   2
                   2
                   2
                   2
                   2
                   2
                   2
                   2
                   2
                   2
                   2
                   2
                   2
                   2
                   2
                   2
                   2
                   2
                   2
                   2
                   2
                   2
                   2
                   2
                   2
                   2
                   2
                   2
                   2
                   2
                   2
                   2
                   2
                   2
                   2
                   2
                   2
                   2
                   2
                   2
                   2
                   2
                   2
                   2
                   2
                   2
                   2
                   2
                   2
                   2
                   2
                   2
                   2
                   2
                   2
                   2
                   2
                   2
                   2
                   2
                   2
                   2
                   2
                   2
                   2
                   2
                   2
                   2
                   2
                   2
                   2
                   2
                   2
                   2
                   2
                   2
                   2
                   2
                   2
                   2
                   2
                   2
                   2
                   2
                   2
                   2
                   2
                   2
                   2
                   2
                   2
                   2
                   2
                   2
                   2
                   2
                   2
                   2
                   2
                   2
                   2
                   2
                   2
                   2
                   2
                   2
                   2
                   2
                   2
                   2
                   2
                   2
                   2
                   2
                   2
                   2
                   2
                   2
                   2
                   2
                   2
                   2
                   2
                   2
                   2
                   2
                   2
                   2
                   2
                   2
                   2
                   2
                   2
                   2
                   2
                   2
                   2
                   2
                   2
                   2
                   2
                   2
                   2
                   2
                   2
                   2
                   2
                   2
                   2
                   2
                   2
                   2
                   2
                   2
                   2
                   2
                   2
                   2
                   2
                   2
                   2
                   2
                   2
                   2
                   2
                   2
                   2
                   2
                   2
                   2
                   2
                   2
                   2
                   2
                   2
                   2
                   2
                   2
                   2
                   2
                   2
                   2
                   2
                   2
                   2
                   2
                   2
                   2
                   2
                   2
                   2
                   2
                   2
                   2
                   2
                   2
                   2
                   2
                   2
                   2
                   2
                   2
                   2
                   2
                   2
                   2
                   2
                   2
                   2
                   2
                   2
                   2
                   2
                   2
                   2
                   2
                   2
                   2
                   2
                   2
                   2
                   2
                   2
                   2
                   2
                   2
                   2
                   2
                   2
                   2
                   2
                   2
                   2
                   2
                   2
                   2
                   2
                   2
                   2
                   2
                   2
                   2
                   2
                   2
                   2
                   2
                   2
                   2
                   2
                   2
                   2
                   2
                   2
                   2
                   2
                   2
                   2
                   2
                   2
                   2
                   2
                   2
                   2
                   2
                   2
                   2
                   2
                   2
                   2
                   2
                   2
                   2
                   2
                   2
                   2
                   2
                   2
                   2
                   2
                   2
                   2
                   2
                   2
                   2
                   2
                   2
                   2
                   2
                   2
                   2
                   2
                   2
                   2
                   2
                   2
                   2
                   2
                   2
                   2
                   2
                   2
                   2
                   2
                   2
                   2
                   2
                   2
                   2
                   2
                   2
                   2
                   2
                   2
                   2
                   2
                   2
                   2
                   2
                   2
                   2
                   2
                   2
                   2
                   2
                   2
                   2
                   2
                   2
                   2
                   2
                   2
                   2
                   2
                   2
                   2
                   2
                   2
                   2
                   2
                   2
                   2
                   2
                   2
                   2
                   2
                   2
                   2
                   2
                   2
                   2
                   2
                   2
                   2
                   2
                   2
                   2
                   2
                   2
                   2
                   2
                   2
                   2
                   2
                   2
                   2
                   2
                   2
                   2
                   2
                   2
                   2
                   2
                   2
                   2
                   2
                   2
                   2
                   2
                   2
                   2
                   2
                   2
                   2
                   2
                   2
                   2
                   2
                   2
                   2
                   2
                   2
                   2
                   2
                   2
                   2
                   2
                   2
                   2
                   2
                   2
                   2
                   2
                   2
                   2
                   2
                   2
                   2
                   2
                   2
                   2
                   2
                   2
                   2
                   2
                   2
                   2
                   2
                   2
                   2
                   2
                   2
                   2
                   2
                   2
                   2
                   2
                   2
                   2
                   2
                   2
                   2
                   2
                   2
                   2
                   2
                   2
                   2
                   2
                   2
                   2
                   2
                   2
                   2
                   2
                   2
                   2
                   2
                   2
                   2
                   2
                   2
                   2
                   2
                   2
                   2
                   2
                   2
                   2
                   2
                   2
                   2
                   2
                   2
                   2
                   2
                   2
                   2
                   2
                   2
                   2
                   2
                   2
                   2
                   2
                   2
                   2
                   2
                   2
                   2
                   2
                   2
                   2
                   2
                   2
                   2
                   2
                   2
                   2
                   2
                   2
                   2
                   2
                   2
                   2
                   2
                   2
                   2
                   2
                   2
                   2
                   2
                   2
                   2
                   2
                   2
                   2
                   2
                   2
                   2
                   2
                   2
                   2
                   2
                   2
                   2
                   2
                   2
                   2
                   2
                   2
                   2
                   2
                   2
                   2
                   2
                   2
                   2
                   2
                   2
                   2
                   2
                   2
                   2
                   2
                   2
                   2
                   2
                   2
                   2
                   2
                   2
                   2
                   2
                   2
                   2
                   2
                   2
                   2
                   2
                   2
                   2
                   2
                   2
                   2
                   2
                   2
                   2
                   2
                   2
                   2
                   2
                   2
                   2
                   2
                   2
                   2
                   2
                   2
                   2
                   2
                   2
                   2
                   2
                   2
                   2
                   2
                   2
                   2
                   2
                   2
                   2
                   2
                   2
                   2
                   2
                   2
                   2
                   2
                   2
                   2
                   2
                   2
                   2
                   2
                   2
                   2
                   2
                   2
                   2
                   2
                   2
                   2
                   2
                   2
                   2
                   2
                   2
                   2
                   2
                   2
                   2
                   2
                   2
                   2
                   2
                   2
                   2
                   2
                   2
                   2
                   2
                   2
                   2
                   2
                   2
                   2
                   2
                   2
                   2
                   2
                   2
                   2
                   2
                   2
                   2
                   2
                   2
                   2
                   2
                   2
                   2
                   2
                   2
                   2
                   2
                   2
                   2
                   2
                   2
                   2
                   2
                   2
                   2
                   2
                   2
                   2
                   2
                   2
                   2
                   2
                   2
                   2
                   2
                   2
                   2
                   2
                   2
                   2
                   2
                   2
                   2
                   2
                   2
                   2
                   2
                   2
                   2
                   2
                   2
                   2
                   2
                   2
                   2
                   2
                   2
                   2
                   2
                   2
                   2
                   2
                   2
                   2
                   2
                   2
                   2
                   2
                   2
                   2
                   2
                   2
                   2
                   2
                   2
                   2
                   2
                   2
                   2
                   2
                   2
                   2
                   2
                   2
                   2
                   2
                   2
                   2
                   2
                   2
                   2
                   2
                   2
                   2
                   2
                   2
                   2
                   2
                   2
                   2
                   2
                   2
                   2
                   2
                   2
                   2
                   2
                   2
                   2
                   2
                   2
                   2
                   2
                   2
                   2
                   2
                   2
                   2
                   2
                   2
                   2
                   2
                   2
                   2
                   2
                   2
                   2
                   2
                   2
                   2
                   2
                   2
                   2
                   2
                   2
                   2
                   2
                   2
                   2
                   2
                   2
                   2
                   2
                   2
                   2
                   2
                   2
                   2
                   2
                   2
                   2
                   2
                   2
                   2
                   2
                   2
                   2
                   2
                   2
                   2
                   2
                   2
                   2
                   2
                   2
                   2
                   2
                   2
                   2
                   2
                   2
                   2
                   2
                   2
                   2
                   2
                   2
                   2
                   2
                   2
                   2
                   2
                   2
                   2
                   2
                   2
                   2
                   2
                   2
                   2
                   2
                   2
                   2
                   2
                   2
                   2
                   2
                   2
                   2
                   2
                   2
                   2
                   2
                   2
                   2
                   2
                   2
                   2
                   2
                   2
                   2
                   2
                   2
                   2
                   2
                   2
                   2
                   2
                   2
                   2
                   2
                   2
                   2
                   2
                   2
                   2
                   2
                   2
                   2
                   2
                   2
                   2
                   2
                   2
                   2
                   2
                   2
                   2
                   2
                   2
                   2
                   2
                   2
                   2
                   2
                   2
                   2
                   2
                   2
                   2
                   2
                   2
                   2
                   2
                   2
                   2
                   2
                   2
                   2
                   2
                   2
                   2
                   2
                   2
                   2
                   2
                   2
                   2
                   2
                   2
                   2
                   2
                   2
                   2
                   2
                   2
                   2
                   2
                   2
                   2
                   2
                   2
                   2
                   2
                   2
                   2
                   2
                   2
                   2
                   2
                   2
                   2
                   2
                   2
                   2
                   2
                   2
                   2
                   2
                   2
                   2
                   2
                   2
                   2
                   2
                   2
                   2
                   2
                   2
                   2
                   2
                   2
                   2
                   2
                   2
                   2
                   2
                   2
                   2
                   2
                   2
                   2
                   2
                   2
                   2
                   2
                   2
                   2
                   2
                   2
                   2
                   2
                   2
                   2
                   2
                   2
                   2
                   2
                   2
                   2
                   2
                   2
                   2
                   2
                   2
                   2
                   2
                   2
                   2
                   2
                   2
                   2
                   2
                   2
                   2
                   2
                   2
                   2
                   2
                   2
                   2
                   2
                   2
                   2
                   2
                   2
                   2
                   2
                   2
                   2
                   2
                   2
                   2
                   2
                   2
                   2
                   2
                   2
                   2
                   2
                   2
                   2
                   2
                   2
                   2
                   2
                   2
                   2
                   2
                   2
                   2
                   2
                   2
                   2
                   2
                   2
                   2
                   2
                   2
                   2
                   2
                   2
                   2
                   2
                   2
                   2
                   2
                   2
                   2
                   2
                   2
                   2
                   2
                   2
                   2
                   2
                   2
                   2
                   2
                   2
                   2
                   2
                   2
                   2
                   2
                   2
                   2
                   2
                   2
                   2
                   2
                   2
                   2
                   2
                   2
                   2
                   2
                   2
                   2
                   2
                   2
                   2
                   2
                   2
                   2
                   2
                   2
                   2
                   2
                   2
                   2
                   2
                   2
                   2
                   2
                   2
                   2
                   2
                   2
                   2
                   2
                   2
                   2
                   2
                   2
                   2
                   2
                   2
                   2
                   2
                   2
                   2
                   2
                   2
                   2
                   2
                   2
                   2
                   2
                   2
                   2
                   2
                   2
                   2
                   2
                   2
                   2
                   2
                   2
                   2
                   2
                   2
                   2
                   2
                   2
                   2
                   2
                   2
                   2
                   2
                   2
                   2
                   2
                   2
                   2
                   2
                   2
                   2
                   2
                   2
                   2
                   2
                   2
                   2
                   2
                   2
                   2
                   2
                   2
                   2
                   2
                   2
                   2
                   2
                   2
                   2
                   2
                   2
                   2
                   2
                   2
                   2
                   2
                   2
                   2
                   2
                   2
                   2
                   2
                   2
                   2
                   2
                   2
                   2
                   2
                   2
                   2
                   2
                   2
                   2
                   2
                   2
                   2
                   2
                   2
                   2
                   2
                   2
                   2
                   2
                   2
                   2
                   2
                   2
                   2
                   2
                   2
                   2
                   2
                   2
                   2
                   2
                   2
                   2
                   2
                   2
                   2
                   2
                   2
                   2
                   2
                   2
                   2
                   2
                   2
                   2
                   2
                   2
                   2
                   2
                   2
                   2
                   2
                   2
                   2
                   2
                   2
                   2
                   2
                   2
                   2
                   2
                   2
                   2
                   2
                   2
                   2
                   2
                   2
                   2
                   2
                   2
                   2
                   2
                   2
                   2
                   2
                   2
                   2
                   2
                   2
                   2
                   2
                   2
                   2
                   2
                   2
                   2
                   2
                   2
                   2
                   2
                   2
                   2
                   2
                   2
                   2
                   2
                   2
                   2
                   2
                   2
                   2
                   2
                   2
                   2
                   2
                   2
                   2
                   2
                   2
                   2
                   2
                   2
                   2
                   2
                   2
                   2
                   2
                   2
                   2
                   2
                   2
                   2
                   2
                   2
                   2
                   2
                   2
                   2
                   2
                   2
                   2
                   2
                   2
                   2
                   2
                   2
                   2
                   2
                   2
                   2
                   2
                   2
                   2
                   2
                   2
                   2
                   2
                   2
                   2
                   2
                   2
                   2
                   2
                   2
                   2
                   2
                   2
                   2
                   2
                   2
                   2
                   2
                   2
                   2
                   2
                   2
                   2
                   2
                   2
                   2
                   2
                   2
                   2
                   2
                   2
                   2
                   2
                   2
                   2
                   2
                   2
                   2
                   2
                   2
                   2
                   2
                   2
                   2
                   2
                   2
                   2
                   2
                   2
                   2
                   2
                   2
                   2
                   2
                   2
                   2
                   2
                   2
                   2
                   2
                   2
                   2
                   2
                   2
                   2
                   2
                   2
                   2
                   2
                   2
                   2
                   2
                   2
                   2
                   2
                   2
                   2
                   2
                   2
                   2
                   2
                   2
                   2
                   2
                   2
                   2
                   2
                   2
                   2
                   2
                   2
                   2
                   2
                   2
                   2
                   2
                   2
                   2
                   2
                   2
                   2
                   2
                   2
                   2
                   2
                   2
                   2
                   2
                   2
                   2
                   2
                   2
                   2
                   2
                   2
                   2
                   2
                   2
                   2
                   2
                   2
                   2
                   2
                   2
                   2
                   2
                   2
                   2
                   2
                   2
                   2
                   2
                   2
                   2
                   2
                   2
                   2
                   2
                   2
                   2
                   2
                   2
                   2
                   2
                   2
                   2
                   2
                   2
                   2
                   2
                   2
                   2
                   2
                   2
                   2
                   2
                   2
                   2
                   2
                   2
                   2
                   2
                   2
                   2
                   2
                   2
                   2
                   2
                   2
                   2
                   2
                   2
                   2
                   2
                   2
                   2
                   2
                   2
                   2
                   2
                   2
                   2
                   2
                   2
                   2
                   2
                   2
                   2
                   2
                   2
                   2
                   2
                   2
                   2
                   2
                   2
                   2
  
SCALARS                        node_id  double 1
LOOKUP_TABLE default
                   1
                   2
                   3
                   4
                   5
                   6
                   7
                   8
                   9
                  10
                  11
                  12
                  13
                  14
                  15
                  16
                  17
                  18
                  19
                  20
                  21
                  22
                  23
                  24
                  25
                  26
                  27
                  28
                  29
                  30
                  31
                  32
                  33
                  34
                  35
                  36
                  37
                  38
                  39
                  40
                  41
                  42
                  43
                  44
                  45
                  46
                  47
                  48
                  49
                  50
                  51
                  52
                  53
                  54
                  55
                  56
                  57
                  58
                  59
                  60
                  61
                  62
                  63
                  64
                  65
                  66
                  67
                  68
                  69
                  70
                  71
                  72
                  73
                  74
                  75
                  76
                  77
                  78
                  79
                  80
                  81
                  82
                  83
                  84
                  85
                  86
                  87
                  88
                  89
                  90
                  91
                  92
                  93
                  94
                  95
                  96
                  97
                  98
                  99
                 100
                 101
                 102
                 103
                 104
                 105
                 106
                 107
                 108
                 109
                 110
                 111
                 112
                 113
                 114
                 115
                 116
                 117
                 118
                 119
                 120
                 121
                 122
                 123
                 124
                 125
                 126
                 127
                 128
                 129
                 130
                 131
                 132
                 133
                 134
                 135
                 136
                 137
                 138
                 139
                 140
                 141
                 142
                 143
                 144
                 145
                 146
                 147
                 148
                 149
                 150
                 151
                 152
                 153
                 154
                 155
                 156
                 157
                 158
                 159
                 160
                 161
                 162
                 163
                 164
                 165
                 166
                 167
                 168
                 169
                 170
                 171
                 172
                 173
                 174
                 175
                 176
                 177
                 178
                 179
                 180
                 181
                 182
                 183
                 184
                 185
                 186
                 187
                 188
                 189
                 190
                 191
                 192
                 193
                 194
                 195
                 196
                 197
                 198
                 199
                 200
                 201
                 202
                 203
                 204
                 205
                 206
                 207
                 208
                 209
                 210
                 211
                 212
                 213
                 214
                 215
                 216
                 217
                 218
                 219
                 220
                 221
                 222
                 223
                 224
                 225
                 226
                 227
                 228
                 229
                 230
                 231
                 232
                 233
                 234
                 235
                 236
                 237
                 238
                 239
                 240
                 241
                 242
                 243
                 244
                 245
                 246
                 247
                 248
                 249
                 250
                 251
                 252
                 253
                 254
                 255
                 256
                 257
                 258
                 259
                 260
                 261
                 262
                 263
                 264
                 265
                 266
                 267
                 268
                 269
                 270
                 271
                 272
                 273
                 274
                 275
                 276
                 277
                 278
                 279
                 280
                 281
                 282
                 283
                 284
                 285
                 286
                 287
                 288
                 289
                 290
                 291
                 292
                 293
                 294
                 295
                 296
                 297
                 298
                 299
                 300
                 301
                 302
                 303
                 304
                 305
                 306
                 307
                 308
                 309
                 310
                 311
                 312
                 313
                 314
                 315
                 316
                 317
                 318
                 319
                 320
                 321
                 322
                 323
                 324
                 325
                 326
                 327
                 328
                 329
                 330
                 331
                 332
                 333
                 334
                 335
                 336
                 337
                 338
                 339
                 340
                 341
                 342
                 343
                 344
                 345
                 346
                 347
                 348
                 349
                 350
                 351
                 352
                 353
                 354
                 355
                 356
                 357
                 358
                 359
                 360
                 361
                 362
                 363
                 364
                 365
                 366
                 367
                 368
                 369
                 370
                 371
                 372
                 373
                 374
                 375
                 376
                 377
                 378
                 379
                 380
                 381
                 382
                 383
                 384
                 385
                 386
                 387
                 388
                 389
                 390
                 391
                 392
                 393
                 394
                 395
                 396
                 397
                 398
                 399
                 400
                 401
                 402
                 403
                 404
                 405
                 406
                 407
                 408
                 409
                 410
                 411
                 412
                 413
                 414
                 415
                 416
                 417
                 418
                 419
                 420
                 421
                 422
                 423
                 424
                 425
                 426
                 427
                 428
                 429
                 430
                 431
                 432
                 433
                 434
                 435
                 436
                 437
                 438
                 439
                 440
                 441
                 442
                 443
                 444
                 445
                 446
                 447
                 448
                 449
                 450
                 451
                 452
                 453
                 454
                 455
                 456
                 457
                 458
                 459
                 460
                 461
                 462
                 463
                 464
                 465
                 466
                 467
                 468
                 469
                 470
                 471
                 472
                 473
                 474
                 475
                 476
                 477
                 478
                 479
                 480
                 481
                 482
                 483
                 484
                 485
                 486
                 487
                 488
                 489
                 490
                 491
                 492
                 493
                 494
                 495
                 496
                 497
                 498
                 499
                 500
                 501
                 502
                 503
                 504
                 505
                 506
                 507
                 508
                 509
                 510
                 511
                 512
                 513
                 514
                 515
                 516
                 517
                 518
                 519
                 520
                 521
                 522
                 523
                 524
                 525
                 526
                 527
                 528
                 529
                 530
                 531
                 532
                 533
                 534
                 535
                 536
                 537
                 538
                 539
                 540
                 541
                 542
                 543
                 544
                 545
                 546
                 547
                 548
                 549
                 550
                 551
                 552
                 553
                 554
                 555
                 556
                 557
                 558
                 559
                 560
                 561
                 562
                 563
                 564
                 565
                 566
                 567
                 568
                 569
                 570
                 571
                 572
                 573
                 574
                 575
                 576
                 577
                 578
                 579
                 580
                 581
                 582
                 583
                 584
                 585
                 586
                 587
                 588
                 589
                 590
                 591
                 592
                 593
                 594
                 595
                 596
                 597
                 598
                 599
                 600
                 601
                 602
                 603
                 604
                 605
                 606
                 607
                 608
                 609
                 610
                 611
                 612
                 613
                 614
                 615
                 616
                 617
                 618
                 619
                 620
                 621
                 622
                 623
                 624
                 625
                 626
                 627
                 628
                 629
                 630
                 631
                 632
                 633
                 634
                 635
                 636
                 637
                 638
                 639
                 640
                 641
                 642
                 643
                 644
                 645
                 646
                 647
                 648
                 649
                 650
                 651
                 652
                 653
                 654
                 655
                 656
                 657
                 658
                 659
                 660
                 661
                 662
                 663
                 664
                 665
                 666
                 667
                 668
                 669
                 670
                 671
                 672
                 673
                 674
                 675
                 676
                 677
                 678
                 679
                 680
                 681
                 682
                 683
                 684
                 685
                 686
                 687
                 688
                 689
                 690
                 691
                 692
                 693
                 694
                 695
                 696
                 697
                 698
                 699
                 700
                 701
                 702
                 703
                 704
                 705
                 706
                 707
                 708
                 709
                 710
                 711
                 712
                 713
                 714
                 715
                 716
                 717
                 718
                 719
                 720
                 721
                 722
                 723
                 724
                 725
                 726
                 727
                 728
                 729
                 730
                 731
                 732
                 733
                 734
                 735
                 736
                 737
                 738
                 739
                 740
                 741
                 742
                 743
                 744
                 745
                 746
                 747
                 748
                 749
                 750
                 751
                 752
                 753
                 754
                 755
                 756
                 757
                 758
                 759
                 760
                 761
                 762
                 763
                 764
                 765
                 766
                 767
                 768
                 769
                 770
                 771
                 772
                 773
                 774
                 775
                 776
                 777
                 778
                 779
                 780
                 781
                 782
                 783
                 784
                 785
                 786
                 787
                 788
                 789
                 790
                 791
                 792
                 793
                 794
                 795
                 796
                 797
                 798
                 799
                 800
                 801
                 802
                 803
                 804
                 805
                 806
                 807
                 808
                 809
                 810
                 811
                 812
                 813
                 814
                 815
                 816
                 817
                 818
                 819
                 820
                 821
                 822
                 823
                 824
                 825
                 826
                 827
                 828
                 829
                 830
                 831
                 832
                 833
                 834
                 835
                 836
                 837
                 838
                 839
                 840
                 841
                 842
                 843
                 844
                 845
                 846
                 847
                 848
                 849
                 850
                 851
                 852
                 853
                 854
                 855
                 856
                 857
                 858
                 859
                 860
                 861
                 862
                 863
                 864
                 865
                 866
                 867
                 868
                 869
                 870
                 871
                 872
                 873
                 874
                 875
                 876
                 877
                 878
                 879
                 880
                 881
                 882
                 883
                 884
                 885
                 886
                 887
                 888
                 889
                 890
                 891
                 892
                 893
                 894
                 895
                 896
                 897
                 898
                 899
                 900
                 901
                 902
                 903
                 904
                 905
                 906
                 907
                 908
                 909
                 910
                 911
                 912
                 913
                 914
                 915
                 916
                 917
                 918
                 919
                 920
                 921
                 922
                 923
                 924
                 925
                 926
                 927
                 928
                 929
                 930
                 931
                 932
                 933
                 934
                 935
                 936
                 937
                 938
                 939
                 940
                 941
                 942
                 943
                 944
                 945
                 946
                 947
                 948
                 949
                 950
                 951
                 952
                 953
                 954
                 955
                 956
                 957
                 958
                 959
                 960
                 961
                 962
                 963
                 964
                 965
                 966
                 967
                 968
                 969
                 970
                 971
                 972
                 973
                 974
                 975
                 976
                 977
                 978
                 979
                 980
                 981
                 982
                 983
                 984
                 985
                 986
                 987
                 988
                 989
                 990
                 991
                 992
                 993
                 994
                 995
                 996
                 997
                 998
                 999
                1000
                1001
                1002
                1003
                1004
                1005
                1006
                1007
                1008
                1009
                1010
                1011
                1012
                1013
                1014
                1015
                1016
                1017
                1018
                1019
                1020
                1021
                1022
                1023
                1024
                1025
                1026
                1027
                1028
                1029
                1030
                1031
                1032
                1033
                1034
                1035
                1036
                1037
                1038
                1039
                1040
                1041
                1042
                1043
                1044
                1045
                1046
                1047
                1048
                1049
                1050
                1051
                1052
                1053
                1054
                1055
                1056
                1057
                1058
                1059
                1060
                1061
                1062
                1063
                1064
                1065
                1066
                1067
                1068
                1069
                1070
                1071
                1072
                1073
                1074
                1075
                1076
                1077
                1078
                1079
                1080
                1081
                1082
                1083
                1084
                1085
                1086
                1087
                1088
                1089
                1090
                1091
                1092
                1093
                1094
                1095
                1096
                1097
                1098
                1099
                1100
                1101
                1102
                1103
                1104
                1105
                1106
                1107
                1108
                1109
                1110
                1111
                1112
                1113
                1114
                1115
                1116
                1117
                1118
                1119
                1120
                1121
                1122
                1123
                1124
                1125
                1126
                1127
                1128
                1129
                1130
                1131
                1132
                1133
                1134
                1135
                1136
                1137
                1138
                1139
                1140
                1141
                1142
                1143
                1144
                1145
                1146
                1147
                1148
                1149
                1150
                1151
                1152
                1153
                1154
                1155
                1156
                1157
                1158
                1159
                1160
                1161
                1162
                1163
                1164
                1165
                1166
                1167
                1168
                1169
                1170
                1171
                1172
                1173
                1174
                1175
                1176
                1177
                1178
                1179
                1180
                1181
                1182
                1183
                1184
                1185
                1186
                1187
                1188
                1189
                1190
                1191
                1192
                1193
                1194
                1195
                1196
                1197
                1198
                1199
                1200
                1201
                1202
                1203
                1204
                1205
                1206
                1207
                1208
                1209
                1210
                1211
                1212
                1213
                1214
                1215
                1216
                1217
                1218
                1219
                1220
                1221
                1222
                1223
                1224
                1225
                1226
                1227
                1228
                1229
                1230
                1231
                1232
                1233
                1234
                1235
                1236
                1237
                1238
                1239
                1240
                1241
                1242
                1243
                1244
                1245
                1246
                1247
                1248
                1249
                1250
                1251
                1252
                1253
                1254
                1255
                1256
                1257
                1258
                1259
                1260
                1261
                1262
                1263
                1264
                1265
                1266
                1267
                1268
                1269
                1270
                1271
                1272
                1273
                1274
                1275
                1276
                1277
                1278
                1279
                1280
                1281
                1282
                1283
                1284
                1285
                1286
                1287
                1288
                1289
                1290
                1291
                1292
                1293
                1294
                1295
                1296
                1297
                1298
                1299
                1300
                1301
                1302
                1303
                1304
                1305
                1306
                1307
                1308
                1309
                1310
                1311
                1312
                1313
                1314
                1315
                1316
                1317
                1318
                1319
                1320
                1321
                1322
                1323
                1324
                1325
                1326
                1327
                1328
                1329
                1330
                1331
                1332
                1333
                1334
                1335
                1336
                1337
                1338
                1339
                1340
                1341
                1342
                1343
                1344
                1345
                1346
                1347
                1348
                1349
                1350
                1351
                1352
                1353
                1354
                1355
                1356
                1357
                1358
                1359
                1360
                1361
                1362
                1363
                1364
                1365
                1366
                1367
                1368
                1369
                1370
                1371
                1372
                1373
                1374
                1375
                1376
                1377
                1378
                1379
                1380
                1381
                1382
                1383
                1384
                1385
                1386
                1387
                1388
                1389
                1390
                1391
                1392
                1393
                1394
                1395
                1396
                1397
                1398
                1399
                1400
                1401
                1402
                1403
                1404
                1405
                1406
                1407
                1408
                1409
                1410
                1411
                1412
                1413
                1414
                1415
                1416
                1417
                1418
                1419
                1420
                1421
                1422
                1423
                1424
                1425
                1426
                1427
                1428
                1429
                1430
                1431
                1432
                1433
                1434
                1435
                1436
                1437
                1438
                1439
                1440
                1441
                1442
                1443
                1444
                1445
                1446
                1447
                1448
                1449
                1450
                1451
                1452
                1453
                1454
                1455
                1456
                1457
                1458
                1459
                1460
                1461
                1462
                1463
                1464
                1465
                1466
                1467
                1468
                1469
                1470
                1471
                1472
                1473
                1474
                1475
                1476
                1477
                1478
                1479
                1480
                1481
                1482
                1483
                1484
                1485
                1486
                1487
                1488
                1489
                1490
                1491
                1492
                1493
                1494
                1495
                1496
                1497
                1498
                1499
                1500
                1501
                1502
                1503
                1504
                1505
                1506
                1507
                1508
                1509
                1510
                1511
                1512
                1513
                1514
                1515
                1516
                1517
                1518
                1519
                1520
                1521
                1522
                1523
                1524
                1525
                1526
                1527
                1528
                1529
                1530
                1531
                1532
                1533
                1534
                1535
                1536
                1537
                1538
                1539
                1540
                1541
                1542
                1543
                1544
                1545
                1546
                1547
                1548
                1549
                1550
                1551
                1552
                1553
                1554
                1555
                1556
                1557
                1558
                1559
                1560
                1561
                1562
                1563
                1564
                1565
                1566
                1567
                1568
                1569
                1570
                1571
                1572
                1573
                1574
                1575
                1576
                1577
                1578
                1579
                1580
                1581
                1582
                1583
                1584
                1585
                1586
                1587
                1588
                1589
                1590
                1591
                1592
                1593
                1594
                1595
                1596
                1597
                1598
                1599
                1600
                1601
                1602
                1603
                1604
                1605
                1606
                1607
                1608
                1609
                1610
                1611
                1612
                1613
                1614
                1615
                1616
                1617
                1618
                1619
                1620
                1621
                1622
                1623
                1624
                1625
                1626
                1627
                1628
                1629
                1630
                1631
                1632
                1633
                1634
                1635
                1636
                1637
                1638
                1639
                1640
                1641
                1642
                1643
                1644
                1645
                1646
                1647
                1648
                1649
                1650
                1651
                1652
                1653
                1654
                1655
                1656
                1657
                1658
                1659
                1660
                1661
                1662
                1663
                1664
                1665
                1666
                1667
                1668
                1669
                1670
                1671
                1672
                1673
                1674
                1675
                1676
                1677
                1678
                1679
                1680
                1681
                1682
                1683
                1684
                1685
                1686
                1687
                1688
                1689
                1690
                1691
                1692
                1693
                1694
                1695
                1696
                1697
                1698
                1699
                1700
                1701
                1702
                1703
                1704
                1705
                1706
                1707
                1708
                1709
                1710
                1711
                1712
                1713
                1714
                1715
                1716
                1717
                1718
                1719
                1720
                1721
                1722
                1723
                1724
                1725
                1726
                1727
                1728
                1729
                1730
                1731
                1732
                1733
                1734
                1735
                1736
                1737
                1738
                1739
                1740
                1741
                1742
                1743
                1744
                1745
                1746
                1747
                1748
                1749
                1750
                1751
                1752
                1753
                1754
                1755
                1756
                1757
                1758
                1759
                1760
                1761
                1762
                1763
                1764
                1765
                1766
                1767
                1768
                1769
                1770
                1771
                1772
                1773
                1774
                1775
                1776
                1777
                1778
                1779
                1780
                1781
                1782
                1783
                1784
                1785
                1786
                1787
                1788
                1789
                1790
                1791
                1792
                1793
                1794
                1795
                1796
                1797
                1798
                1799
                1800
                1801
                1802
                1803
                1804
                1805
                1806
                1807
                1808
                1809
                1810
                1811
                1812
                1813
                1814
                1815
                1816
                1817
                1818
                1819
                1820
                1821
                1822
                1823
                1824
                1825
                1826
                1827
                1828
                1829
                1830
                1831
                1832
                1833
                1834
                1835
                1836
                1837
                1838
                1839
                1840
                1841
                1842
                1843
                1844
                1845
                1846
                1847
                1848
                1849
                1850
                1851
                1852
                1853
                1854
                1855
                1856
                1857
                1858
                1859
                1860
                1861
                1862
                1863
                1864
                1865
                1866
                1867
                1868
                1869
                1870
                1871
                1872
                1873
                1874
                1875
                1876
                1877
                1878
                1879
                1880
                1881
                1882
                1883
                1884
                1885
                1886
                1887
                1888
                1889
                1890
                1891
                1892
                1893
                1894
                1895
                1896
                1897
                1898
                1899
                1900
                1901
                1902
                1903
                1904
                1905
                1906
                1907
                1908
                1909
                1910
                1911
                1912
                1913
                1914
                1915
                1916
                1917
                1918
                1919
                1920
                1921
                1922
                1923
                1924
                1925
                1926
                1927
                1928
                1929
                1930
                1931
                1932
                1933
                1934
                1935
                1936
                1937
                1938
                1939
                1940
                1941
                1942
                1943
                1944
                1945
                1946
                1947
                1948
                1949
                1950
  
SCALARS                         bodyid  double 1
LOOKUP_TABLE default
                   1
                   1
                   1
                   1
                   1
                   1
                   1
                   1
                   1
                   1
                   1
                   1
                   1
                   1
                   1
                   1
                   1
                   1
                   1
                   1
                   1
                   1
                   1
                   1
                   1
                   1
                   1
                   1
                   1
                   1
                   1
                   1
                   1
                   1
                   1
                   1
                   1
                   1
                   1
                   1
                   1
                   1
                   1
                   1
                   1
                   1
                   1
                   1
                   1
                   1
                   1
                   1
                   1
                   1
                   1
                   1
                   1
                   1
                   1
                   1
                   1
                   1
                   1
                   1
                   1
                   1
                   1
                   1
                   1
                   1
                   1
                   1
                   1
                   1
                   1
                   1
                   1
                   1
                   1
                   1
                   1
                   1
                   1
                   1
                   1
                   1
                   1
                   1
                   1
                   1
                   1
                   1
                   1
                   1
                   1
                   1
                   1
                   1
                   1
                   1
                   1
                   1
                   1
                   1
                   1
                   1
                   1
                   1
                   1
                   1
                   1
                   1
                   1
                   1
                   1
                   1
                   1
                   1
                   1
                   1
                   1
                   1
                   1
                   1
                   1
                   1
                   1
                   1
                   1
                   1
                   1
                   1
                   1
                   1
                   1
                   1
                   1
                   1
                   1
                   1
                   1
                   1
                   1
                   1
                   1
                   1
                   1
                   1
                   1
                   1
                   1
                   1
                   1
                   1
                   1
                   1
                   1
                   1
                   1
                   1
                   1
                   1
                   1
                   1
                   1
                   1
                   1
                   1
                   1
                   1
                   1
                   1
                   1
                   1
                   1
                   1
                   1
                   1
                   1
                   1
                   1
                   1
                   1
                   1
                   1
                   1
                   1
                   1
                   1
                   1
                   1
                   1
                   1
                   1
                   1
                   1
                   1
                   1
                   1
                   1
                   1
                   1
                   1
                   1
                   1
                   1
                   1
                   1
                   1
                   1
                   1
                   1
                   1
                   1
                   1
                   1
                   1
                   1
                   1
                   1
                   1
                   1
                   1
                   1
                   1
                   1
                   1
                   1
                   1
                   1
                   1
                   1
                   1
                   1
                   1
                   1
                   1
                   1
                   1
                   1
                   1
                   1
                   1
                   1
                   1
                   1
                   1
                   1
                   1
                   1
                   1
                   1
                   1
                   1
                   1
                   1
                   1
                   1
                   1
                   1
                   1
                   1
                   1
                   1
                   1
                   1
                   1
                   1
                   1
                   1
                   1
                   1
                   1
                   1
                   1
                   1
                   1
                   1
                   1
                   1
                   1
                   1
                   1
                   1
                   1
                   1
                   1
                   1
                   1
                   1
                   1
                   1
                   1
                   1
                   1
                   1
                   1
                   1
                   1
                   1
                   1
                   1
                   1
                   1
                   1
                   1
                   1
                   1
                   1
                   1
                   1
                   1
                   1
                   1
                   1
                   1
                   1
                   1
                   1
                   1
                   1
                   1
                   1
                   1
                   1
                   1
                   1
                   1
                   1
                   1
                   1
                   1
                   1
                   1
                   1
                   1
                   1
                   1
                   1
                   1
                   1
                   1
                   1
                   1
                   1
                   1
                   1
                   1
                   1
                   1
                   1
                   1
                   1
                   1
                   1
                   1
                   1
                   1
                   1
                   1
                   1
                   1
                   1
                   1
                   1
                   1
                   1
                   1
                   1
                   1
                   1
                   1
                   1
                   1
                   1
                   1
                   1
                   1
                   1
                   1
                   1
                   1
                   1
                   1
                   1
                   1
                   1
                   1
                   1
                   1
                   1
                   1
                   1
                   1
                   1
                   1
                   1
                   1
                   1
                   1
                   1
                   1
                   1
                   1
                   1
                   1
                   1
                   1
                   1
                   1
                   1
                   1
                   1
                   1
                   1
                   1
                   1
                   1
                   1
                   1
                   1
                   1
                   1
                   1
                   1
                   1
                   1
                   1
                   1
                   1
                   1
                   1
                   1
                   1
                   1
                   1
                   1
                   1
                   1
                   1
                   1
                   1
                   1
                   1
                   1
                   1
                   1
                   1
                   1
                   1
                   1
                   1
                   1
                   1
                   1
                   1
                   1
                   1
                   1
                   1
                   1
                   1
                   1
                   1
                   1
                   1
                   1
                   1
                   1
                   1
                   1
                   1
                   1
                   1
                   1
                   1
                   1
                   1
                   1
                   1
                   1
                   1
                   1
                   1
                   1
                   1
                   1
                   1
                   1
                   1
                   1
                   1
                   1
                   1
                   1
                   1
                   1
                   1
                   1
                   1
                   1
                   1
                   1
                   1
                   1
                   1
                   1
                   1
                   1
                   1
                   1
                   1
                   1
                   1
                   1
                   1
                   1
                   1
                   1
                   1
                   1
                   1
                   1
                   1
                   1
                   1
                   1
                   1
                   1
                   1
                   1
                   1
                   1
                   1
                   1
                   1
                   1
                   1
                   1
                   1
                   1
                   1
                   1
                   1
                   1
                   1
                   1
                   1
                   1
                   1
                   1
                   1
                   1
                   1
                   1
                   1
                   1
                   1
                   1
                   1
                   1
                   1
                   1
                   1
                   1
                   1
                   1
                   1
                   1
                   1
                   1
                   1
                   1
                   1
                   1
                   1
                   1
                   1
                   1
                   1
                   1
                   1
                   1
                   1
                   1
                   1
                   1
                   1
                   1
                   1
                   1
                   1
                   1
                   1
                   1
                   1
                   1
                   1
                   1
                   1
                   1
                   1
                   1
                   1
                   1
                   1
                   1
                   1
                   1
                   1
                   1
                   1
                   1
                   1
                   1
                   1
                   1
                   1
                   1
                   1
                   1
                   1
                   1
                   1
                   1
                   1
                   1
                   1
                   1
                   1
                   1
                   1
                   1
                   1
                   1
                   1
                   1
                   1
                   1
                   1
                   1
                   1
                   1
                   1
                   1
                   1
                   1
                   1
                   1
                   1
                   1
                   1
                   1
                   1
                   1
                   1
                   1
                   1
                   1
                   1
                   1
                   1
                   1
                   1
                   1
                   1
                   1
                   1
                   1
                   1
                   1
                   1
                   1
                   1
                   1
                   1
                   1
                   1
                   1
                   1
                   1
                   1
                   1
                   1
                   1
                   1
                   1
                   1
                   1
                   1
                   1
                   1
                   1
                   1
                   1
                   1
                   1
                   1
                   1
                   1
                   1
                   1
                   1
                   1
                   1
                   1
                   1
                   1
                   1
                   1
                   1
                   1
                   1
                   1
                   1
                   1
                   1
                   1
                   1
                   1
                   1
                   1
                   1
                   1
                   1
                   1
                   1
                   1
                   1
                   1
                   1
                   1
                   1
                   1
                   1
                   1
                   1
                   1
                   1
                   1
                   1
                   1
                   1
                   1
                   1
                   1
                   1
                   1
                   1
                   1
                   1
                   1
                   1
                   1
                   1
                   1
                   1
                   1
                   1
                   1
                   1
                   1
                   1
                   1
                   1
                   1
                   1
                   1
                   1
                   1
                   1
                   1
                   1
                   1
                   1
                   1
                   1
                   1
                   1
                   1
                   1
                   1
                   1
                   1
                   1
                   1
                   1
                   1
                   1
                   1
                   1
                   1
                   1
                   1
                   1
                   1
                   1
                   1
                   1
                   1
                   1
                   1
                   1
                   1
                   1
                   1
                   1
                   1
                   1
                   1
                   1
                   1
                   1
                   1
                   1
                   1
                   1
                   1
                   1
                   1
                   1
                   1
                   1
                   1
                   1
                   1
                   1
                   1
                   1
                   1
                   1
                   1
                   1
                   1
                   1
                   1
                   1
                   1
                   1
                   1
                   1
                   1
                   1
                   1
                   1
                   1
                   1
                   1
                   1
                   1
                   1
                   1
                   1
                   1
                   1
                   1
                   1
                   1
                   1
                   1
                   1
                   1
                   1
                   1
                   1
                   1
                   1
                   1
                   1
                   1
                   1
                   1
                   1
                   1
                   1
                   1
                   1
                   1
                   1
                   1
                   1
                   1
                   1
                   1
                   1
                   1
                   1
                   1
                   1
                   1
                   1
                   1
                   1
                   1
                   1
                   1
                   1
                   1
                   1
                   1
                   1
                   1
                   1
                   1
                   1
                   1
                   1
                   1
                   1
                   1
                   1
                   1
                   1
                   1
                   1
                   1
                   1
                   1
                   1
                   1
                   1
                   1
                   1
                   1
                   1
                   1
                   1
                   1
                   1
                   1
                   1
                   1
                   1
                   1
                   1
                   1
                   1
                   1
                   1
                   1
                   1
                   1
                   1
                   1
                   1
                   1
                   1
                   1
                   1
                   1
                   1
                   1
                   1
                   1
                   1
                   1
                   1
                   1
                   1
                   1
                   1
                   1
                   1
                   1
                   1
                   1
                   1
                   1
                   1
                   1
                   1
                   1
                   1
                   1
                   1
                   1
                   1
                   1
                   1
                   1
                   1
                   1
                   1
                   1
                   1
                   1
                   1
                   1
                   1
                   1
                   1
                   1
                   1
                   1
                   1
                   1
                   1
                   1
                   1
                   1
                   1
                   1
                   1
                   1
                   1
                   1
                   1
                   1
                   1
                   1
                   1
                   1
                   1
                   1
                   1
                   1
                   1
                   1
                   1
                   1
                   1
                   1
                   1
                   1
                   1
                   1
                   1
                   1
                   1
                   1
                   1
                   1
                   1
                   1
                   1
                   1
                   1
                   1
                   1
                   1
                   1
                   1
                   1
                   1
                   1
                   1
                   1
                   1
                   1
                   1
                   1
                   1
                   1
                   1
                   1
                   1
                   1
                   1
                   1
                   1
                   1
                   1
                   1
                   1
                   1
                   1
                   1
                   1
                   1
                   1
                   1
                   1
                   1
                   1
                   1
                   1
                   1
                   1
                   1
                   1
                   1
                   1
                   1
                   1
                   1
                   1
                   1
                   1
                   1
                   1
                   1
                   1
                   1
                   1
                   1
                   1
                   1
                   1
                   1
                   1
                   1
                   1
                   1
                   1
                   1
                   1
                   1
                   1
                   1
                   1
                   1
                   1
                   1
                   1
                   1
                   1
                   1
                   1
                   1
                   1
                   1
                   1
                   1
                   1
                   1
                   1
                   1
                   1
                   1
                   1
                   1
                   1
                   1
                   1
                   1
                   1
                   1
                   1
                   1
                   1
                   1
                   1
                   1
                   1
                   1
                   1
                   1
                   1
                   1
                   1
                   1
                   1
                   1
                   1
                   1
                   1
                   1
                   1
                   1
                   1
                   1
                   1
                   1
                   1
                   1
                   1
                   1
                   1
                   1
                   1
                   1
                   1
                   1
                   1
                   1
                   1
                   1
                   1
                   1
                   1
                   1
                   1
                   1
                   1
                   1
                   1
                   1
                   1
                   1
                   1
                   1
                   1
                   1
                   1
                   1
                   1
                   1
                   1
                   1
                   1
                   1
                   1
                   1
                   1
                   1
                   1
                   1
                   1
                   1
                   1
                   1
                   1
                   1
                   1
                   1
                   1
                   1
                   1
                   1
                   1
                   1
                   1
                   1
                   1
                   1
                   1
                   1
                   1
                   1
                   1
                   1
                   1
                   1
                   1
                   1
                   1
                   1
                   1
                   1
                   1
                   1
                   1
                   1
                   1
                   1
                   1
                   1
                   1
                   1
                   1
                   1
                   1
                   1
                   1
                   1
                   1
                   1
                   1
                   1
                   1
                   1
                   1
                   1
                   1
                   1
                   1
                   1
                   1
                   1
                   1
                   1
                   1
                   1
                   1
                   1
                   1
                   1
                   1
                   1
                   1
                   1
                   1
                   1
                   1
                   1
                   1
                   1
                   1
                   1
                   1
                   1
                   1
                   1
                   1
                   1
                   1
                   1
                   1
                   1
                   1
                   1
                   1
                   1
                   1
                   1
                   1
                   1
                   1
                   1
                   1
                   1
                   1
                   1
                   1
                   1
                   1
                   1
                   1
                   1
                   1
                   1
                   1
                   1
                   1
                   1
                   1
                   1
                   1
                   1
                   1
                   1
                   1
                   1
                   1
                   1
                   1
                   1
                   1
                   1
                   1
                   1
                   1
                   1
                   1
                   1
                   1
                   1
                   1
                   1
                   1
                   1
                   1
                   1
                   1
                   1
                   1
                   1
                   1
                   1
                   1
                   1
                   1
                   1
                   1
                   1
                   1
                   1
                   1
                   1
                   1
                   1
                   1
                   1
                   1
                   1
                   1
                   1
                   1
                   1
                   1
                   1
                   1
                   1
                   1
                   1
                   1
                   1
                   1
                   1
                   1
                   1
                   1
                   1
                   1
                   1
                   1
                   1
                   1
                   1
                   1
                   1
                   1
                   1
                   1
                   1
                   1
                   1
                   1
                   1
                   1
                   1
                   1
                   1
                   1
                   1
                   1
                   1
                   1
                   1
                   1
                   1
                   1
                   1
                   1
                   1
                   1
                   1
                   1
                   1
                   1
                   1
                   1
                   1
                   1
                   1
                   1
                   1
                   1
                   1
                   1
                   1
                   1
                   1
                   1
                   1
                   1
                   1
                   1
                   1
                   1
                   1
                   1
                   1
                   1
                   1
                   1
                   1
                   1
                   1
                   1
                   1
                   1
                   1
                   1
                   1
                   1
                   1
                   1
                   1
                   1
                   1
                   1
                   1
                   1
                   1
                   1
                   1
                   1
                   1
                   1
                   1
                   1
                   1
                   1
                   1
                   1
                   1
                   1
                   1
                   1
                   1
                   1
                   1
                   1
                   1
                   1
                   1
                   1
                   1
                   1
                   1
                   1
                   1
                   1
                   1
                   1
                   1
                   1
                   1
                   1
                   1
                   1
                   1
                   1
                   1
                   1
                   1
                   1
                   1
                   1
                   1
                   1
                   1
                   1
                   1
                   1
                   1
                   1
                   1
                   1
                   1
                   1
                   1
                   1
                   1
                   1
                   1
                   1
                   1
                   1
                   1
                   1
                   1
                   1
                   1
                   1
                   1
                   1
                   1
                   1
                   1
                   1
                   1
                   1
                   1
                   1
                   1
                   1
                   1
                   1
                   1
                   1
                   1
                   1
                   1
                   1
                   1
                   1
                   1
                   1
                   1
                   1
                   1
                   1
                   1
                   1
                   1
                   1
                   1
                   1
                   1
                   1
                   1
                   1
                   1
                   1
                   1
                   1
                   1
                   1
                   1
                   1
                   1
                   1
                   1
                   1
                   1
                   1
                   1
                   1
                   1
                   1
                   1
                   1
                   1
                   1
                   1
                   1
                   1
                   1
                   1
                   1
                   1
                   1
                   1
                   1
                   1
                   1
                   1
                   1
                   1
                   1
                   1
                   1
                   1
                   1
                   1
                   1
                   1
                   1
                   1
                   1
                   1
                   1
                   1
                   1
                   1
                   1
                   1
                   1
                   1
                   1
                   1
                   1
                   1
                   1
                   1
                   1
                   1
                   1
                   1
                   1
                   1
                   1
                   1
                   1
                   1
                   1
                   1
                   1
                   1
                   1
                   1
                   1
                   1
                   1
                   1
                   1
                   1
                   1
                   1
                   1
                   1
                   1
                   1
                   1
                   1
                   1
                   1
                   1
                   1
                   1
                   1
                   1
                   1
                   1
                   1
                   1
                   1
                   1
                   1
                   1
                   1
                   1
                   1
                   1
                   1
                   1
                   1
                   1
                   1
                   1
                   1
                   1
                   1
                   1
                   1
                   1
                   1
                   1
                   1
                   1
                   1
                   1
                   1
                   1
                   1
                   1
                   1
                   1
                   1
                   1
                   1
                   1
                   1
                   1
                   1
                   1
                   1
                   1
                   1
                   1
                   1
                   1
                   1
                   1
                   1
                   1
                   1
                   1
                   1
                   1
                   1
                   1
                   1
                   1
                   1
                   1
                   1
                   1
                   1
                   1
                   1
                   1
                   1
                   1
                   1
                   1
                   1
                   1
                   1
                   1
                   1
                   1
                   1
                   1
                   1
                   1
                   1
                   1
                   1
                   1
                   1
                   1
                   1
                   1
                   1
                   1
                   1
                   1
                   1
                   1
                   1
                   1
                   1
                   1
                   1
                   1
                   1
                   1
                   1
                   1
                   1
                   1
                   1
                   1
                   1
                   1
                   1
                   1
                   1
                   1
                   1
                   1
                   1
                   1
                   1
                   1
                   1
                   1
                   1
                   1
                   1
                   1
                   1
                   1
                   1
                   1
                   1
                   1
                   1
                   1
                   1
                   1
                   1
                   1
                   1
                   1
                   1
                   1
                   1
                   1
                   1
                   1
                   1
                   1
                   1
                   1
                   1
                   1
                   1
                   1
                   1
                   1
                   1
                   1
                   1
                   1
                   1
                   1
                   1
                   1
                   1
                   1
                   1
                   1
                   1
                   1
                   1
                   1
                   1
                   1
                   1
                   1
                   1
                   1
                   1
                   1
                   1
                   1
                   1
                   1
                   1
                   1
                   1
                   1
                   1
                   1
                   1
                   1
                   1
                   1
                   1
                   1
                   1
                   1
                   1
                   1
                   1
                   1
                   1
                   1
                   1
                   1
                   1
                   1
                   1
                   1
                   1
                   1
                   1
                   1
                   1
                   1
                   1
                   1
                   1
                   1
                   1
                   1
                   1
                   1
                   1
                   1
                   1
                   1
                   1
                   1
                   1
                   1
                   1
                   1
                   1
                   1
                   1
                   1
                   1
                   1
                   1
                   1
                   1
                   1
                   1
                   1
                   1
                   1
                   1
                   1
                   1
                   1
                   1
                   1
                   1
                   1
                   1
                   1
                   1
                   1
                   1
                   1
  
SCALARS                  material_type  double 1
LOOKUP_TABLE default
                   2
                   2
                   2
                   2
                   2
                   2
                   2
                   2
                   2
                   2
                   2
                   2
                   2
                   2
                   2
                   2
                   2
                   2
                   2
                   2
                   2
                   2
                   2
                   2
                   2
                   2
                   2
                   2
                   2
                   2
                   2
                   2
                   2
                   2
                   2
                   2
                   2
                   2
                   2
                   2
                   2
                   2
                   2
                   2
                   2
                   2
                   2
                   2
                   2
                   2
                   2
                   2
                   2
                   2
                   2
                   2
                   2
                   2
                   2
                   2
                   2
                   2
                   2
                   2
                   2
                   2
                   2
                   2
                   2
                   2
                   2
                   2
                   2
                   2
                   2
                   2
                   2
                   2
                   2
                   2
                   2
                   2
                   2
                   2
                   2
                   2
                   2
                   2
                   2
                   2
                   2
                   2
                   2
                   2
                   2
                   2
                   2
                   2
                   2
                   2
                   2
                   2
                   2
                   2
                   2
                   2
                   2
                   2
                   2
                   2
                   2
                   2
                   2
                   2
                   2
                   2
                   2
                   2
                   2
                   2
                   2
                   2
                   2
                   2
                   2
                   2
                   2
                   2
                   2
                   2
                   2
                   2
                   2
                   2
                   2
                   2
                   2
                   2
                   2
                   2
                   2
                   2
                   2
                   2
                   2
                   2
                   2
                   2
                   2
                   2
                   2
                   2
                   2
                   2
                   2
                   2
                   2
                   2
                   2
                   2
                   2
                   2
                   2
                   2
                   2
                   2
                   2
                   2
                   2
                   2
                   2
                   2
                   2
                   2
                   2
                   2
                   2
                   2
                   2
                   2
                   2
                   2
                   2
                   2
                   2
                   2
                   2
                   2
                   2
                   2
                   2
                   2
                   2
                   2
                   2
                   2
                   2
                   2
                   2
                   2
                   2
                   2
                   2
                   2
                   2
                   2
                   2
                   2
                   2
                   2
                   2
                   2
                   2
                   2
                   2
                   2
                   2
                   2
                   2
                   2
                   2
                   2
                   2
                   2
                   2
                   2
                   2
                   2
                   2
                   2
                   2
                   2
                   2
                   2
                   2
                   2
                   2
                   2
                   2
                   2
                   2
                   2
                   2
                   2
                   2
                   2
                   2
                   2
                   2
                   2
                   2
                   2
                   2
                   2
                   2
                   2
                   2
                   2
                   2
                   2
                   2
                   2
                   2
                   2
                   2
                   2
                   2
                   2
                   2
                   2
                   2
                   2
                   2
                   2
                   2
                   2
                   2
                   2
                   2
                   2
                   2
                   2
                   2
                   2
                   2
                   2
                   2
                   2
                   2
                   2
                   2
                   2
                   2
                   2
                   2
                   2
                   2
                   2
                   2
                   2
                   2
                   2
                   2
                   2
                   2
                   2
                   2
                   2
                   2
                   2
                   2
                   2
                   2
                   2
                   2
                   2
                   2
                   2
                   2
                   2
                   2
                   2
                   2
                   2
                   2
                   2
                   2
                   2
                   2
                   2
                   2
                   2
                   2
                   2
                   2
                   2
                   2
                   2
                   2
                   2
                   2
                   2
                   2
                   2
                   2
                   2
                   2
                   2
                   2
                   2
                   2
                   2
                   2
                   2
                   2
                   2
                   2
                   2
                   2
                   2
                   2
                   2
                   2
                   2
                   2
                   2
                   2
                   2
                   2
                   2
                   2
                   2
                   2
                   2
                   2
                   2
                   2
                   2
                   2
                   2
                   2
                   2
                   2
                   2
                   2
                   2
                   2
                   2
                   2
                   2
                   2
                   2
                   2
                   2
                   2
                   2
                   2
                   2
                   2
                   2
                   2
                   2
                   2
                   2
                   2
                   2
                   2
                   2
                   2
                   2
                   2
                   2
                   2
                   2
                   2
                   2
                   2
                   2
                   2
                   2
                   2
                   2
                   2
                   2
                   2
                   2
                   2
                   2
                   2
                   2
                   2
                   2
                   2
                   2
                   2
                   2
                   2
                   2
                   2
                   2
                   2
                   2
                   2
                   2
                   2
                   2
                   2
                   2
                   2
                   2
                   2
                   2
                   2
                   2
                   2
                   2
                   2
                   2
                   2
                   2
                   2
                   2
                   2
                   2
                   2
                   2
                   2
                   2
                   2
                   2
                   2
                   2
                   2
                   2
                   2
                   2
                   2
                   2
                   2
                   2
                   2
                   2
                   2
                   2
                   2
                   2
                   2
                   2
                   2
                   2
                   2
                   2
                   2
                   2
                   2
                   2
                   2
                   2
                   2
                   2
                   2
                   2
                   2
                   2
                   2
                   2
                   2
                   2
                   2
                   2
                   2
                   2
                   2
                   2
                   2
                   2
                   2
                   2
                   2
                   2
                   2
                   2
                   2
                   2
                   2
                   2
                   2
                   2
                   2
                   2
                   2
                   2
                   2
                   2
                   2
                   2
                   2
                   2
                   2
                   2
                   2
                   2
                   2
                   2
                   2
                   2
                   2
                   2
                   2
                   2
                   2
                   2
                   2
                   2
                   2
                   2
                   2
                   2
                   2
                   2
                   2
                   2
                   2
                   2
                   2
                   2
                   2
                   2
                   2
                   2
                   2
                   2
                   2
                   2
                   2
                   2
                   2
                   2
                   2
                   2
                   2
                   2
                   2
                   2
                   2
                   2
                   2
                   2
                   2
                   2
                   2
                   2
                   2
                   2
                   2
                   2
                   2
                   2
                   2
                   2
                   2
                   2
                   2
                   2
                   2
                   2
                   2
                   2
                   2
                   2
                   2
                   2
                   2
                   2
                   2
                   2
                   2
                   2
                   2
                   2
                   2
                   2
                   2
                   2
                   2
                   2
                   2
                   2
                   2
                   2
                   2
                   2
                   2
                   2
                   2
                   2
                   2
                   2
                   2
                   2
                   2
                   2
                   2
                   2
                   2
                   2
                   2
                   2
                   2
                   2
                   2
                   2
                   2
                   2
                   2
                   2
                   2
                   2
                   2
                   2
                   2
                   2
                   2
                   2
                   2
                   2
                   2
                   2
                   2
                   2
                   2
                   2
                   2
                   2
                   2
                   2
                   2
                   2
                   2
                   2
                   2
                   2
                   2
                   2
                   2
                   2
                   2
                   2
                   2
                   2
                   2
                   2
                   2
                   2
                   2
                   2
                   2
                   2
                   2
                   2
                   2
                   2
                   2
                   2
                   2
                   2
                   2
                   2
                   2
                   2
                   2
                   2
                   2
                   2
                   2
                   2
                   2
                   2
                   2
                   2
                   2
                   2
                   2
                   2
                   2
                   2
                   2
                   2
                   2
                   2
                   2
                   2
                   2
                   2
                   2
                   2
                   2
                   2
                   2
                   2
                   2
                   2
                   2
                   2
                   2
                   2
                   2
                   2
                   2
                   2
                   2
                   2
                   2
                   2
                   2
                   2
                   2
                   2
                   2
                   2
                   2
                   2
                   2
                   2
                   2
                   2
                   2
                   2
                   2
                   2
                   2
                   2
                   2
                   2
                   2
                   2
                   2
                   2
                   2
                   2
                   2
                   2
                   2
                   2
                   2
                   2
                   2
                   2
                   2
                   2
                   2
                   2
                   2
                   2
                   2
                   2
                   2
                   2
                   2
                   2
                   2
                   2
                   2
                   2
                   2
                   2
                   2
                   2
                   2
                   2
                   2
                   2
                   2
                   2
                   2
                   2
                   2
                   2
                   2
                   2
                   2
                   2
                   2
                   2
                   2
                   2
                   2
                   2
                   2
                   2
                   2
                   2
                   2
                   2
                   2
                   2
                   2
                   2
                   2
                   2
                   2
                   2
                   2
                   2
                   2
                   2
                   2
                   2
                   2
                   2
                   2
                   2
                   2
                   2
                   2
                   2
                   2
                   2
                   2
                   2
                   2
                   2
                   2
                   2
                   2
                   2
                   2
                   2
                   2
                   2
                   2
                   2
                   2
                   2
                   2
                   2
                   2
                   2
                   2
                   2
                   2
                   2
                   2
                   2
                   2
                   2
                   2
                   2
                   2
                   2
                   2
                   2
                   2
                   2
                   2
                   2
                   2
                   2
                   2
                   2
                   2
                   2
                   2
                   2
                   2
                   2
                   2
                   2
                   2
                   2
                   2
                   2
                   2
                   2
                   2
                   2
                   2
                   2
                   2
                   2
                   2
                   2
                   2
                   2
                   2
                   2
                   2
                   2
                   2
                   2
                   2
                   2
                   2
                   2
                   2
                   2
                   2
                   2
                   2
                   2
                   2
                   2
                   2
                   2
                   2
                   2
                   2
                   2
                   2
                   2
                   2
                   2
                   2
                   2
                   2
                   2
                   2
                   2
                   2
                   2
                   2
                   2
                   2
                   2
                   2
                   2
                   2
                   2
                   2
                   2
                   2
                   2
                   2
                   2
                   2
                   2
                   2
                   2
                   2
                   2
                   2
                   2
                   2
                   2
                   2
                   2
                   2
                   2
                   2
                   2
                   2
                   2
                   2
                   2
                   2
                   2
                   2
                   2
                   2
                   2
                   2
                   2
                   2
                   2
                   2
                   2
                   2
                   2
                   2
                   2
                   2
                   2
                   2
                   2
                   2
                   2
                   2
                   2
                   2
                   2
                   2
                   2
                   2
                   2
                   2
                   2
                   2
                   2
                   2
                   2
                   2
                   2
                   2
                   2
                   2
                   2
                   2
                   2
                   2
                   2
                   2
                   2
                   2
                   2
                   2
                   2
                   2
                   2
                   2
                   2
                   2
                   2
                   2
                   2
                   2
                   2
                   2
                   2
                   2
                   2
                   2
                   2
                   2
                   2
                   2
                   2
                   2
                   2
                   2
                   2
                   2
                   2
                   2
                   2
                   2
                   2
                   2
                   2
                   2
                   2
                   2
                   2
                   2
                   2
                   2
                   2
                   2
                   2
                   2
                   2
                   2
                   2
                   2
                   2
                   2
                   2
                   2
                   2
                   2
                   2
                   2
                   2
                   2
                   2
                   2
                   2
                   2
                   2
                   2
                   2
                   2
                   2
                   2
                   2
                   2
                   2
                   2
                   2
                   2
                   2
                   2
                   2
                   2
                   2
                   2
                   2
                   2
                   2
                   2
                   2
                   2
                   2
                   2
                   2
                   2
                   2
                   2
                   2
                   2
                   2
                   2
                   2
                   2
                   2
                   2
                   2
                   2
                   2
                   2
                   2
                   2
                   2
                   2
                   2
                   2
                   2
                   2
                   2
                   2
                   2
                   2
                   2
                   2
                   2
                   2
                   2
                   2
                   2
                   2
                   2
                   2
                   2
                   2
                   2
                   2
                   2
                   2
                   2
                   2
                   2
                   2
                   2
                   2
                   2
                   2
                   2
                   2
                   2
                   2
                   2
                   2
                   2
                   2
                   2
                   2
                   2
                   2
                   2
                   2
                   2
                   2
                   2
                   2
                   2
                   2
                   2
                   2
                   2
                   2
                   2
                   2
                   2
                   2
                   2
                   2
                   2
                   2
                   2
                   2
                   2
                   2
                   2
                   2
                   2
                   2
                   2
                   2
                   2
                   2
                   2
                   2
                   2
                   2
                   2
                   2
                   2
                   2
                   2
                   2
                   2
                   2
                   2
                   2
                   2
                   2
                   2
                   2
                   2
                   2
                   2
                   2
                   2
                   2
                   2
                   2
                   2
                   2
                   2
                   2
                   2
                   2
                   2
                   2
                   2
                   2
                   2
                   2
                   2
                   2
                   2
                   2
                   2
                   2
                   2
                   2
                   2
                   2
                   2
                   2
                   2
                   2
                   2
                   2
                   2
                   2
                   2
                   2
                   2
                   2
                   2
                   2
                   2
                   2
                   2
                   2
                   2
                   2
                   2
                   2
                   2
                   2
                   2
                   2
                   2
                   2
                   2
                   2
                   2
                   2
                   2
                   2
                   2
                   2
                   2
                   2
                   2
                   2
                   2
                   2
                   2
                   2
                   2
                   2
                   2
                   2
                   2
                   2
                   2
                   2
                   2
                   2
                   2
                   2
                   2
                   2
                   2
                   2
                   2
                   2
                   2
                   2
                   2
                   2
                   2
                   2
                   2
                   2
                   2
                   2
                   2
                   2
                   2
                   2
                   2
                   2
                   2
                   2
                   2
                   2
                   2
                   2
                   2
                   2
                   2
                   2
                   2
                   2
                   2
                   2
                   2
                   2
                   2
                   2
                   2
                   2
                   2
                   2
                   2
                   2
                   2
                   2
                   2
                   2
                   2
                   2
                   2
                   2
                   2
                   2
                   2
                   2
                   2
                   2
                   2
                   2
                   2
                   2
                   2
                   2
                   2
                   2
                   2
                   2
                   2
                   2
                   2
                   2
                   2
                   2
                   2
                   2
                   2
                   2
                   2
                   2
                   2
                   2
                   2
                   2
                   2
                   2
                   2
                   2
                   2
                   2
                   2
                   2
                   2
                   2
                   2
                   2
                   2
                   2
                   2
                   2
                   2
                   2
                   2
                   2
                   2
                   2
                   2
                   2
                   2
                   2
                   2
                   2
                   2
                   2
                   2
                   2
                   2
                   2
                   2
                   2
                   2
                   2
                   2
                   2
                   2
                   2
                   2
                   2
                   2
                   2
                   2
                   2
                   2
                   2
                   2
                   2
                   2
                   2
                   2
                   2
                   2
                   2
                   2
                   2
                   2
                   2
                   2
                   2
                   2
                   2
                   2
                   2
                   2
                   2
                   2
                   2
                   2
                   2
                   2
                   2
                   2
                   2
                   2
                   2
                   2
                   2
                   2
                   2
                   2
                   2
                   2
                   2
                   2
                   2
                   2
                   2
                   2
                   2
                   2
                   2
                   2
                   2
                   2
                   2
                   2
                   2
                   2
                   2
                   2
                   2
                   2
                   2
                   2
                   2
                   2
                   2
                   2
                   2
                   2
                   2
                   2
                   2
                   2
                   2
                   2
                   2
                   2
                   2
                   2
                   2
                   2
                   2
                   2
                   2
                   2
                   2
                   2
                   2
                   2
                   2
                   2
                   2
                   2
                   2
                   2
                   2
                   2
                   2
                   2
                   2
                   2
                   2
                   2
                   2
                   2
                   2
                   2
                   2
                   2
                   2
                   2
                   2
                   2
                   2
                   2
                   2
                   2
                   2
                   2
                   2
                   2
                   2
                   2
                   2
                   2
                   2
                   2
                   2
                   2
                   2
                   2
                   2
                   2
                   2
                   2
                   2
                   2
                   2
                   2
                   2
                   2
                   2
                   2
                   2
                   2
                   2
                   2
                   2
                   2
                   2
                   2
                   2
                   2
                   2
                   2
                   2
                   2
                   2
                   2
                   2
                   2
                   2
                   2
                   2
                   2
                   2
                   2
                   2
                   2
                   2
                   2
                   2
                   2
                   2
                   2
                   2
                   2
                   2
                   2
                   2
                   2
                   2
                   2
                   2
                   2
                   2
                   2
                   2
                   2
                   2
                   2
                   2
                   2
                   2
                   2
                   2
                   2
                   2
                   2
                   2
                   2
                   2
                   2
                   2
                   2
                   2
                   2
                   2
                   2
                   2
                   2
                   2
                   2
                   2
                   2
                   2
                   2
                   2
                   2
                   2
                   2
                   2
                   2
                   2
                   2
                   2
                   2
                   2
                   2
                   2
                   2
                   2
                   2
                   2
                   2
                   2
                   2
                   2
                   2
                   2
                   2
                   2
                   2
                   2
                   2
                   2
                   2
                   2
                   2
                   2
                   2
                   2
                   2
                   2
                   2
                   2
                   2
                   2
                   2
                   2
                   2
                   2
                   2
                   2
                   2
                   2
                   2
                   2
                   2
                   2
                   2
                   2
                   2
                   2
                   2
                   2
                   2
                   2
                   2
                   2
                   2
                   2
                   2
                   2
                   2
                   2
                   2
                   2
                   2
                   2
                   2
                   2
                   2
                   2
                   2
                   2
                   2
                   2
                   2
                   2
                   2
                   2
                   2
                   2
                   2
                   2
                   2
                   2
                   2
                   2
                   2
                   2
                   2
                   2
                   2
                   2
                   2
                   2
                   2
                   2
                   2
                   2
                   2
                   2
                   2
                   2
                   2
                   2
                   2
                   2
                   2
                   2
                   2
                   2
                   2
                   2
                   2
                   2
                   2
                   2
                   2
                   2
                   2
                   2
                   2
                   2
                   2
                   2
                   2
                   2
                   2
                   2
                   2
                   2
                   2
                   2
                   2
                   2
                   2
                   2
                   2
                   2
                   2
                   2
                   2
                   2
                   2
                   2
                   2
                   2
                   2
                   2
                   2
                   2
                   2
                   2
                   2
                   2
                   2
                   2
                   2
                   2
                   2
                   2
                   2
                   2
                   2
                   2
                   2
                   2
                   2
                   2
                   2
                   2
                   2
                   2
                   2
                   2
                   2
                   2
                   2
                   2
                   2
                   2
                   2
                   2
                   2
                   2
                   2
                   2
                   2
                   2
                   2
                   2
                   2
                   2
                   2
                   2
                   2
                   2
                   2
                   2
                   2
                   2
                   2
                   2
                   2
                   2
                   2
                   2
                   2
                   2
                   2
                   2
                   2
                   2
                   2
                   2
                   2
                   2
                   2
                   2
                   2
                   2
                   2
                   2
                   2
                   2
                   2
                   2
                   2
                   2
                   2
                   2
                   2
                   2
                   2
                   2
                   2
                   2
                   2
                   2
                   2
                   2
                   2
                   2
                   2
                   2
                   2
                   2
                   2
                   2
                   2
                   2
                   2
                   2
                   2
                   2
                   2
                   2
                   2
                   2
                   2
                   2
                   2
  
SCALARS                       fixity_x  double 1
LOOKUP_TABLE default
                   0
                   0
                   0
                   0
                   0
                   0
                   0
                   0
                   0
                   0
                   0
                   0
                   0
                   0
                   0
                   0
                   0
                   0
                   0
                   0
                   0
                   0
                   0
                   0
                   0
                   0
                   0
                   0
                   0
                   0
                   0
                   0
                   0
                   0
                   0
                   0
                   0
                   0
                   0
                   0
                   0
                   0
                   0
                   0
                   0
                   0
                   0
                   0
                   0
                   0
                   0
                   0
                   0
                   0
                   0
                   0
                   0
                   0
                   0
                   0
                   0
                   0
                   0
                   0
                   0
                   0
                   0
                   0
                   0
                   0
                   0
                   0
                   0
                   0
                   0
                   0
                   0
                   0
                   0
                   0
                   0
                   0
                   0
                   0
                   0
                   0
                   0
                   0
                   0
                   0
                   0
                   0
                   0
                   0
                   0
                   0
                   0
                   0
                   0
                   0
                   0
                   0
                   0
                   0
                   0
                   0
                   0
                   0
                   0
                   0
                   0
                   0
                   0
                   0
                   0
                   0
                   0
                   0
                   0
                   0
                   0
                   0
                   0
                   0
                   0
                   0
                   0
                   0
                   0
                   0
                   0
                   0
                   0
                   0
                   0
                   0
                   0
                   0
                   0
                   0
                   0
                   0
                   0
                   0
                   0
                   0
                   0
                   0
                   0
                   0
                   0
                   0
                   0
                   0
                   0
                   0
                   0
                   0
                   0
                   0
                   0
                   0
                   0
                   0
                   0
                   0
                   0
                   0
                   0
                   0
                   0
                   0
                   0
                   0
                   0
                   0
                   0
                   0
                   0
                   0
                   0
                   0
                   0
                   0
                   0
                   0
                   0
                   0
                   0
                   0
                   0
                   0
                   0
                   0
                   0
                   0
                   0
                   0
                   0
                   0
                   0
                   0
                   0
                   0
                   0
                   0
                   0
                   0
                   0
                   0
                   0
                   0
                   0
                   0
                   0
                   0
                   0
                   0
                   0
                   0
                   0
                   0
                   0
                   0
                   0
                   0
                   0
                   0
                   0
                   0
                   0
                   0
                   0
                   0
                   0
                   0
                   0
                   0
                   0
                   0
                   0
                   0
                   0
                   0
                   0
                   0
                   0
                   0
                   0
                   0
                   0
                   0
                   0
                   0
                   0
                   0
                   0
                   0
                   0
                   0
                   0
                   0
                   0
                   0
                   0
                   0
                   0
                   0
                   0
                   0
                   0
                   0
                   0
                   0
                   0
                   0
                   0
                   0
                   0
                   0
                   0
                   0
                   0
                   0
                   0
                   0
                   0
                   0
                   0
                   0
                   0
                   0
                   0
                   0
                   0
                   0
                   0
                   0
                   0
                   0
                   0
                   0
                   0
                   0
                   0
                   0
                   0
                   0
                   0
                   0
                   0
                   0
                   0
                   0
                   0
                   0
                   0
                   0
                   0
                   0
                   0
                   0
                   0
                   0
                   0
                   0
                   0
                   0
                   0
                   0
                   0
                   0
                   0
                   0
                   0
                   0
                   0
                   0
                   0
                   0
                   0
                   0
                   0
                   0
                   0
                   0
                   0
                   0
                   0
                   0
                   0
                   0
                   0
                   0
                   0
                   0
                   0
                   0
                   0
                   0
                   0
                   0
                   0
                   0
                   0
                   0
                   0
                   0
                   0
                   0
                   0
                   0
                   0
                   0
                   0
                   0
                   0
                   0
                   0
                   0
                   0
                   0
                   0
                   0
                   0
                   0
                   0
                   0
                   0
                   0
                   0
                   0
                   0
                   0
                   0
                   0
                   0
                   0
                   0
                   0
                   0
                   0
                   0
                   0
                   0
                   0
                   0
                   0
                   0
                   0
                   0
                   0
                   0
                   0
                   0
                   0
                   0
                   0
                   0
                   0
                   0
                   0
                   0
                   0
                   0
                   0
                   0
                   0
                   0
                   0
                   0
                   0
                   0
                   0
                   0
                   0
                   0
                   0
                   0
                   0
                   0
                   0
                   0
                   0
                   0
                   0
                   0
                   0
                   0
                   0
                   0
                   0
                   0
                   0
                   0
                   0
                   0
                   0
                   0
                   0
                   0
                   0
                   0
                   0
                   0
                   0
                   0
                   0
                   0
                   0
                   0
                   0
                   0
                   0
                   0
                   0
                   0
                   0
                   0
                   0
                   0
                   0
                   0
                   0
                   0
                   0
                   0
                   0
                   0
                   0
                   0
                   0
                   0
                   0
                   0
                   0
                   0
                   0
                   0
                   0
                   0
                   0
                   0
                   0
                   0
                   0
                   0
                   0
                   0
                   0
                   0
                   0
                   0
                   0
                   0
                   0
                   0
                   0
                   0
                   0
                   0
                   0
                   0
                   0
                   0
                   0
                   0
                   0
                   0
                   0
                   0
                   0
                   0
                   0
                   0
                   0
                   0
                   0
                   0
                   0
                   0
                   0
                   0
                   0
                   0
                   0
                   0
                   0
                   0
                   0
                   0
                   0
                   0
                   0
                   0
                   0
                   0
                   0
                   0
                   0
                   0
                   0
                   0
                   0
                   0
                   0
                   0
                   0
                   0
                   0
                   0
                   0
                   0
                   0
                   0
                   0
                   0
                   0
                   0
                   0
                   0
                   0
                   0
                   0
                   0
                   0
                   0
                   0
                   0
                   0
                   0
                   0
                   0
                   0
                   0
                   0
                   0
                   0
                   0
                   0
                   0
                   0
                   0
                   0
                   0
                   0
                   0
                   0
                   0
                   0
                   0
                   0
                   0
                   0
                   0
                   0
                   0
                   0
                   0
                   0
                   0
                   0
                   0
                   0
                   0
                   0
                   0
                   0
                   0
                   0
                   0
                   0
                   0
                   0
                   0
                   0
                   0
                   0
                   0
                   0
                   0
                   0
                   0
                   0
                   0
                   0
                   0
                   0
                   0
                   0
                   0
                   0
                   0
                   0
                   0
                   0
                   0
                   0
                   0
                   0
                   0
                   0
                   0
                   0
                   0
                   0
                   0
                   0
                   0
                   0
                   0
                   0
                   0
                   0
                   0
                   0
                   0
                   0
                   0
                   0
                   0
                   0
                   0
                   0
                   0
                   0
                   0
                   0
                   0
                   0
                   0
                   0
                   0
                   0
                   0
                   0
                   0
                   0
                   0
                   0
                   0
                   0
                   0
                   0
                   0
                   0
                   0
                   0
                   0
                   0
                   0
                   0
                   0
                   0
                   0
                   0
                   0
                   0
                   0
                   0
                   0
                   0
                   0
                   0
                   0
                   0
                   0
                   0
                   0
                   0
                   0
                   0
                   0
                   0
                   0
                   0
                   0
                   0
                   0
                   0
                   0
                   0
                   0
                   0
                   0
                   0
                   0
                   0
                   0
                   0
                   0
                   0
                   0
                   0
                   0
                   0
                   0
                   0
                   0
                   0
                   0
                   0
                   0
                   0
                   0
                   0
                   0
                   0
                   0
                   0
                   0
                   0
                   0
                   0
                   0
                   0
                   0
                   0
                   0
                   0
                   0
                   0
                   0
                   0
                   0
                   0
                   0
                   0
                   0
                   0
                   0
                   0
                   0
                   0
                   0
                   0
                   0
                   0
                   0
                   0
                   0
                   0
                   0
                   0
                   0
                   0
                   0
                   0
                   0
                   0
                   0
                   0
                   0
                   0
                   0
                   0
                   0
                   0
                   0
                   0
                   0
                   0
                   0
                   0
                   0
                   0
                   0
                   0
                   0
                   0
                   0
                   0
                   0
                   0
                   0
                   0
                   0
                   0
                   0
                   0
                   0
                   0
                   0
                   0
                   0
                   0
                   0
                   0
                   0
                   0
                   0
                   0
                   0
                   0
                   0
                   0
                   0
                   0
                   0
                   0
                   0
                   0
                   0
                   0
                   0
                   0
                   0
                   0
                   0
                   0
                   0
                   0
                   0
                   0
                   0
                   0
                   0
                   0
                   0
                   0
                   0
                   0
                   0
                   0
                   0
                   0
                   0
                   0
                   0
                   0
                   0
                   0
                   0
                   0
                   0
                   0
                   0
                   0
                   0
                   0
                   0
                   0
                   0
                   0
                   0
                   0
                   0
                   0
                   0
                   0
                   0
                   0
                   0
                   0
                   0
                   0
                   0
                   0
                   0
                   0
                   0
                   0
                   0
                   0
                   0
                   0
                   0
                   0
                   0
                   0
                   0
                   0
                   0
                   0
                   0
                   0
                   0
                   0
                   0
                   0
                   0
                   0
                   0
                   0
                   0
                   0
                   0
                   0
                   0
                   0
                   0
                   0
                   0
                   0
                   0
                   0
                   0
                   0
                   0
                   0
                   0
                   0
                   0
                   0
                   0
                   0
                   0
                   0
                   0
                   0
                   0
                   0
                   0
                   0
                   0
                   0
                   0
                   0
                   0
                   0
                   0
                   0
                   0
                   0
                   0
                   0
                   0
                   0
                   0
                   0
                   0
                   0
                   0
                   0
                   0
                   0
                   0
                   0
                   0
                   0
                   0
                   0
                   0
                   0
                   0
                   0
                   0
                   0
                   0
                   0
                   0
                   0
                   0
                   0
                   0
                   0
                   0
                   0
                   0
                   0
                   0
                   0
                   0
                   0
                   0
                   0
                   0
                   0
                   0
                   0
                   0
                   0
                   0
                   0
                   0
                   0
                   0
                   0
                   0
                   0
                   0
                   0
                   0
                   0
                   0
                   0
                   0
                   0
                   0
                   0
                   0
                   0
                   0
                   0
                   0
                   0
                   0
                   0
                   0
                   0
                   0
                   0
                   0
                   0
                   0
                   0
                   0
                   0
                   0
                   0
                   0
                   0
                   0
                   0
                   0
                   0
                   0
                   0
                   0
                   0
                   0
                   0
                   0
                   0
                   0
                   0
                   0
                   0
                   0
                   0
                   0
                   0
                   0
                   0
                   0
                   0
                   0
                   0
                   0
                   0
                   0
                   0
                   0
                   0
                   0
                   0
                   0
                   0
                   0
                   0
                   0
                   0
                   0
                   0
                   0
                   0
                   0
                   0
                   0
                   0
                   0
                   0
                   0
                   0
                   0
                   0
                   0
                   0
                   0
                   0
                   0
                   0
                   0
                   0
                   0
                   0
                   0
                   0
                   0
                   0
                   0
                   0
                   0
                   0
                   0
                   0
                   0
                   0
                   0
                   0
                   0
                   0
                   0
                   0
                   0
                   0
                   0
                   0
                   0
                   0
                   0
                   0
                   0
                   0
                   0
                   0
                   0
                   0
                   0
                   0
                   0
                   0
                   0
                   0
                   0
                   0
                   0
                   0
                   0
                   0
                   0
                   0
                   0
                   0
                   0
                   0
                   0
                   0
                   0
                   0
                   0
                   0
                   0
                   0
                   0
                   0
                   0
                   0
                   0
                   0
                   0
                   0
                   0
                   0
                   0
                   0
                   0
                   0
                   0
                   0
                   0
                   0
                   0
                   0
                   0
                   0
                   0
                   0
                   0
                   0
                   0
                   0
                   0
                   0
                   0
                   0
                   0
                   0
                   0
                   0
                   0
                   0
                   0
                   0
                   0
                   0
                   0
                   0
                   0
                   0
                   0
                   0
                   0
                   0
                   0
                   0
                   0
                   0
                   0
                   0
                   0
                   0
                   0
                   0
                   0
                   0
                   0
                   0
                   0
                   0
                   0
                   0
                   0
                   0
                   0
                   0
                   0
                   0
                   0
                   0
                   0
                   0
                   0
                   0
                   0
                   0
                   0
                   0
                   0
                   0
                   0
                   0
                   0
                   0
                   0
                   0
                   0
                   0
                   0
                   0
                   0
                   0
                   0
                   0
                   0
                   0
                   0
                   0
                   0
                   0
                   0
                   0
                   0
                   0
                   0
                   0
                   0
                   0
                   0
                   0
                   0
                   0
                   0
                   0
                   0
                   0
                   0
                   0
                   0
                   0
                   0
                   0
                   0
                   0
                   0
                   0
                   0
                   0
                   0
                   0
                   0
                   0
                   0
                   0
                   0
                   0
                   0
                   0
                   0
                   0
                   0
                   0
                   0
                   0
                   0
                   0
                   0
                   0
                   0
                   0
                   0
                   0
                   0
                   0
                   0
                   0
                   0
                   0
                   0
                   0
                   0
                   0
                   0
                   0
                   0
                   0
                   0
                   0
                   0
                   0
                   0
                   0
                   0
                   0
                   0
                   0
                   0
                   0
                   0
                   0
                   0
                   0
                   0
                   0
                   0
                   0
                   0
                   0
                   0
                   0
                   0
                   0
                   0
                   0
                   0
                   0
                   0
                   0
                   0
                   0
                   0
                   0
                   0
                   0
                   0
                   0
                   0
                   0
                   0
                   0
                   0
                   0
                   0
                   0
                   0
                   0
                   0
                   0
                   0
                   0
                   0
                   0
                   0
                   0
                   0
                   0
                   0
                   0
                   0
                   0
                   0
                   0
                   0
                   0
                   0
                   0
                   0
                   0
                   0
                   0
                   0
                   0
                   0
                   0
                   0
                   0
                   0
                   0
                   0
                   0
                   0
                   0
                   0
                   0
                   0
                   0
                   0
                   0
                   0
                   0
                   0
                   0
                   0
                   0
                   0
                   0
                   0
                   0
                   0
                   0
                   0
                   0
                   0
                   0
                   0
                   0
                   0
                   0
                   0
                   0
                   0
                   0
                   0
                   0
                   0
                   0
                   0
                   0
                   0
                   0
                   0
                   0
                   0
                   0
                   0
                   0
                   0
                   0
                   0
                   0
                   0
                   0
                   0
                   0
                   0
                   0
                   0
                   0
                   0
                   0
                   0
                   0
                   0
                   0
                   0
                   0
                   0
                   0
                   0
                   0
                   0
                   0
                   0
                   0
                   0
                   0
                   0
                   0
                   0
                   0
                   0
                   0
                   0
                   0
                   0
                   0
                   0
                   0
                   0
                   0
                   0
                   0
                   0
                   0
                   0
                   0
                   0
                   0
                   0
                   0
                   0
                   0
                   0
                   0
                   0
                   0
                   0
                   0
                   0
                   0
                   0
                   0
                   0
                   0
                   0
                   0
                   0
                   0
                   0
                   0
                   0
                   0
                   0
                   0
                   0
                   0
                   0
                   0
                   0
                   0
                   0
                   0
                   0
                   0
                   0
                   0
                   0
                   0
                   0
                   0
                   0
                   0
                   0
                   0
                   0
                   0
                   0
                   0
                   0
                   0
                   0
                   0
                   0
                   0
                   0
                   0
                   0
                   0
                   0
                   0
                   0
                   0
                   0
                   0
                   0
                   0
                   0
                   0
                   0
                   0
                   0
                   0
                   0
                   0
                   0
                   0
                   0
                   0
                   0
                   0
                   0
                   0
                   0
                   0
                   0
                   0
                   0
                   0
                   0
                   0
                   0
                   0
                   0
                   0
                   0
                   0
                   0
                   0
                   0
                   0
                   0
                   0
                   0
                   0
                   0
                   0
                   0
                   0
                   0
                   0
                   0
                   0
                   0
                   0
                   0
                   0
                   0
                   0
                   0
                   0
                   0
                   0
                   0
                   0
                   0
                   0
                   0
                   0
                   0
                   0
                   0
                   0
                   0
                   0
                   0
                   0
                   0
                   0
                   0
                   0
                   0
                   0
                   0
                   0
                   0
                   0
                   0
                   0
                   0
                   0
                   0
                   0
                   0
                   0
                   0
                   0
                   0
                   0
                   0
                   0
                   0
                   0
                   0
                   0
                   0
                   0
                   0
                   0
                   0
                   0
                   0
                   0
                   0
                   0
                   0
                   0
                   0
                   0
                   0
                   0
                   0
                   0
                   0
                   0
                   0
                   0
                   0
                   0
                   0
                   0
                   0
                   0
                   0
                   0
                   0
                   0
                   0
                   0
                   0
                   0
                   0
                   0
                   0
                   0
                   0
                   0
                   0
                   0
                   0
                   0
                   0
                   0
                   0
                   0
                   0
                   0
                   0
                   0
                   0
                   0
                   0
                   0
                   0
                   0
                   0
                   0
                   0
                   0
                   0
                   0
                   0
                   0
                   0
                   0
                   0
                   0
                   0
                   0
                   0
                   0
                   0
                   0
                   0
                   0
                   0
                   0
                   0
                   0
                   0
                   0
                   0
                   0
                   0
                   0
                   0
                   0
                   0
                   0
                   0
                   0
                   0
                   0
                   0
                   0
                   0
                   0
                   0
                   0
                   0
                   0
                   0
                   0
                   0
                   0
                   0
                   0
                   0
                   0
                   0
                   0
                   0
                   0
                   0
                   0
                   0
                   0
                   0
                   0
                   0
                   0
                   0
                   0
                   0
                   0
                   0
                   0
                   0
                   0
                   0
                   0
                   0
                   0
                   0
                   0
                   0
                   0
                   0
                   0
                   0
                   0
                   0
                   0
                   0
                   0
                   0
                   0
                   0
                   0
                   0
                   0
                   0
                   0
                   0
                   0
                   0
                   0
                   0
                   0
                   0
                   0
                   0
                   0
                   0
                   0
                   0
                   0
                   0
                   0
                   0
                   0
                   0
                   0
                   0
                   0
                   0
                   0
                   0
                   0
                   0
                   0
                   0
                   0
                   0
                   0
                   0
                   0
                   0
                   0
                   0
                   0
                   0
                   0
                   0
                   0
                   0
                   0
                   0
                   0
                   0
                   0
                   0
                   0
                   0
                   0
                   0
                   0
                   0
                   0
                   0
                   0
                   0
                   0
                   0
                   0
                   0
                   0
                   0
                   0
                   0
                   0
                   0
                   0
                   0
                   0
                   0
                   0
                   0
                   0
                   0
                   0
  
SCALARS                       fixity_y  double 1
LOOKUP_TABLE default
                   0
                   0
                   0
                   0
                   0
                   0
                   0
                   0
                   0
                   0
                   0
                   0
                   0
                   0
                   0
                   0
                   0
                   0
                   0
                   0
                   0
                   0
                   0
                   0
                   0
                   0
                   0
                   0
                   0
                   0
                   0
                   0
                   0
                   0
                   0
                   0
                   0
                   0
                   0
                   0
                   0
                   0
                   0
                   0
                   0
                   0
                   0
                   0
                   0
                   0
                   0
                   0
                   0
                   0
                   0
                   0
                   0
                   0
                   0
                   0
                   0
                   0
                   0
                   0
                   0
                   0
                   0
                   0
                   0
                   0
                   0
                   0
                   0
                   0
                   0
                   0
                   0
                   0
                   0
                   0
                   0
                   0
                   0
                   0
                   0
                   0
                   0
                   0
                   0
                   0
                   0
                   0
                   0
                   0
                   0
                   0
                   0
                   0
                   0
                   0
                   0
                   0
                   0
                   0
                   0
                   0
                   0
                   0
                   0
                   0
                   0
                   0
                   0
                   0
                   0
                   0
                   0
                   0
                   0
                   0
                   0
                   0
                   0
                   0
                   0
                   0
                   0
                   0
                   0
                   0
                   0
                   0
                   0
                   0
                   0
                   0
                   0
                   0
                   0
                   0
                   0
                   0
                   0
                   0
                   0
                   0
                   0
                   0
                   0
                   0
                   0
                   0
                   0
                   0
                   0
                   0
                   0
                   0
                   0
                   0
                   0
                   0
                   0
                   0
                   0
                   0
                   0
                   0
                   0
                   0
                   0
                   0
                   0
                   0
                   0
                   0
                   0
                   0
                   0
                   0
                   0
                   0
                   0
                   0
                   0
                   0
                   0
                   0
                   0
                   0
                   0
                   0
                   0
                   0
                   0
                   0
                   0
                   0
                   0
                   0
                   0
                   0
                   0
                   0
                   0
                   0
                   0
                   0
                   0
                   0
                   0
                   0
                   0
                   0
                   0
                   0
                   0
                   0
                   0
                   0
                   0
                   0
                   0
                   0
                   0
                   0
                   0
                   0
                   0
                   0
                   0
                   0
                   0
                   0
                   0
                   0
                   0
                   0
                   0
                   0
                   0
                   0
                   0
                   0
                   0
                   0
                   0
                   0
                   0
                   0
                   0
                   0
                   0
                   0
                   0
                   0
                   0
                   0
                   0
                   0
                   0
                   0
                   0
                   0
                   0
                   0
                   0
                   0
                   0
                   0
                   0
                   0
                   0
                   0
                   0
                   0
                   0
                   0
                   0
                   0
                   0
                   0
                   0
                   0
                   0
                   0
                   0
                   0
                   0
                   0
                   0
                   0
                   0
                   0
                   0
                   0
                   0
                   0
                   0
                   0
                   0
                   0
                   0
                   0
                   0
                   0
                   0
                   0
                   0
                   0
                   0
                   0
                   0
                   0
                   0
                   0
                   0
                   0
                   0
                   0
                   0
                   0
                   0
                   0
                   0
                   0
                   0
                   0
                   0
                   0
                   0
                   0
                   0
                   0
                   0
                   0
                   0
                   0
                   0
                   0
                   0
                   0
                   0
                   0
                   0
                   0
                   0
                   0
                   0
                   0
                   0
                   0
                   0
                   0
                   0
                   0
                   0
                   0
                   0
                   0
                   0
                   0
                   0
                   0
                   0
                   0
                   0
                   0
                   0
                   0
                   0
                   0
                   0
                   0
                   0
                   0
                   0
                   0
                   0
                   0
                   0
                   0
                   0
                   0
                   0
                   0
                   0
                   0
                   0
                   0
                   0
                   0
                   0
                   0
                   0
                   0
                   0
                   0
                   0
                   0
                   0
                   0
                   0
                   0
                   0
                   0
                   0
                   0
                   0
                   0
                   0
                   0
                   0
                   0
                   0
                   0
                   0
                   0
                   0
                   0
                   0
                   0
                   0
                   0
                   0
                   0
                   0
                   0
                   0
                   0
                   0
                   0
                   0
                   0
                   0
                   0
                   0
                   0
                   0
                   0
                   0
                   0
                   0
                   0
                   0
                   0
                   0
                   0
                   0
                   0
                   0
                   0
                   0
                   0
                   0
                   0
                   0
                   0
                   0
                   0
                   0
                   0
                   0
                   0
                   0
                   0
                   0
                   0
                   0
                   0
                   0
                   0
                   0
                   0
                   0
                   0
                   0
                   0
                   0
                   0
                   0
                   0
                   0
                   0
                   0
                   0
                   0
                   0
                   0
                   0
                   0
                   0
                   0
                   0
                   0
                   0
                   0
                   0
                   0
                   0
                   0
                   0
                   0
                   0
                   0
                   0
                   0
                   0
                   0
                   0
                   0
                   0
                   0
                   0
                   0
                   0
                   0
                   0
                   0
                   0
                   0
                   0
                   0
                   0
                   0
                   0
                   0
                   0
                   0
                   0
                   0
                   0
                   0
                   0
                   0
                   0
                   0
                   0
                   0
                   0
                   0
                   0
                   0
                   0
                   0
                   0
                   0
                   0
                   0
                   0
                   0
                   0
                   0
                   0
                   0
                   0
                   0
                   0
                   0
                   0
                   0
                   0
                   0
                   0
                   0
                   0
                   0
                   0
                   0
                   0
                   0
                   0
                   0
                   0
                   0
                   0
                   0
                   0
                   0
                   0
                   0
                   0
                   0
                   0
                   0
                   0
                   0
                   0
                   0
                   0
                   0
                   0
                   0
                   0
                   0
                   0
                   0
                   0
                   0
                   0
                   0
                   0
                   0
                   0
                   0
                   0
                   0
                   0
                   0
                   0
                   0
                   0
                   0
                   0
                   0
                   0
                   0
                   0
                   0
                   0
                   0
                   0
                   0
                   0
                   0
                   0
                   0
                   0
                   0
                   0
                   0
                   0
                   0
                   0
                   0
                   0
                   0
                   0
                   0
                   0
                   0
                   0
                   0
                   0
                   0
                   0
                   0
                   0
                   0
                   0
                   0
                   0
                   0
                   0
                   0
                   0
                   0
                   0
                   0
                   0
                   0
                   0
                   0
                   0
                   0
                   0
                   0
                   0
                   0
                   0
                   0
                   0
                   0
                   0
                   0
                   0
                   0
                   0
                   0
                   0
                   0
                   0
                   0
                   0
                   0
                   0
                   0
                   0
                   0
                   0
                   0
                   0
                   0
                   0
                   0
                   0
                   0
                   0
                   0
                   0
                   0
                   0
                   0
                   0
                   0
                   0
                   0
                   0
                   0
                   0
                   0
                   0
                   0
                   0
                   0
                   0
                   0
                   0
                   0
                   0
                   0
                   0
                   0
                   0
                   0
                   0
                   0
                   0
                   0
                   0
                   0
                   0
                   0
                   0
                   0
                   0
                   0
                   0
                   0
                   0
                   0
                   0
                   0
                   0
                   0
                   0
                   0
                   0
                   0
                   0
                   0
                   0
                   0
                   0
                   0
                   0
                   0
                   0
                   0
                   0
                   0
                   0
                   0
                   0
                   0
                   0
                   0
                   0
                   0
                   0
                   0
                   0
                   0
                   0
                   0
                   0
                   0
                   0
                   0
                   0
                   0
                   0
                   0
                   0
                   0
                   0
                   0
                   0
                   0
                   0
                   0
                   0
                   0
                   0
                   0
                   0
                   0
                   0
                   0
                   0
                   0
                   0
                   0
                   0
                   0
                   0
                   0
                   0
                   0
                   0
                   0
                   0
                   0
                   0
                   0
                   0
                   0
                   0
                   0
                   0
                   0
                   0
                   0
                   0
                   0
                   0
                   0
                   0
                   0
                   0
                   0
                   0
                   0
                   0
                   0
                   0
                   0
                   0
                   0
                   0
                   0
                   0
                   0
                   0
                   0
                   0
                   0
                   0
                   0
                   0
                   0
                   0
                   0
                   0
                   0
                   0
                   0
                   0
                   0
                   0
                   0
                   0
                   0
                   0
                   0
                   0
                   0
                   0
                   0
                   0
                   0
                   0
                   0
                   0
                   0
                   0
                   0
                   0
                   0
                   0
                   0
                   0
                   0
                   0
                   0
                   0
                   0
                   0
                   0
                   0
                   0
                   0
                   0
                   0
                   0
                   0
                   0
                   0
                   0
                   0
                   0
                   0
                   0
                   0
                   0
                   0
                   0
                   0
                   0
                   0
                   0
                   0
                   0
                   0
                   0
                   0
                   0
                   0
                   0
                   0
                   0
                   0
                   0
                   0
                   0
                   0
                   0
                   0
                   0
                   0
                   0
                   0
                   0
                   0
                   0
                   0
                   0
                   0
                   0
                   0
                   0
                   0
                   0
                   0
                   0
                   0
                   0
                   0
                   0
                   0
                   0
                   0
                   0
                   0
                   0
                   0
                   0
                   0
                   0
                   0
                   0
                   0
                   0
                   0
                   0
                   0
                   0
                   0
                   0
                   0
                   0
                   0
                   0
                   0
                   0
                   0
                   0
                   0
                   0
                   0
                   0
                   0
                   0
                   0
                   0
                   0
                   0
                   0
                   0
                   0
                   0
                   0
                   0
                   0
                   0
                   0
                   0
                   0
                   0
                   0
                   0
                   0
                   0
                   0
                   0
                   0
                   0
                   0
                   0
                   0
                   0
                   0
                   0
                   0
                   0
                   0
                   0
                   0
                   0
                   0
                   0
                   0
                   0
                   0
                   0
                   0
                   0
                   0
                   0
                   0
                   0
                   0
                   0
                   0
                   0
                   0
                   0
                   0
                   0
                   0
                   0
                   0
                   0
                   0
                   0
                   0
                   0
                   0
                   0
                   0
                   0
                   0
                   0
                   0
                   0
                   0
                   0
                   0
                   0
                   0
                   0
                   0
                   0
                   0
                   0
                   0
                   0
                   0
                   0
                   0
                   0
                   0
                   0
                   0
                   0
                   0
                   0
                   0
                   0
                   0
                   0
                   0
                   0
                   0
                   0
                   0
                   0
                   0
                   0
                   0
                   0
                   0
                   0
                   0
                   0
                   0
                   0
                   0
                   0
                   0
                   0
                   0
                   0
                   0
                   0
                   0
                   0
                   0
                   0
                   0
                   0
                   0
                   0
                   0
                   0
                   0
                   0
                   0
                   0
                   0
                   0
                   0
                   0
                   0
                   0
                   0
                   0
                   0
                   0
                   0
                   0
                   0
                   0
                   0
                   0
                   0
                   0
                   0
                   0
                   0
                   0
                   0
                   0
                   0
                   0
                   0
                   0
                   0
                   0
                   0
                   0
                   0
                   0
                   0
                   0
                   0
                   0
                   0
                   0
                   0
                   0
                   0
                   0
                   0
                   0
                   0
                   0
                   0
                   0
                   0
                   0
                   0
                   0
                   0
                   0
                   0
                   0
                   0
                   0
                   0
                   0
                   0
                   0
                   0
                   0
                   0
                   0
                   0
                   0
                   0
                   0
                   0
                   0
                   0
                   0
                   0
                   0
                   0
                   0
                   0
                   0
                   0
                   0
                   0
                   0
                   0
                   0
                   0
                   0
                   0
                   0
                   0
                   0
                   0
                   0
                   0
                   0
                   0
                   0
                   0
                   0
                   0
                   0
                   0
                   0
                   0
                   0
                   0
                   0
                   0
                   0
                   0
                   0
                   0
                   0
                   0
                   0
                   0
                   0
                   0
                   0
                   0
                   0
                   0
                   0
                   0
                   0
                   0
                   0
                   0
                   0
                   0
                   0
                   0
                   0
                   0
                   0
                   0
                   0
                   0
                   0
                   0
                   0
                   0
                   0
                   0
                   0
                   0
                   0
                   0
                   0
                   0
                   0
                   0
                   0
                   0
                   0
                   0
                   0
                   0
                   0
                   0
                   0
                   0
                   0
                   0
                   0
                   0
                   0
                   0
                   0
                   0
                   0
                   0
                   0
                   0
                   0
                   0
                   0
                   0
                   0
                   0
                   0
                   0
                   0
                   0
                   0
                   0
                   0
                   0
                   0
                   0
                   0
                   0
                   0
                   0
                   0
                   0
                   0
                   0
                   0
                   0
                   0
                   0
                   0
                   0
                   0
                   0
                   0
                   0
                   0
                   0
                   0
                   0
                   0
                   0
                   0
                   0
                   0
                   0
                   0
                   0
                   0
                   0
                   0
                   0
                   0
                   0
                   0
                   0
                   0
                   0
                   0
                   0
                   0
                   0
                   0
                   0
                   0
                   0
                   0
                   0
                   0
                   0
                   0
                   0
                   0
                   0
                   0
                   0
                   0
                   0
                   0
                   0
                   0
                   0
                   0
                   0
                   0
                   0
                   0
                   0
                   0
                   0
                   0
                   0
                   0
                   0
                   0
                   0
                   0
                   0
                   0
                   0
                   0
                   0
                   0
                   0
                   0
                   0
                   0
                   0
                   0
                   0
                   0
                   0
                   0
                   0
                   0
                   0
                   0
                   0
                   0
                   0
                   0
                   0
                   0
                   0
                   0
                   0
                   0
                   0
                   0
                   0
                   0
                   0
                   0
                   0
                   0
                   0
                   0
                   0
                   0
                   0
                   0
                   0
                   0
                   0
                   0
                   0
                   0
                   0
                   0
                   0
                   0
                   0
                   0
                   0
                   0
                   0
                   0
                   0
                   0
                   0
                   0
                   0
                   0
                   0
                   0
                   0
                   0
                   0
                   0
                   0
                   0
                   0
                   0
                   0
                   0
                   0
                   0
                   0
                   0
                   0
                   0
                   0
                   0
                   0
                   0
                   0
                   0
                   0
                   0
                   0
                   0
                   0
                   0
                   0
                   0
                   0
                   0
                   0
                   0
                   0
                   0
                   0
                   0
                   0
                   0
                   0
                   0
                   0
                   0
                   0
                   0
                   0
                   0
                   0
                   0
                   0
                   0
                   0
                   0
                   0
                   0
                   0
                   0
                   0
                   0
                   0
                   0
                   0
                   0
                   0
                   0
                   0
                   0
                   0
                   0
                   0
                   0
                   0
                   0
                   0
                   0
                   0
                   0
                   0
                   0
                   0
                   0
                   0
                   0
                   0
                   0
                   0
                   0
                   0
                   0
                   0
                   0
                   0
                   0
                   0
                   0
                   0
                   0
                   0
                   0
                   0
                   0
                   0
                   0
                   0
                   0
                   0
                   0
                   0
                   0
                   0
                   0
                   0
                   0
                   0
                   0
                   0
                   0
                   0
                   0
                   0
                   0
                   0
                   0
                   0
                   0
                   0
                   0
                   0
                   0
                   0
                   0
                   0
                   0
                   0
                   0
                   0
                   0
                   0
                   0
                   0
                   0
                   0
                   0
                   0
                   0
                   0
                   0
                   0
                   0
                   0
                   0
                   0
                   0
                   0
                   0
                   0
                   0
                   0
                   0
                   0
                   0
                   0
                   0
                   0
                   0
                   0
                   0
                   0
                   0
                   0
                   0
                   0
                   0
                   0
                   0
                   0
                   0
                   0
                   0
                   0
                   0
                   0
                   0
                   0
                   0
                   0
                   0
                   0
                   0
                   0
                   0
                   0
                   0
                   0
                   0
                   0
                   0
                   0
                   0
                   0
                   0
                   0
                   0
                   0
                   0
                   0
                   0
                   0
                   0
                   0
                   0
                   0
                   0
                   0
                   0
                   0
                   0
                   0
                   0
                   0
                   0
                   0
                   0
                   0
                   0
                   0
                   0
                   0
                   0
                   0
                   0
                   0
                   0
                   0
                   0
                   0
                   0
                   0
                   0
                   0
                   0
                   0
                   0
                   0
                   0
                   0
                   0
                   0
                   0
                   0
                   0
                   0
                   0
                   0
                   0
                   0
                   0
                   0
                   0
                   0
                   0
                   0
                   0
                   0
                   0
                   0
                   0
                   0
                   0
                   0
                   0
                   0
                   0
                   0
                   0
                   0
                   0
                   0
                   0
                   0
                   0
                   0
                   0
                   0
                   0
                   0
                   0
                   0
                   0
                   0
                   0
                   0
                   0
                   0
                   0
                   0
                   0
                   0
                   0
                   0
                   0
                   0
                   0
                   0
                   0
                   0
                   0
                   0
                   0
                   0
                   0
                   0
                   0
                   0
                   0
                   0
                   0
                   0
                   0
                   0
                   0
                   0
                   0
                   0
                   0
                   0
                   0
                   0
                   0
                   0
                   0
                   0
                   0
                   0
                   0
                   0
                   0
                   0
                   0
                   0
                   0
                   0
                   0
                   0
                   0
                   0
                   0
                   0
                   0
                   0
                   0
                   0
                   0
                   0
                   0
                   0
                   0
                   0
                   0
                   0
                   0
                   0
                   0
                   0
                   0
                   0
                   0
                   0
                   0
                   0
                   0
                   0
                   0
                   0
                   0
                   0
                   0
                   0
                   0
                   0
                   0
                   0
                   0
                   0
                   0
                   0
                   0
                   0
                   0
                   0
                   0
                   0
                   0
                   0
                   0
                   0
                   0
                   0
                   0
                   0
                   0
                   0
                   0
                   0
                   0
                   0
                   0
                   0
                   0
                   0
                   0
                   0
                   0
                   0
                   0
                   0
                   0
                   0
                   0
                   0
                   0
                   0
                   0
                   0
                   0
                   0
                   0
                   0
                   0
                   0
                   0
                   0
                   0
                   0
                   0
                   0
                   0
                   0
                   0
                   0
                   0
                   0
                   0
                   0
                   0
                   0
                   0
                   0
                   0
                   0
                   0
                   0
                   0
                   0
                   0
                   0
                   0
                   0
                   0
                   0
                   0
                   0
                   0
                   0
                   0
                   0
                   0
                   0
                   0
                   0
                   0
                   0
                   0
                   0
                   0
                   0
                   0
                   0
                   0
                   0
                   0
                   0
                   0
                   0
                   0
                   0
                   0
                   0
                   0
                   0
  
SCALARS                       fixity_z  double 1
LOOKUP_TABLE default
                   0
                   0
                   0
                   0
                   1
                   1
                   1
                   1
                   0
                   0
                   1
                   1
                   0
                   0
                   1
                   1
                   0
                   0
                   1
                   1
                   0
                   0
                   0
                   1
                   1
                   1
                   0
                   0
                   1
                   1
                   0
                   0
                   0
                   1
                   1
                   1
                   0
                   0
                   1
                   1
                   0
                   0
                   1
                   1
                   0
                   0
                   1
                   1
                   0
                   1
                   0
                   1
                   0
                   1
                   0
                   1
                   0
                   0
                   1
                   1
                   0
                   0
                   1
                   1
                   0
                   1
                   0
                   1
                   0
                   0
                   1
                   1
                   0
                   1
                   0
                   1
                   0
                   1
                   0
                   1
                   0
                   0
                   1
                   1
                   0
                   1
                   0
                   1
                   0
                   1
                   0
                   0
                   1
                   1
                   0
                   1
                   0
                   1
                   0
                   1
                   0
                   0
                   1
                   1
                   0
                   0
                   1
                   1
                   0
                   1
                   0
                   1
                   0
                   1
                   0
                   1
                   0
                   1
                   0
                   1
                   0
                   1
                   0
                   1
                   0
                   1
                   0
                   1
                   0
                   1
                   0
                   1
                   0
                   1
                   0
                   1
                   0
                   1
                   0
                   1
                   0
                   1
                   0
                   1
                   0
                   1
                   0
                   1
                   0
                   1
                   0
                   1
                   0
                   1
                   0
                   1
                   0
                   0
                   0
                   0
                   0
                   0
                   0
                   0
                   0
                   0
                   0
                   0
                   0
                   0
                   0
                   0
                   0
                   0
                   0
                   0
                   0
                   0
                   0
                   0
                   0
                   0
                   0
                   0
                   0
                   0
                   0
                   0
                   0
                   0
                   0
                   0
                   0
                   0
                   0
                   0
                   0
                   0
                   0
                   0
                   0
                   0
                   0
                   0
                   0
                   0
                   0
                   0
                   0
                   0
                   0
                   0
                   0
                   0
                   0
                   0
                   0
                   0
                   0
                   0
                   0
                   0
                   0
                   0
                   0
                   0
                   0
                   0
                   0
                   0
                   0
                   0
                   0
                   0
                   0
                   0
                   0
                   0
                   0
                   0
                   0
                   0
                   0
                   0
                   0
                   0
                   0
                   0
                   0
                   0
                   0
                   0
                   0
                   0
                   0
                   0
                   0
                   0
                   0
                   0
                   0
                   0
                   0
                   0
                   0
                   0
                   0
                   0
                   0
                   0
                   0
                   0
                   0
                   0
                   0
                   0
                   0
                   0
                   0
                   0
                   0
                   0
                   0
                   0
                   0
                   0
                   0
                   0
                   0
                   0
                   0
                   0
                   0
                   0
                   0
                   0
                   0
                   0
                   0
                   0
                   0
                   0
                   0
                   0
                   0
                   0
                   0
                   0
                   0
                   0
                   0
                   0
                   0
                   0
                   0
                   0
                   0
                   0
                   0
                   0
                   0
                   0
                   0
                   0
                   0
                   0
                   0
                   0
                   0
                   0
                   0
                   0
                   0
                   0
                   0
                   0
                   0
                   0
                   0
                   0
                   0
                   0
                   0
                   0
                   0
                   0
                   0
                   0
                   0
                   0
                   0
                   0
                   0
                   0
                   0
                   0
                   0
                   0
                   0
                   0
                   0
                   0
                   0
                   0
                   0
                   0
                   0
                   0
                   0
                   0
                   0
                   0
                   0
                   0
                   0
                   0
                   0
                   0
                   0
                   0
                   0
                   0
                   0
                   0
                   0
                   0
                   0
                   0
                   0
                   0
                   0
                   0
                   0
                   0
                   0
                   0
                   0
                   0
                   0
                   0
                   0
                   0
                   0
                   0
                   0
                   0
                   0
                   0
                   0
                   0
                   0
                   0
                   0
                   0
                   0
                   0
                   0
                   0
                   0
                   0
                   0
                   0
                   0
                   0
                   0
                   0
                   0
                   0
                   0
                   0
                   0
                   0
                   0
                   0
                   0
                   0
                   0
                   0
                   0
                   0
                   0
                   0
                   0
                   0
                   0
                   0
                   0
                   0
                   0
                   0
                   0
                   0
                   0
                   0
                   0
                   0
                   0
                   0
                   0
                   0
                   0
                   0
                   0
                   0
                   0
                   0
                   0
                   0
                   0
                   0
                   0
                   0
                   0
                   0
                   0
                   0
                   0
                   0
                   0
                   0
                   0
                   0
                   0
                   0
                   0
                   0
                   0
                   0
                   0
                   0
                   0
                   0
                   0
                   0
                   0
                   0
                   0
                   0
                   0
                   0
                   0
                   0
                   0
                   0
                   0
                   0
                   0
                   0
                   0
                   0
                   0
                   0
                   0
                   0
                   0
                   0
                   0
                   0
                   0
                   0
                   0
                   0
                   0
                   0
                   0
                   0
                   0
                   0
                   0
                   0
                   0
                   0
                   0
                   0
                   0
                   0
                   0
                   0
                   0
                   0
                   0
                   0
                   0
                   0
                   0
                   0
                   0
                   0
                   0
                   0
                   0
                   0
                   0
                   0
                   0
                   0
                   0
                   0
                   0
                   0
                   0
                   0
                   0
                   0
                   0
                   0
                   0
                   0
                   0
                   0
                   0
                   0
                   0
                   0
                   0
                   0
                   0
                   0
                   0
                   0
                   0
                   0
                   0
                   0
                   0
                   0
                   0
                   0
                   0
                   0
                   0
                   0
                   0
                   0
                   0
                   0
                   0
                   0
                   0
                   0
                   0
                   0
                   0
                   0
                   0
                   0
                   0
                   0
                   0
                   0
                   0
                   0
                   0
                   0
                   0
                   0
                   0
                   0
                   0
                   0
                   0
                   0
                   0
                   0
                   0
                   0
                   0
                   0
                   0
                   0
                   0
                   0
                   0
                   0
                   0
                   0
                   0
                   0
                   0
                   0
                   0
                   0
                   0
                   0
                   0
                   0
                   0
                   0
                   0
                   0
                   0
                   0
                   0
                   0
                   0
                   0
                   0
                   0
                   0
                   0
                   0
                   0
                   0
                   0
                   0
                   0
                   0
                   0
                   0
                   0
                   0
                   0
                   0
                   0
                   0
                   0
                   0
                   0
                   0
                   0
                   0
                   0
                   0
                   0
                   0
                   0
                   0
                   0
                   0
                   0
                   0
                   0
                   0
                   0
                   0
                   0
                   0
                   0
                   0
                   0
                   0
                   0
                   0
                   0
                   0
                   0
                   0
                   0
                   0
                   0
                   0
                   0
                   0
                   0
                   0
                   0
                   0
                   0
                   0
                   0
                   0
                   0
                   0
                   0
                   0
                   0
                   0
                   0
                   0
                   0
                   0
                   0
                   0
                   0
                   0
                   0
                   0
                   0
                   0
                   0
                   0
                   0
                   0
                   0
                   0
                   0
                   0
                   0
                   0
                   0
                   0
                   0
                   0
                   0
                   0
                   0
                   0
                   0
                   0
                   0
                   0
                   0
                   0
                   0
                   0
                   0
                   0
                   0
                   0
                   0
                   0
                   0
                   0
                   0
                   0
                   0
                   0
                   0
                   0
                   0
                   0
                   0
                   0
                   0
                   0
                   0
                   0
                   0
                   0
                   0
                   0
                   0
                   0
                   0
                   0
                   0
                   0
                   0
                   0
                   0
                   0
                   0
                   0
                   0
                   0
                   0
                   0
                   0
                   0
                   0
                   0
                   0
                   0
                   0
                   0
                   0
                   0
                   0
                   0
                   0
                   0
                   0
                   0
                   0
                   0
                   0
                   0
                   0
                   0
                   0
                   0
                   0
                   0
                   0
                   0
                   0
                   0
                   0
                   0
                   0
                   0
                   0
                   0
                   0
                   0
                   0
                   0
                   0
                   0
                   0
                   0
                   0
                   0
                   0
                   0
                   0
                   0
                   0
                   0
                   0
                   0
                   0
                   0
                   0
                   0
                   0
                   0
                   0
                   0
                   0
                   0
                   0
                   0
                   0
                   0
                   0
                   0
                   0
                   0
                   0
                   0
                   0
                   0
                   0
                   0
                   0
                   0
                   0
                   0
                   0
                   0
                   0
                   0
                   0
                   0
                   0
                   0
                   0
                   0
                   0
                   0
                   0
                   0
                   0
                   0
                   0
                   0
                   0
                   0
                   0
                   0
                   0
                   0
                   0
                   0
                   0
                   0
                   0
                   0
                   0
                   0
                   0
                   0
                   0
                   0
                   0
                   0
                   0
                   0
                   0
                   0
                   0
                   0
                   0
                   0
                   0
                   0
                   0
                   0
                   0
                   0
                   0
                   0
                   0
                   0
                   0
                   0
                   0
                   0
                   0
                   0
                   0
                   0
                   0
                   0
                   0
                   0
                   0
                   0
                   0
                   0
                   0
                   0
                   0
                   0
                   0
                   0
                   0
                   0
                   0
                   0
                   0
                   0
                   0
                   0
                   0
                   0
                   0
                   0
                   0
                   0
                   0
                   0
                   0
                   0
                   0
                   0
                   0
                   0
                   0
                   0
                   0
                   0
                   0
                   0
                   0
                   0
                   0
                   0
                   0
                   0
                   0
                   0
                   0
                   0
                   0
                   0
                   0
                   0
                   0
                   0
                   0
                   0
                   0
                   0
                   0
                   0
                   0
                   0
                   0
                   0
                   0
                   0
                   0
                   0
                   0
                   0
                   0
                   0
                   0
                   0
                   0
                   0
                   0
                   0
                   0
                   0
                   0
                   0
                   0
                   0
                   0
                   0
                   0
                   0
                   0
                   0
                   0
                   0
                   0
                   0
                   0
                   0
                   0
                   0
                   0
                   0
                   0
                   0
                   0
                   0
                   0
                   0
                   0
                   0
                   0
                   0
                   0
                   0
                   0
                   0
                   0
                   0
                   0
                   0
                   0
                   0
                   0
                   0
                   0
                   0
                   0
                   0
                   0
                   0
                   0
                   0
                   0
                   0
                   0
                   0
                   0
                   0
                   0
                   0
                   0
                   0
                   0
                   0
                   0
                   0
                   0
                   0
                   0
                   0
                   0
                   0
                   0
                   0
                   0
                   0
                   0
                   0
                   0
                   0
                   0
                   0
                   0
                   0
                   0
                   0
                   0
                   0
                   0
                   0
                   0
                   0
                   0
                   0
                   0
                   0
                   0
                   0
                   0
                   0
                   0
                   0
                   0
                   0
                   0
                   0
                   0
                   0
                   0
                   0
                   0
                   0
                   0
                   0
                   0
                   0
                   0
                   0
                   0
                   0
                   0
                   0
                   0
                   0
                   0
                   0
                   0
                   0
                   0
                   0
                   0
                   0
                   0
                   0
                   0
                   0
                   0
                   0
                   0
                   0
                   0
                   0
                   0
                   0
                   0
                   0
                   0
                   0
                   0
                   0
                   0
                   0
                   0
                   0
                   0
                   0
                   0
                   0
                   0
                   0
                   0
                   0
                   0
                   0
                   0
                   0
                   0
                   0
                   0
                   0
                   0
                   0
                   0
                   0
                   0
                   0
                   0
                   0
                   0
                   0
                   0
                   0
                   0
                   0
                   0
                   0
                   0
                   0
                   0
                   0
                   0
                   0
                   0
                   0
                   0
                   0
                   0
                   0
                   0
                   0
                   0
                   0
                   0
                   0
                   0
                   0
                   0
                   0
                   0
                   0
                   0
                   0
                   0
                   0
                   0
                   0
                   0
                   0
                   0
                   0
                   0
                   0
                   0
                   0
                   0
                   0
                   0
                   0
                   0
                   0
                   0
                   0
                   0
                   0
                   0
                   0
                   0
                   0
                   0
                   0
                   0
                   0
                   0
                   0
                   0
                   0
                   0
                   0
                   0
                   0
                   0
                   0
                   0
                   0
                   0
                   0
                   0
                   0
                   0
                   0
                   0
                   0
                   0
                   0
                   0
                   0
                   0
                   0
                   0
                   0
                   0
                   0
                   0
                   0
                   0
                   0
                   0
                   0
                   0
                   0
                   0
                   0
                   0
                   0
                   0
                   0
                   0
                   0
                   0
                   0
                   0
                   0
                   0
                   0
                   0
                   0
                   0
                   0
                   0
                   0
                   0
                   0
                   0
                   0
                   0
                   0
                   0
                   0
                   0
                   0
                   0
                   0
                   0
                   0
                   0
                   0
                   0
                   0
                   0
                   0
                   0
                   0
                   0
                   0
                   0
                   0
                   0
                   0
                   0
                   0
                   0
                   0
                   0
                   0
                   0
                   0
                   0
                   0
                   0
                   0
                   0
                   0
                   0
                   0
                   0
                   0
                   0
                   0
                   0
                   0
                   0
                   0
                   0
                   0
                   0
                   0
                   0
                   0
                   0
                   0
                   0
                   0
                   0
                   0
                   0
                   0
                   0
                   0
                   0
                   0
                   0
                   0
                   0
                   0
                   0
                   0
                   0
                   0
                   0
                   0
                   0
                   0
                   0
                   0
                   0
                   0
                   0
                   0
                   0
                   0
                   0
                   0
                   0
                   0
                   0
                   0
                   0
                   0
                   0
                   0
                   0
                   0
                   0
                   0
                   0
                   0
                   0
                   0
                   0
                   0
                   0
                   0
                   0
                   0
                   0
                   0
                   0
                   0
                   0
                   0
                   0
                   0
                   0
                   0
                   0
                   0
                   0
                   0
                   0
                   0
                   0
                   0
                   0
                   0
                   0
                   0
                   0
                   0
                   0
                   0
                   0
                   0
                   0
                   0
                   0
                   0
                   0
                   0
                   0
                   0
                   0
                   0
                   0
                   0
                   0
                   0
                   0
                   0
                   0
                   0
                   0
                   0
                   0
                   0
                   0
                   0
                   0
                   0
                   0
                   0
                   0
                   0
                   0
                   0
                   0
                   0
                   0
                   0
                   0
                   0
                   0
                   0
                   0
                   0
                   0
                   0
                   0
                   0
                   0
                   0
                   0
                   0
                   0
                   0
                   0
                   0
                   0
                   0
                   0
                   0
                   0
                   0
                   0
                   0
                   0
                   0
                   0
                   0
                   0
                   0
                   0
                   0
                   0
                   0
                   0
                   0
                   0
                   0
                   0
                   0
                   0
                   0
                   0
                   0
                   0
                   0
                   0
                   0
                   0
                   0
                   0
                   0
                   0
                   0
                   0
                   0
                   0
                   0
                   0
                   0
                   0
                   0
                   0
                   0
                   0
                   0
                   0
                   0
                   0
                   0
                   0
                   0
                   0
                   0
                   0
                   0
                   0
                   0
                   0
                   0
                   0
                   0
                   0
                   0
                   0
                   0
                   0
                   0
                   0
                   0
                   0
                   0
                   0
                   0
                   0
                   0
                   0
                   0
                   0
                   0
                   0
                   0
                   0
                   0
                   0
                   0
                   0
                   0
                   0
                   0
                   0
                   0
                   0
                   0
                   0
                   0
                   0
                   0
                   0
                   0
                   0
                   0
                   0
                   0
                   0
                   0
                   0
                   0
                   0
                   0
                   0
                   0
                   0
                   0
                   0
                   0
                   0
                   0
                   0
                   0
                   0
                   0
                   0
                   0
                   0
                   0
                   0
                   0
                   0
                   0
                   0
                   0
                   0
                   0
                   0
                   0
                   0
                   0
                   0
                   0
                   0
                   0
                   0
                   0
                   0
                   0
                   0
                   0
                   0
                   0
                   0
                   0
                   0
                   0
                   0
                   0
                   0
                   0
                   0
                   0
                   0
                   0
                   0
                   0
                   0
                   0
                   0
                   0
                   0
                   0
                   0
                   0
                   0
                   0
                   0
                   0
                   0
                   0
                   0
                   0
                   0
                   0
                   0
                   0
                   0
                   0
                   0
                   0
                   0
                   0
                   0
                   0
                   0
                   0
                   0
                   0
                   0
                   0
                   0
                   0
                   0
                   0
                   0
                   0
                   0
                   0
                   0
                   0
                   0
                   0
                   0
                   0
                   0
                   0
                   0
                   0
                   0
                   0
                   0
                   0
                   0
                   0
                   0
                   0
                   0
                   0
                   0
                   0
                   0
                   0
                   0
                   0
                   0
                   0
                   0
                   0
                   0
                   0
                   0
                   0
                   0
                   0
                   0
                   0
                   0
                   0
                   0
                   0
                   0
                   0
                   0
                   0
                   0
                   0
                   0
                   0
                   0
                   0
                   0
                   0
                   0
                   0
                   0
                   0
                   0
                   0
                   0
                   0
                   0
                   0
                   0
                   0
                   0
                   0
                   0
                   0
                   0
                   0
                   0
                   0
                   0
                   0
                   0
                   0
                   0
                   0
                   0
                   0
                   0
                   0
                   0
                   0
                   0
                   0
                   0
                   0
                   0
                   0
                   0
                   0
                   0
                   0
                   0
                   0
                   0
                   0
                   0
                   0
                   0
                   0
                   0
                   0
                   0
                   0
                   0
                   0
                   0
                   0
                   0
                   0
                   0
                   0
                   0
                   0
                   0
                   0
                   0
                   0
                   0
                   0
                   0
                   0
                   0
                   0
                   0
                   0
                   0
                   0
                   0
                   0
                   0
                   0
                   0
                   0
                   0
                   0
                   0
                   0
                   0
                   0
                   0
                   0
                   0
                   0
                   0
                   0
                   0
                   0
                   0
                   0
                   0
                   0
                   0
                   0
                   0
                   0
                   0
                   0
                   0
                   0
                   0
                   0
                   0
                   0
                   0
                   0
                   0
                   0
                   0
                   0
                   0
                   0
                   0
                   0
                   0
                   0
                   0
                   0
                   0
                   0
                   0
                   0
                   0
                   0
                   0
                   0
                   0
                   0
                   0
                   0
                   0
                   0
                   0
                   0
                   0
                   0
                   0
                   0
                   0
                   0
                   0
                   0
                   0
                   0
                   0
  
SCALARS                         Ispace  double 1
LOOKUP_TABLE default
                  12
                  12
                  12
                  12
                  12
                  12
                  12
                  12
                  12
                  12
                  12
                  12
                  12
                  11
                  12
                  11
                  11
                  11
                  11
                  11
                  11
                  12
                  12
                  11
                  12
                  12
                  11
                  11
                  11
                  11
                  11
                  11
                  11
                  11
                  11
                  11
                  11
                  11
                  11
                  11
                  11
                  11
                  11
                  11
                  11
                  11
                  11
                  11
                  11
                  11
                  11
                  11
                  11
                  11
                  11
                  11
                  11
                  11
                  11
                  11
                  11
                  11
                  11
                  11
                  11
                  11
                  12
                  12
                  12
                  12
                  12
                  12
                  12
                  12
                  11
                  11
                  11
                  11
                  11
                  11
                  11
                  11
                  11
                  11
                  11
                  11
                  11
                  11
                  11
                  11
                  11
                  11
                  11
                  11
                  11
                  11
                  12
                  12
                  12
                  12
                  12
                  12
                  12
                  12
                  12
                  12
                  12
                  12
                  12
                  12
                  12
                  12
                  12
                  12
                  12
                  12
                  11
                  11
                  11
                  11
                  11
                  11
                  11
                  11
                  11
                  11
                  11
                  11
                  11
                  11
                  11
                  11
                  11
                  11
                  11
                  11
                  11
                  11
                  11
                  11
                  11
                  11
                  11
                  11
                  11
                  11
                  12
                  12
                  12
                  12
                  12
                  12
                  12
                  12
                  12
                  12
                  12
                  12
                  12
                  12
                  12
                  12
                  12
                  11
                  11
                  11
                  11
                  12
                  12
                  11
                  11
                  11
                  11
                  11
                  11
                  11
                  11
                  11
                  11
                  11
                  11
                  11
                  11
                  11
                  11
                  11
                  11
                  11
                  11
                  12
                  12
                  12
                  12
                  11
                  11
                  11
                  11
                  11
                  11
                  11
                  11
                  11
                  11
                  11
                  12
                  12
                  12
                  12
                  12
                  12
                  12
                  12
                  12
                  12
                  11
                  11
                  11
                  11
                  11
                  11
                  11
                  11
                  11
                  11
                  11
                  11
                  11
                  11
                  11
                  12
                  12
                  12
                  12
                  12
                  12
                  12
                  12
                  12
                  12
                  12
                  12
                  11
                  11
                  11
                  11
                  12
                  12
                  11
                  11
                  11
                  11
                  11
                  11
                  11
                  11
                  11
                  11
                  11
                  11
                  11
                  11
                  11
                  11
                  11
                  11
                  11
                  11
                  12
                  12
                  12
                  12
                  11
                  11
                  11
                  11
                  11
                  11
                  11
                  11
                  11
                  11
                  11
                  12
                  12
                  12
                  12
                  12
                  12
                  12
                  12
                  12
                  12
                  11
                  11
                  11
                  11
                  11
                  11
                  11
                  11
                  11
                  11
                  11
                  11
                  11
                  11
                  11
                  12
                  12
                  12
                  12
                  12
                  12
                  12
                  12
                  12
                  12
                  12
                  12
                  11
                  11
                  11
                  11
                  12
                  12
                  11
                  11
                  11
                  11
                  11
                  11
                  11
                  11
                  11
                  11
                  11
                  11
                  11
                  11
                  11
                  11
                  11
                  11
                  11
                  11
                  12
                  12
                  12
                  12
                  11
                  11
                  11
                  11
                  11
                  11
                  11
                  11
                  11
                  11
                  11
                  12
                  12
                  12
                  12
                  12
                  12
                  12
                  12
                  12
                  12
                  11
                  11
                  11
                  11
                  11
                  11
                  11
                  11
                  11
                  11
                  11
                  11
                  11
                  11
                  11
                  12
                  12
                  12
                  12
                  12
                  12
                  12
                  12
                  12
                  12
                  12
                  12
                  11
                  11
                  11
                  11
                  12
                  12
                  11
                  11
                  11
                  11
                  11
                  11
                  11
                  11
                  11
                  11
                  11
                  11
                  11
                  11
                  11
                  11
                  11
                  11
                  11
                  11
                  12
                  12
                  12
                  12
                  11
                  11
                  11
                  11
                  11
                  11
                  11
                  11
                  11
                  11
                  11
                  12
                  12
                  12
                  12
                  12
                  12
                  12
                  12
                  12
                  12
                  11
                  11
                  11
                  11
                  11
                  11
                  11
                  11
                  11
                  11
                  11
                  11
                  11
                  11
                  11
                  12
                  12
                  12
                  12
                  12
                  12
                  12
                  12
                  12
                  12
                  12
                  12
                  11
                  11
                  11
                  11
                  12
                  12
                  11
                  11
                  11
                  11
                  11
                  11
                  11
                  11
                  11
                  11
                  11
                  11
                  11
                  11
                  11
                  11
                  11
                  11
                  11
                  11
                  12
                  12
                  12
                  12
                  11
                  11
                  11
                  11
                  11
                  11
                  11
                  11
                  11
                  11
                  11
                  12
                  12
                  12
                  12
                  12
                  12
                  12
                  12
                  12
                  12
                  11
                  11
                  11
                  11
                  11
                  11
                  11
                  11
                  11
                  11
                  11
                  11
                  11
                  11
                  11
                  12
                  12
                  12
                  12
                  12
                  12
                  12
                  12
                  12
                  12
                  12
                  12
                  11
                  11
                  11
                  11
                  12
                  12
                  11
                  11
                  11
                  11
                  11
                  11
                  11
                  11
                  11
                  11
                  11
                  11
                  11
                  11
                  11
                  11
                  11
                  11
                  11
                  11
                  12
                  12
                  12
                  12
                  11
                  11
                  11
                  11
                  11
                  11
                  11
                  11
                  11
                  11
                  11
                  12
                  12
                  12
                  12
                  12
                  12
                  12
                  12
                  12
                  12
                  11
                  11
                  11
                  11
                  11
                  11
                  11
                  11
                  11
                  11
                  11
                  11
                  11
                  11
                  11
                  12
                  12
                  12
                  12
                  12
                  12
                  12
                  12
                  12
                  12
                  12
                  12
                  11
                  11
                  11
                  11
                  12
                  12
                  11
                  11
                  11
                  11
                  11
                  11
                  11
                  11
                  11
                  11
                  11
                  11
                  11
                  11
                  11
                  11
                  11
                  11
                  11
                  11
                  12
                  12
                  12
                  12
                  11
                  11
                  11
                  11
                  11
                  11
                  11
                  11
                  11
                  11
                  11
                  12
                  12
                  12
                  12
                  12
                  12
                  12
                  12
                  12
                  12
                  11
                  11
                  11
                  11
                  11
                  11
                  11
                  11
                  11
                  11
                  11
                  11
                  11
                  11
                  11
                  12
                  12
                  12
                  12
                  12
                  12
                  12
                  12
                  12
                  12
                  12
                  12
                  11
                  11
                  11
                  11
                  12
                  12
                  11
                  11
                  11
                  11
                  11
                  11
                  11
                  11
                  11
                  11
                  11
                  11
                  11
                  11
                  11
                  11
                  11
                  11
                  11
                  11
                  12
                  12
                  12
                  12
                  11
                  11
                  11
                  11
                  11
                  11
                  11
                  11
                  11
                  11
                  11
                  12
                  12
                  12
                  12
                  12
                  12
                  12
                  12
                  12
                  12
                  11
                  11
                  11
                  11
                  11
                  11
                  11
                  11
                  11
                  11
                  11
                  11
                  11
                  11
                  11
                  12
                  12
                  12
                  12
                  12
                  12
                  12
                  12
                  12
                  12
                  12
                  12
                  11
                  11
                  11
                  11
                  12
                  12
                  11
                  11
                  11
                  11
                  11
                  11
                  11
                  11
                  11
                  11
                  11
                  11
                  11
                  11
                  11
                  11
                  11
                  11
                  11
                  11
                  12
                  12
                  12
                  12
                  11
                  11
                  11
                  11
                  11
                  11
                  11
                  11
                  11
                  11
                  11
                  12
                  12
                  12
                  12
                  12
                  12
                  12
                  12
                  12
                  12
                  11
                  11
                  11
                  11
                  11
                  11
                  11
                  11
                  11
                  11
                  11
                  11
                  11
                  11
                  11
                  12
                  12
                  12
                  12
                  12
                  12
                  12
                  12
                  12
                  12
                  12
                  12
                  11
                  11
                  11
                  11
                  12
                  12
                  11
                  11
                  11
                  11
                  11
                  11
                  11
                  11
                  11
                  11
                  11
                  11
                  11
                  11
                  11
                  11
                  11
                  11
                  11
                  11
                  12
                  12
                  12
                  12
                  11
                  11
                  11
                  11
                  11
                  11
                  11
                  11
                  11
                  11
                  11
                  12
                  12
                  12
                  12
                  12
                  12
                  12
                  12
                  12
                  12
                  11
                  11
                  11
                  11
                  11
                  11
                  11
                  11
                  11
                  11
                  11
                  11
                  11
                  11
                  11
                  12
                  12
                  12
                  12
                  12
                  12
                  12
                  12
                  12
                  12
                  12
                  12
                  11
                  11
                  11
                  11
                  12
                  12
                  11
                  11
                  11
                  11
                  11
                  11
                  11
                  11
                  11
                  11
                  11
                  11
                  11
                  11
                  11
                  11
                  11
                  11
                  11
                  11
                  12
                  12
                  12
                  12
                  11
                  11
                  11
                  11
                  11
                  11
                  11
                  11
                  11
                  11
                  11
                  12
                  12
                  12
                  12
                  12
                  12
                  12
                  12
                  12
                  12
                  11
                  11
                  11
                  11
                  11
                  11
                  11
                  11
                  11
                  11
                  11
                  11
                  11
                  11
                  11
                  12
                  12
                  12
                  12
                  12
                  12
                  12
                  12
                  12
                  12
                  12
                  12
                  11
                  11
                  11
                  11
                  12
                  12
                  11
                  11
                  11
                  11
                  11
                  11
                  11
                  11
                  11
                  11
                  11
                  11
                  11
                  11
                  11
                  11
                  11
                  11
                  11
                  11
                  12
                  12
                  12
                  12
                  11
                  11
                  11
                  11
                  11
                  11
                  11
                  11
                  11
                  11
                  11
                  12
                  12
                  12
                  12
                  12
                  12
                  12
                  12
                  12
                  12
                  11
                  11
                  11
                  11
                  11
                  11
                  11
                  11
                  11
                  11
                  11
                  11
                  11
                  11
                  11
                  12
                  12
                  12
                  12
                  12
                  12
                  12
                  12
                  12
                  12
                  12
                  12
                  11
                  11
                  11
                  11
                  12
                  12
                  11
                  11
                  11
                  11
                  11
                  11
                  11
                  11
                  11
                  11
                  11
                  11
                  11
                  11
                  11
                  11
                  11
                  11
                  11
                  11
                  12
                  12
                  12
                  12
                  11
                  11
                  11
                  11
                  11
                  11
                  11
                  11
                  11
                  11
                  11
                  12
                  12
                  12
                  12
                  12
                  12
                  12
                  12
                  12
                  12
                  11
                  11
                  11
                  11
                  11
                  11
                  11
                  11
                  11
                  11
                  11
                  11
                  11
                  11
                  11
                  12
                  12
                  12
                  12
                  12
                  12
                  12
                  12
                  12
                  12
                  12
                  12
                  11
                  11
                  11
                  11
                  12
                  12
                  11
                  11
                  11
                  11
                  11
                  11
                  11
                  11
                  11
                  11
                  11
                  11
                  11
                  11
                  11
                  11
                  11
                  11
                  11
                  11
                  12
                  12
                  12
                  12
                  11
                  11
                  11
                  11
                  11
                  11
                  11
                  11
                  11
                  11
                  11
                  12
                  12
                  12
                  12
                  12
                  12
                  12
                  12
                  12
                  12
                  11
                  11
                  11
                  11
                  11
                  11
                  11
                  11
                  11
                  11
                  11
                  11
                  11
                  11
                  11
                  12
                  12
                  12
                  12
                  12
                  12
                  12
                  12
                  12
                  12
                  12
                  12
                  11
                  11
                  11
                  11
                  12
                  12
                  11
                  11
                  11
                  11
                  11
                  11
                  11
                  11
                  11
                  11
                  11
                  11
                  11
                  11
                  11
                  11
                  11
                  11
                  11
                  11
                  12
                  12
                  12
                  12
                  11
                  11
                  11
                  11
                  11
                  11
                  11
                  11
                  11
                  11
                  11
                  12
                  12
                  12
                  12
                  12
                  12
                  12
                  12
                  12
                  12
                  11
                  11
                  11
                  11
                  11
                  11
                  11
                  11
                  11
                  11
                  11
                  11
                  11
                  11
                  11
                  12
                  12
                  12
                  12
                  12
                  12
                  12
                  12
                  12
                  12
                  12
                  12
                  11
                  11
                  11
                  11
                  12
                  12
                  11
                  11
                  11
                  11
                  11
                  11
                  11
                  11
                  11
                  11
                  11
                  11
                  11
                  11
                  11
                  11
                  11
                  11
                  11
                  11
                  12
                  12
                  12
                  12
                  11
                  11
                  11
                  11
                  11
                  11
                  11
                  11
                  11
                  11
                  11
                  12
                  12
                  12
                  12
                  12
                  12
                  12
                  12
                  12
                  12
                  11
                  11
                  11
                  11
                  11
                  11
                  11
                  11
                  11
                  11
                  11
                  11
                  11
                  11
                  11
                  12
                  12
                  12
                  12
                  12
                  12
                  12
                  12
                  12
                  12
                  12
                  12
                  11
                  11
                  11
                  11
                  12
                  12
                  11
                  11
                  11
                  11
                  11
                  11
                  11
                  11
                  11
                  11
                  11
                  11
                  11
                  11
                  11
                  11
                  11
                  11
                  11
                  11
                  12
                  12
                  12
                  12
                  11
                  11
                  11
                  11
                  11
                  11
                  11
                  11
                  11
                  11
                  11
                  12
                  12
                  12
                  12
                  12
                  12
                  12
                  12
                  12
                  12
                  11
                  11
                  11
                  11
                  11
                  11
                  11
                  11
                  11
                  11
                  11
                  11
                  11
                  11
                  11
                  12
                  12
                  12
                  12
                  12
                  12
                  12
                  12
                  12
                  12
                  12
                  12
                  11
                  11
                  11
                  11
                  12
                  12
                  11
                  11
                  11
                  11
                  11
                  11
                  11
                  11
                  11
                  11
                  11
                  11
                  11
                  11
                  11
                  11
                  11
                  11
                  11
                  11
                  12
                  12
                  12
                  12
                  11
                  11
                  11
                  11
                  11
                  11
                  11
                  11
                  11
                  11
                  11
                  12
                  12
                  12
                  12
                  12
                  12
                  12
                  12
                  12
                  12
                  11
                  11
                  11
                  11
                  11
                  11
                  11
                  11
                  11
                  11
                  11
                  11
                  11
                  11
                  11
                  12
                  12
                  12
                  12
                  12
                  12
                  12
                  12
                  12
                  12
                  12
                  12
                  11
                  11
                  11
                  11
                  12
                  12
                  11
                  11
                  11
                  11
                  11
                  11
                  11
                  11
                  11
                  11
                  11
                  11
                  11
                  11
                  11
                  11
                  11
                  11
                  11
                  11
                  12
                  12
                  12
                  12
                  11
                  11
                  11
                  11
                  11
                  11
                  11
                  11
                  11
                  11
                  11
                  12
                  12
                  12
                  12
                  12
                  12
                  12
                  12
                  12
                  12
                  11
                  11
                  11
                  11
                  11
                  11
                  11
                  11
                  11
                  11
                  11
                  11
                  11
                  11
                  11
                  12
                  12
                  12
                  12
                  12
                  12
                  12
                  12
                  12
                  12
                  12
                  12
                  11
                  11
                  11
                  11
                  12
                  12
                  11
                  11
                  11
                  11
                  11
                  11
                  11
                  11
                  11
                  11
                  11
                  11
                  11
                  11
                  11
                  11
                  11
                  11
                  11
                  11
                  12
                  12
                  12
                  12
                  11
                  11
                  11
                  11
                  11
                  11
                  11
                  11
                  11
                  11
                  11
                  12
                  12
                  12
                  12
                  12
                  12
                  12
                  12
                  12
                  12
                  11
                  11
                  11
                  11
                  11
                  11
                  11
                  11
                  11
                  11
                  11
                  11
                  11
                  11
                  11
                  12
                  12
                  12
                  12
                  12
                  12
                  12
                  12
                  12
                  12
                  12
                  12
                  11
                  11
                  11
                  11
                  12
                  12
                  11
                  11
                  11
                  11
                  11
                  11
                  11
                  11
                  11
                  11
                  11
                  11
                  11
                  11
                  11
                  11
                  11
                  11
                  11
                  11
                  12
                  12
                  12
                  12
                  11
                  11
                  11
                  11
                  11
                  11
                  11
                  11
                  11
                  11
                  11
                  12
                  12
                  12
                  12
                  12
                  12
                  12
                  12
                  12
                  12
                  11
                  11
                  11
                  11
                  11
                  11
                  11
                  11
                  11
                  11
                  11
                  11
                  11
                  11
                  11
                  12
                  12
                  12
                  12
                  12
                  12
                  12
                  12
                  12
                  12
                  12
                  12
                  11
                  11
                  11
                  11
                  12
                  12
                  11
                  11
                  11
                  11
                  11
                  11
                  11
                  11
                  11
                  11
                  11
                  11
                  11
                  11
                  11
                  11
                  11
                  11
                  11
                  11
                  12
                  12
                  12
                  12
                  11
                  11
                  11
                  11
                  11
                  11
                  11
                  11
                  11
                  11
                  11
                  12
                  12
                  12
                  12
                  12
                  12
                  12
                  12
                  12
                  12
                  11
                  11
                  11
                  11
                  11
                  11
                  11
                  11
                  11
                  11
                  11
                  11
                  11
                  11
                  11
                  12
                  12
                  12
                  12
                  12
                  12
                  12
                  12
                  12
                  12
                  12
                  12
                  11
                  11
                  11
                  11
                  12
                  12
                  11
                  11
                  11
                  11
                  11
                  11
                  11
                  11
                  11
                  11
                  11
                  11
                  11
                  11
                  11
                  11
                  11
                  11
                  11
                  11
                  12
                  12
                  12
                  12
                  11
                  11
                  11
                  11
                  11
                  11
                  11
                  11
                  11
                  11
                  11
                  12
                  12
                  12
                  12
                  12
                  12
                  12
                  12
                  12
                  12
                  11
                  11
                  11
                  11
                  11
                  11
                  11
                  11
                  11
                  11
                  11
                  11
                  11
                  11
                  11
                  12
                  12
                  12
                  12
                  12
  
SCALARS                         Jspace  double 1
LOOKUP_TABLE default
                  11
                  12
                  11
                  11
                  11
                  12
                  11
                  11
                  11
                  11
                  11
                  11
                  12
                  12
                  12
                  12
                  11
                  12
                  11
                  12
                  12
                  12
                  12
                  12
                  12
                  12
                  12
                  12
                  12
                  12
                  11
                  11
                  11
                  11
                  11
                  11
                  11
                  11
                  11
                  11
                  11
                  11
                  11
                  11
                  11
                  11
                  11
                  11
                  11
                  11
                  11
                  11
                  12
                  12
                  12
                  12
                  12
                  11
                  12
                  11
                  11
                  11
                  11
                  11
                  11
                  11
                  11
                  11
                  11
                  12
                  11
                  12
                  12
                  12
                  12
                  12
                  12
                  12
                  12
                  12
                  12
                  12
                  12
                  12
                  11
                  11
                  11
                  11
                  11
                  11
                  11
                  11
                  11
                  11
                  11
                  11
                  11
                  11
                  11
                  11
                  11
                  11
                  11
                  11
                  11
                  11
                  11
                  11
                  12
                  12
                  12
                  12
                  12
                  12
                  12
                  12
                  12
                  12
                  12
                  12
                  12
                  12
                  12
                  12
                  12
                  12
                  12
                  12
                  11
                  11
                  11
                  11
                  11
                  11
                  11
                  11
                  11
                  11
                  11
                  11
                  11
                  11
                  11
                  11
                  11
                  11
                  11
                  11
                  11
                  11
                  11
                  11
                  11
                  11
                  11
                  11
                  11
                  12
                  11
                  11
                  11
                  11
                  12
                  12
                  11
                  12
                  12
                  12
                  12
                  12
                  12
                  11
                  11
                  11
                  11
                  11
                  11
                  11
                  11
                  11
                  11
                  11
                  12
                  12
                  12
                  11
                  11
                  11
                  11
                  11
                  11
                  12
                  12
                  12
                  12
                  12
                  12
                  12
                  11
                  11
                  11
                  11
                  11
                  11
                  11
                  11
                  11
                  11
                  11
                  11
                  12
                  12
                  12
                  12
                  12
                  12
                  12
                  12
                  12
                  12
                  11
                  11
                  11
                  11
                  11
                  11
                  11
                  11
                  11
                  11
                  11
                  11
                  11
                  11
                  11
                  12
                  11
                  11
                  11
                  11
                  12
                  12
                  11
                  12
                  12
                  12
                  12
                  12
                  12
                  11
                  11
                  11
                  11
                  11
                  11
                  11
                  11
                  11
                  11
                  11
                  12
                  12
                  12
                  11
                  11
                  11
                  11
                  11
                  11
                  12
                  12
                  12
                  12
                  12
                  12
                  12
                  11
                  11
                  11
                  11
                  11
                  11
                  11
                  11
                  11
                  11
                  11
                  11
                  12
                  12
                  12
                  12
                  12
                  12
                  12
                  12
                  12
                  12
                  11
                  11
                  11
                  11
                  11
                  11
                  11
                  11
                  11
                  11
                  11
                  11
                  11
                  11
                  11
                  12
                  11
                  11
                  11
                  11
                  12
                  12
                  11
                  12
                  12
                  12
                  12
                  12
                  12
                  11
                  11
                  11
                  11
                  11
                  11
                  11
                  11
                  11
                  11
                  11
                  12
                  12
                  12
                  11
                  11
                  11
                  11
                  11
                  11
                  12
                  12
                  12
                  12
                  12
                  12
                  12
                  11
                  11
                  11
                  11
                  11
                  11
                  11
                  11
                  11
                  11
                  11
                  11
                  12
                  12
                  12
                  12
                  12
                  12
                  12
                  12
                  12
                  12
                  11
                  11
                  11
                  11
                  11
                  11
                  11
                  11
                  11
                  11
                  11
                  11
                  11
                  11
                  11
                  12
                  11
                  11
                  11
                  11
                  12
                  12
                  11
                  12
                  12
                  12
                  12
                  12
                  12
                  11
                  11
                  11
                  11
                  11
                  11
                  11
                  11
                  11
                  11
                  11
                  12
                  12
                  12
                  11
                  11
                  11
                  11
                  11
                  11
                  12
                  12
                  12
                  12
                  12
                  12
                  12
                  11
                  11
                  11
                  11
                  11
                  11
                  11
                  11
                  11
                  11
                  11
                  11
                  12
                  12
                  12
                  12
                  12
                  12
                  12
                  12
                  12
                  12
                  11
                  11
                  11
                  11
                  11
                  11
                  11
                  11
                  11
                  11
                  11
                  11
                  11
                  11
                  11
                  12
                  11
                  11
                  11
                  11
                  12
                  12
                  11
                  12
                  12
                  12
                  12
                  12
                  12
                  11
                  11
                  11
                  11
                  11
                  11
                  11
                  11
                  11
                  11
                  11
                  12
                  12
                  12
                  11
                  11
                  11
                  11
                  11
                  11
                  12
                  12
                  12
                  12
                  12
                  12
                  12
                  11
                  11
                  11
                  11
                  11
                  11
                  11
                  11
                  11
                  11
                  11
                  11
                  12
                  12
                  12
                  12
                  12
                  12
                  12
                  12
                  12
                  12
                  11
                  11
                  11
                  11
                  11
                  11
                  11
                  11
                  11
                  11
                  11
                  11
                  11
                  11
                  11
                  12
                  11
                  11
                  11
                  11
                  12
                  12
                  11
                  12
                  12
                  12
                  12
                  12
                  12
                  11
                  11
                  11
                  11
                  11
                  11
                  11
                  11
                  11
                  11
                  11
                  12
                  12
                  12
                  11
                  11
                  11
                  11
                  11
                  11
                  12
                  12
                  12
                  12
                  12
                  12
                  12
                  11
                  11
                  11
                  11
                  11
                  11
                  11
                  11
                  11
                  11
                  11
                  11
                  12
                  12
                  12
                  12
                  12
                  12
                  12
                  12
                  12
                  12
                  11
                  11
                  11
                  11
                  11
                  11
                  11
                  11
                  11
                  11
                  11
                  11
                  11
                  11
                  11
                  12
                  11
                  11
                  11
                  11
                  12
                  12
                  11
                  12
                  12
                  12
                  12
                  12
                  12
                  11
                  11
                  11
                  11
                  11
                  11
                  11
                  11
                  11
                  11
                  11
                  12
                  12
                  12
                  11
                  11
                  11
                  11
                  11
                  11
                  12
                  12
                  12
                  12
                  12
                  12
                  12
                  11
                  11
                  11
                  11
                  11
                  11
                  11
                  11
                  11
                  11
                  11
                  11
                  12
                  12
                  12
                  12
                  12
                  12
                  12
                  12
                  12
                  12
                  11
                  11
                  11
                  11
                  11
                  11
                  11
                  11
                  11
                  11
                  11
                  11
                  11
                  11
                  11
                  12
                  11
                  11
                  11
                  11
                  12
                  12
                  11
                  12
                  12
                  12
                  12
                  12
                  12
                  11
                  11
                  11
                  11
                  11
                  11
                  11
                  11
                  11
                  11
                  11
                  12
                  12
                  12
                  11
                  11
                  11
                  11
                  11
                  11
                  12
                  12
                  12
                  12
                  12
                  12
                  12
                  11
                  11
                  11
                  11
                  11
                  11
                  11
                  11
                  11
                  11
                  11
                  11
                  12
                  12
                  12
                  12
                  12
                  12
                  12
                  12
                  12
                  12
                  11
                  11
                  11
                  11
                  11
                  11
                  11
                  11
                  11
                  11
                  11
                  11
                  11
                  11
                  11
                  12
                  11
                  11
                  11
                  11
                  12
                  12
                  11
                  12
                  12
                  12
                  12
                  12
                  12
                  11
                  11
                  11
                  11
                  11
                  11
                  11
                  11
                  11
                  11
                  11
                  12
                  12
                  12
                  11
                  11
                  11
                  11
                  11
                  11
                  12
                  12
                  12
                  12
                  12
                  12
                  12
                  11
                  11
                  11
                  11
                  11
                  11
                  11
                  11
                  11
                  11
                  11
                  11
                  12
                  12
                  12
                  12
                  12
                  12
                  12
                  12
                  12
                  12
                  11
                  11
                  11
                  11
                  11
                  11
                  11
                  11
                  11
                  11
                  11
                  11
                  11
                  11
                  11
                  12
                  11
                  11
                  11
                  11
                  12
                  12
                  11
                  12
                  12
                  12
                  12
                  12
                  12
                  11
                  11
                  11
                  11
                  11
                  11
                  11
                  11
                  11
                  11
                  11
                  12
                  12
                  12
                  11
                  11
                  11
                  11
                  11
                  11
                  12
                  12
                  12
                  12
                  12
                  12
                  12
                  11
                  11
                  11
                  11
                  11
                  11
                  11
                  11
                  11
                  11
                  11
                  11
                  12
                  12
                  12
                  12
                  12
                  12
                  12
                  12
                  12
                  12
                  11
                  11
                  11
                  11
                  11
                  11
                  11
                  11
                  11
                  11
                  11
                  11
                  11
                  11
                  11
                  12
                  11
                  11
                  11
                  11
                  12
                  12
                  11
                  12
                  12
                  12
                  12
                  12
                  12
                  11
                  11
                  11
                  11
                  11
                  11
                  11
                  11
                  11
                  11
                  11
                  12
                  12
                  12
                  11
                  11
                  11
                  11
                  11
                  11
                  12
                  12
                  12
                  12
                  12
                  12
                  12
                  11
                  11
                  11
                  11
                  11
                  11
                  11
                  11
                  11
                  11
                  11
                  11
                  12
                  12
                  12
                  12
                  12
                  12
                  12
                  12
                  12
                  12
                  11
                  11
                  11
                  11
                  11
                  11
                  11
                  11
                  11
                  11
                  11
                  11
                  11
                  11
                  11
                  12
                  11
                  11
                  11
                  11
                  12
                  12
                  11
                  12
                  12
                  12
                  12
                  12
                  12
                  11
                  11
                  11
                  11
                  11
                  11
                  11
                  11
                  11
                  11
                  11
                  12
                  12
                  12
                  11
                  11
                  11
                  11
                  11
                  11
                  12
                  12
                  12
                  12
                  12
                  12
                  12
                  11
                  11
                  11
                  11
                  11
                  11
                  11
                  11
                  11
                  11
                  11
                  11
                  12
                  12
                  12
                  12
                  12
                  12
                  12
                  12
                  12
                  12
                  11
                  11
                  11
                  11
                  11
                  11
                  11
                  11
                  11
                  11
                  11
                  11
                  11
                  11
                  11
                  12
                  11
                  11
                  11
                  11
                  12
                  12
                  11
                  12
                  12
                  12
                  12
                  12
                  12
                  11
                  11
                  11
                  11
                  11
                  11
                  11
                  11
                  11
                  11
                  11
                  12
                  12
                  12
                  11
                  11
                  11
                  11
                  11
                  11
                  12
                  12
                  12
                  12
                  12
                  12
                  12
                  11
                  11
                  11
                  11
                  11
                  11
                  11
                  11
                  11
                  11
                  11
                  11
                  12
                  12
                  12
                  12
                  12
                  12
                  12
                  12
                  12
                  12
                  11
                  11
                  11
                  11
                  11
                  11
                  11
                  11
                  11
                  11
                  11
                  11
                  11
                  11
                  11
                  12
                  11
                  11
                  11
                  11
                  12
                  12
                  11
                  12
                  12
                  12
                  12
                  12
                  12
                  11
                  11
                  11
                  11
                  11
                  11
                  11
                  11
                  11
                  11
                  11
                  12
                  12
                  12
                  11
                  11
                  11
                  11
                  11
                  11
                  12
                  12
                  12
                  12
                  12
                  12
                  12
                  11
                  11
                  11
                  11
                  11
                  11
                  11
                  11
                  11
                  11
                  11
                  11
                  12
                  12
                  12
                  12
                  12
                  12
                  12
                  12
                  12
                  12
                  11
                  11
                  11
                  11
                  11
                  11
                  11
                  11
                  11
                  11
                  11
                  11
                  11
                  11
                  11
                  12
                  11
                  11
                  11
                  11
                  12
                  12
                  11
                  12
                  12
                  12
                  12
                  12
                  12
                  11
                  11
                  11
                  11
                  11
                  11
                  11
                  11
                  11
                  11
                  11
                  12
                  12
                  12
                  11
                  11
                  11
                  11
                  11
                  11
                  12
                  12
                  12
                  12
                  12
                  12
                  12
                  11
                  11
                  11
                  11
                  11
                  11
                  11
                  11
                  11
                  11
                  11
                  11
                  12
                  12
                  12
                  12
                  12
                  12
                  12
                  12
                  12
                  12
                  11
                  11
                  11
                  11
                  11
                  11
                  11
                  11
                  11
                  11
                  11
                  11
                  11
                  11
                  11
                  12
                  11
                  11
                  11
                  11
                  12
                  12
                  11
                  12
                  12
                  12
                  12
                  12
                  12
                  11
                  11
                  11
                  11
                  11
                  11
                  11
                  11
                  11
                  11
                  11
                  12
                  12
                  12
                  11
                  11
                  11
                  11
                  11
                  11
                  12
                  12
                  12
                  12
                  12
                  12
                  12
                  11
                  11
                  11
                  11
                  11
                  11
                  11
                  11
                  11
                  11
                  11
                  11
                  12
                  12
                  12
                  12
                  12
                  12
                  12
                  12
                  12
                  12
                  11
                  11
                  11
                  11
                  11
                  11
                  11
                  11
                  11
                  11
                  11
                  11
                  11
                  11
                  11
                  12
                  11
                  11
                  11
                  11
                  12
                  12
                  11
                  12
                  12
                  12
                  12
                  12
                  12
                  11
                  11
                  11
                  11
                  11
                  11
                  11
                  11
                  11
                  11
                  11
                  12
                  12
                  12
                  11
                  11
                  11
                  11
                  11
                  11
                  12
                  12
                  12
                  12
                  12
                  12
                  12
                  11
                  11
                  11
                  11
                  11
                  11
                  11
                  11
                  11
                  11
                  11
                  11
                  12
                  12
                  12
                  12
                  12
                  12
                  12
                  12
                  12
                  12
                  11
                  11
                  11
                  11
                  11
                  11
                  11
                  11
                  11
                  11
                  11
                  11
                  11
                  11
                  11
                  12
                  11
                  11
                  11
                  11
                  12
                  12
                  11
                  12
                  12
                  12
                  12
                  12
                  12
                  11
                  11
                  11
                  11
                  11
                  11
                  11
                  11
                  11
                  11
                  11
                  12
                  12
                  12
                  11
                  11
                  11
                  11
                  11
                  11
                  12
                  12
                  12
                  12
                  12
                  12
                  12
                  11
                  11
                  11
                  11
                  11
                  11
                  11
                  11
                  11
                  11
                  11
                  11
                  12
                  12
                  12
                  12
                  12
                  12
                  12
                  12
                  12
                  12
                  11
                  11
                  11
                  11
                  11
                  11
                  11
                  11
                  11
                  11
                  11
                  11
                  11
                  11
                  11
                  12
                  11
                  11
                  11
                  11
                  12
                  12
                  11
                  12
                  12
                  12
                  12
                  12
                  12
                  11
                  11
                  11
                  11
                  11
                  11
                  11
                  11
                  11
                  11
                  11
                  12
                  12
                  12
                  11
                  11
                  11
                  11
                  11
                  11
                  12
                  12
                  12
                  12
                  12
                  12
                  12
                  11
                  11
                  11
                  11
                  11
                  11
                  11
                  11
                  11
                  11
                  11
                  11
                  12
                  12
                  12
                  12
                  12
                  12
                  12
                  12
                  12
                  12
                  11
                  11
                  11
                  11
                  11
                  11
                  11
                  11
                  11
                  11
                  11
                  11
                  11
                  11
                  11
                  12
                  11
                  11
                  11
                  11
                  12
                  12
                  11
                  12
                  12
                  12
                  12
                  12
                  12
                  11
                  11
                  11
                  11
                  11
                  11
                  11
                  11
                  11
                  11
                  11
                  12
                  12
                  12
                  11
                  11
                  11
                  11
                  11
                  11
                  12
                  12
                  12
                  12
                  12
                  12
                  12
                  11
                  11
                  11
                  11
                  11
                  11
                  11
                  11
                  11
                  11
                  11
                  11
                  12
                  12
                  12
                  12
                  12
                  12
                  12
                  12
                  12
                  12
                  11
                  11
                  11
                  11
                  11
                  11
                  11
                  11
                  11
                  11
                  11
                  11
                  11
                  11
                  11
                  12
                  11
                  11
                  11
                  11
                  12
                  12
                  11
                  12
                  12
                  12
                  12
                  12
                  12
                  11
                  11
                  11
                  11
                  11
                  11
                  11
                  11
                  11
                  11
                  11
                  12
                  12
                  12
                  11
                  11
                  11
                  11
                  11
                  11
                  12
                  12
                  12
                  12
                  12
                  12
                  12
                  11
                  11
                  11
                  11
                  11
                  11
                  11
                  11
                  11
                  11
                  11
                  11
                  12
                  12
                  12
                  12
                  12
                  12
                  12
                  12
                  12
                  12
                  11
                  11
                  11
                  11
                  11
                  11
                  11
                  11
                  11
                  11
                  11
                  11
                  11
                  11
                  11
                  12
                  11
                  11
                  11
                  11
                  12
                  12
                  11
                  12
                  12
                  12
                  12
                  12
                  12
                  11
                  11
                  11
                  11
                  11
                  11
                  11
                  11
                  11
                  11
                  11
                  12
                  12
                  12
                  11
                  11
                  11
                  11
                  11
                  11
                  12
                  12
                  12
                  12
                  12
                  12
                  12
                  11
                  11
                  11
                  11
                  11
                  11
                  11
                  11
                  11
                  11
                  11
                  11
                  12
                  12
                  12
                  12
                  12
                  12
                  12
                  12
                  12
                  12
                  11
                  11
                  11
                  11
                  11
                  11
                  11
                  11
                  11
                  11
                  11
                  11
                  11
                  11
                  11
                  12
                  11
                  11
                  11
                  11
                  12
                  12
                  11
                  12
                  12
                  12
                  12
                  12
                  12
                  11
                  11
                  11
                  11
                  11
                  11
                  11
                  11
                  11
                  11
                  11
                  12
                  12
                  12
                  11
                  11
                  11
                  11
                  11
                  11
                  12
                  12
                  12
                  12
                  12
                  12
                  12
                  11
                  11
                  11
                  11
                  11
                  11
                  11
                  11
                  11
                  11
                  11
                  11
                  12
                  12
                  12
                  12
                  12
                  12
                  12
                  12
                  12
                  12
                  11
                  11
                  11
                  11
                  11
                  11
                  11
                  11
                  11
                  11
                  11
                  11
                  11
                  11
  
SCALARS                         Kspace  double 1
LOOKUP_TABLE default
                  11
                  11
                  11
                  11
                  11
                  11
                  11
                  11
                  11
                  11
                  11
                  11
                  11
                  11
                  11
                  11
                  11
                  11
                  11
                  11
                  11
                  11
                  11
                  11
                  11
                  11
                  11
                  11
                  11
                  11
                  11
                  11
                  11
                  11
                  11
                  11
                  11
                  11
                  11
                  11
                  11
                  11
                  11
                  11
                  11
                  11
                  11
                  11
                  11
                  11
                  11
                  11
                  11
                  11
                  11
                  11
                  11
                  11
                  11
                  11
                  11
                  11
                  11
                  11
                  11
                  11
                  11
                  11
                  11
                  11
                  11
                  11
                  11
                  11
                  11
                  11
                  11
                  11
                  11
                  11
                  11
                  11
                  11
                  11
                  11
                  11
                  11
                  11
                  11
                  11
                  11
                  11
                  11
                  11
                  11
                  11
                  11
                  11
                  11
                  11
                  11
                  11
                  11
                  11
                  11
                  11
                  11
                  11
                  11
                  11
                  11
                  11
                  11
                  11
                  11
                  11
                  11
                  11
                  11
                  11
                  11
                  11
                  11
                  11
                  11
                  11
                  11
                  11
                  11
                  11
                  11
                  11
                  11
                  11
                  11
                  11
                  11
                  11
                  11
                  11
                  11
                  11
                  11
                  11
                  11
                  11
                  11
                  11
                  11
                  11
                  11
                  11
                  11
                  11
                  11
                  11
                  11
                  11
                  11
                  11
                  11
                  11
                  11
                  11
                  11
                  11
                  11
                  11
                  11
                  11
                  11
                  11
                  11
                  11
                  11
                  11
                  11
                  11
                  11
                  11
                  11
                  11
                  11
                  11
                  11
                  11
                  11
                  11
                  11
                  11
                  11
                  11
                  11
                  11
                  11
                  11
                  11
                  11
                  11
                  11
                  11
                  11
                  11
                  11
                  11
                  11
                  11
                  11
                  11
                  11
                  11
                  11
                  11
                  11
                  11
                  11
                  11
                  11
                  11
                  11
                  11
                  11
                  11
                  11
                  11
                  11
                  11
                  11
                  11
                  11
                  11
                  11
                  11
                  11
                  11
                  11
                  11
                  11
                  11
                  11
                  11
                  11
                  11
                  11
                  11
                  11
                  11
                  11
                  11
                  11
                  11
                  11
                  11
                  11
                  11
                  11
                  11
                  11
                  11
                  11
                  11
                  11
                  11
                  11
                  11
                  11
                  11
                  11
                  11
                  11
                  11
                  11
                  11
                  11
                  11
                  11
                  11
                  11
                  11
                  11
                  11
                  11
                  11
                  11
                  11
                  11
                  11
                  11
                  11
                  11
                  11
                  11
                  11
                  11
                  11
                  11
                  11
                  11
                  11
                  11
                  11
                  11
                  11
                  11
                  11
                  11
                  11
                  11
                  11
                  11
                  11
                  11
                  12
                  12
                  12
                  12
                  12
                  12
                  12
                  12
                  12
                  12
                  12
                  12
                  12
                  12
                  12
                  12
                  12
                  12
                  12
                  12
                  12
                  12
                  12
                  12
                  12
                  12
                  12
                  12
                  12
                  12
                  12
                  12
                  12
                  12
                  12
                  12
                  12
                  12
                  12
                  12
                  12
                  12
                  12
                  12
                  12
                  12
                  12
                  12
                  12
                  12
                  12
                  12
                  12
                  12
                  12
                  12
                  12
                  12
                  12
                  12
                  12
                  12
                  12
                  12
                  12
                  12
                  12
                  12
                  12
                  12
                  12
                  12
                  12
                  12
                  12
                  12
                  12
                  12
                  12
                  12
                  12
                  12
                  12
                  12
                  12
                  12
                  12
                  12
                  12
                  12
                  12
                  12
                  12
                  12
                  12
                  12
                  12
                  12
                  12
                  12
                  12
                  12
                  12
                  12
                  12
                  12
                  12
                  12
                  12
                  12
                  12
                  12
                  12
                  12
                  12
                  12
                  12
                  12
                  12
                  12
                  12
                  12
                  12
                  12
                  12
                  12
                  12
                  12
                  12
                  12
                  12
                  12
                  12
                  12
                  12
                  12
                  12
                  12
                  12
                  12
                  12
                  12
                  12
                  12
                  12
                  12
                  12
                  12
                  12
                  12
                  12
                  12
                  12
                  12
                  12
                  12
                  12
                  12
                  12
                  12
                  12
                  12
                  12
                  12
                  12
                  12
                  12
                  12
                  12
                  12
                  12
                  12
                  12
                  12
                  12
                  12
                  12
                  12
                  12
                  12
                  12
                  12
                  12
                  12
                  12
                  12
                  12
                  12
                  12
                  12
                  12
                  12
                  12
                  12
                  12
                  12
                  12
                  12
                  12
                  12
                  12
                  12
                  12
                  12
                  12
                  12
                  12
                  12
                  12
                  12
                  12
                  12
                  12
                  12
                  12
                  12
                  12
                  12
                  12
                  12
                  12
                  12
                  12
                  12
                  12
                  12
                  12
                  12
                  12
                  12
                  12
                  12
                  12
                  12
                  13
                  13
                  13
                  13
                  13
                  13
                  13
                  13
                  13
                  13
                  13
                  13
                  13
                  13
                  13
                  13
                  13
                  13
                  13
                  13
                  13
                  13
                  13
                  13
                  13
                  13
                  13
                  13
                  13
                  13
                  13
                  13
                  13
                  13
                  13
                  13
                  13
                  13
                  13
                  13
                  13
                  13
                  13
                  13
                  13
                  13
                  13
                  13
                  13
                  13
                  13
                  13
                  13
                  13
                  13
                  13
                  13
                  13
                  13
                  13
                  13
                  13
                  13
                  13
                  13
                  13
                  13
                  13
                  13
                  13
                  13
                  13
                  13
                  13
                  13
                  13
                  13
                  13
                  13
                  13
                  13
                  13
                  13
                  13
                  13
                  13
                  13
                  13
                  13
                  13
                  13
                  13
                  13
                  13
                  13
                  13
                  13
                  13
                  13
                  13
                  13
                  13
                  13
                  13
                  13
                  13
                  13
                  13
                  13
                  13
                  13
                  13
                  13
                  13
                  13
                  13
                  13
                  13
                  13
                  13
                  13
                  13
                  13
                  13
                  13
                  13
                  13
                  13
                  13
                  13
                  13
                  13
                  13
                  13
                  13
                  13
                  13
                  13
                  13
                  13
                  13
                  13
                  13
                  13
                  13
                  13
                  13
                  13
                  13
                  13
                  13
                  13
                  13
                  13
                  13
                  13
                  13
                  13
                  13
                  13
                  13
                  13
                  13
                  13
                  13
                  13
                  13
                  13
                  13
                  13
                  13
                  13
                  13
                  13
                  13
                  13
                  13
                  13
                  13
                  13
                  13
                  13
                  13
                  13
                  13
                  13
                  13
                  13
                  13
                  13
                  13
                  13
                  13
                  13
                  13
                  13
                  13
                  13
                  13
                  13
                  13
                  13
                  13
                  13
                  13
                  13
                  13
                  13
                  13
                  13
                  13
                  13
                  13
                  13
                  13
                  13
                  13
                  13
                  13
                  13
                  13
                  13
                  13
                  13
                  13
                  13
                  13
                  13
                  13
                  13
                  13
                  13
                  13
                  13
                  14
                  14
                  14
                  14
                  14
                  14
                  14
                  14
                  14
                  14
                  14
                  14
                  14
                  14
                  14
                  14
                  14
                  14
                  14
                  14
                  14
                  14
                  14
                  14
                  14
                  14
                  14
                  14
                  14
                  14
                  14
                  14
                  14
                  14
                  14
                  14
                  14
                  14
                  14
                  14
                  14
                  14
                  14
                  14
                  14
                  14
                  14
                  14
                  14
                  14
                  14
                  14
                  14
                  14
                  14
                  14
                  14
                  14
                  14
                  14
                  14
                  14
                  14
                  14
                  14
                  14
                  14
                  14
                  14
                  14
                  14
                  14
                  14
                  14
                  14
                  14
                  14
                  14
                  14
                  14
                  14
                  14
                  14
                  14
                  14
                  14
                  14
                  14
                  14
                  14
                  14
                  14
                  14
                  14
                  14
                  14
                  14
                  14
                  14
                  14
                  14
                  14
                  14
                  14
                  14
                  14
                  14
                  14
                  14
                  14
                  14
                  14
                  14
                  14
                  14
                  14
                  14
                  14
                  14
                  14
                  14
                  14
                  14
                  14
                  14
                  14
                  14
                  14
                  14
                  14
                  14
                  14
                  14
                  14
                  14
                  14
                  14
                  14
                  14
                  14
                  14
                  14
                  14
                  14
                  14
                  14
                  14
                  14
                  14
                  14
                  14
                  14
                  14
                  14
                  14
                  14
                  14
                  14
                  14
                  14
                  14
                  14
                  14
                  14
                  14
                  14
                  14
                  14
                  14
                  14
                  14
                  14
                  14
                  14
                  14
                  14
                  14
                  14
                  14
                  14
                  14
                  14
                  14
                  14
                  14
                  14
                  14
                  14
                  14
                  14
                  14
                  14
                  14
                  14
                  14
                  14
                  14
                  14
                  14
                  14
                  14
                  14
                  14
                  14
                  14
                  14
                  14
                  14
                  14
                  14
                  14
                  14
                  14
                  14
                  14
                  14
                  14
                  14
                  14
                  14
                  14
                  14
                  14
                  14
                  14
                  14
                  14
                  14
                  14
                  14
                  14
                  14
                  14
                  14
                  15
                  15
                  15
                  15
                  15
                  15
                  15
                  15
                  15
                  15
                  15
                  15
                  15
                  15
                  15
                  15
                  15
                  15
                  15
                  15
                  15
                  15
                  15
                  15
                  15
                  15
                  15
                  15
                  15
                  15
                  15
                  15
                  15
                  15
                  15
                  15
                  15
                  15
                  15
                  15
                  15
                  15
                  15
                  15
                  15
                  15
                  15
                  15
                  15
                  15
                  15
                  15
                  15
                  15
                  15
                  15
                  15
                  15
                  15
                  15
                  15
                  15
                  15
                  15
                  15
                  15
                  15
                  15
                  15
                  15
                  15
                  15
                  15
                  15
                  15
                  15
                  15
                  15
                  15
                  15
                  15
                  15
                  15
                  15
                  15
                  15
                  15
                  15
                  15
                  15
                  15
                  15
                  15
                  15
                  15
                  15
                  15
                  15
                  15
                  15
                  15
                  15
                  15
                  15
                  15
                  15
                  15
                  15
                  15
                  15
                  15
                  15
                  15
                  15
                  15
                  15
                  15
                  15
                  15
                  15
                  15
                  15
                  15
                  15
                  15
                  15
                  15
                  15
                  15
                  15
                  15
                  15
                  15
                  15
                  15
                  15
                  15
                  15
                  15
                  15
                  15
                  15
                  15
                  15
                  15
                  15
                  15
                  15
                  15
                  15
                  15
                  15
                  15
                  15
                  15
                  15
                  15
                  15
                  15
                  15
                  15
                  15
                  15
                  15
                  15
                  15
                  15
                  15
                  15
                  15
                  15
                  15
                  15
                  15
                  15
                  15
                  15
                  15
                  15
                  15
                  15
                  15
                  15
                  15
                  15
                  15
                  15
                  15
                  15
                  15
                  15
                  15
                  15
                  15
                  15
                  15
                  15
                  15
                  15
                  15
                  15
                  15
                  15
                  15
                  15
                  15
                  15
                  15
                  15
                  15
                  15
                  15
                  15
                  15
                  15
                  15
                  15
                  15
                  15
                  15
                  15
                  15
                  15
                  15
                  15
                  15
                  15
                  15
                  15
                  15
                  15
                  15
                  15
                  15
                  15
                  15
                  15
                  15
                  15
                  15
                  15
                  15
                  15
                  15
                  15
                  15
                  15
                  15
                  15
                  15
                  15
                  15
                  15
                  15
                  15
                  15
                  15
                  15
                  15
                  15
                  15
                  15
                  15
                  15
                  15
                  15
                  15
                  15
                  15
                  15
                  15
                  15
                  15
                  15
                  15
                  15
                  15
                  15
                  15
                  15
                  15
                  15
                  15
                  15
                  15
                  15
                  15
                  15
                  15
                  15
                  15
                  15
                  15
                  15
                  15
                  15
                  15
                  15
                  15
                  15
                  15
                  15
                  15
                  15
                  15
                  15
                  15
                  15
                  15
                  15
                  15
                  15
                  16
                  16
                  16
                  16
                  16
                  16
                  16
                  16
                  16
                  16
                  16
                  16
                  16
                  16
                  16
                  16
                  16
                  16
                  16
                  16
                  16
                  16
                  16
                  16
                  16
                  16
                  16
                  16
                  16
                  16
                  16
                  16
                  16
                  16
                  16
                  16
                  16
                  16
                  16
                  16
                  16
                  16
                  16
                  16
                  16
                  16
                  16
                  16
                  16
                  16
                  16
                  16
                  16
                  16
                  16
                  16
                  16
                  16
                  16
                  16
                  16
                  16
                  16
                  16
                  16
                  16
                  16
                  16
                  16
                  16
                  16
                  16
                  16
                  16
                  16
                  16
                  16
                  16
                  16
                  16
                  16
                  16
                  16
                  16
                  16
                  16
                  16
                  16
                  16
                  16
                  16
                  16
                  16
                  16
                  16
                  16
                  16
                  16
                  16
                  16
                  16
                  16
                  16
                  16
                  16
                  16
                  16
                  16
                  16
                  16
                  16
                  16
                  16
                  16
                  16
                  16
                  16
                  16
                  16
                  16
                  16
                  16
                  16
                  16
                  16
                  16
                  16
                  16
                  16
                  16
                  16
                  16
                  16
                  16
                  16
                  16
                  16
                  16
                  16
                  16
                  16
                  16
                  16
                  16
                  16
                  16
                  16
                  16
                  16
                  16
                  16
                  16
                  16
                  16
                  16
                  16
                  16
                  16
                  16
                  16
                  16
                  16
                  16
                  16
                  16
                  16
                  16
                  16
                  16
                  16
                  16
                  16
                  16
                  16
                  16
                  16
                  16
                  16
                  16
                  16
                  16
                  16
                  16
                  16
                  16
                  16
                  16
                  16
                  16
                  16
                  16
                  16
                  16
                  16
                  16
                  16
                  16
                  16
                  16
                  16
                  16
                  16
                  16
                  16
                  16
                  16
                  16
                  16
                  16
                  16
                  16
                  16
                  16
                  16
                  16
                  16
                  16
                  16
                  16
                  16
                  16
                  16
                  16
                  16
                  16
                  16
                  16
                  16
                  16
                  16
                  16
                  16
                  16
                  16
                  17
                  17
                  17
                  17
                  17
                  17
                  17
                  17
                  17
                  17
                  17
                  17
                  17
                  17
                  17
                  17
                  17
                  17
                  17
                  17
                  17
                  17
                  17
                  17
                  17
                  17
                  17
                  17
                  17
                  17
                  17
                  17
                  17
                  17
                  17
                  17
                  17
                  17
                  17
                  17
                  17
                  17
                  17
                  17
                  17
                  17
                  17
                  17
                  17
                  17
                  17
                  17
                  17
                  17
                  17
                  17
                  17
                  17
                  17
                  17
                  17
                  17
                  17
                  17
                  17
                  17
                  17
                  17
                  17
                  17
                  17
                  17
                  17
                  17
                  17
                  17
                  17
                  17
                  17
                  17
                  17
                  17
                  17
                  17
                  17
                  17
                  17
                  17
                  17
                  17
                  17
                  17
                  17
                  17
                  17
                  17
                  17
                  17
                  17
                  17
                  17
                  17
                  17
                  17
                  17
                  17
                  17
                  17
                  17
                  17
                  17
                  17
                  17
                  17
                  17
                  17
                  17
                  17
                  17
                  17
                  17
                  17
                  17
                  17
                  17
                  17
                  17
                  17
                  17
                  17
                  17
                  17
                  17
                  17
                  17
                  17
                  17
                  17
                  17
                  17
                  17
                  17
                  17
                  17
                  17
                  17
                  17
                  17
                  17
                  17
                  17
                  17
                  17
                  17
                  17
                  17
                  17
                  17
                  17
                  17
                  17
                  17
                  17
                  17
                  17
                  17
                  17
                  17
                  17
                  17
                  17
                  17
                  17
                  17
                  17
                  17
                  17
                  17
                  17
                  17
                  17
                  17
                  17
                  17
                  17
                  17
                  17
                  17
                  17
                  17
                  17
                  17
                  17
                  17
                  17
                  17
                  17
                  17
                  17
                  17
                  17
                  17
                  17
                  17
                  17
                  17
                  17
                  17
                  17
                  17
                  17
                  17
                  17
                  17
                  17
                  17
                  17
                  17
                  17
                  17
                  17
                  17
                  17
                  17
                  17
                  17
                  17
                  17
                  17
                  17
                  17
                  17
                  17
                  17
                  18
                  18
                  18
                  18
                  18
                  18
                  18
                  18
                  18
                  18
                  18
                  18
                  18
                  18
                  18
                  18
                  18
                  18
                  18
                  18
                  18
                  18
                  18
                  18
                  18
                  18
                  18
                  18
                  18
                  18
                  18
                  18
                  18
                  18
                  18
                  18
                  18
                  18
                  18
                  18
                  18
                  18
                  18
                  18
                  18
                  18
                  18
                  18
                  18
                  18
                  18
                  18
                  18
                  18
                  18
                  18
                  18
                  18
                  18
                  18
                  18
                  18
                  18
                  18
                  18
                  18
                  18
                  18
                  18
                  18
                  18
                  18
                  18
                  18
                  18
                  18
                  18
                  18
                  18
                  18
                  18
                  18
                  18
                  18
                  18
                  18
                  18
                  18
                  18
                  18
                  18
                  18
                  18
                  18
                  18
                  18
                  18
                  18
                  18
                  18
                  18
                  18
                  18
                  18
                  18
                  18
                  18
                  18
                  18
                  18
                  18
                  18
                  18
                  18
                  18
                  18
                  18
                  18
                  18
                  18
                  18
                  18
                  18
                  18
                  18
                  18
                  18
                  18
                  18
                  18
                  18
                  18
                  18
                  18
                  18
                  18
                  18
                  18
                  18
                  18
                  18
                  18
                  18
                  18
                  18
                  18
                  18
                  18
                  18
                  18
                  18
                  18
                  18
                  18
                  18
                  18
  
SCALARS                 displacement_x  double 1
LOOKUP_TABLE default
         0.17939E-02
         0.25469E-02
         0.31843E-02
         0.26269E-02
         0.23963E-02
         0.33292E-02
         0.37540E-02
         0.36508E-02
         0.35569E-02
         0.33917E-02
         0.37554E-02
         0.47828E-02
         0.19035E-02
         0.12352E-02
         0.20120E-02
         0.22119E-02
         0.23167E-03
        -0.72216E-04
         0.35716E-03
         0.32736E-03
         0.14530E-02
         0.14655E-02
         0.20502E-02
         0.15449E-02
         0.19726E-02
         0.17229E-02
         0.84566E-03
         0.71498E-03
         0.13658E-02
         0.10583E-02
        -0.13283E-02
        -0.15455E-02
         0.72319E-03
        -0.23681E-02
        -0.19469E-02
         0.79858E-03
        -0.27137E-02
        -0.28484E-02
        -0.31638E-02
        -0.37270E-02
        -0.32763E-02
        -0.34382E-02
        -0.39059E-02
        -0.41214E-02
        -0.29282E-02
        -0.26077E-02
        -0.34929E-02
        -0.27402E-02
        -0.16229E-02
        -0.23034E-02
        -0.20153E-02
        -0.23405E-02
        -0.27551E-03
        -0.44673E-04
        -0.15544E-02
        -0.20436E-02
        -0.25167E-02
        -0.27793E-02
        -0.30440E-02
        -0.35805E-02
        -0.34781E-03
        -0.13435E-02
        -0.82906E-03
        -0.18431E-02
         0.11735E-02
         0.18482E-02
         0.24452E-02
         0.30936E-02
         0.35080E-02
         0.32437E-02
         0.44605E-02
         0.36937E-02
         0.27001E-02
         0.32384E-02
        -0.35137E-03
        -0.46329E-03
        -0.14543E-02
        -0.22723E-02
        -0.22743E-02
        -0.27213E-02
        -0.26748E-02
        -0.29784E-02
        -0.32979E-02
        -0.31200E-02
        -0.33168E-02
        -0.40746E-02
        -0.23946E-02
        -0.27940E-02
        -0.18252E-02
        -0.17675E-02
        -0.13817E-02
        -0.83615E-03
        -0.17675E-02
        -0.12789E-02
         0.13266E-03
        -0.44387E-03
         0.13168E-02
         0.21773E-02
         0.22386E-02
         0.27097E-02
         0.27183E-02
         0.30414E-02
         0.37303E-02
         0.28324E-02
         0.34718E-02
         0.35841E-02
         0.40515E-02
         0.40777E-02
         0.31292E-02
         0.34790E-02
         0.26098E-02
         0.30217E-02
         0.20055E-02
         0.22915E-02
         0.14359E-02
         0.18434E-02
         0.62174E-03
         0.68052E-03
        -0.33486E-03
        -0.35915E-03
        -0.12433E-02
        -0.12817E-02
        -0.20502E-02
        -0.23564E-02
        -0.26266E-02
        -0.30841E-02
        -0.30512E-02
        -0.34485E-02
        -0.34133E-02
        -0.40315E-02
        -0.35163E-02
        -0.40662E-02
        -0.33911E-02
        -0.38923E-02
        -0.30911E-02
        -0.35631E-02
        -0.25526E-02
        -0.29851E-02
        -0.19572E-02
        -0.22165E-02
        -0.13480E-02
        -0.16273E-02
        -0.47248E-03
        -0.28301E-03
         0.39747E-03
         0.61641E-03
         0.12574E-02
         0.13882E-02
         0.20533E-02
         0.21856E-02
         0.26797E-02
         0.31483E-02
         0.31018E-02
         0.33595E-02
         0.34635E-02
         0.40803E-02
         0.15658E-02
         0.22784E-02
         0.28599E-02
         0.23548E-02
         0.31659E-02
         0.30212E-02
         0.16818E-02
         0.10464E-02
         0.17253E-03
        -0.10949E-03
         0.12655E-02
         0.12789E-02
         0.18387E-02
         0.71442E-03
         0.61295E-03
        -0.11794E-02
        -0.13893E-02
         0.64495E-03
        -0.24324E-02
        -0.25454E-02
        -0.29229E-02
        -0.30575E-02
        -0.26182E-02
        -0.23411E-02
        -0.14626E-02
        -0.17993E-02
        -0.26665E-03
        -0.13858E-02
        -0.22400E-02
        -0.24825E-02
        -0.29205E-03
        -0.11802E-02
         0.10539E-02
         0.21849E-02
         0.31098E-02
         0.29050E-02
         0.24373E-02
        -0.30157E-03
        -0.12575E-02
        -0.19873E-02
        -0.23417E-02
        -0.26383E-02
        -0.29421E-02
        -0.21351E-02
        -0.16114E-02
        -0.12107E-02
        -0.72747E-03
         0.13101E-03
         0.11699E-02
         0.19759E-02
         0.23838E-02
         0.26998E-02
         0.30359E-02
         0.31350E-02
         0.27611E-02
         0.23255E-02
         0.17715E-02
         0.12331E-02
         0.54120E-03
        -0.29152E-03
        -0.10886E-02
        -0.17673E-02
        -0.22665E-02
        -0.26571E-02
        -0.29699E-02
        -0.30805E-02
        -0.29648E-02
        -0.27010E-02
        -0.22340E-02
        -0.17224E-02
        -0.11990E-02
        -0.45296E-03
         0.32262E-03
         0.11047E-02
         0.17970E-02
         0.23223E-02
         0.27143E-02
         0.30136E-02
         0.13143E-02
         0.19486E-02
         0.24534E-02
         0.20127E-02
         0.27135E-02
         0.25966E-02
         0.14337E-02
         0.87045E-03
         0.14397E-03
        -0.10291E-03
         0.10714E-02
         0.10852E-02
         0.15855E-02
         0.59176E-03
         0.50412E-03
        -0.10022E-02
        -0.11698E-02
         0.54820E-03
        -0.20839E-02
        -0.21809E-02
        -0.25099E-02
        -0.26325E-02
        -0.22443E-02
        -0.20121E-02
        -0.12499E-02
        -0.15422E-02
        -0.24192E-03
        -0.11938E-02
        -0.19219E-02
        -0.21336E-02
        -0.24219E-03
        -0.99671E-03
         0.90431E-03
         0.18696E-02
         0.26560E-02
         0.24914E-02
         0.21030E-02
        -0.26529E-03
        -0.10660E-02
        -0.16822E-02
        -0.19822E-02
        -0.22533E-02
        -0.25295E-02
        -0.18218E-02
        -0.13584E-02
        -0.10094E-02
        -0.59965E-03
         0.12682E-03
         0.10066E-02
         0.16840E-02
         0.20277E-02
         0.23120E-02
         0.25701E-02
         0.26656E-02
         0.23496E-02
         0.19997E-02
         0.15161E-02
         0.10301E-02
         0.44372E-03
        -0.25004E-03
        -0.91216E-03
        -0.14710E-02
        -0.19036E-02
        -0.22575E-02
        -0.25457E-02
        -0.26400E-02
        -0.25252E-02
        -0.22905E-02
        -0.18920E-02
        -0.14530E-02
        -0.10061E-02
        -0.37636E-03
         0.27534E-03
         0.94250E-03
         0.15213E-02
         0.19642E-02
         0.23174E-02
         0.25678E-02
         0.10455E-02
         0.15813E-02
         0.20011E-02
         0.16317E-02
         0.22358E-02
         0.21423E-02
         0.11625E-02
         0.68944E-03
         0.11923E-03
        -0.85412E-04
         0.86661E-03
         0.88496E-03
         0.13130E-02
         0.46918E-03
         0.39496E-03
        -0.81301E-03
        -0.92760E-03
         0.44188E-03
        -0.16969E-02
        -0.17714E-02
        -0.20642E-02
        -0.21724E-02
        -0.18484E-02
        -0.16507E-02
        -0.10065E-02
        -0.12661E-02
        -0.20573E-03
        -0.97504E-03
        -0.15674E-02
        -0.17377E-02
        -0.19724E-03
        -0.81014E-03
         0.73524E-03
         0.15252E-02
         0.21963E-02
         0.20587E-02
         0.17441E-02
        -0.22573E-03
        -0.86610E-03
        -0.13671E-02
        -0.16238E-02
        -0.18511E-02
        -0.20864E-02
        -0.15021E-02
        -0.11126E-02
        -0.82113E-03
        -0.47878E-03
         0.11367E-03
         0.83003E-03
         0.13822E-02
         0.16745E-02
         0.19103E-02
         0.21631E-02
         0.22584E-02
         0.19933E-02
         0.17107E-02
         0.12898E-02
         0.85149E-03
         0.34778E-03
        -0.21859E-03
        -0.75593E-03
        -0.12167E-02
        -0.15987E-02
        -0.19139E-02
        -0.21607E-02
        -0.22394E-02
        -0.21353E-02
        -0.19370E-02
        -0.16104E-02
        -0.12391E-02
        -0.84343E-03
        -0.31317E-03
         0.23297E-03
         0.80379E-03
         0.12834E-02
         0.16560E-02
         0.19796E-02
         0.21872E-02
         0.79909E-03
         0.12327E-02
         0.15707E-02
         0.12709E-02
         0.17805E-02
         0.17037E-02
         0.90326E-03
         0.52357E-03
         0.94512E-04
        -0.70080E-04
         0.67150E-03
         0.69758E-03
         0.10511E-02
         0.35620E-03
         0.29893E-03
        -0.63488E-03
        -0.70531E-03
         0.34082E-03
        -0.13233E-02
        -0.13751E-02
        -0.16395E-02
        -0.17303E-02
        -0.14725E-02
        -0.13020E-02
        -0.77682E-03
        -0.10038E-02
        -0.17054E-03
        -0.76719E-03
        -0.12287E-02
        -0.13512E-02
        -0.15729E-03
        -0.63820E-03
         0.57460E-03
         0.12016E-02
         0.17644E-02
         0.16496E-02
         0.14003E-02
        -0.18891E-03
        -0.69093E-03
        -0.10885E-02
        -0.13088E-02
        -0.14801E-02
        -0.16635E-02
        -0.12036E-02
        -0.88812E-03
        -0.64646E-03
        -0.36416E-03
         0.10179E-03
         0.66176E-03
         0.11008E-02
         0.13460E-02
         0.15278E-02
         0.17812E-02
         0.18647E-02
         0.16528E-02
         0.14289E-02
         0.10764E-02
         0.69556E-03
         0.26323E-03
        -0.19370E-03
        -0.63011E-03
        -0.10137E-02
        -0.13468E-02
        -0.16135E-02
        -0.18124E-02
        -0.18715E-02
        -0.17755E-02
        -0.16043E-02
        -0.13390E-02
        -0.10323E-02
        -0.68386E-03
        -0.23892E-03
         0.20355E-03
         0.66860E-03
         0.10617E-02
         0.13704E-02
         0.16429E-02
         0.18047E-02
         0.58719E-03
         0.92632E-03
         0.11866E-02
         0.94700E-03
         0.13835E-02
         0.13164E-02
         0.67358E-03
         0.37162E-03
         0.65995E-04
        -0.71690E-04
         0.49462E-03
         0.53464E-03
         0.82490E-03
         0.24688E-03
         0.21324E-03
        -0.46949E-03
        -0.52005E-03
         0.25538E-03
        -0.98931E-03
        -0.10248E-02
        -0.12719E-02
        -0.13413E-02
        -0.11509E-02
        -0.98729E-03
        -0.58275E-03
        -0.76059E-03
        -0.14764E-03
        -0.58340E-03
        -0.92746E-03
        -0.10083E-02
        -0.11579E-03
        -0.47973E-03
         0.42979E-03
         0.90866E-03
         0.13956E-02
         0.12925E-02
         0.11004E-02
        -0.15878E-03
        -0.53912E-03
        -0.84828E-03
        -0.10432E-02
        -0.11610E-02
        -0.12934E-02
        -0.94610E-03
        -0.69645E-03
        -0.50020E-03
        -0.26391E-03
         0.91318E-04
         0.51061E-03
         0.85420E-03
         0.10670E-02
         0.11944E-02
         0.14877E-02
         0.15640E-02
         0.13875E-02
         0.12113E-02
         0.91530E-03
         0.57530E-03
         0.19642E-03
        -0.17289E-03
        -0.52336E-03
        -0.84867E-03
        -0.11438E-02
        -0.13672E-02
        -0.15241E-02
        -0.15735E-02
        -0.15059E-02
        -0.13675E-02
        -0.11479E-02
        -0.88219E-03
        -0.55998E-03
        -0.17758E-03
         0.17990E-03
         0.55322E-03
         0.88257E-03
         0.11481E-02
         0.13855E-02
         0.15177E-02
         0.42604E-03
         0.68325E-03
         0.87502E-03
         0.68736E-03
         0.10520E-02
         0.99206E-03
         0.49418E-03
         0.25552E-03
         0.48435E-04
        -0.68776E-04
         0.35644E-03
         0.40561E-03
         0.63856E-03
         0.15952E-03
         0.14534E-03
        -0.33181E-03
        -0.36974E-03
         0.19169E-03
        -0.71985E-03
        -0.74262E-03
        -0.97233E-03
        -0.10210E-02
        -0.89098E-03
        -0.73413E-03
        -0.42442E-03
        -0.56129E-03
        -0.12892E-03
        -0.43294E-03
        -0.68798E-03
        -0.73547E-03
        -0.78509E-04
        -0.34873E-03
         0.31310E-03
         0.66642E-03
         0.10845E-02
         0.99242E-03
         0.84859E-03
        -0.13937E-03
        -0.42093E-03
        -0.65781E-03
        -0.83092E-03
        -0.90512E-03
        -0.99160E-03
        -0.73427E-03
        -0.53651E-03
        -0.37959E-03
        -0.18449E-03
         0.80905E-04
         0.38661E-03
         0.64884E-03
         0.82898E-03
         0.91150E-03
         0.12299E-02
         0.12896E-02
         0.11519E-02
         0.10071E-02
         0.75918E-03
         0.46819E-03
         0.15104E-03
        -0.15352E-03
        -0.44266E-03
        -0.71902E-03
        -0.96978E-03
        -0.11503E-02
        -0.12716E-02
        -0.13112E-02
        -0.12589E-02
        -0.11479E-02
        -0.96883E-03
        -0.74168E-03
        -0.45116E-03
        -0.12672E-03
         0.15961E-03
         0.45867E-03
         0.72980E-03
         0.94796E-03
         0.11444E-02
         0.12488E-02
         0.29742E-03
         0.48398E-03
         0.62023E-03
         0.47514E-03
         0.78879E-03
         0.73450E-03
         0.35135E-03
         0.17069E-03
         0.36630E-04
        -0.56685E-04
         0.25017E-03
         0.30137E-03
         0.48414E-03
         0.98504E-04
         0.93840E-04
        -0.22197E-03
        -0.25224E-03
         0.14056E-03
        -0.50578E-03
        -0.52175E-03
        -0.73059E-03
        -0.76281E-03
        -0.67975E-03
        -0.52878E-03
        -0.29696E-03
        -0.39787E-03
        -0.10446E-03
        -0.31001E-03
        -0.50178E-03
        -0.52393E-03
        -0.45258E-04
        -0.24163E-03
         0.22056E-03
         0.47063E-03
         0.83730E-03
         0.74885E-03
         0.64054E-03
        -0.12059E-03
        -0.32477E-03
        -0.50732E-03
        -0.66039E-03
        -0.69939E-03
        -0.74803E-03
        -0.56213E-03
        -0.40932E-03
        -0.28813E-03
        -0.12578E-03
         0.68996E-04
         0.28530E-03
         0.48459E-03
         0.64287E-03
         0.68827E-03
         0.10343E-02
         0.10881E-02
         0.97027E-03
         0.84506E-03
         0.62913E-03
         0.37599E-03
         0.11095E-03
        -0.14223E-03
        -0.37930E-03
        -0.61297E-03
        -0.82170E-03
        -0.96673E-03
        -0.10599E-02
        -0.10962E-02
        -0.10679E-02
        -0.98238E-03
        -0.83324E-03
        -0.63551E-03
        -0.37279E-03
        -0.99018E-04
         0.13507E-03
         0.38235E-03
         0.61002E-03
         0.79845E-03
         0.96953E-03
         0.10564E-02
         0.20358E-03
         0.34366E-03
         0.44675E-03
         0.33050E-03
         0.60012E-03
         0.55068E-03
         0.24750E-03
         0.11194E-03
         0.23786E-04
        -0.45393E-04
         0.17363E-03
         0.22394E-03
         0.36768E-03
         0.60608E-04
         0.62453E-04
        -0.14884E-03
        -0.17284E-03
         0.99692E-04
        -0.35520E-03
        -0.36738E-03
        -0.55153E-03
        -0.57373E-03
        -0.52181E-03
        -0.38375E-03
        -0.21050E-03
        -0.28495E-03
        -0.81214E-04
        -0.22631E-03
        -0.37437E-03
        -0.37846E-03
        -0.22738E-04
        -0.16870E-03
         0.15865E-03
         0.33721E-03
         0.65379E-03
         0.57369E-03
         0.48833E-03
        -0.99890E-04
        -0.25609E-03
        -0.40047E-03
        -0.52882E-03
        -0.54571E-03
        -0.57006E-03
        -0.43339E-03
        -0.31451E-03
        -0.21955E-03
        -0.84206E-04
         0.62851E-04
         0.21680E-03
         0.36643E-03
         0.49820E-03
         0.52216E-03
         0.85618E-03
         0.89252E-03
         0.80630E-03
         0.69796E-03
         0.51491E-03
         0.30548E-03
         0.87573E-04
        -0.12629E-03
        -0.32718E-03
        -0.52047E-03
        -0.68726E-03
        -0.80218E-03
        -0.87528E-03
        -0.90456E-03
        -0.88336E-03
        -0.81514E-03
        -0.69293E-03
        -0.52483E-03
        -0.30178E-03
        -0.74113E-04
         0.11944E-03
         0.32157E-03
         0.50484E-03
         0.65434E-03
         0.78946E-03
         0.86168E-03
         0.13798E-03
         0.24847E-03
         0.32884E-03
         0.23131E-03
         0.47058E-03
         0.42640E-03
         0.18004E-03
         0.73735E-04
         0.17425E-04
        -0.34990E-04
         0.12585E-03
         0.17344E-03
         0.28809E-03
         0.37448E-04
         0.42519E-04
        -0.98067E-04
        -0.11296E-03
         0.71662E-04
        -0.25491E-03
        -0.26105E-03
        -0.43354E-03
        -0.44651E-03
        -0.41794E-03
        -0.28932E-03
        -0.14855E-03
        -0.21142E-03
        -0.65428E-04
        -0.17210E-03
        -0.29192E-03
        -0.27951E-03
        -0.10267E-04
        -0.12380E-03
         0.11737E-03
         0.24915E-03
         0.52495E-03
         0.45075E-03
         0.38078E-03
        -0.85435E-04
        -0.20997E-03
        -0.32904E-03
        -0.43804E-03
        -0.44283E-03
        -0.45040E-03
        -0.34749E-03
        -0.25180E-03
        -0.17605E-03
        -0.62216E-04
         0.53993E-04
         0.17061E-03
         0.28889E-03
         0.40134E-03
         0.41085E-03
         0.72246E-03
         0.74646E-03
         0.67944E-03
         0.58302E-03
         0.42913E-03
         0.25356E-03
         0.69557E-04
        -0.11215E-03
        -0.28391E-03
        -0.44272E-03
        -0.57698E-03
        -0.67036E-03
        -0.73341E-03
        -0.76271E-03
        -0.74992E-03
        -0.69148E-03
        -0.58645E-03
        -0.44198E-03
        -0.25152E-03
        -0.61843E-04
         0.10171E-03
         0.27149E-03
         0.42387E-03
         0.55114E-03
         0.66318E-03
         0.72263E-03
         0.99595E-04
         0.19187E-03
         0.25979E-03
         0.17423E-03
         0.38063E-03
         0.34091E-03
         0.13929E-03
         0.53338E-04
         0.11955E-04
        -0.26800E-04
         0.98324E-04
         0.13915E-03
         0.22875E-03
         0.27877E-04
         0.34357E-04
        -0.71553E-04
        -0.80940E-04
         0.52040E-04
        -0.19681E-03
        -0.19959E-03
        -0.34895E-03
        -0.35684E-03
        -0.33844E-03
        -0.22976E-03
        -0.11202E-03
        -0.16772E-03
        -0.51262E-04
        -0.13575E-03
        -0.23295E-03
        -0.21751E-03
        -0.62067E-05
        -0.10024E-03
         0.91176E-04
         0.19376E-03
         0.42676E-03
         0.36285E-03
         0.30225E-03
        -0.69156E-04
        -0.17088E-03
        -0.26717E-03
        -0.35233E-03
        -0.35440E-03
        -0.35947E-03
        -0.28256E-03
        -0.20708E-03
        -0.14594E-03
        -0.51527E-04
         0.45564E-04
         0.13871E-03
         0.23213E-03
         0.32213E-03
         0.32751E-03
         0.58558E-03
         0.60024E-03
         0.54942E-03
         0.46743E-03
         0.34223E-03
         0.20516E-03
         0.59791E-04
        -0.89973E-04
        -0.23336E-03
        -0.36283E-03
        -0.46325E-03
        -0.53995E-03
        -0.59470E-03
        -0.61817E-03
        -0.60561E-03
        -0.55518E-03
        -0.46783E-03
        -0.35159E-03
        -0.20240E-03
        -0.49627E-04
         0.84207E-04
         0.22182E-03
         0.34444E-03
         0.44307E-03
         0.52880E-03
         0.57877E-03
         0.78687E-04
         0.15327E-03
         0.20978E-03
         0.14000E-03
         0.30748E-03
         0.27615E-03
         0.11130E-03
         0.43418E-04
         0.76547E-05
        -0.19874E-04
         0.79277E-04
         0.11014E-03
         0.18000E-03
         0.24674E-04
         0.29030E-04
        -0.61878E-04
        -0.66525E-04
         0.38099E-04
        -0.16073E-03
        -0.16111E-03
        -0.28038E-03
        -0.28704E-03
        -0.27127E-03
        -0.18729E-03
        -0.88774E-04
        -0.13854E-03
        -0.37372E-04
        -0.10691E-03
        -0.18722E-03
        -0.17450E-03
        -0.96006E-05
        -0.85062E-04
         0.70768E-04
         0.15683E-03
         0.34246E-03
         0.28930E-03
         0.23820E-03
        -0.52145E-04
        -0.13524E-03
        -0.21444E-03
        -0.28214E-03
        -0.28415E-03
        -0.28869E-03
        -0.22711E-03
        -0.16767E-03
        -0.12025E-03
        -0.46765E-04
         0.32368E-04
         0.11023E-03
         0.18792E-03
         0.26073E-03
         0.26543E-03
         0.46487E-03
         0.47738E-03
         0.43213E-03
         0.36638E-03
         0.26971E-03
         0.16159E-03
         0.46568E-04
        -0.70621E-04
        -0.18731E-03
        -0.28807E-03
        -0.36685E-03
        -0.42668E-03
        -0.47289E-03
        -0.49448E-03
        -0.48069E-03
        -0.43715E-03
        -0.36833E-03
        -0.27724E-03
        -0.16324E-03
        -0.46864E-04
         0.64369E-04
         0.17757E-03
         0.27473E-03
         0.35316E-03
         0.42046E-03
         0.46108E-03
         0.66113E-04
         0.12523E-03
         0.17093E-03
         0.11493E-03
         0.24344E-03
         0.21916E-03
         0.91139E-04
         0.38650E-04
         0.62126E-05
        -0.14165E-04
         0.64893E-04
         0.86915E-04
         0.14122E-03
         0.22192E-04
         0.23485E-04
        -0.53774E-04
        -0.58315E-04
         0.28954E-04
        -0.13323E-03
        -0.13479E-03
        -0.22062E-03
        -0.22666E-03
        -0.21268E-03
        -0.15166E-03
        -0.74864E-04
        -0.11281E-03
        -0.28575E-04
        -0.87146E-04
        -0.15120E-03
        -0.14440E-03
        -0.11083E-04
        -0.70289E-04
         0.55061E-04
         0.12631E-03
         0.26755E-03
         0.22756E-03
         0.18659E-03
        -0.40307E-04
        -0.10627E-03
        -0.16813E-03
        -0.21847E-03
        -0.22260E-03
        -0.22824E-03
        -0.17723E-03
        -0.13083E-03
        -0.94436E-04
        -0.39765E-04
         0.21424E-04
         0.84201E-04
         0.14722E-03
         0.20277E-03
         0.20865E-03
         0.34913E-03
         0.35755E-03
         0.32409E-03
         0.27464E-03
         0.20458E-03
         0.12503E-03
         0.37825E-04
        -0.50198E-04
        -0.13898E-03
        -0.21835E-03
        -0.27896E-03
        -0.32433E-03
        -0.35770E-03
        -0.36920E-03
        -0.35817E-03
        -0.32641E-03
        -0.27163E-03
        -0.20524E-03
        -0.12333E-03
        -0.36221E-04
         0.45943E-04
         0.13007E-03
         0.20542E-03
         0.26490E-03
         0.31440E-03
         0.34568E-03
         0.48677E-04
         0.92592E-04
         0.12530E-03
         0.84836E-04
         0.17709E-03
         0.16002E-03
         0.66423E-04
         0.26557E-04
         0.19860E-05
        -0.13320E-04
         0.46157E-04
         0.62525E-04
         0.10231E-03
         0.14331E-04
         0.17162E-04
        -0.43165E-04
        -0.47050E-04
         0.19636E-04
        -0.10136E-03
        -0.10228E-03
        -0.16306E-03
        -0.16742E-03
        -0.15636E-03
        -0.11342E-03
        -0.57615E-04
        -0.85578E-04
        -0.22732E-04
        -0.64980E-04
        -0.11080E-03
        -0.10747E-03
        -0.11271E-04
        -0.55793E-04
         0.38687E-04
         0.91771E-04
         0.19390E-03
         0.16448E-03
         0.13522E-03
        -0.28558E-04
        -0.77092E-04
        -0.12217E-03
        -0.15825E-03
        -0.16224E-03
        -0.16755E-03
        -0.13149E-03
        -0.99838E-04
        -0.74633E-04
        -0.34566E-04
         0.11908E-04
         0.59518E-04
         0.10686E-03
         0.14898E-03
         0.15284E-03
         0.25451E-03
         0.26212E-03
         0.23266E-03
         0.19527E-03
         0.14661E-03
         0.90798E-04
         0.28870E-04
        -0.33859E-04
        -0.99021E-04
        -0.15744E-03
        -0.20006E-03
        -0.23556E-03
        -0.26309E-03
        -0.27416E-03
        -0.26441E-03
        -0.23829E-03
        -0.19865E-03
        -0.15270E-03
        -0.95056E-04
        -0.32894E-04
         0.28083E-04
         0.92126E-04
         0.15082E-03
         0.19834E-03
         0.23538E-03
         0.25533E-03
         0.32209E-04
         0.61743E-04
         0.84340E-04
         0.57074E-04
         0.11868E-03
         0.10699E-03
         0.44018E-04
         0.16975E-04
         0.33798E-07
        -0.10481E-04
         0.30598E-04
         0.41729E-04
         0.67918E-04
         0.89618E-05
         0.11736E-04
        -0.32938E-04
        -0.36209E-04
         0.12126E-04
        -0.74854E-04
        -0.75475E-04
        -0.11448E-03
        -0.11650E-03
        -0.10930E-03
        -0.81681E-04
        -0.42531E-04
        -0.61712E-04
        -0.16655E-04
        -0.46261E-04
        -0.78470E-04
        -0.77794E-04
        -0.10151E-04
        -0.40544E-04
         0.24435E-04
         0.61535E-04
         0.12952E-03
         0.10991E-03
         0.89938E-04
        -0.19571E-04
        -0.53083E-04
        -0.84332E-04
        -0.10949E-03
        -0.11299E-03
        -0.11612E-03
        -0.91694E-04
        -0.69845E-04
        -0.52630E-04
        -0.25625E-04
         0.55867E-05
         0.37571E-04
         0.70402E-04
         0.98733E-04
         0.10195E-03
         0.16736E-03
         0.17379E-03
         0.15329E-03
         0.12971E-03
         0.97984E-04
         0.60516E-04
         0.20056E-04
        -0.22408E-04
        -0.67526E-04
        -0.10732E-03
        -0.13661E-03
        -0.16160E-03
        -0.17642E-03
        -0.18325E-03
        -0.17692E-03
        -0.16032E-03
        -0.13440E-03
        -0.10335E-03
        -0.65696E-04
        -0.23630E-04
         0.17119E-04
         0.58553E-04
         0.97013E-04
         0.12781E-03
         0.15284E-03
         0.16885E-03
         0.16882E-04
         0.36114E-04
         0.49171E-04
         0.30367E-04
         0.70994E-04
         0.61982E-04
         0.25876E-04
         0.86083E-05
        -0.23584E-05
        -0.83000E-05
         0.17380E-04
         0.24073E-04
         0.41553E-04
         0.33195E-05
         0.43462E-05
        -0.22313E-04
        -0.23472E-04
         0.32463E-05
        -0.46740E-04
        -0.46885E-04
        -0.73951E-04
        -0.74341E-04
        -0.71554E-04
        -0.52022E-04
        -0.28080E-04
        -0.40168E-04
        -0.13487E-04
        -0.31988E-04
        -0.51478E-04
        -0.49425E-04
        -0.10291E-04
        -0.28450E-04
         0.97943E-05
         0.32664E-04
         0.80138E-04
         0.67486E-04
         0.55283E-04
        -0.16206E-04
        -0.37054E-04
        -0.55903E-04
        -0.72536E-04
        -0.74293E-04
        -0.74788E-04
        -0.60933E-04
        -0.47895E-04
        -0.37648E-04
        -0.20430E-04
        -0.15008E-05
         0.17977E-04
         0.39443E-04
         0.58945E-04
         0.59519E-04
         0.10794E-03
         0.11003E-03
         0.97542E-04
         0.81962E-04
         0.61540E-04
         0.34958E-04
         0.88278E-05
        -0.17746E-04
        -0.45754E-04
        -0.71214E-04
        -0.92583E-04
        -0.11003E-03
        -0.11878E-03
        -0.12345E-03
        -0.12008E-03
        -0.10846E-03
        -0.92436E-04
        -0.73094E-04
        -0.47751E-04
        -0.20791E-04
         0.53603E-05
         0.32592E-04
         0.60046E-04
         0.82018E-04
         0.97172E-04
         0.10595E-03
         0.37900E-05
         0.13158E-04
         0.20907E-04
         0.11961E-04
         0.33623E-04
         0.29212E-04
         0.74997E-05
        -0.97877E-06
        -0.59710E-05
        -0.88451E-05
         0.31961E-05
         0.74704E-05
         0.16523E-04
        -0.32942E-05
        -0.17159E-05
        -0.15903E-04
        -0.16612E-04
        -0.27274E-05
        -0.27241E-04
        -0.27134E-04
        -0.41131E-04
        -0.40641E-04
        -0.40711E-04
        -0.30388E-04
        -0.18485E-04
        -0.24968E-04
        -0.10597E-04
        -0.19184E-04
        -0.27936E-04
        -0.27821E-04
        -0.95477E-05
        -0.19086E-04
         0.10292E-05
         0.13674E-04
         0.38355E-04
         0.30314E-04
         0.23338E-04
        -0.10787E-04
        -0.21238E-04
        -0.30468E-04
        -0.38439E-04
        -0.39040E-04
        -0.40060E-04
        -0.36067E-04
        -0.29894E-04
        -0.24330E-04
        -0.14383E-04
        -0.43898E-05
         0.54284E-05
         0.17299E-04
         0.28471E-04
         0.28536E-04
         0.54924E-04
         0.56346E-04
         0.48532E-04
         0.39930E-04
         0.30618E-04
         0.17047E-04
         0.26445E-05
        -0.12368E-04
        -0.28617E-04
        -0.41992E-04
        -0.50520E-04
        -0.58427E-04
        -0.66558E-04
        -0.70553E-04
        -0.68306E-04
        -0.61441E-04
        -0.52849E-04
        -0.44215E-04
        -0.30562E-04
        -0.14973E-04
        -0.12827E-05
         0.13307E-04
         0.29674E-04
         0.41929E-04
         0.50592E-04
         0.54764E-04
        -0.11019E-05
         0.51579E-05
         0.89093E-05
         0.37005E-05
         0.16584E-04
         0.13306E-04
         0.22709E-05
        -0.39355E-05
        -0.77030E-05
        -0.90650E-05
        -0.10954E-05
         0.73299E-06
         0.75226E-05
        -0.58392E-05
        -0.58804E-05
        -0.12878E-04
        -0.13681E-04
        -0.50943E-05
        -0.18972E-04
        -0.19457E-04
        -0.26286E-04
        -0.27029E-04
        -0.26002E-04
        -0.20195E-04
        -0.14353E-04
        -0.17358E-04
        -0.10297E-04
        -0.14932E-04
        -0.20494E-04
        -0.20244E-04
        -0.90812E-05
        -0.14676E-04
        -0.29068E-05
         0.40865E-05
         0.19621E-04
         0.14497E-04
         0.11107E-04
        -0.11170E-04
        -0.16635E-04
        -0.21831E-04
        -0.27387E-04
        -0.28103E-04
        -0.27951E-04
        -0.23808E-04
        -0.21026E-04
        -0.18452E-04
        -0.12710E-04
        -0.65598E-05
        -0.83504E-06
         0.56633E-05
         0.12121E-04
         0.12395E-04
         0.30812E-04
         0.32142E-04
         0.26819E-04
         0.20906E-04
         0.13922E-04
         0.47859E-05
        -0.29617E-05
        -0.10972E-04
        -0.20042E-04
        -0.26807E-04
        -0.34241E-04
        -0.39110E-04
        -0.41637E-04
        -0.43242E-04
        -0.42622E-04
        -0.40599E-04
        -0.36110E-04
        -0.30386E-04
        -0.22225E-04
        -0.13739E-04
        -0.46492E-05
         0.46863E-05
         0.13458E-04
         0.20519E-04
         0.26954E-04
         0.30380E-04
        -0.38761E-05
        -0.20997E-05
        -0.71181E-07
        -0.17272E-05
         0.29546E-05
         0.11356E-05
        -0.30694E-05
        -0.45491E-05
        -0.67867E-05
        -0.73685E-05
        -0.40314E-05
        -0.38151E-05
        -0.14288E-05
        -0.52903E-05
        -0.57169E-05
        -0.10034E-04
        -0.11090E-04
        -0.50742E-05
        -0.13873E-04
        -0.14087E-04
        -0.16782E-04
        -0.16383E-04
        -0.16677E-04
        -0.14481E-04
        -0.11545E-04
        -0.13188E-04
        -0.80027E-05
        -0.11516E-04
        -0.14066E-04
        -0.14287E-04
        -0.80820E-05
        -0.12215E-04
        -0.43935E-05
        -0.21901E-05
         0.38097E-05
         0.16902E-05
         0.43041E-07
        -0.83126E-05
        -0.11644E-04
        -0.13900E-04
        -0.15251E-04
        -0.15657E-04
        -0.15971E-04
        -0.15718E-04
        -0.14998E-04
        -0.13995E-04
        -0.11404E-04
        -0.78710E-05
        -0.52640E-05
        -0.31200E-05
        -0.73920E-06
         0.12789E-07
         0.64928E-05
         0.74401E-05
         0.60548E-05
         0.45221E-05
         0.17777E-05
        -0.11197E-05
        -0.34161E-05
        -0.67486E-05
        -0.11253E-04
        -0.15553E-04
        -0.17820E-04
        -0.20574E-04
        -0.23002E-04
        -0.24355E-04
        -0.23954E-04
        -0.20959E-04
        -0.17615E-04
        -0.16433E-04
        -0.14061E-04
        -0.10793E-04
        -0.73856E-05
        -0.49883E-05
        -0.20538E-05
         0.22171E-05
         0.54569E-05
         0.68606E-05
        -0.54414E-05
        -0.45162E-05
        -0.35213E-05
        -0.40182E-05
        -0.96810E-06
        -0.14109E-05
        -0.49173E-05
        -0.60686E-05
        -0.71277E-05
        -0.76660E-05
        -0.54494E-05
        -0.51004E-05
        -0.35351E-05
        -0.65952E-05
        -0.64817E-05
        -0.85592E-05
        -0.86915E-05
        -0.61176E-05
        -0.10259E-04
        -0.98431E-05
        -0.12728E-04
        -0.12546E-04
        -0.13265E-04
        -0.11411E-04
        -0.90854E-05
        -0.10259E-04
        -0.79712E-05
        -0.94175E-05
        -0.11672E-04
        -0.10582E-04
        -0.77580E-05
        -0.87650E-05
        -0.63845E-05
        -0.46813E-05
        -0.70222E-06
        -0.23566E-05
        -0.30109E-05
        -0.78840E-05
        -0.96357E-05
        -0.11897E-04
        -0.14134E-04
        -0.14271E-04
        -0.13249E-04
        -0.12162E-04
        -0.10432E-04
        -0.99481E-05
        -0.87470E-05
        -0.83583E-05
        -0.75866E-05
        -0.56829E-05
        -0.31588E-05
        -0.21375E-05
         0.28294E-05
         0.47161E-05
         0.11799E-05
        -0.44589E-06
        -0.20017E-05
        -0.43862E-05
        -0.55827E-05
        -0.66453E-05
        -0.93080E-05
        -0.12112E-04
        -0.14804E-04
        -0.17168E-04
        -0.17322E-04
        -0.16981E-04
        -0.17187E-04
        -0.16301E-04
        -0.16225E-04
        -0.15524E-04
        -0.13369E-04
        -0.10830E-04
        -0.88336E-05
        -0.57779E-05
        -0.28487E-05
        -0.94726E-07
         0.36240E-05
         0.52230E-05
        -0.62346E-05
        -0.61874E-05
        -0.51338E-05
        -0.60841E-05
        -0.41312E-05
        -0.51475E-05
        -0.65514E-05
        -0.63309E-05
        -0.67443E-05
        -0.74492E-05
        -0.67014E-05
        -0.69076E-05
        -0.63724E-05
        -0.67177E-05
        -0.68951E-05
        -0.71498E-05
        -0.79777E-05
        -0.62971E-05
        -0.85463E-05
        -0.90195E-05
        -0.88856E-05
        -0.98865E-05
        -0.91077E-05
        -0.87833E-05
        -0.89003E-05
        -0.83974E-05
        -0.74994E-05
        -0.88945E-05
        -0.99368E-05
        -0.95576E-05
        -0.66345E-05
        -0.75941E-05
        -0.65008E-05
        -0.65103E-05
        -0.36657E-05
        -0.47713E-05
        -0.61019E-05
        -0.71685E-05
        -0.83041E-05
        -0.94408E-05
        -0.10306E-04
        -0.10577E-04
        -0.10512E-04
        -0.91885E-05
        -0.86182E-05
        -0.80300E-05
        -0.69325E-05
        -0.62652E-05
        -0.67002E-05
        -0.70745E-05
        -0.63992E-05
        -0.56976E-05
        -0.36640E-05
        -0.38636E-05
        -0.51393E-05
        -0.52753E-05
        -0.40640E-05
        -0.58867E-05
        -0.58402E-05
        -0.61057E-05
        -0.85883E-05
        -0.87732E-05
        -0.11035E-04
        -0.12099E-04
        -0.13088E-04
        -0.11734E-04
        -0.10306E-04
        -0.10225E-04
        -0.10511E-04
        -0.10062E-04
        -0.88653E-05
        -0.71934E-05
        -0.65049E-05
        -0.63576E-05
        -0.72598E-05
        -0.64228E-05
        -0.49773E-05
        -0.47098E-05
        -0.74495E-05
        -0.67748E-05
        -0.68013E-05
        -0.69059E-05
        -0.62450E-05
        -0.62542E-05
        -0.68061E-05
        -0.74816E-05
        -0.74504E-05
        -0.74625E-05
        -0.69399E-05
        -0.64557E-05
        -0.57622E-05
        -0.74020E-05
        -0.72250E-05
        -0.67314E-05
        -0.68122E-05
        -0.70265E-05
        -0.72408E-05
        -0.76259E-05
        -0.79694E-05
        -0.82873E-05
        -0.75808E-05
        -0.70913E-05
        -0.70035E-05
        -0.70173E-05
        -0.71915E-05
        -0.71162E-05
        -0.79670E-05
        -0.79488E-05
        -0.70932E-05
        -0.72280E-05
        -0.67242E-05
        -0.64770E-05
        -0.57965E-05
        -0.59249E-05
        -0.58685E-05
        -0.70753E-05
        -0.71481E-05
        -0.76667E-05
        -0.84110E-05
        -0.88657E-05
        -0.87717E-05
        -0.73372E-05
        -0.74475E-05
        -0.73399E-05
        -0.71291E-05
        -0.69457E-05
        -0.66115E-05
        -0.65379E-05
        -0.63793E-05
        -0.61451E-05
        -0.40815E-05
        -0.42862E-05
        -0.32950E-05
        -0.32525E-05
        -0.37108E-05
        -0.50933E-05
        -0.67048E-05
        -0.73702E-05
        -0.86193E-05
        -0.80430E-05
        -0.84793E-05
        -0.87650E-05
        -0.84722E-05
        -0.92978E-05
        -0.10174E-04
        -0.90132E-05
        -0.87120E-05
        -0.88448E-05
        -0.78166E-05
        -0.71630E-05
        -0.69533E-05
        -0.64599E-05
        -0.71974E-05
        -0.66980E-05
        -0.55607E-05
        -0.49378E-05
        -0.72599E-05
        -0.69525E-05
        -0.74491E-05
        -0.72653E-05
        -0.74831E-05
        -0.72838E-05
        -0.68581E-05
        -0.72609E-05
        -0.79533E-05
        -0.75839E-05
        -0.71213E-05
        -0.74801E-05
        -0.68528E-05
        -0.74770E-05
        -0.79546E-05
        -0.63547E-05
        -0.72226E-05
        -0.73631E-05
        -0.62819E-05
        -0.68733E-05
        -0.64320E-05
        -0.64357E-05
        -0.62249E-05
        -0.60616E-05
        -0.71758E-05
        -0.59288E-05
        -0.75472E-05
        -0.71897E-05
        -0.71785E-05
        -0.72336E-05
        -0.63356E-05
        -0.60718E-05
        -0.70263E-05
        -0.73068E-05
        -0.77928E-05
        -0.75718E-05
        -0.70253E-05
        -0.80626E-05
        -0.77416E-05
        -0.74354E-05
        -0.75034E-05
        -0.71449E-05
        -0.68895E-05
        -0.59796E-05
        -0.61990E-05
        -0.60461E-05
        -0.60109E-05
        -0.63996E-05
        -0.69640E-05
        -0.72008E-05
        -0.70064E-05
        -0.71014E-05
        -0.76178E-05
        -0.65257E-05
        -0.71437E-05
        -0.66628E-05
        -0.68110E-05
        -0.70233E-05
        -0.81884E-05
        -0.85572E-05
        -0.77160E-05
        -0.72399E-05
        -0.70510E-05
        -0.54793E-05
        -0.63952E-05
        -0.60081E-05
        -0.67143E-05
        -0.56989E-05
        -0.54519E-05
        -0.60688E-05
        -0.58029E-05
        -0.52142E-05
        -0.55646E-05
        -0.60052E-05
        -0.73532E-05
        -0.70069E-05
        -0.70111E-05
        -0.67479E-05
        -0.79119E-05
        -0.75836E-05
        -0.81151E-05
        -0.78136E-05
        -0.61529E-05
        -0.80603E-05
        -0.75381E-05
        -0.75689E-05
        -0.92526E-05
        -0.76270E-05
        -0.76826E-05
        -0.83904E-05
        -0.74483E-05
        -0.69749E-05
        -0.65247E-05
        -0.68388E-05
        -0.84604E-05
        -0.80263E-05
        -0.57157E-05
        -0.63271E-05
        -0.50652E-05
        -0.63162E-05
        -0.62680E-05
        -0.63606E-05
        -0.77515E-05
        -0.67346E-05
        -0.65040E-05
        -0.67693E-05
        -0.62822E-05
        -0.61756E-05
        -0.58912E-05
        -0.62188E-05
        -0.66649E-05
        -0.76855E-05
        -0.34334E-05
        -0.57081E-05
        -0.65614E-05
        -0.59679E-05
        -0.81167E-05
        -0.95785E-05
        -0.11841E-04
        -0.94115E-05
        -0.78682E-05
        -0.80609E-05
        -0.84641E-05
        -0.82956E-05
        -0.62013E-05
        -0.55560E-05
        -0.64266E-05
        -0.74026E-05
        -0.74065E-05
        -0.80511E-05
         0.49285E-05
         0.39610E-05
         0.19819E-05
        -0.25176E-05
        -0.48950E-05
        -0.63020E-05
        -0.46004E-05
        -0.58380E-05
        -0.11612E-04
        -0.17339E-04
        -0.18694E-04
        -0.16369E-04
        -0.15142E-04
        -0.13687E-04
        -0.94207E-05
        -0.77293E-05
        -0.10189E-04
        -0.12745E-04
        -0.11926E-04
        -0.60763E-05
        -0.21645E-05
        -0.27668E-05
        -0.43206E-05
        -0.49296E-05
        -0.46647E-05
        -0.15494E-05
  
SCALARS                 displacement_y  double 1
LOOKUP_TABLE default
         0.12559E-02
         0.18279E-02
         0.86955E-03
        -0.45241E-03
         0.15301E-02
         0.19067E-02
         0.14115E-02
        -0.12688E-03
         0.24682E-03
        -0.76089E-03
         0.59356E-03
        -0.87694E-03
         0.26207E-02
         0.24002E-02
         0.31262E-02
         0.32434E-02
         0.65538E-03
         0.20782E-02
         0.13941E-02
         0.23482E-02
         0.30418E-02
         0.32569E-02
         0.28553E-02
         0.30989E-02
         0.38463E-02
         0.37467E-02
         0.30801E-02
         0.34290E-02
         0.36010E-02
         0.39926E-02
        -0.17690E-02
         0.85705E-04
        -0.12035E-02
        -0.26959E-02
        -0.53514E-04
        -0.13778E-02
        -0.13237E-02
        -0.56079E-04
        -0.22048E-02
        -0.83266E-03
        -0.12175E-02
        -0.11655E-03
        -0.15435E-02
        -0.11380E-03
        -0.19753E-02
        -0.20160E-02
        -0.22331E-02
        -0.21971E-02
         0.16720E-02
         0.24005E-02
        -0.25398E-02
        -0.30887E-02
         0.30110E-02
         0.37657E-02
         0.27380E-02
         0.36010E-02
         0.23461E-02
         0.13224E-02
         0.27972E-02
         0.18844E-02
        -0.29818E-02
        -0.31369E-02
        -0.39009E-02
        -0.32346E-02
        -0.26399E-02
        -0.37588E-02
        -0.21222E-02
        -0.31821E-02
         0.83717E-03
         0.13993E-02
         0.89775E-03
         0.11716E-02
         0.21743E-02
         0.25954E-02
         0.34419E-02
         0.40965E-02
         0.32076E-02
         0.37787E-02
         0.28122E-02
         0.30521E-02
         0.24711E-02
         0.20065E-02
         0.29848E-02
         0.26678E-02
         0.10720E-02
         0.17342E-02
        -0.25948E-02
        -0.28329E-02
        -0.30992E-02
        -0.37771E-02
        -0.33615E-02
        -0.34726E-02
        -0.41531E-02
        -0.37642E-02
        -0.34828E-02
        -0.43400E-02
        -0.32604E-02
        -0.37039E-02
        -0.28450E-02
        -0.30948E-02
        -0.24230E-02
        -0.17924E-02
        -0.29021E-02
        -0.24106E-02
         0.85844E-03
         0.66046E-04
         0.11239E-02
         0.12086E-03
         0.15759E-02
         0.18442E-02
         0.23032E-02
         0.25591E-02
         0.29477E-02
         0.33463E-02
         0.33166E-02
         0.37698E-02
         0.34729E-02
         0.39599E-02
         0.34894E-02
         0.40850E-02
         0.32812E-02
         0.38772E-02
         0.28632E-02
         0.32426E-02
         0.24123E-02
         0.28622E-02
         0.17232E-02
         0.19602E-02
         0.79310E-03
         0.71479E-03
        -0.17510E-03
        -0.26710E-03
        -0.10755E-02
        -0.12741E-02
        -0.18044E-02
        -0.21078E-02
        -0.24371E-02
        -0.27488E-02
        -0.29796E-02
        -0.33801E-02
        -0.33358E-02
        -0.39121E-02
        -0.34921E-02
        -0.39551E-02
        -0.35114E-02
        -0.41273E-02
        -0.33183E-02
        -0.38961E-02
        -0.29306E-02
        -0.33665E-02
        -0.24110E-02
        -0.28315E-02
        -0.16515E-02
        -0.19413E-02
        -0.77848E-03
        -0.83763E-03
         0.11276E-02
         0.16547E-02
         0.76787E-03
        -0.42872E-03
         0.20508E-03
        -0.68583E-03
         0.23661E-02
         0.21694E-02
         0.58380E-03
         0.18721E-02
         0.27314E-02
         0.28981E-02
         0.25488E-02
         0.27662E-02
         0.30520E-02
        -0.15638E-02
         0.97822E-04
        -0.10897E-02
        -0.11274E-02
        -0.83098E-05
        -0.10451E-02
        -0.89850E-04
        -0.17426E-02
        -0.17730E-02
         0.14975E-02
        -0.22702E-02
         0.26986E-02
         0.24405E-02
         0.20752E-02
         0.11795E-02
        -0.26715E-02
        -0.28199E-02
        -0.23591E-02
        -0.18956E-02
         0.73596E-03
         0.12493E-02
         0.19489E-02
         0.30588E-02
         0.28416E-02
         0.24772E-02
         0.21510E-02
         0.17419E-02
         0.92854E-03
        -0.23261E-02
        -0.27693E-02
        -0.29800E-02
        -0.31002E-02
        -0.31063E-02
        -0.28999E-02
        -0.25218E-02
        -0.21334E-02
        -0.15842E-02
         0.75814E-03
         0.60977E-04
         0.13991E-02
         0.20243E-02
         0.25636E-02
         0.28918E-02
         0.30517E-02
         0.30434E-02
         0.28466E-02
         0.24921E-02
         0.20765E-02
         0.14869E-02
         0.71889E-03
        -0.14406E-03
        -0.93271E-03
        -0.15755E-02
        -0.21517E-02
        -0.26159E-02
        -0.29064E-02
        -0.30639E-02
        -0.30664E-02
        -0.28987E-02
        -0.25722E-02
        -0.20992E-02
        -0.14214E-02
        -0.66940E-03
         0.95958E-03
         0.14260E-02
         0.65783E-03
        -0.37657E-03
         0.16526E-03
        -0.60050E-03
         0.20349E-02
         0.18526E-02
         0.48099E-03
         0.15841E-02
         0.23495E-02
         0.24860E-02
         0.21843E-02
         0.23816E-02
         0.26268E-02
        -0.13232E-02
         0.82384E-04
        -0.92714E-03
        -0.94251E-03
         0.10486E-04
        -0.86589E-03
        -0.64067E-04
        -0.14768E-02
        -0.15052E-02
         0.12783E-02
        -0.19416E-02
         0.23222E-02
         0.20975E-02
         0.17789E-02
         0.10189E-02
        -0.22910E-02
        -0.24186E-02
        -0.20257E-02
        -0.16359E-02
         0.62027E-03
         0.10656E-02
         0.16699E-02
         0.26353E-02
         0.24402E-02
         0.21122E-02
         0.18133E-02
         0.14667E-02
         0.78364E-03
        -0.19901E-02
        -0.23642E-02
        -0.25390E-02
        -0.26590E-02
        -0.26715E-02
        -0.24865E-02
        -0.21541E-02
        -0.18162E-02
        -0.13616E-02
         0.63535E-03
         0.42433E-04
         0.11959E-02
         0.17259E-02
         0.21776E-02
         0.24635E-02
         0.26079E-02
         0.26056E-02
         0.24305E-02
         0.21047E-02
         0.17271E-02
         0.12319E-02
         0.60930E-03
        -0.11424E-03
        -0.76527E-03
        -0.13175E-02
        -0.18210E-02
        -0.22096E-02
        -0.24576E-02
        -0.26137E-02
        -0.26144E-02
        -0.24599E-02
        -0.21827E-02
        -0.17692E-02
        -0.12078E-02
        -0.57489E-03
         0.77446E-03
         0.11701E-02
         0.54461E-03
        -0.30630E-03
         0.13466E-03
        -0.50140E-03
         0.16636E-02
         0.14944E-02
         0.37047E-03
         0.12596E-02
         0.19248E-02
         0.20494E-02
         0.17969E-02
         0.19459E-02
         0.21698E-02
        -0.10611E-02
         0.60955E-04
        -0.74284E-03
        -0.75394E-03
         0.18672E-04
        -0.69457E-03
        -0.45563E-04
        -0.12039E-02
        -0.12181E-02
         0.10293E-02
        -0.15777E-02
         0.18926E-02
         0.17110E-02
         0.14532E-02
         0.83635E-03
        -0.18656E-02
        -0.19774E-02
        -0.16535E-02
        -0.13474E-02
         0.51424E-03
         0.88446E-03
         0.13792E-02
         0.21793E-02
         0.20150E-02
         0.17347E-02
         0.14778E-02
         0.11879E-02
         0.63585E-03
        -0.16338E-02
        -0.19464E-02
        -0.21027E-02
        -0.22016E-02
        -0.22109E-02
        -0.20560E-02
        -0.17834E-02
        -0.15078E-02
        -0.11318E-02
         0.53597E-03
         0.33579E-04
         0.10384E-02
         0.14779E-02
         0.18420E-02
         0.20849E-02
         0.22099E-02
         0.22149E-02
         0.20646E-02
         0.17777E-02
         0.14334E-02
         0.10081E-02
         0.51157E-03
        -0.81760E-04
        -0.62566E-03
        -0.11037E-02
        -0.15361E-02
        -0.18612E-02
        -0.20717E-02
        -0.22240E-02
        -0.22318E-02
        -0.20931E-02
        -0.18578E-02
        -0.14881E-02
        -0.10326E-02
        -0.49402E-03
         0.60419E-03
         0.92490E-03
         0.43551E-03
        -0.23644E-03
         0.10224E-03
        -0.40605E-03
         0.13002E-02
         0.11505E-02
         0.28118E-03
         0.96156E-03
         0.15048E-02
         0.16319E-02
         0.14271E-02
         0.15133E-02
         0.17322E-02
        -0.81527E-03
         0.48161E-04
        -0.56967E-03
        -0.57699E-03
         0.23649E-04
        -0.53774E-03
        -0.30108E-04
        -0.94613E-03
        -0.94479E-03
         0.79455E-03
        -0.12301E-02
         0.14706E-02
         0.13336E-02
         0.11415E-02
         0.65846E-03
        -0.14571E-02
        -0.15566E-02
        -0.12949E-02
        -0.10668E-02
         0.41114E-03
         0.71227E-03
         0.11041E-02
         0.17437E-02
         0.16128E-02
         0.13878E-02
         0.11838E-02
         0.94009E-03
         0.50334E-03
        -0.12956E-02
        -0.15537E-02
        -0.16938E-02
        -0.17654E-02
        -0.17652E-02
        -0.16417E-02
        -0.14311E-02
        -0.12159E-02
        -0.91004E-03
         0.43811E-03
         0.19110E-04
         0.87534E-03
         0.12250E-02
         0.15172E-02
         0.17391E-02
         0.18572E-02
         0.18643E-02
         0.17399E-02
         0.14968E-02
         0.11962E-02
         0.82773E-03
         0.42635E-03
        -0.53606E-04
        -0.49752E-03
        -0.90121E-03
        -0.12629E-02
        -0.15329E-02
        -0.17094E-02
        -0.18528E-02
        -0.18580E-02
        -0.17404E-02
        -0.15519E-02
        -0.12265E-02
        -0.86466E-03
        -0.42188E-03
         0.44683E-03
         0.69315E-03
         0.32852E-03
        -0.17625E-03
         0.72672E-04
        -0.31727E-03
         0.97046E-03
         0.84554E-03
         0.21349E-03
         0.71106E-03
         0.11322E-02
         0.12758E-02
         0.11080E-02
         0.11298E-02
         0.13532E-02
        -0.59481E-03
         0.51338E-04
        -0.41897E-03
        -0.41147E-03
         0.33842E-04
        -0.39540E-03
        -0.12725E-04
        -0.72229E-03
        -0.69890E-03
         0.59410E-03
        -0.91949E-03
         0.10968E-02
         0.99657E-03
         0.86224E-03
         0.49756E-03
        -0.10904E-02
        -0.11830E-02
        -0.97140E-03
        -0.81027E-03
         0.32019E-03
         0.55618E-03
         0.85911E-03
         0.13612E-02
         0.12592E-02
         0.10882E-02
         0.93706E-03
         0.72620E-03
         0.38684E-03
        -0.10050E-02
        -0.12205E-02
        -0.13536E-02
        -0.13869E-02
        -0.13698E-02
        -0.12739E-02
        -0.11207E-02
        -0.96289E-03
        -0.71013E-03
         0.36237E-03
         0.58603E-05
         0.74333E-03
         0.10303E-02
         0.12786E-02
         0.14803E-02
         0.15759E-02
         0.15765E-02
         0.14732E-02
         0.12692E-02
         0.10045E-02
         0.68313E-03
         0.35499E-03
        -0.29724E-04
        -0.39625E-03
        -0.74849E-03
        -0.10582E-02
        -0.12929E-02
        -0.14411E-02
        -0.15670E-02
        -0.15680E-02
        -0.14661E-02
        -0.13067E-02
        -0.10189E-02
        -0.72502E-03
        -0.36320E-03
         0.31036E-03
         0.50049E-03
         0.23675E-03
        -0.13193E-03
         0.47322E-04
        -0.24393E-03
         0.70332E-03
         0.59630E-03
         0.14804E-03
         0.50401E-03
         0.83367E-03
         0.98668E-03
         0.84777E-03
         0.82311E-03
         0.10469E-02
        -0.42293E-03
         0.45385E-04
        -0.30612E-03
        -0.28121E-03
         0.38380E-04
        -0.28116E-03
         0.38198E-05
        -0.54038E-03
        -0.50240E-03
         0.42571E-03
        -0.66929E-03
         0.79588E-03
         0.72286E-03
         0.63547E-03
         0.36346E-03
        -0.79395E-03
        -0.87871E-03
        -0.70732E-03
        -0.59623E-03
         0.24278E-03
         0.42407E-03
         0.65606E-03
         0.10488E-02
         0.96946E-03
         0.84646E-03
         0.74214E-03
         0.55800E-03
         0.29702E-03
        -0.76685E-03
        -0.94547E-03
        -0.10687E-02
        -0.10712E-02
        -0.10393E-02
        -0.96320E-03
        -0.85600E-03
        -0.74781E-03
        -0.54207E-03
         0.29137E-03
        -0.57985E-05
         0.61242E-03
         0.85215E-03
         0.10646E-02
         0.12426E-02
         0.13211E-02
         0.13162E-02
         0.12357E-02
         0.10735E-02
         0.84585E-03
         0.56776E-03
         0.29617E-03
        -0.14183E-04
        -0.30995E-03
        -0.60404E-03
        -0.87044E-03
        -0.10790E-02
        -0.12034E-02
        -0.13068E-02
        -0.12978E-02
        -0.12132E-02
        -0.10861E-02
        -0.83872E-03
        -0.60189E-03
        -0.31029E-03
         0.19868E-03
         0.34188E-03
         0.15877E-03
        -0.98035E-04
         0.27094E-04
        -0.18404E-03
         0.49071E-03
         0.40247E-03
         0.91016E-04
         0.34206E-03
         0.59796E-03
         0.75265E-03
         0.63824E-03
         0.58420E-03
         0.79602E-03
        -0.28960E-03
         0.32693E-04
        -0.21811E-03
        -0.18421E-03
         0.33855E-04
        -0.19605E-03
         0.12399E-04
        -0.39852E-03
        -0.34946E-03
         0.29064E-03
        -0.47024E-03
         0.56386E-03
         0.51215E-03
         0.45698E-03
         0.25262E-03
        -0.55458E-03
        -0.63164E-03
        -0.49274E-03
        -0.42077E-03
         0.18258E-03
         0.31734E-03
         0.49076E-03
         0.79313E-03
         0.73628E-03
         0.65344E-03
         0.58560E-03
         0.42412E-03
         0.22400E-03
        -0.57770E-03
        -0.72403E-03
        -0.83821E-03
        -0.81468E-03
        -0.77463E-03
        -0.71477E-03
        -0.64343E-03
        -0.57723E-03
        -0.40593E-03
         0.24064E-03
        -0.11960E-04
         0.51461E-03
         0.72012E-03
         0.90584E-03
         0.10542E-02
         0.11070E-02
         0.10952E-02
         0.10312E-02
         0.90416E-03
         0.71352E-03
         0.48005E-03
         0.25616E-03
         0.51562E-05
        -0.24310E-03
        -0.49443E-03
        -0.72891E-03
        -0.91814E-03
        -0.10200E-02
        -0.11045E-02
        -0.10964E-02
        -0.10226E-02
        -0.91674E-03
        -0.70665E-03
        -0.50551E-03
        -0.26429E-03
         0.12615E-03
         0.23459E-03
         0.10303E-03
        -0.76187E-04
         0.80421E-05
        -0.14584E-03
         0.34735E-03
         0.27249E-03
         0.55817E-04
         0.23124E-03
         0.43516E-03
         0.57950E-03
         0.48703E-03
         0.41774E-03
         0.60864E-03
        -0.19397E-03
         0.23285E-04
        -0.15185E-03
        -0.11834E-03
         0.27707E-04
        -0.13570E-03
         0.15458E-04
        -0.29345E-03
        -0.24138E-03
         0.19852E-03
        -0.33073E-03
         0.40116E-03
         0.36693E-03
         0.33526E-03
         0.17747E-03
        -0.38832E-03
        -0.45933E-03
        -0.34360E-03
        -0.30065E-03
         0.13238E-03
         0.23600E-03
         0.37010E-03
         0.60139E-03
         0.56137E-03
         0.50819E-03
         0.46647E-03
         0.32972E-03
         0.17237E-03
        -0.43797E-03
        -0.55897E-03
        -0.65998E-03
        -0.62555E-03
        -0.58232E-03
        -0.53286E-03
        -0.48468E-03
        -0.44514E-03
        -0.30833E-03
         0.18585E-03
        -0.22302E-04
         0.41458E-03
         0.59180E-03
         0.75263E-03
         0.87101E-03
         0.91198E-03
         0.90000E-03
         0.84872E-03
         0.75047E-03
         0.59567E-03
         0.40318E-03
         0.21846E-03
         0.11126E-04
        -0.19054E-03
        -0.39758E-03
        -0.59671E-03
        -0.76113E-03
        -0.84552E-03
        -0.91273E-03
        -0.90030E-03
        -0.83493E-03
        -0.74876E-03
        -0.57857E-03
        -0.41522E-03
        -0.22304E-03
         0.78473E-04
         0.16479E-03
         0.67897E-04
        -0.60405E-04
        -0.22535E-05
        -0.11953E-03
         0.25448E-03
         0.18660E-03
         0.30674E-04
         0.15345E-03
         0.32852E-03
         0.45986E-03
         0.38493E-03
         0.30728E-03
         0.47770E-03
        -0.13148E-03
         0.15217E-04
        -0.10423E-03
        -0.79679E-04
         0.25010E-04
        -0.10088E-03
         0.19407E-04
        -0.23128E-03
        -0.17726E-03
         0.13701E-03
        -0.24394E-03
         0.29149E-03
         0.27200E-03
         0.26007E-03
         0.13397E-03
        -0.27886E-03
        -0.34831E-03
        -0.24338E-03
        -0.22155E-03
         0.99855E-04
         0.18198E-03
         0.28894E-03
         0.47049E-03
         0.44514E-03
         0.41181E-03
         0.38511E-03
         0.26979E-03
         0.14304E-03
        -0.34941E-03
        -0.44941E-03
        -0.53657E-03
        -0.49713E-03
        -0.45325E-03
        -0.41077E-03
        -0.37815E-03
        -0.35609E-03
        -0.24349E-03
         0.14674E-03
        -0.25308E-04
         0.34014E-03
         0.49701E-03
         0.63527E-03
         0.72904E-03
         0.76008E-03
         0.74962E-03
         0.70646E-03
         0.62424E-03
         0.50109E-03
         0.34277E-03
         0.19130E-03
         0.15812E-04
        -0.15823E-03
        -0.33767E-03
        -0.50761E-03
        -0.64620E-03
        -0.71109E-03
        -0.76357E-03
        -0.75495E-03
        -0.69807E-03
        -0.62533E-03
        -0.48713E-03
        -0.34715E-03
        -0.18862E-03
         0.55463E-04
         0.12736E-03
         0.51004E-04
        -0.48096E-04
        -0.57174E-05
        -0.10009E-03
         0.20020E-03
         0.14025E-03
         0.20094E-04
         0.11190E-03
         0.26103E-03
         0.36810E-03
         0.30961E-03
         0.24052E-03
         0.38062E-03
        -0.95923E-04
         0.12337E-04
        -0.73576E-04
        -0.59649E-04
         0.21821E-04
        -0.80777E-04
         0.16312E-04
        -0.18678E-03
        -0.14040E-03
         0.10365E-03
        -0.19371E-03
         0.22526E-03
         0.21211E-03
         0.20774E-03
         0.10709E-03
        -0.21607E-03
        -0.27967E-03
        -0.18446E-03
        -0.17282E-03
         0.78626E-04
         0.14613E-03
         0.23272E-03
         0.37304E-03
         0.35351E-03
         0.32912E-03
         0.31044E-03
         0.21954E-03
         0.11683E-03
        -0.28262E-03
        -0.36392E-03
        -0.43463E-03
        -0.40255E-03
        -0.36419E-03
        -0.32684E-03
        -0.30066E-03
        -0.28538E-03
        -0.19686E-03
         0.11406E-03
        -0.23790E-04
         0.26807E-03
         0.39887E-03
         0.50902E-03
         0.58024E-03
         0.60937E-03
         0.60297E-03
         0.56942E-03
         0.50039E-03
         0.40321E-03
         0.28193E-03
         0.15680E-03
         0.12554E-04
        -0.12901E-03
        -0.27040E-03
        -0.40572E-03
        -0.51642E-03
        -0.57161E-03
        -0.61482E-03
        -0.60836E-03
        -0.56094E-03
        -0.49902E-03
        -0.39110E-03
        -0.28067E-03
        -0.15484E-03
         0.47269E-04
         0.10578E-03
         0.44487E-04
        -0.36600E-04
        -0.82308E-06
        -0.78823E-04
         0.16496E-03
         0.11593E-03
         0.16974E-04
         0.90236E-04
         0.21261E-03
         0.29386E-03
         0.24891E-03
         0.19470E-03
         0.30300E-03
        -0.78951E-04
         0.81509E-05
        -0.57586E-04
        -0.52431E-04
         0.14588E-04
        -0.67907E-04
         0.11854E-04
        -0.15216E-03
        -0.11672E-03
         0.82879E-04
        -0.15856E-03
         0.18046E-03
         0.17052E-03
         0.16816E-03
         0.85972E-04
        -0.17598E-03
        -0.22675E-03
        -0.14979E-03
        -0.14001E-03
         0.66707E-04
         0.11985E-03
         0.18811E-03
         0.29684E-03
         0.28262E-03
         0.26404E-03
         0.24963E-03
         0.17885E-03
         0.95497E-04
        -0.22688E-03
        -0.29120E-03
        -0.34742E-03
        -0.32331E-03
        -0.29428E-03
        -0.26503E-03
        -0.24305E-03
        -0.22984E-03
        -0.15865E-03
         0.93325E-04
        -0.15496E-04
         0.21228E-03
         0.31633E-03
         0.40097E-03
         0.45423E-03
         0.48081E-03
         0.47777E-03
         0.45059E-03
         0.39596E-03
         0.32004E-03
         0.22923E-03
         0.12949E-03
         0.10953E-04
        -0.10563E-03
        -0.22004E-03
        -0.32503E-03
        -0.40989E-03
        -0.45358E-03
        -0.48490E-03
        -0.48284E-03
        -0.44640E-03
        -0.39463E-03
        -0.31167E-03
        -0.22652E-03
        -0.12401E-03
         0.42466E-04
         0.88354E-04
         0.39016E-04
        -0.28031E-04
         0.24592E-05
        -0.60273E-04
         0.13534E-03
         0.99128E-04
         0.16051E-04
         0.78896E-04
         0.17176E-03
         0.22984E-03
         0.19542E-03
         0.15909E-03
         0.23690E-03
        -0.67781E-04
         0.57279E-05
        -0.48015E-04
        -0.45565E-04
         0.10782E-04
        -0.54861E-04
         0.94483E-05
        -0.12065E-03
        -0.96116E-04
         0.70876E-04
        -0.12970E-03
         0.14922E-03
         0.14104E-03
         0.13596E-03
         0.70577E-04
        -0.14446E-03
        -0.18259E-03
        -0.12314E-03
        -0.11324E-03
         0.54714E-04
         0.96168E-04
         0.14851E-03
         0.23312E-03
         0.22401E-03
         0.20844E-03
         0.19470E-03
         0.14086E-03
         0.76089E-04
        -0.17794E-03
        -0.22691E-03
        -0.26782E-03
        -0.25225E-03
        -0.23127E-03
        -0.20918E-03
        -0.19092E-03
        -0.17790E-03
        -0.12367E-03
         0.71368E-04
        -0.10200E-04
         0.16026E-03
         0.23749E-03
         0.29932E-03
         0.33935E-03
         0.36054E-03
         0.36069E-03
         0.34480E-03
         0.30384E-03
         0.24546E-03
         0.17531E-03
         0.96917E-04
         0.61209E-05
        -0.81758E-04
        -0.16744E-03
        -0.24371E-03
        -0.30413E-03
        -0.33783E-03
        -0.36076E-03
        -0.35934E-03
        -0.33266E-03
        -0.29470E-03
        -0.23242E-03
        -0.16737E-03
        -0.90875E-04
         0.35244E-04
         0.69076E-04
         0.32437E-04
        -0.18597E-04
         0.56361E-05
        -0.42048E-04
         0.10326E-03
         0.78223E-04
         0.15126E-04
         0.63538E-04
         0.12934E-03
         0.16940E-03
         0.14480E-03
         0.12114E-03
         0.17475E-03
        -0.49987E-04
         0.72876E-05
        -0.34818E-04
        -0.32377E-04
         0.10178E-04
        -0.39492E-04
         0.69483E-05
        -0.87673E-04
        -0.70348E-04
         0.56803E-04
        -0.95076E-04
         0.11410E-03
         0.10731E-03
         0.10225E-03
         0.54488E-04
        -0.10627E-03
        -0.13241E-03
        -0.90466E-04
        -0.81631E-04
         0.46123E-04
         0.75718E-04
         0.11216E-03
         0.17175E-03
         0.16493E-03
         0.15350E-03
         0.14296E-03
         0.10378E-03
         0.55317E-04
        -0.12832E-03
        -0.16268E-03
        -0.19171E-03
        -0.18118E-03
        -0.16782E-03
        -0.15291E-03
        -0.13896E-03
        -0.12946E-03
        -0.88962E-04
         0.61569E-04
        -0.95962E-06
         0.12475E-03
         0.17655E-03
         0.21902E-03
         0.24769E-03
         0.26290E-03
         0.26399E-03
         0.25140E-03
         0.22103E-03
         0.17734E-03
         0.12776E-03
         0.69788E-04
         0.41917E-05
        -0.61651E-04
        -0.12223E-03
        -0.17432E-03
        -0.21700E-03
        -0.24221E-03
        -0.25823E-03
        -0.26105E-03
        -0.24590E-03
        -0.21906E-03
        -0.17327E-03
        -0.12285E-03
        -0.63383E-04
         0.27206E-04
         0.52608E-04
         0.26112E-04
        -0.10709E-04
         0.73901E-05
        -0.24635E-04
         0.76537E-04
         0.58416E-04
         0.11484E-04
         0.47025E-04
         0.93838E-04
         0.11956E-03
         0.10339E-03
         0.88305E-04
         0.12371E-03
        -0.32310E-04
         0.58794E-05
        -0.23224E-04
        -0.20315E-04
         0.85178E-05
        -0.24300E-04
         0.68883E-05
        -0.55305E-04
        -0.44603E-04
         0.41425E-04
        -0.60541E-04
         0.83479E-04
         0.77651E-04
         0.72835E-04
         0.39577E-04
        -0.69154E-04
        -0.85400E-04
        -0.59949E-04
        -0.53577E-04
         0.34754E-04
         0.55565E-04
         0.81204E-04
         0.12238E-03
         0.11708E-03
         0.10795E-03
         0.10056E-03
         0.74012E-04
         0.40436E-04
        -0.81516E-04
        -0.10492E-03
        -0.12542E-03
        -0.11886E-03
        -0.11038E-03
        -0.10091E-03
        -0.91399E-04
        -0.83970E-04
        -0.56396E-04
         0.44341E-04
         0.25949E-05
         0.86312E-04
         0.12050E-03
         0.14871E-03
         0.16868E-03
         0.18035E-03
         0.18191E-03
         0.17271E-03
         0.15416E-03
         0.12511E-03
         0.91794E-04
         0.48615E-04
         0.40281E-05
        -0.39098E-04
        -0.78397E-04
        -0.11357E-03
        -0.14254E-03
        -0.15998E-03
        -0.17144E-03
        -0.17338E-03
        -0.16175E-03
        -0.14248E-03
        -0.11228E-03
        -0.78777E-04
        -0.39489E-04
         0.20604E-04
         0.35968E-04
         0.20094E-04
        -0.16124E-05
         0.95280E-05
        -0.93026E-05
         0.50963E-04
         0.39052E-04
         0.11327E-04
         0.32154E-04
         0.61998E-04
         0.80926E-04
         0.70365E-04
         0.57204E-04
         0.81530E-04
        -0.16299E-04
         0.73364E-05
        -0.93021E-05
        -0.10050E-04
         0.89616E-05
        -0.12480E-04
         0.83295E-05
        -0.33394E-04
        -0.26186E-04
         0.29040E-04
        -0.35662E-04
         0.53835E-04
         0.50901E-04
         0.48951E-04
         0.28671E-04
        -0.37853E-04
        -0.49625E-04
        -0.31693E-04
        -0.27684E-04
         0.26491E-04
         0.38880E-04
         0.55156E-04
         0.79687E-04
         0.76856E-04
         0.71953E-04
         0.67451E-04
         0.50189E-04
         0.29653E-04
        -0.50299E-04
        -0.63990E-04
        -0.76173E-04
        -0.70099E-04
        -0.63719E-04
        -0.58321E-04
        -0.53110E-04
        -0.48665E-04
        -0.29411E-04
         0.34826E-04
         0.70013E-05
         0.62532E-04
         0.84630E-04
         0.10349E-03
         0.11698E-03
         0.12268E-03
         0.12276E-03
         0.11692E-03
         0.10561E-03
         0.84888E-04
         0.61011E-04
         0.34542E-04
         0.62953E-05
        -0.21682E-04
        -0.48021E-04
        -0.71193E-04
        -0.90021E-04
        -0.10109E-03
        -0.10642E-03
        -0.10653E-03
        -0.10060E-03
        -0.90191E-04
        -0.70996E-04
        -0.47227E-04
        -0.20557E-04
         0.16894E-04
         0.24517E-04
         0.17077E-04
         0.55714E-05
         0.10309E-04
        -0.20554E-06
         0.30187E-04
         0.24372E-04
         0.12837E-04
         0.22138E-04
         0.34978E-04
         0.46235E-04
         0.41330E-04
         0.32339E-04
         0.46099E-04
        -0.12043E-05
         0.10516E-04
         0.26003E-05
         0.26241E-05
         0.11030E-04
         0.19036E-05
         0.10852E-04
        -0.89271E-05
        -0.54671E-05
         0.20375E-04
        -0.11713E-04
         0.31361E-04
         0.29701E-04
         0.28212E-04
         0.19540E-04
        -0.12519E-04
        -0.20100E-04
        -0.92540E-05
        -0.85075E-05
         0.20702E-04
         0.27703E-04
         0.35012E-04
         0.45003E-04
         0.42796E-04
         0.39338E-04
         0.37891E-04
         0.30021E-04
         0.20624E-04
        -0.19660E-04
        -0.28450E-04
        -0.35441E-04
        -0.31538E-04
        -0.27128E-04
        -0.24701E-04
        -0.22953E-04
        -0.20983E-04
        -0.10579E-04
         0.25866E-04
         0.84326E-05
         0.41257E-04
         0.52104E-04
         0.61060E-04
         0.69010E-04
         0.73284E-04
         0.72205E-04
         0.66739E-04
         0.58042E-04
         0.49230E-04
         0.40925E-04
         0.26911E-04
         0.10189E-04
        -0.60268E-05
        -0.20041E-04
        -0.31722E-04
        -0.41507E-04
        -0.48752E-04
        -0.52144E-04
        -0.53012E-04
        -0.51742E-04
        -0.46515E-04
        -0.34199E-04
        -0.21321E-04
        -0.71689E-05
         0.15319E-04
         0.19219E-04
         0.15555E-04
         0.93632E-05
         0.12137E-04
         0.59131E-05
         0.22996E-04
         0.19975E-04
         0.13114E-04
         0.18180E-04
         0.26212E-04
         0.32051E-04
         0.28846E-04
         0.24724E-04
         0.31792E-04
         0.52020E-05
         0.12293E-04
         0.73698E-05
         0.85370E-05
         0.13538E-04
         0.76021E-05
         0.13252E-04
         0.14590E-05
         0.32413E-05
         0.17384E-04
        -0.69526E-06
         0.23814E-04
         0.23353E-04
         0.23589E-04
         0.18236E-04
        -0.14375E-05
        -0.50311E-05
         0.52181E-06
         0.13301E-05
         0.18316E-04
         0.21449E-04
         0.24701E-04
         0.31702E-04
         0.31639E-04
         0.30712E-04
         0.29860E-04
         0.24790E-04
         0.19289E-04
        -0.45186E-05
        -0.91141E-05
        -0.13335E-04
        -0.11742E-04
        -0.10028E-04
        -0.87222E-05
        -0.74281E-05
        -0.65403E-05
        -0.25927E-06
         0.22220E-04
         0.11659E-04
         0.29708E-04
         0.36420E-04
         0.42570E-04
         0.45615E-04
         0.46810E-04
         0.46858E-04
         0.45122E-04
         0.41263E-04
         0.35809E-04
         0.28654E-04
         0.20777E-04
         0.11667E-04
         0.21870E-05
        -0.46098E-05
        -0.12334E-04
        -0.18380E-04
        -0.22368E-04
        -0.26017E-04
        -0.27257E-04
        -0.25330E-04
        -0.21651E-04
        -0.15591E-04
        -0.86541E-05
         0.13093E-05
         0.15199E-04
         0.17888E-04
         0.16035E-04
         0.12036E-04
         0.14217E-04
         0.11074E-04
         0.19096E-04
         0.18336E-04
         0.13050E-04
         0.17539E-04
         0.19630E-04
         0.20283E-04
         0.20276E-04
         0.19929E-04
         0.20749E-04
         0.91518E-05
         0.12195E-04
         0.10248E-04
         0.11001E-04
         0.13155E-04
         0.10873E-04
         0.12873E-04
         0.94305E-05
         0.98032E-05
         0.16525E-04
         0.82420E-05
         0.20213E-04
         0.19831E-04
         0.19252E-04
         0.16252E-04
         0.78279E-05
         0.62800E-05
         0.90316E-05
         0.90026E-05
         0.16865E-04
         0.18546E-04
         0.19740E-04
         0.21466E-04
         0.21510E-04
         0.21339E-04
         0.20462E-04
         0.18364E-04
         0.15841E-04
         0.78923E-05
         0.56228E-05
         0.33178E-05
         0.38067E-05
         0.54034E-05
         0.63156E-05
         0.61944E-05
         0.60056E-05
         0.82767E-05
         0.17381E-04
         0.13974E-04
         0.19988E-04
         0.23017E-04
         0.24962E-04
         0.25212E-04
         0.27784E-04
         0.28880E-04
         0.26666E-04
         0.25837E-04
         0.22252E-04
         0.19004E-04
         0.15978E-04
         0.12238E-04
         0.89745E-05
         0.55021E-05
         0.40676E-05
         0.29373E-05
         0.48350E-06
         0.22979E-06
         0.12838E-06
        -0.76388E-06
        -0.32044E-06
         0.21779E-05
         0.49801E-05
         0.99869E-05
         0.15254E-04
         0.15641E-04
         0.14606E-04
         0.14123E-04
         0.13917E-04
         0.13013E-04
         0.16641E-04
         0.15979E-04
         0.14997E-04
         0.15863E-04
         0.17423E-04
         0.18875E-04
         0.18225E-04
         0.17055E-04
         0.18846E-04
         0.12883E-04
         0.14133E-04
         0.14230E-04
         0.12900E-04
         0.13609E-04
         0.12519E-04
         0.13455E-04
         0.11450E-04
         0.12009E-04
         0.15519E-04
         0.11186E-04
         0.17031E-04
         0.17299E-04
         0.17361E-04
         0.15000E-04
         0.11606E-04
         0.10295E-04
         0.12584E-04
         0.12463E-04
         0.15416E-04
         0.15939E-04
         0.16929E-04
         0.19214E-04
         0.19595E-04
         0.19771E-04
         0.18939E-04
         0.16789E-04
         0.14864E-04
         0.10394E-04
         0.93666E-05
         0.83618E-05
         0.88291E-05
         0.96608E-05
         0.10287E-04
         0.10375E-04
         0.10307E-04
         0.11820E-04
         0.18573E-04
         0.15183E-04
         0.20449E-04
         0.20726E-04
         0.21778E-04
         0.22058E-04
         0.22527E-04
         0.23687E-04
         0.23667E-04
         0.22071E-04
         0.19351E-04
         0.16642E-04
         0.14388E-04
         0.12628E-04
         0.11582E-04
         0.10320E-04
         0.88474E-05
         0.69292E-05
         0.55423E-05
         0.45119E-05
         0.38448E-05
         0.41263E-05
         0.51174E-05
         0.73914E-05
         0.91824E-05
         0.12353E-04
         0.15262E-04
         0.15434E-04
         0.14807E-04
         0.14796E-04
         0.14633E-04
         0.14302E-04
         0.16251E-04
         0.16128E-04
         0.15376E-04
         0.16354E-04
         0.16483E-04
         0.16931E-04
         0.16429E-04
         0.16300E-04
         0.17007E-04
         0.14981E-04
         0.15223E-04
         0.15193E-04
         0.14729E-04
         0.14830E-04
         0.14779E-04
         0.14308E-04
         0.14832E-04
         0.14969E-04
         0.16419E-04
         0.14765E-04
         0.16812E-04
         0.17398E-04
         0.16967E-04
         0.15683E-04
         0.15009E-04
         0.14224E-04
         0.15217E-04
         0.14592E-04
         0.15334E-04
         0.15374E-04
         0.15552E-04
         0.17930E-04
         0.18825E-04
         0.18430E-04
         0.16990E-04
         0.15657E-04
         0.14684E-04
         0.14257E-04
         0.13503E-04
         0.12891E-04
         0.13226E-04
         0.13920E-04
         0.14221E-04
         0.13858E-04
         0.13432E-04
         0.13864E-04
         0.16522E-04
         0.15001E-04
         0.16365E-04
         0.16218E-04
         0.17298E-04
         0.18673E-04
         0.20506E-04
         0.20852E-04
         0.20839E-04
         0.19867E-04
         0.16790E-04
         0.15275E-04
         0.14510E-04
         0.13764E-04
         0.14106E-04
         0.13765E-04
         0.13201E-04
         0.13143E-04
         0.12037E-04
         0.11987E-04
         0.12587E-04
         0.12910E-04
         0.13158E-04
         0.12930E-04
         0.12854E-04
         0.13662E-04
         0.16862E-04
         0.16503E-04
         0.16207E-04
         0.16687E-04
         0.16244E-04
         0.16625E-04
         0.17007E-04
         0.16912E-04
         0.17101E-04
         0.16810E-04
         0.17339E-04
         0.17728E-04
         0.16980E-04
         0.17214E-04
         0.17912E-04
         0.16529E-04
         0.17235E-04
         0.16994E-04
         0.16710E-04
         0.17068E-04
         0.16262E-04
         0.16311E-04
         0.15794E-04
         0.16206E-04
         0.17036E-04
         0.15791E-04
         0.17331E-04
         0.17107E-04
         0.16429E-04
         0.16735E-04
         0.15997E-04
         0.15356E-04
         0.16353E-04
         0.16202E-04
         0.15978E-04
         0.16088E-04
         0.16296E-04
         0.18331E-04
         0.18158E-04
         0.16852E-04
         0.16213E-04
         0.15857E-04
         0.15790E-04
         0.15448E-04
         0.14776E-04
         0.14443E-04
         0.14798E-04
         0.15276E-04
         0.15464E-04
         0.15359E-04
         0.15309E-04
         0.16067E-04
         0.16219E-04
         0.16166E-04
         0.17857E-04
         0.18575E-04
         0.18021E-04
         0.18824E-04
         0.19794E-04
         0.18898E-04
         0.18524E-04
         0.16529E-04
         0.15952E-04
         0.16581E-04
         0.16642E-04
         0.16245E-04
         0.15096E-04
         0.14182E-04
         0.13503E-04
         0.13413E-04
         0.13880E-04
         0.13425E-04
         0.13578E-04
         0.13966E-04
         0.14948E-04
         0.14918E-04
         0.15653E-04
         0.16290E-04
         0.17882E-04
         0.17608E-04
         0.16919E-04
         0.17676E-04
         0.16830E-04
         0.17752E-04
         0.18291E-04
         0.18200E-04
         0.18382E-04
         0.18849E-04
         0.18899E-04
         0.18767E-04
         0.18193E-04
         0.19066E-04
         0.19053E-04
         0.17008E-04
         0.18161E-04
         0.17452E-04
         0.17496E-04
         0.17877E-04
         0.17867E-04
         0.18162E-04
         0.18317E-04
         0.18108E-04
         0.18936E-04
         0.17812E-04
         0.19027E-04
         0.18455E-04
         0.18028E-04
         0.18324E-04
         0.16945E-04
         0.17165E-04
         0.17230E-04
         0.18017E-04
         0.16900E-04
         0.17044E-04
         0.17592E-04
         0.18454E-04
         0.17987E-04
         0.17682E-04
         0.18017E-04
         0.18108E-04
         0.18208E-04
         0.18350E-04
         0.17575E-04
         0.16884E-04
         0.16543E-04
         0.16808E-04
         0.17434E-04
         0.17924E-04
         0.17901E-04
         0.18184E-04
         0.17750E-04
         0.17119E-04
         0.17506E-04
         0.17069E-04
         0.17240E-04
         0.16975E-04
         0.17368E-04
         0.16719E-04
         0.17040E-04
         0.16247E-04
         0.16909E-04
         0.16301E-04
         0.18844E-04
         0.19020E-04
         0.17222E-04
         0.16637E-04
         0.17084E-04
         0.18079E-04
         0.17360E-04
         0.17327E-04
         0.18069E-04
         0.18433E-04
         0.18508E-04
         0.17606E-04
         0.17264E-04
         0.17236E-04
         0.20451E-04
         0.20229E-04
         0.18430E-04
         0.19276E-04
         0.17573E-04
         0.18827E-04
         0.19949E-04
         0.19758E-04
         0.21357E-04
         0.21629E-04
         0.19275E-04
         0.19178E-04
         0.19491E-04
         0.19087E-04
         0.20213E-04
         0.18426E-04
         0.21840E-04
         0.18717E-04
         0.19503E-04
         0.20186E-04
         0.20243E-04
         0.18264E-04
         0.20441E-04
         0.19565E-04
         0.22133E-04
         0.18737E-04
         0.19146E-04
         0.19658E-04
         0.19754E-04
         0.19912E-04
         0.19895E-04
         0.18149E-04
         0.20616E-04
         0.20881E-04
         0.19772E-04
         0.20489E-04
         0.20896E-04
         0.20531E-04
         0.22374E-04
         0.22730E-04
         0.22080E-04
         0.19832E-04
         0.18325E-04
         0.17474E-04
         0.15664E-04
         0.13498E-04
         0.14671E-04
         0.17192E-04
         0.20522E-04
         0.20780E-04
         0.19828E-04
         0.20218E-04
         0.23031E-04
         0.18129E-04
         0.25475E-04
         0.22923E-04
         0.20337E-04
         0.20589E-04
         0.23468E-04
         0.25938E-04
         0.28514E-04
         0.26309E-04
         0.23920E-04
         0.22917E-04
         0.20467E-04
         0.17563E-04
         0.17122E-04
         0.16382E-04
         0.12591E-04
         0.10323E-04
         0.82584E-05
         0.10371E-04
         0.13232E-04
         0.19880E-04
         0.20367E-04
         0.19843E-04
         0.17114E-04
         0.15511E-04
  
SCALARS                 displacement_z  double 1
LOOKUP_TABLE default
        -0.83398E-03
        -0.75442E-03
        -0.73402E-03
        -0.82429E-03
        -0.38559E-17
        -0.38843E-17
        -0.35570E-17
        -0.37421E-17
        -0.65450E-03
        -0.69661E-03
        -0.30612E-17
        -0.32476E-17
        -0.72262E-03
        -0.80630E-03
        -0.39435E-17
        -0.41666E-17
        -0.86674E-03
        -0.84905E-03
        -0.35767E-17
        -0.38906E-17
        -0.69378E-03
        -0.61016E-03
        -0.62046E-03
        -0.37208E-17
        -0.29403E-17
        -0.31177E-17
        -0.75610E-03
        -0.66955E-03
        -0.39196E-17
        -0.29874E-17
        -0.83397E-03
        -0.86000E-03
        -0.86260E-03
        -0.37546E-17
        -0.36546E-17
        -0.35681E-17
        -0.78374E-03
        -0.81760E-03
        -0.36649E-17
        -0.36273E-17
        -0.67799E-03
        -0.71327E-03
        -0.28056E-17
        -0.26647E-17
        -0.62646E-03
        -0.71774E-03
        -0.28843E-17
        -0.35352E-17
        -0.84680E-03
        -0.37801E-17
        -0.72955E-03
        -0.36794E-17
        -0.79708E-03
        -0.37556E-17
        -0.78933E-03
        -0.35433E-17
        -0.73508E-03
        -0.80371E-03
        -0.32406E-17
        -0.36050E-17
        -0.79278E-03
        -0.70307E-03
        -0.36344E-17
        -0.35633E-17
        -0.81515E-03
        -0.36308E-17
        -0.77019E-03
        -0.36761E-17
        -0.59114E-03
        -0.62399E-03
        -0.27929E-17
        -0.30582E-17
        -0.64798E-03
        -0.32265E-17
        -0.69886E-03
        -0.27473E-17
        -0.67961E-03
        -0.25184E-17
        -0.61570E-03
        -0.23210E-17
        -0.55144E-03
        -0.63457E-03
        -0.20045E-17
        -0.24051E-17
        -0.69780E-03
        -0.25815E-17
        -0.61844E-03
        -0.30365E-17
        -0.59647E-03
        -0.30104E-17
        -0.56313E-03
        -0.62690E-03
        -0.27707E-17
        -0.30370E-17
        -0.68534E-03
        -0.30474E-17
        -0.69061E-03
        -0.29913E-17
        -0.64707E-03
        -0.29455E-17
        -0.59758E-03
        -0.66315E-03
        -0.27054E-17
        -0.30907E-17
        -0.47297E-03
        -0.49199E-03
        -0.19169E-17
        -0.19057E-17
        -0.48887E-03
        -0.18607E-17
        -0.51724E-03
        -0.18420E-17
        -0.48775E-03
        -0.17250E-17
        -0.47865E-03
        -0.15879E-17
        -0.52197E-03
        -0.15275E-17
        -0.53871E-03
        -0.13981E-17
        -0.50785E-03
        -0.12804E-17
        -0.43107E-03
        -0.12016E-17
        -0.41171E-03
        -0.12132E-17
        -0.47219E-03
        -0.12667E-17
        -0.52921E-03
        -0.12824E-17
        -0.52800E-03
        -0.12920E-17
        -0.49697E-03
        -0.13993E-17
        -0.47926E-03
        -0.15881E-17
        -0.48775E-03
        -0.17498E-17
        -0.46086E-03
        -0.18114E-17
        -0.47162E-03
        -0.19213E-17
        -0.49704E-03
        -0.18242E-17
        -0.52133E-03
        -0.16676E-17
        -0.50565E-03
        -0.16160E-17
        -0.45630E-03
        -0.16467E-17
        -0.45827E-03
        -0.17451E-17
        -0.49591E-03
        -0.18013E-17
        -0.52128E-03
        -0.18619E-17
        -0.16544E-02
        -0.15131E-02
        -0.14751E-02
        -0.16266E-02
        -0.13135E-02
        -0.13875E-02
        -0.14580E-02
        -0.16013E-02
        -0.17092E-02
        -0.16718E-02
        -0.14009E-02
        -0.12283E-02
        -0.12520E-02
        -0.15031E-02
        -0.13286E-02
        -0.16508E-02
        -0.16942E-02
        -0.16985E-02
        -0.15650E-02
        -0.16128E-02
        -0.13706E-02
        -0.14255E-02
        -0.12806E-02
        -0.14568E-02
        -0.16668E-02
        -0.14765E-02
        -0.15681E-02
        -0.15634E-02
        -0.14802E-02
        -0.15875E-02
        -0.15734E-02
        -0.14202E-02
        -0.16113E-02
        -0.15381E-02
        -0.12005E-02
        -0.12635E-02
        -0.12964E-02
        -0.13879E-02
        -0.13712E-02
        -0.12760E-02
        -0.11614E-02
        -0.13003E-02
        -0.14003E-02
        -0.12564E-02
        -0.12075E-02
        -0.11373E-02
        -0.12682E-02
        -0.13762E-02
        -0.13977E-02
        -0.13326E-02
        -0.12408E-02
        -0.13460E-02
        -0.95135E-03
        -0.99611E-03
        -0.95191E-03
        -0.10013E-02
        -0.95931E-03
        -0.93242E-03
        -0.10225E-02
        -0.10656E-02
        -0.10432E-02
        -0.93059E-03
        -0.88298E-03
        -0.99171E-03
        -0.10643E-02
        -0.10623E-02
        -0.99619E-03
        -0.95579E-03
        -0.95806E-03
        -0.90454E-03
        -0.91910E-03
        -0.99065E-03
        -0.10377E-02
        -0.10293E-02
        -0.96561E-03
        -0.97231E-03
        -0.10285E-02
        -0.10398E-02
        -0.24607E-02
        -0.22780E-02
        -0.22229E-02
        -0.24202E-02
        -0.19924E-02
        -0.20881E-02
        -0.22032E-02
        -0.23874E-02
        -0.25301E-02
        -0.24806E-02
        -0.21207E-02
        -0.18830E-02
        -0.19189E-02
        -0.22483E-02
        -0.20058E-02
        -0.24502E-02
        -0.25080E-02
        -0.25151E-02
        -0.23360E-02
        -0.23940E-02
        -0.20765E-02
        -0.21323E-02
        -0.19694E-02
        -0.22015E-02
        -0.24710E-02
        -0.22289E-02
        -0.23316E-02
        -0.23257E-02
        -0.22203E-02
        -0.23577E-02
        -0.23458E-02
        -0.21516E-02
        -0.23927E-02
        -0.22950E-02
        -0.18459E-02
        -0.19408E-02
        -0.19819E-02
        -0.20756E-02
        -0.20609E-02
        -0.19596E-02
        -0.18220E-02
        -0.19863E-02
        -0.20999E-02
        -0.19373E-02
        -0.18689E-02
        -0.17657E-02
        -0.19384E-02
        -0.20767E-02
        -0.21048E-02
        -0.20203E-02
        -0.18953E-02
        -0.20312E-02
        -0.14929E-02
        -0.15261E-02
        -0.14813E-02
        -0.15266E-02
        -0.14641E-02
        -0.14417E-02
        -0.15709E-02
        -0.16338E-02
        -0.16208E-02
        -0.15093E-02
        -0.14549E-02
        -0.15686E-02
        -0.16378E-02
        -0.16265E-02
        -0.15426E-02
        -0.14898E-02
        -0.14867E-02
        -0.14187E-02
        -0.14399E-02
        -0.15306E-02
        -0.15828E-02
        -0.15939E-02
        -0.15355E-02
        -0.15366E-02
        -0.15741E-02
        -0.15587E-02
        -0.32306E-02
        -0.30269E-02
        -0.29626E-02
        -0.31833E-02
        -0.26980E-02
        -0.28058E-02
        -0.29442E-02
        -0.31482E-02
        -0.33035E-02
        -0.32521E-02
        -0.28445E-02
        -0.25645E-02
        -0.26119E-02
        -0.29830E-02
        -0.26898E-02
        -0.32141E-02
        -0.32802E-02
        -0.32895E-02
        -0.30861E-02
        -0.31510E-02
        -0.27898E-02
        -0.28438E-02
        -0.26738E-02
        -0.29366E-02
        -0.32435E-02
        -0.29664E-02
        -0.30778E-02
        -0.30725E-02
        -0.29519E-02
        -0.31090E-02
        -0.30969E-02
        -0.28789E-02
        -0.31489E-02
        -0.30407E-02
        -0.25282E-02
        -0.26383E-02
        -0.26829E-02
        -0.27649E-02
        -0.27579E-02
        -0.26587E-02
        -0.25108E-02
        -0.26876E-02
        -0.28074E-02
        -0.26366E-02
        -0.25581E-02
        -0.24361E-02
        -0.26329E-02
        -0.27894E-02
        -0.28186E-02
        -0.27265E-02
        -0.25868E-02
        -0.27412E-02
        -0.21065E-02
        -0.21386E-02
        -0.20837E-02
        -0.21219E-02
        -0.20568E-02
        -0.20376E-02
        -0.21685E-02
        -0.22319E-02
        -0.22301E-02
        -0.21387E-02
        -0.20920E-02
        -0.21960E-02
        -0.22478E-02
        -0.22378E-02
        -0.21654E-02
        -0.21098E-02
        -0.20985E-02
        -0.20220E-02
        -0.20430E-02
        -0.21342E-02
        -0.21936E-02
        -0.22094E-02
        -0.21526E-02
        -0.21581E-02
        -0.21898E-02
        -0.21701E-02
        -0.39482E-02
        -0.37319E-02
        -0.36617E-02
        -0.39011E-02
        -0.33725E-02
        -0.34903E-02
        -0.36419E-02
        -0.38580E-02
        -0.40206E-02
        -0.39722E-02
        -0.35324E-02
        -0.32278E-02
        -0.32834E-02
        -0.36826E-02
        -0.33547E-02
        -0.39254E-02
        -0.39993E-02
        -0.40140E-02
        -0.37854E-02
        -0.38619E-02
        -0.34593E-02
        -0.35178E-02
        -0.33402E-02
        -0.36236E-02
        -0.39671E-02
        -0.36558E-02
        -0.37877E-02
        -0.37768E-02
        -0.36387E-02
        -0.38169E-02
        -0.38030E-02
        -0.35644E-02
        -0.38588E-02
        -0.37368E-02
        -0.31839E-02
        -0.33065E-02
        -0.33590E-02
        -0.34291E-02
        -0.34181E-02
        -0.33155E-02
        -0.31590E-02
        -0.33456E-02
        -0.34776E-02
        -0.33024E-02
        -0.32182E-02
        -0.30872E-02
        -0.33003E-02
        -0.34684E-02
        -0.34920E-02
        -0.33859E-02
        -0.32355E-02
        -0.34111E-02
        -0.27180E-02
        -0.27522E-02
        -0.26950E-02
        -0.27266E-02
        -0.26634E-02
        -0.26444E-02
        -0.27646E-02
        -0.28255E-02
        -0.28328E-02
        -0.27610E-02
        -0.27233E-02
        -0.28128E-02
        -0.28551E-02
        -0.28380E-02
        -0.27719E-02
        -0.27218E-02
        -0.27077E-02
        -0.26273E-02
        -0.26551E-02
        -0.27455E-02
        -0.28053E-02
        -0.28168E-02
        -0.27600E-02
        -0.27667E-02
        -0.28001E-02
        -0.27854E-02
        -0.45873E-02
        -0.43709E-02
        -0.43022E-02
        -0.45468E-02
        -0.40079E-02
        -0.41287E-02
        -0.42781E-02
        -0.44925E-02
        -0.46568E-02
        -0.46092E-02
        -0.41671E-02
        -0.38600E-02
        -0.39153E-02
        -0.43188E-02
        -0.39817E-02
        -0.45648E-02
        -0.46387E-02
        -0.46601E-02
        -0.44202E-02
        -0.45033E-02
        -0.40865E-02
        -0.41489E-02
        -0.39637E-02
        -0.42519E-02
        -0.46086E-02
        -0.42852E-02
        -0.44299E-02
        -0.44169E-02
        -0.42706E-02
        -0.44575E-02
        -0.44425E-02
        -0.41970E-02
        -0.45021E-02
        -0.43798E-02
        -0.38138E-02
        -0.39379E-02
        -0.39898E-02
        -0.40556E-02
        -0.40454E-02
        -0.39403E-02
        -0.37829E-02
        -0.39716E-02
        -0.41085E-02
        -0.39251E-02
        -0.38429E-02
        -0.37126E-02
        -0.39318E-02
        -0.41027E-02
        -0.41252E-02
        -0.40191E-02
        -0.38665E-02
        -0.40473E-02
        -0.33347E-02
        -0.33742E-02
        -0.33034E-02
        -0.33239E-02
        -0.32705E-02
        -0.32627E-02
        -0.33652E-02
        -0.34113E-02
        -0.34273E-02
        -0.33773E-02
        -0.33529E-02
        -0.34231E-02
        -0.34529E-02
        -0.34367E-02
        -0.33815E-02
        -0.33331E-02
        -0.33149E-02
        -0.32359E-02
        -0.32680E-02
        -0.33552E-02
        -0.34139E-02
        -0.34247E-02
        -0.33745E-02
        -0.33821E-02
        -0.34154E-02
        -0.34063E-02
        -0.51382E-02
        -0.49248E-02
        -0.48586E-02
        -0.51046E-02
        -0.45678E-02
        -0.46880E-02
        -0.48315E-02
        -0.50394E-02
        -0.52075E-02
        -0.51555E-02
        -0.47241E-02
        -0.44313E-02
        -0.44849E-02
        -0.48732E-02
        -0.45454E-02
        -0.51175E-02
        -0.51881E-02
        -0.52198E-02
        -0.49682E-02
        -0.50531E-02
        -0.46353E-02
        -0.46986E-02
        -0.45175E-02
        -0.47994E-02
        -0.51531E-02
        -0.48339E-02
        -0.49834E-02
        -0.49627E-02
        -0.48142E-02
        -0.50050E-02
        -0.49948E-02
        -0.47518E-02
        -0.50567E-02
        -0.49352E-02
        -0.43753E-02
        -0.44998E-02
        -0.45546E-02
        -0.46153E-02
        -0.45995E-02
        -0.44940E-02
        -0.43448E-02
        -0.45258E-02
        -0.46613E-02
        -0.44829E-02
        -0.44071E-02
        -0.42830E-02
        -0.44962E-02
        -0.46590E-02
        -0.46776E-02
        -0.45733E-02
        -0.44229E-02
        -0.46045E-02
        -0.39058E-02
        -0.39478E-02
        -0.38733E-02
        -0.38880E-02
        -0.38499E-02
        -0.38531E-02
        -0.39339E-02
        -0.39687E-02
        -0.39897E-02
        -0.39569E-02
        -0.39430E-02
        -0.39955E-02
        -0.40140E-02
        -0.39904E-02
        -0.39449E-02
        -0.39059E-02
        -0.38858E-02
        -0.38105E-02
        -0.38480E-02
        -0.39299E-02
        -0.39775E-02
        -0.39850E-02
        -0.39413E-02
        -0.39459E-02
        -0.39795E-02
        -0.39770E-02
        -0.55873E-02
        -0.53877E-02
        -0.53280E-02
        -0.55566E-02
        -0.50691E-02
        -0.51802E-02
        -0.53048E-02
        -0.54956E-02
        -0.56567E-02
        -0.55989E-02
        -0.52112E-02
        -0.49525E-02
        -0.49966E-02
        -0.53472E-02
        -0.50539E-02
        -0.55727E-02
        -0.56337E-02
        -0.56711E-02
        -0.54314E-02
        -0.55072E-02
        -0.51264E-02
        -0.51841E-02
        -0.50178E-02
        -0.52714E-02
        -0.55896E-02
        -0.53015E-02
        -0.54433E-02
        -0.54185E-02
        -0.52854E-02
        -0.54592E-02
        -0.54511E-02
        -0.52309E-02
        -0.55139E-02
        -0.54082E-02
        -0.48942E-02
        -0.50056E-02
        -0.50564E-02
        -0.51112E-02
        -0.50938E-02
        -0.50021E-02
        -0.48706E-02
        -0.50299E-02
        -0.51512E-02
        -0.49885E-02
        -0.49261E-02
        -0.48170E-02
        -0.50052E-02
        -0.51482E-02
        -0.51679E-02
        -0.50800E-02
        -0.49446E-02
        -0.51088E-02
        -0.44721E-02
        -0.45143E-02
        -0.44342E-02
        -0.44431E-02
        -0.44219E-02
        -0.44317E-02
        -0.44888E-02
        -0.45091E-02
        -0.45316E-02
        -0.45182E-02
        -0.45119E-02
        -0.45453E-02
        -0.45516E-02
        -0.45318E-02
        -0.44984E-02
        -0.44689E-02
        -0.44542E-02
        -0.43880E-02
        -0.44227E-02
        -0.44886E-02
        -0.45252E-02
        -0.45345E-02
        -0.45016E-02
        -0.45056E-02
        -0.45349E-02
        -0.45374E-02
        -0.59374E-02
        -0.57580E-02
        -0.57035E-02
        -0.59060E-02
        -0.54863E-02
        -0.55839E-02
        -0.56901E-02
        -0.58569E-02
        -0.60093E-02
        -0.59464E-02
        -0.56140E-02
        -0.54006E-02
        -0.54369E-02
        -0.57317E-02
        -0.54859E-02
        -0.59290E-02
        -0.59799E-02
        -0.60204E-02
        -0.57965E-02
        -0.58594E-02
        -0.55327E-02
        -0.55781E-02
        -0.54439E-02
        -0.56556E-02
        -0.59287E-02
        -0.56814E-02
        -0.58093E-02
        -0.57799E-02
        -0.56677E-02
        -0.58158E-02
        -0.58104E-02
        -0.56234E-02
        -0.58669E-02
        -0.57768E-02
        -0.53356E-02
        -0.54323E-02
        -0.54839E-02
        -0.55266E-02
        -0.55053E-02
        -0.54310E-02
        -0.53250E-02
        -0.54550E-02
        -0.55523E-02
        -0.54233E-02
        -0.53735E-02
        -0.52819E-02
        -0.54368E-02
        -0.55532E-02
        -0.55682E-02
        -0.54950E-02
        -0.53817E-02
        -0.55235E-02
        -0.49813E-02
        -0.50186E-02
        -0.49443E-02
        -0.49532E-02
        -0.49431E-02
        -0.49556E-02
        -0.49954E-02
        -0.50039E-02
        -0.50292E-02
        -0.50298E-02
        -0.50287E-02
        -0.50476E-02
        -0.50419E-02
        -0.50176E-02
        -0.49952E-02
        -0.49793E-02
        -0.49722E-02
        -0.49172E-02
        -0.49495E-02
        -0.49979E-02
        -0.50195E-02
        -0.50279E-02
        -0.50056E-02
        -0.50102E-02
        -0.50325E-02
        -0.50362E-02
        -0.62050E-02
        -0.60577E-02
        -0.60097E-02
        -0.61736E-02
        -0.58459E-02
        -0.59240E-02
        -0.60086E-02
        -0.61429E-02
        -0.62696E-02
        -0.62116E-02
        -0.59513E-02
        -0.57892E-02
        -0.58183E-02
        -0.60457E-02
        -0.58552E-02
        -0.62025E-02
        -0.62380E-02
        -0.62782E-02
        -0.60916E-02
        -0.61389E-02
        -0.58832E-02
        -0.59174E-02
        -0.58136E-02
        -0.59763E-02
        -0.61896E-02
        -0.59956E-02
        -0.61038E-02
        -0.60764E-02
        -0.59909E-02
        -0.61042E-02
        -0.60957E-02
        -0.59509E-02
        -0.61435E-02
        -0.60752E-02
        -0.57285E-02
        -0.58041E-02
        -0.58520E-02
        -0.58813E-02
        -0.58604E-02
        -0.58061E-02
        -0.57247E-02
        -0.58239E-02
        -0.58974E-02
        -0.58019E-02
        -0.57656E-02
        -0.56938E-02
        -0.58104E-02
        -0.58982E-02
        -0.59101E-02
        -0.58559E-02
        -0.57690E-02
        -0.58800E-02
        -0.54591E-02
        -0.54869E-02
        -0.54226E-02
        -0.54290E-02
        -0.54266E-02
        -0.54377E-02
        -0.54598E-02
        -0.54577E-02
        -0.54776E-02
        -0.54861E-02
        -0.54925E-02
        -0.54957E-02
        -0.54839E-02
        -0.54657E-02
        -0.54566E-02
        -0.54525E-02
        -0.54555E-02
        -0.54129E-02
        -0.54370E-02
        -0.54669E-02
        -0.54781E-02
        -0.54847E-02
        -0.54700E-02
        -0.54782E-02
        -0.54920E-02
        -0.54972E-02
        -0.64093E-02
        -0.63045E-02
        -0.62637E-02
        -0.63848E-02
        -0.61434E-02
        -0.62015E-02
        -0.62721E-02
        -0.63688E-02
        -0.64583E-02
        -0.64173E-02
        -0.62321E-02
        -0.61159E-02
        -0.61386E-02
        -0.63024E-02
        -0.61648E-02
        -0.64131E-02
        -0.64337E-02
        -0.64675E-02
        -0.63294E-02
        -0.63618E-02
        -0.61773E-02
        -0.61985E-02
        -0.61286E-02
        -0.62440E-02
        -0.63972E-02
        -0.62578E-02
        -0.63424E-02
        -0.63183E-02
        -0.62553E-02
        -0.63371E-02
        -0.63282E-02
        -0.62255E-02
        -0.63611E-02
        -0.63106E-02
        -0.60570E-02
        -0.61177E-02
        -0.61624E-02
        -0.61778E-02
        -0.61577E-02
        -0.61177E-02
        -0.60569E-02
        -0.61310E-02
        -0.61846E-02
        -0.61230E-02
        -0.60950E-02
        -0.60390E-02
        -0.61243E-02
        -0.61845E-02
        -0.61869E-02
        -0.61450E-02
        -0.60820E-02
        -0.61676E-02
        -0.58568E-02
        -0.58705E-02
        -0.58290E-02
        -0.58389E-02
        -0.58386E-02
        -0.58468E-02
        -0.58619E-02
        -0.58524E-02
        -0.58653E-02
        -0.58722E-02
        -0.58830E-02
        -0.58791E-02
        -0.58665E-02
        -0.58484E-02
        -0.58475E-02
        -0.58525E-02
        -0.58634E-02
        -0.58278E-02
        -0.58453E-02
        -0.58629E-02
        -0.58638E-02
        -0.58679E-02
        -0.58591E-02
        -0.58693E-02
        -0.58740E-02
        -0.58759E-02
        -0.65765E-02
        -0.65099E-02
        -0.64767E-02
        -0.65601E-02
        -0.63963E-02
        -0.64371E-02
        -0.64894E-02
        -0.65545E-02
        -0.66047E-02
        -0.65822E-02
        -0.64624E-02
        -0.63832E-02
        -0.64007E-02
        -0.65141E-02
        -0.64200E-02
        -0.65868E-02
        -0.65901E-02
        -0.66190E-02
        -0.65297E-02
        -0.65497E-02
        -0.64272E-02
        -0.64407E-02
        -0.63897E-02
        -0.64677E-02
        -0.65659E-02
        -0.64775E-02
        -0.65398E-02
        -0.65203E-02
        -0.64782E-02
        -0.65324E-02
        -0.65243E-02
        -0.64557E-02
        -0.65447E-02
        -0.65099E-02
        -0.63368E-02
        -0.63816E-02
        -0.64195E-02
        -0.64249E-02
        -0.64086E-02
        -0.63817E-02
        -0.63365E-02
        -0.63899E-02
        -0.64289E-02
        -0.63889E-02
        -0.63696E-02
        -0.63277E-02
        -0.63872E-02
        -0.64277E-02
        -0.64248E-02
        -0.63932E-02
        -0.63496E-02
        -0.64125E-02
        -0.62014E-02
        -0.62051E-02
        -0.61814E-02
        -0.61917E-02
        -0.61902E-02
        -0.61949E-02
        -0.62031E-02
        -0.61887E-02
        -0.61986E-02
        -0.61985E-02
        -0.62052E-02
        -0.62036E-02
        -0.61945E-02
        -0.61812E-02
        -0.61892E-02
        -0.61981E-02
        -0.62129E-02
        -0.61825E-02
        -0.61922E-02
        -0.62012E-02
        -0.62002E-02
        -0.62013E-02
        -0.61932E-02
        -0.62025E-02
        -0.62027E-02
        -0.62063E-02
        -0.67166E-02
        -0.66760E-02
        -0.66496E-02
        -0.67097E-02
        -0.65930E-02
        -0.66225E-02
        -0.66618E-02
        -0.67049E-02
        -0.67307E-02
        -0.67217E-02
        -0.66423E-02
        -0.65884E-02
        -0.66036E-02
        -0.66810E-02
        -0.66175E-02
        -0.67299E-02
        -0.67240E-02
        -0.67489E-02
        -0.66905E-02
        -0.67034E-02
        -0.66193E-02
        -0.66291E-02
        -0.65909E-02
        -0.66453E-02
        -0.67106E-02
        -0.66530E-02
        -0.66997E-02
        -0.66847E-02
        -0.66542E-02
        -0.66921E-02
        -0.66837E-02
        -0.66376E-02
        -0.66964E-02
        -0.66716E-02
        -0.65492E-02
        -0.65852E-02
        -0.66193E-02
        -0.66191E-02
        -0.66048E-02
        -0.65837E-02
        -0.65487E-02
        -0.65892E-02
        -0.66203E-02
        -0.65939E-02
        -0.65797E-02
        -0.65466E-02
        -0.65901E-02
        -0.66171E-02
        -0.66093E-02
        -0.65821E-02
        -0.65488E-02
        -0.66000E-02
        -0.64496E-02
        -0.64457E-02
        -0.64410E-02
        -0.64557E-02
        -0.64519E-02
        -0.64544E-02
        -0.64637E-02
        -0.64491E-02
        -0.64532E-02
        -0.64476E-02
        -0.64551E-02
        -0.64510E-02
        -0.64485E-02
        -0.64377E-02
        -0.64457E-02
        -0.64552E-02
        -0.64707E-02
        -0.64426E-02
        -0.64469E-02
        -0.64532E-02
        -0.64515E-02
        -0.64487E-02
        -0.64390E-02
        -0.64426E-02
        -0.64416E-02
        -0.64470E-02
        -0.68313E-02
        -0.68062E-02
        -0.67846E-02
        -0.68296E-02
        -0.67478E-02
        -0.67692E-02
        -0.67976E-02
        -0.68271E-02
        -0.68374E-02
        -0.68361E-02
        -0.67831E-02
        -0.67466E-02
        -0.67591E-02
        -0.68114E-02
        -0.67678E-02
        -0.68459E-02
        -0.68358E-02
        -0.68572E-02
        -0.68193E-02
        -0.68272E-02
        -0.67721E-02
        -0.67776E-02
        -0.67482E-02
        -0.67845E-02
        -0.68278E-02
        -0.67894E-02
        -0.68237E-02
        -0.68134E-02
        -0.67940E-02
        -0.68192E-02
        -0.68102E-02
        -0.67778E-02
        -0.68201E-02
        -0.68041E-02
        -0.67171E-02
        -0.67438E-02
        -0.67722E-02
        -0.67678E-02
        -0.67593E-02
        -0.67456E-02
        -0.67183E-02
        -0.67482E-02
        -0.67713E-02
        -0.67505E-02
        -0.67396E-02
        -0.67133E-02
        -0.67450E-02
        -0.67639E-02
        -0.67563E-02
        -0.67369E-02
        -0.67133E-02
        -0.67523E-02
        -0.66500E-02
        -0.66426E-02
        -0.66473E-02
        -0.66596E-02
        -0.66545E-02
        -0.66589E-02
        -0.66646E-02
        -0.66494E-02
        -0.66536E-02
        -0.66448E-02
        -0.66472E-02
        -0.66467E-02
        -0.66466E-02
        -0.66383E-02
        -0.66509E-02
        -0.66586E-02
        -0.66703E-02
        -0.66446E-02
        -0.66434E-02
        -0.66481E-02
        -0.66508E-02
        -0.66473E-02
        -0.66373E-02
        -0.66394E-02
        -0.66364E-02
        -0.66430E-02
        -0.69180E-02
        -0.69016E-02
        -0.68846E-02
        -0.69183E-02
        -0.68588E-02
        -0.68732E-02
        -0.68946E-02
        -0.69164E-02
        -0.69190E-02
        -0.69219E-02
        -0.68824E-02
        -0.68558E-02
        -0.68655E-02
        -0.69035E-02
        -0.68728E-02
        -0.69303E-02
        -0.69194E-02
        -0.69370E-02
        -0.69097E-02
        -0.69147E-02
        -0.68759E-02
        -0.68790E-02
        -0.68552E-02
        -0.68820E-02
        -0.69158E-02
        -0.68867E-02
        -0.69115E-02
        -0.69051E-02
        -0.68919E-02
        -0.69099E-02
        -0.69020E-02
        -0.68788E-02
        -0.69085E-02
        -0.68974E-02
        -0.68351E-02
        -0.68551E-02
        -0.68771E-02
        -0.68706E-02
        -0.68642E-02
        -0.68552E-02
        -0.68334E-02
        -0.68571E-02
        -0.68746E-02
        -0.68578E-02
        -0.68506E-02
        -0.68303E-02
        -0.68555E-02
        -0.68681E-02
        -0.68598E-02
        -0.68449E-02
        -0.68269E-02
        -0.68583E-02
        -0.67834E-02
        -0.67757E-02
        -0.67828E-02
        -0.67932E-02
        -0.67892E-02
        -0.67943E-02
        -0.68011E-02
        -0.67926E-02
        -0.67935E-02
        -0.67819E-02
        -0.67793E-02
        -0.67859E-02
        -0.67879E-02
        -0.67808E-02
        -0.67886E-02
        -0.67929E-02
        -0.68030E-02
        -0.67784E-02
        -0.67773E-02
        -0.67817E-02
        -0.67861E-02
        -0.67848E-02
        -0.67757E-02
        -0.67746E-02
        -0.67709E-02
        -0.67765E-02
        -0.69769E-02
        -0.69669E-02
        -0.69521E-02
        -0.69777E-02
        -0.69359E-02
        -0.69459E-02
        -0.69624E-02
        -0.69790E-02
        -0.69732E-02
        -0.69820E-02
        -0.69522E-02
        -0.69325E-02
        -0.69404E-02
        -0.69689E-02
        -0.69456E-02
        -0.69861E-02
        -0.69758E-02
        -0.69890E-02
        -0.69726E-02
        -0.69755E-02
        -0.69487E-02
        -0.69500E-02
        -0.69310E-02
        -0.69502E-02
        -0.69774E-02
        -0.69528E-02
        -0.69750E-02
        -0.69713E-02
        -0.69625E-02
        -0.69735E-02
        -0.69629E-02
        -0.69465E-02
        -0.69688E-02
        -0.69629E-02
        -0.69186E-02
        -0.69325E-02
        -0.69502E-02
        -0.69439E-02
        -0.69412E-02
        -0.69369E-02
        -0.69210E-02
        -0.69375E-02
        -0.69489E-02
        -0.69332E-02
        -0.69287E-02
        -0.69141E-02
        -0.69322E-02
        -0.69402E-02
        -0.69334E-02
        -0.69236E-02
        -0.69107E-02
        -0.69347E-02
        -0.68849E-02
        -0.68790E-02
        -0.68851E-02
        -0.68926E-02
        -0.68891E-02
        -0.68938E-02
        -0.68967E-02
        -0.68916E-02
        -0.68947E-02
        -0.68850E-02
        -0.68847E-02
        -0.68890E-02
        -0.68897E-02
        -0.68799E-02
        -0.68887E-02
        -0.68935E-02
        -0.69041E-02
        -0.68835E-02
        -0.68806E-02
        -0.68836E-02
        -0.68879E-02
        -0.68851E-02
        -0.68765E-02
        -0.68749E-02
        -0.68727E-02
        -0.68788E-02
        -0.70089E-02
        -0.70045E-02
        -0.69927E-02
        -0.70109E-02
        -0.69827E-02
        -0.69879E-02
        -0.70021E-02
        -0.70125E-02
        -0.70048E-02
        -0.70147E-02
        -0.69946E-02
        -0.69824E-02
        -0.69872E-02
        -0.70051E-02
        -0.69916E-02
        -0.70167E-02
        -0.70084E-02
        -0.70178E-02
        -0.70085E-02
        -0.70087E-02
        -0.69937E-02
        -0.69933E-02
        -0.69773E-02
        -0.69911E-02
        -0.70108E-02
        -0.69921E-02
        -0.70075E-02
        -0.70046E-02
        -0.69982E-02
        -0.70061E-02
        -0.69971E-02
        -0.69872E-02
        -0.70026E-02
        -0.70013E-02
        -0.69711E-02
        -0.69808E-02
        -0.69942E-02
        -0.69877E-02
        -0.69851E-02
        -0.69827E-02
        -0.69719E-02
        -0.69829E-02
        -0.69919E-02
        -0.69782E-02
        -0.69761E-02
        -0.69652E-02
        -0.69780E-02
        -0.69810E-02
        -0.69765E-02
        -0.69728E-02
        -0.69641E-02
        -0.69810E-02
        -0.69459E-02
        -0.69398E-02
        -0.69457E-02
        -0.69503E-02
        -0.69482E-02
        -0.69537E-02
        -0.69587E-02
        -0.69570E-02
        -0.69598E-02
        -0.69508E-02
        -0.69507E-02
        -0.69544E-02
        -0.69545E-02
        -0.69453E-02
        -0.69498E-02
        -0.69502E-02
        -0.69579E-02
        -0.69421E-02
        -0.69408E-02
        -0.69426E-02
        -0.69470E-02
        -0.69468E-02
        -0.69420E-02
        -0.69401E-02
        -0.69366E-02
        -0.69393E-02
        -0.70248E-02
        -0.70244E-02
        -0.70159E-02
        -0.70290E-02
        -0.70128E-02
        -0.70139E-02
        -0.70229E-02
        -0.70283E-02
        -0.70177E-02
        -0.70290E-02
        -0.70176E-02
        -0.70118E-02
        -0.70146E-02
        -0.70240E-02
        -0.70176E-02
        -0.70312E-02
        -0.70212E-02
        -0.70318E-02
        -0.70258E-02
        -0.70234E-02
        -0.70180E-02
        -0.70155E-02
        -0.70061E-02
        -0.70143E-02
        -0.70258E-02
        -0.70146E-02
        -0.70250E-02
        -0.70229E-02
        -0.70188E-02
        -0.70224E-02
        -0.70179E-02
        -0.70116E-02
        -0.70226E-02
        -0.70231E-02
        -0.70055E-02
        -0.70097E-02
        -0.70189E-02
        -0.70138E-02
        -0.70121E-02
        -0.70114E-02
        -0.70046E-02
        -0.70105E-02
        -0.70157E-02
        -0.70064E-02
        -0.70052E-02
        -0.69980E-02
        -0.70079E-02
        -0.70085E-02
        -0.70048E-02
        -0.70036E-02
        -0.69977E-02
        -0.70094E-02
        -0.69928E-02
        -0.69876E-02
        -0.69911E-02
        -0.69925E-02
        -0.69918E-02
        -0.69976E-02
        -0.69999E-02
        -0.69990E-02
        -0.70018E-02
        -0.69940E-02
        -0.69923E-02
        -0.69941E-02
        -0.69956E-02
        -0.69882E-02
        -0.69930E-02
        -0.69947E-02
        -0.69999E-02
        -0.69844E-02
        -0.69830E-02
        -0.69844E-02
        -0.69886E-02
        -0.69901E-02
        -0.69875E-02
        -0.69840E-02
        -0.69815E-02
        -0.69842E-02
        -0.70349E-02
        -0.70344E-02
        -0.70274E-02
        -0.70375E-02
        -0.70265E-02
        -0.70262E-02
        -0.70339E-02
        -0.70385E-02
        -0.70305E-02
        -0.70405E-02
        -0.70299E-02
        -0.70263E-02
        -0.70277E-02
        -0.70346E-02
        -0.70300E-02
        -0.70405E-02
        -0.70327E-02
        -0.70413E-02
        -0.70353E-02
        -0.70322E-02
        -0.70296E-02
        -0.70265E-02
        -0.70185E-02
        -0.70254E-02
        -0.70367E-02
        -0.70250E-02
        -0.70350E-02
        -0.70325E-02
        -0.70287E-02
        -0.70317E-02
        -0.70274E-02
        -0.70226E-02
        -0.70314E-02
        -0.70327E-02
        -0.70209E-02
        -0.70237E-02
        -0.70303E-02
        -0.70258E-02
        -0.70237E-02
        -0.70234E-02
        -0.70196E-02
        -0.70232E-02
        -0.70268E-02
        -0.70179E-02
        -0.70177E-02
        -0.70130E-02
        -0.70217E-02
        -0.70205E-02
        -0.70172E-02
        -0.70180E-02
        -0.70146E-02
        -0.70237E-02
        -0.70098E-02
        -0.70069E-02
        -0.70107E-02
        -0.70121E-02
        -0.70123E-02
        -0.70184E-02
        -0.70200E-02
        -0.70203E-02
        -0.70220E-02
        -0.70131E-02
        -0.70126E-02
        -0.70134E-02
        -0.70136E-02
        -0.70079E-02
        -0.70122E-02
        -0.70122E-02
        -0.70163E-02
        -0.70028E-02
        -0.70021E-02
        -0.70049E-02
        -0.70088E-02
        -0.70093E-02
        -0.70087E-02
        -0.70059E-02
        -0.70055E-02
        -0.70058E-02
        -0.70367E-02
        -0.70372E-02
        -0.70327E-02
        -0.70404E-02
        -0.70343E-02
        -0.70323E-02
        -0.70371E-02
        -0.70406E-02
        -0.70329E-02
        -0.70431E-02
        -0.70343E-02
        -0.70325E-02
        -0.70333E-02
        -0.70379E-02
        -0.70351E-02
        -0.70423E-02
        -0.70350E-02
        -0.70438E-02
        -0.70387E-02
        -0.70355E-02
        -0.70354E-02
        -0.70325E-02
        -0.70248E-02
        -0.70300E-02
        -0.70400E-02
        -0.70290E-02
        -0.70385E-02
        -0.70368E-02
        -0.70342E-02
        -0.70358E-02
        -0.70319E-02
        -0.70280E-02
        -0.70359E-02
        -0.70368E-02
        -0.70312E-02
        -0.70321E-02
        -0.70357E-02
        -0.70319E-02
        -0.70310E-02
        -0.70315E-02
        -0.70293E-02
        -0.70308E-02
        -0.70333E-02
        -0.70239E-02
        -0.70253E-02
        -0.70227E-02
        -0.70295E-02
        -0.70273E-02
        -0.70252E-02
        -0.70263E-02
        -0.70239E-02
        -0.70307E-02
        -0.70246E-02
        -0.70216E-02
        -0.70255E-02
        -0.70256E-02
        -0.70255E-02
        -0.70305E-02
        -0.70349E-02
        -0.70357E-02
        -0.70372E-02
        -0.70299E-02
        -0.70283E-02
        -0.70283E-02
        -0.70273E-02
        -0.70209E-02
        -0.70241E-02
        -0.70256E-02
        -0.70294E-02
        -0.70166E-02
        -0.70162E-02
        -0.70165E-02
        -0.70212E-02
        -0.70241E-02
        -0.70255E-02
        -0.70219E-02
        -0.70227E-02
        -0.70213E-02
        -0.70392E-02
        -0.70396E-02
        -0.70358E-02
        -0.70422E-02
        -0.70387E-02
        -0.70368E-02
        -0.70399E-02
        -0.70433E-02
        -0.70373E-02
        -0.70471E-02
        -0.70378E-02
        -0.70372E-02
        -0.70381E-02
        -0.70409E-02
        -0.70383E-02
        -0.70448E-02
        -0.70391E-02
        -0.70458E-02
        -0.70418E-02
        -0.70383E-02
        -0.70379E-02
        -0.70353E-02
        -0.70280E-02
        -0.70336E-02
        -0.70439E-02
        -0.70324E-02
        -0.70421E-02
        -0.70410E-02
        -0.70393E-02
        -0.70393E-02
        -0.70344E-02
        -0.70314E-02
        -0.70377E-02
        -0.70390E-02
        -0.70353E-02
        -0.70357E-02
        -0.70390E-02
        -0.70362E-02
        -0.70362E-02
        -0.70375E-02
        -0.70365E-02
        -0.70365E-02
        -0.70371E-02
        -0.70280E-02
        -0.70300E-02
        -0.70278E-02
        -0.70337E-02
        -0.70314E-02
        -0.70294E-02
        -0.70311E-02
        -0.70298E-02
        -0.70358E-02
        -0.70291E-02
        -0.70287E-02
        -0.70301E-02
        -0.70300E-02
        -0.70314E-02
        -0.70347E-02
        -0.70378E-02
        -0.70389E-02
        -0.70422E-02
        -0.70337E-02
        -0.70348E-02
        -0.70328E-02
        -0.70312E-02
        -0.70243E-02
        -0.70263E-02
        -0.70267E-02
        -0.70330E-02
        -0.70235E-02
        -0.70236E-02
        -0.70228E-02
        -0.70286E-02
        -0.70306E-02
        -0.70336E-02
        -0.70298E-02
        -0.70299E-02
        -0.70283E-02
        -0.70394E-02
        -0.70405E-02
        -0.70371E-02
        -0.70427E-02
        -0.70406E-02
        -0.70379E-02
        -0.70406E-02
        -0.70433E-02
        -0.70371E-02
        -0.70474E-02
        -0.70387E-02
        -0.70398E-02
        -0.70405E-02
        -0.70416E-02
        -0.70407E-02
        -0.70456E-02
        -0.70393E-02
        -0.70462E-02
        -0.70424E-02
        -0.70387E-02
        -0.70394E-02
        -0.70368E-02
        -0.70308E-02
        -0.70353E-02
        -0.70449E-02
        -0.70343E-02
        -0.70432E-02
        -0.70429E-02
        -0.70420E-02
        -0.70406E-02
        -0.70357E-02
        -0.70336E-02
        -0.70384E-02
        -0.70396E-02
        -0.70388E-02
        -0.70386E-02
        -0.70413E-02
        -0.70390E-02
        -0.70393E-02
        -0.70417E-02
        -0.70416E-02
        -0.70403E-02
        -0.70397E-02
        -0.70314E-02
        -0.70335E-02
        -0.70320E-02
        -0.70370E-02
        -0.70340E-02
        -0.70310E-02
        -0.70321E-02
        -0.70313E-02
        -0.70371E-02
        -0.70354E-02
        -0.70331E-02
        -0.70381E-02
        -0.70366E-02
        -0.70389E-02
        -0.70426E-02
        -0.70454E-02
        -0.70472E-02
        -0.70491E-02
        -0.70423E-02
        -0.70448E-02
        -0.70407E-02
        -0.70395E-02
        -0.70302E-02
        -0.70334E-02
        -0.70344E-02
        -0.70395E-02
        -0.70305E-02
        -0.70308E-02
        -0.70281E-02
        -0.70323E-02
        -0.70334E-02
        -0.70353E-02
        -0.70316E-02
        -0.70332E-02
        -0.70322E-02
        -0.70400E-02
        -0.70419E-02
        -0.70373E-02
        -0.70432E-02
        -0.70402E-02
        -0.70380E-02
        -0.70425E-02
        -0.70446E-02
        -0.70365E-02
        -0.70468E-02
        -0.70407E-02
        -0.70412E-02
        -0.70421E-02
        -0.70433E-02
        -0.70419E-02
        -0.70462E-02
        -0.70385E-02
        -0.70465E-02
        -0.70426E-02
        -0.70392E-02
        -0.70403E-02
        -0.70376E-02
        -0.70312E-02
        -0.70355E-02
        -0.70444E-02
        -0.70350E-02
        -0.70438E-02
        -0.70437E-02
        -0.70430E-02
        -0.70417E-02
        -0.70360E-02
        -0.70341E-02
        -0.70387E-02
        -0.70407E-02
        -0.70388E-02
        -0.70394E-02
        -0.70432E-02
        -0.70390E-02
        -0.70400E-02
        -0.70425E-02
        -0.70412E-02
        -0.70406E-02
        -0.70401E-02
        -0.70323E-02
        -0.70339E-02
        -0.70318E-02
        -0.70371E-02
        -0.70344E-02
        -0.70317E-02
        -0.70334E-02
        -0.70325E-02
        -0.70380E-02
        -0.70366E-02
        -0.70332E-02
        -0.70378E-02
        -0.70373E-02
        -0.70393E-02
        -0.70431E-02
        -0.70459E-02
        -0.70458E-02
        -0.70477E-02
        -0.70429E-02
        -0.70442E-02
        -0.70400E-02
        -0.70372E-02
        -0.70310E-02
        -0.70346E-02
        -0.70352E-02
        -0.70414E-02
        -0.70304E-02
        -0.70296E-02
        -0.70282E-02
        -0.70321E-02
        -0.70341E-02
        -0.70352E-02
        -0.70322E-02
        -0.70333E-02
        -0.70325E-02
        -0.70418E-02
        -0.70430E-02
        -0.70389E-02
        -0.70433E-02
        -0.70436E-02
        -0.70393E-02
        -0.70436E-02
        -0.70458E-02
        -0.70407E-02
        -0.70474E-02
        -0.70426E-02
        -0.70426E-02
        -0.70429E-02
        -0.70449E-02
        -0.70432E-02
        -0.70458E-02
        -0.70407E-02
        -0.70480E-02
        -0.70424E-02
        -0.70393E-02
        -0.70399E-02
        -0.70379E-02
        -0.70325E-02
        -0.70355E-02
        -0.70446E-02
        -0.70347E-02
        -0.70448E-02
        -0.70453E-02
        -0.70467E-02
        -0.70427E-02
        -0.70362E-02
        -0.70359E-02
        -0.70388E-02
        -0.70403E-02
        -0.70447E-02
        -0.70436E-02
        -0.70450E-02
        -0.70420E-02
        -0.70461E-02
        -0.70509E-02
        -0.70514E-02
        -0.70478E-02
        -0.70435E-02
        -0.70346E-02
        -0.70380E-02
        -0.70374E-02
        -0.70408E-02
        -0.70360E-02
        -0.70324E-02
        -0.70339E-02
        -0.70333E-02
        -0.70387E-02
        -0.70492E-02
        -0.70442E-02
        -0.70458E-02
        -0.70413E-02
        -0.70430E-02
        -0.70477E-02
        -0.70508E-02
        -0.70542E-02
        -0.70584E-02
        -0.70573E-02
        -0.70586E-02
        -0.70513E-02
        -0.70460E-02
        -0.70385E-02
        -0.70397E-02
        -0.70414E-02
        -0.70469E-02
        -0.70377E-02
        -0.70369E-02
        -0.70318E-02
        -0.70332E-02
        -0.70325E-02
        -0.70350E-02
        -0.70348E-02
        -0.70365E-02
        -0.70386E-02
  
SCALARS                     velocity_x  double 1
LOOKUP_TABLE default
        -0.17955E+02
        -0.90754E+01
         0.45310E+00
         0.32160E+01
        -0.90661E+00
        -0.17167E+00
        -0.60500E+01
         0.19971E+01
         0.95410E+01
        -0.49045E+01
        -0.14569E+01
        -0.25218E+01
         0.13781E+02
         0.16215E+02
         0.20584E+01
         0.27862E+01
         0.13976E+01
        -0.12086E+02
         0.25285E+00
        -0.61598E+00
         0.11671E+02
         0.60840E+01
        -0.28995E+01
        -0.21647E+01
         0.46757E+01
         0.54112E+01
        -0.53857E+01
        -0.11431E+02
         0.58644E+00
         0.56771E+01
        -0.86298E+01
         0.11049E+02
        -0.93735E+01
         0.40238E+00
         0.45201E+00
        -0.55032E+01
         0.44247E+01
        -0.15602E+02
        -0.14608E+01
        -0.73575E+00
        -0.79706E+01
         0.93897E+01
         0.22766E+01
         0.55495E+01
        -0.45357E+01
         0.19214E+02
        -0.17358E+01
         0.21362E+01
         0.17486E+02
        -0.19437E+01
         0.15792E+02
         0.12064E+02
         0.34577E+01
         0.20648E+01
        -0.16272E+02
        -0.48963E+00
         0.19307E+01
        -0.12171E+02
        -0.10027E+01
        -0.31494E+01
        -0.99417E+01
         0.51529E+01
        -0.11210E+01
         0.42205E+01
        -0.29840E+01
        -0.40846E+01
         0.22091E+02
         0.10122E+01
        -0.33515E+02
         0.15228E+02
         0.10871E+01
         0.21243E+01
        -0.10923E+02
        -0.24672E+00
         0.12233E+02
         0.23031E+01
         0.10395E+02
         0.24062E+01
         0.45220E+00
        -0.34973E+00
         0.60144E+01
        -0.14970E+02
        -0.20611E+00
        -0.30468E+01
         0.17326E+02
         0.45832E+01
        -0.96306E+00
         0.21304E+01
         0.18425E+02
         0.73137E+01
         0.15653E+01
        -0.80809E+01
        -0.14780E+01
         0.38165E+01
         0.22508E+01
        -0.23862E+01
         0.39205E+01
         0.23406E+01
         0.28380E+00
         0.13080E+00
        -0.91330E+01
        -0.12220E+02
         0.42519E+01
        -0.41877E+00
         0.16559E+02
         0.28579E+01
         0.81355E+00
         0.24624E+01
         0.51240E+01
         0.29328E+01
         0.10517E+00
         0.30262E+01
         0.48143E+01
         0.31357E+01
         0.42130E+01
         0.46751E+01
         0.99070E+01
         0.20561E+01
        -0.60731E+01
         0.18190E+01
         0.92741E+01
         0.51825E+01
        -0.53715E+00
        -0.23167E+00
         0.13941E+01
        -0.31600E+01
        -0.99216E+01
         0.37968E+01
         0.19369E+01
        -0.65392E+01
         0.15212E+01
         0.41161E+00
         0.62317E+00
         0.48794E+01
        -0.40744E-01
         0.61004E+01
         0.31921E+01
         0.75398E+01
        -0.30098E+01
        -0.28152E+01
         0.55677E-01
        -0.14226E+01
        -0.11158E+00
         0.42836E+01
        -0.23632E+01
         0.18285E+01
         0.32966E+01
         0.39617E+01
        -0.18294E+01
         0.35705E+01
         0.36072E+01
         0.26765E+01
        -0.10153E+02
         0.27038E+01
         0.65337E+01
        -0.37084E+01
        -0.76069E+01
        -0.29319E+01
         0.83828E+01
         0.48590E+01
         0.17160E+02
        -0.88379E+01
         0.15845E+02
         0.77355E+01
        -0.45018E-01
        -0.15349E+02
         0.23674E+01
         0.59319E+01
         0.56120E+01
         0.47875E+00
        -0.67731E+01
        -0.63474E+01
         0.82614E+01
        -0.63395E+01
        -0.23066E+01
        -0.36070E+01
        -0.23846E+01
         0.85796E+01
        -0.49061E+01
        -0.15931E+01
         0.16723E+02
         0.12403E+02
         0.37825E+01
        -0.34206E+01
        -0.10577E+02
        -0.22277E+02
        -0.77000E+01
         0.67021E+01
        -0.95149E+01
         0.54282E+01
        -0.28221E+02
         0.34548E+01
        -0.13815E+02
        -0.38287E+00
         0.17136E+01
        -0.10029E+01
         0.99561E+01
         0.44050E+01
         0.95517E+01
         0.92955E+01
         0.28191E+02
        -0.19933E+02
        -0.18283E+02
         0.76547E+01
         0.84549E+01
        -0.54056E+00
         0.12833E+02
        -0.22264E+02
        -0.18299E+01
        -0.47165E+01
        -0.26871E+01
         0.44221E+01
         0.52919E+01
        -0.73871E+01
         0.36709E+01
        -0.69946E+00
         0.93184E+01
        -0.79946E+01
         0.69847E+01
         0.62532E+00
         0.46230E+01
         0.84842E-01
         0.97557E+01
         0.76592E+01
         0.32385E+01
         0.76269E+01
        -0.19178E+01
         0.32196E+01
        -0.12556E+01
         0.40091E+01
        -0.67455E+01
         0.15853E+02
        -0.59261E+01
         0.17312E+01
         0.29411E+01
        -0.11961E+02
        -0.13547E+01
         0.33151E+01
         0.13034E+02
        -0.58612E+01
        -0.58150E+00
         0.13435E+02
         0.12451E+01
        -0.13816E+02
        -0.75366E+01
         0.25102E+02
         0.48941E+01
         0.99359E+00
         0.15580E+02
        -0.22353E+01
        -0.11044E+02
         0.36912E+01
        -0.99478E+01
         0.23814E+02
         0.60580E+00
        -0.61361E+01
         0.27893E+01
        -0.65900E+01
         0.96940E+00
         0.28034E+01
         0.29774E+01
         0.23030E+02
        -0.17746E+02
        -0.17009E+02
         0.67787E+00
         0.14661E+02
        -0.46582E+01
        -0.11753E+02
        -0.73679E+01
         0.79937E+01
        -0.12817E+02
        -0.10307E+02
         0.66826E+01
         0.10920E+01
        -0.69054E+01
        -0.23000E+00
         0.13302E+01
         0.31456E+00
         0.58614E+01
        -0.12173E+02
        -0.14032E+00
         0.62487E+01
        -0.80037E+00
        -0.14982E+01
         0.22558E+02
        -0.72433E+01
         0.87222E+01
         0.75318E+00
         0.86492E+01
        -0.80858E+01
         0.13294E+02
        -0.92786E+01
         0.47501E+01
         0.30485E+01
         0.12404E+01
         0.47298E+01
        -0.71612E+01
         0.61486E+01
        -0.34485E+01
        -0.36757E+01
         0.71303E+00
         0.16266E+01
        -0.31727E+00
         0.81978E+01
        -0.20751E+01
         0.54538E+01
        -0.73125E+01
         0.72722E+01
        -0.25798E+01
        -0.36636E+01
        -0.10450E+02
         0.54245E+01
         0.15992E+01
        -0.85579E+01
         0.29497E+01
         0.37165E+01
         0.27126E+01
        -0.13488E+02
         0.13068E+01
         0.11801E+02
        -0.17976E+01
        -0.24207E+01
        -0.12472E+02
         0.11182E+02
         0.17845E+01
         0.67339E+01
         0.47665E+01
        -0.42701E+01
        -0.35921E+01
         0.31350E+01
        -0.13085E+02
         0.28730E+02
         0.81620E+01
        -0.77352E+01
         0.14407E+02
         0.16929E+01
        -0.70717E+01
        -0.54110E+01
        -0.42964E+00
         0.38417E+01
        -0.11022E+02
        -0.17626E+02
        -0.46687E+01
         0.12935E+02
         0.11406E+01
         0.28442E+01
        -0.76614E+00
         0.13956E+02
        -0.39166E+01
        -0.12628E+02
        -0.77342E+01
        -0.21652E+01
         0.99841E+01
         0.38968E+01
         0.68363E+01
        -0.98582E+01
        -0.13559E+02
        -0.20348E+01
         0.13163E+02
         0.62151E+00
        -0.12223E+02
         0.22397E+01
         0.16098E+02
        -0.83867E+01
        -0.16482E+02
        -0.42877E+01
         0.85602E+01
        -0.10853E+02
         0.15724E+02
        -0.46541E+01
         0.52558E+00
        -0.34782E+01
         0.40283E+01
         0.27606E+01
         0.10107E+02
        -0.86772E+01
         0.41583E+01
         0.97021E+00
         0.56447E+01
        -0.39278E+01
         0.11046E+01
         0.12461E+02
        -0.11020E+01
        -0.32624E+01
         0.12740E+01
         0.40483E+01
        -0.13755E+01
         0.87611E+01
         0.92756E-01
        -0.30644E+00
        -0.61538E+01
        -0.12448E+02
         0.64903E+00
         0.41886E+00
         0.45902E+01
        -0.77855E+01
        -0.27191E+01
        -0.56279E+01
         0.37191E+00
         0.27829E+01
        -0.45998E+01
         0.53254E+01
         0.24282E+01
         0.20200E+02
         0.11570E+02
        -0.47076E+01
         0.17685E+01
         0.16325E+01
        -0.21788E+02
         0.11227E+02
        -0.19952E+01
        -0.26931E+01
         0.57682E+01
         0.11106E+02
         0.44524E+01
         0.43860E+01
        -0.62827E+01
         0.85849E+01
         0.39758E+01
        -0.95915E+01
        -0.66353E+01
         0.16192E+02
         0.39221E+01
         0.12078E+02
         0.64876E+00
         0.10365E+02
         0.23633E+01
        -0.32410E+01
        -0.22591E+01
         0.93952E+01
         0.81024E+01
        -0.44858E+01
         0.63293E+01
        -0.40700E+01
        -0.15412E+01
         0.20782E+02
         0.63550E+01
        -0.10241E+02
        -0.33030E+01
         0.16642E+02
        -0.99726E+01
        -0.12481E+02
        -0.48107E+01
         0.89335E+01
         0.53152E+01
        -0.99495E+01
         0.13873E+02
         0.66776E+00
         0.17431E+01
         0.12644E+02
        -0.53608E+01
         0.49706E+00
        -0.60478E+01
        -0.12415E+01
         0.41294E+01
        -0.83301E+01
         0.92415E+01
        -0.30474E+00
        -0.21958E+01
        -0.36673E+01
        -0.75838E+01
        -0.56250E+01
         0.54109E+01
         0.58970E+01
        -0.11165E+02
        -0.20456E+01
         0.54100E+01
        -0.53859E+01
         0.35310E+01
         0.60597E+01
         0.15777E+02
         0.47350E+01
         0.46603E+01
        -0.11857E+02
         0.15766E+02
        -0.10248E+02
         0.13134E+01
        -0.10409E+02
         0.77883E+01
         0.12191E+02
        -0.64860E+01
         0.17126E+02
        -0.50533E+01
        -0.38526E+01
         0.50747E+01
        -0.34313E+01
        -0.11504E+02
         0.80067E+01
        -0.61126E+00
         0.10731E+02
        -0.15352E+00
        -0.18742E+00
        -0.33244E+01
        -0.44443E+01
         0.18050E+01
         0.70509E+01
        -0.72871E+01
        -0.14928E+02
        -0.12552E+02
         0.74957E+01
        -0.40259E+01
        -0.40714E+01
        -0.97577E+01
        -0.10326E+02
        -0.17604E+02
        -0.60292E+01
        -0.34866E+01
        -0.53907E+01
         0.40770E+01
        -0.10804E+02
        -0.36908E+01
         0.33106E+01
        -0.78804E+00
         0.94752E+00
         0.30822E+01
        -0.13609E+01
        -0.32618E+01
         0.14834E+02
         0.51540E+01
        -0.14625E+02
        -0.68468E+00
        -0.66589E+01
         0.14440E+01
        -0.77493E+01
         0.28337E+01
        -0.15367E+01
        -0.33078E+01
         0.44454E+01
        -0.46508E+01
         0.72667E+01
         0.46310E+01
         0.80637E+01
         0.33600E+01
        -0.29357E+01
         0.50015E+01
        -0.73984E+01
         0.10558E+02
         0.29174E+00
         0.58190E+01
         0.69832E+00
        -0.34503E+01
         0.58292E+01
        -0.14323E+02
         0.74286E+01
         0.16679E+01
        -0.54911E+01
        -0.69716E+01
         0.69088E+00
         0.13564E+02
         0.23988E+01
         0.74063E+01
        -0.31928E+01
        -0.41523E+01
        -0.19494E+02
        -0.23933E+01
        -0.13820E+02
        -0.18458E+02
         0.28903E+02
        -0.61789E+00
         0.57807E+01
         0.28514E+01
         0.12840E+00
         0.33088E+01
        -0.50992E+01
        -0.85244E+00
         0.77480E+01
        -0.77452E+01
         0.36612E+01
        -0.69639E+01
         0.10304E+02
         0.13689E+02
         0.10913E+02
        -0.75613E+01
         0.16220E+02
         0.15039E+02
        -0.72941E+00
         0.14468E+01
         0.23573E+02
         0.73647E+00
        -0.64945E+01
         0.18077E+01
        -0.92248E+01
        -0.14010E+02
        -0.53999E+01
         0.45903E+01
         0.49459E+01
        -0.55899E+01
        -0.11036E+01
        -0.30658E+00
         0.31680E+01
         0.21677E+01
        -0.18846E+01
        -0.17667E+01
        -0.77494E+00
        -0.49960E+00
         0.16432E+02
        -0.70674E+01
        -0.16090E+02
        -0.71185E+00
         0.39925E+01
        -0.21404E+01
         0.98930E+01
         0.42255E+01
        -0.92004E+01
        -0.23294E+01
         0.77138E+01
        -0.52686E+01
        -0.49246E+00
        -0.10976E+02
         0.51319E+01
        -0.58452E+01
         0.53059E+01
         0.81828E+01
         0.85743E+00
         0.71411E+01
        -0.65021E+01
         0.79026E+01
        -0.29536E+00
        -0.30631E+01
         0.10698E+02
        -0.10325E+02
         0.71959E+01
        -0.12527E+01
         0.88702E+00
         0.24844E+01
         0.31297E+01
         0.97781E+01
         0.52841E+01
        -0.59003E+01
        -0.37256E+01
         0.12346E+00
         0.68429E+01
         0.34307E+01
        -0.88524E+01
        -0.16139E+02
         0.22955E+02
        -0.45260E+01
         0.21772E+02
         0.91627E+00
        -0.40993E+01
        -0.67442E+01
         0.11765E+01
        -0.71558E+01
        -0.20307E+01
         0.35949E+01
        -0.66382E+01
         0.14669E+02
        -0.64331E+01
         0.10369E+01
        -0.12816E+02
        -0.12695E+02
        -0.94089E+01
        -0.86139E+01
        -0.98091E+01
        -0.33210E+01
         0.96440E+01
         0.15538E+01
        -0.67701E+01
         0.12732E+02
        -0.10260E+02
        -0.15144E+02
         0.64699E+01
        -0.10547E+01
        -0.67618E+01
        -0.35931E+01
         0.45877E+01
        -0.14644E+01
        -0.10207E+01
        -0.17129E+02
        -0.15129E+02
         0.20998E+01
        -0.69275E+00
        -0.15012E+02
         0.83029E+01
         0.12593E+02
        -0.23371E+01
        -0.87903E+01
        -0.52845E+01
        -0.11124E+02
         0.39629E+01
        -0.34085E+01
        -0.15075E+01
        -0.11558E+01
        -0.50057E+01
        -0.19299E+01
         0.49976E+01
        -0.37099E+00
         0.63387E+01
        -0.43259E+01
        -0.25838E+00
        -0.34910E+01
        -0.11675E+02
         0.12246E+02
         0.79234E+01
         0.12727E+02
         0.24606E+01
        -0.30747E+01
         0.76987E+01
        -0.94378E+01
        -0.34652E+01
        -0.71842E+01
        -0.25406E+01
        -0.44584E+01
        -0.14485E+01
         0.44631E+00
        -0.11076E+01
        -0.73816E+01
        -0.23815E+00
        -0.42507E+01
         0.41844E+01
        -0.46601E+00
        -0.66999E+01
        -0.32357E+02
         0.11854E+02
         0.96534E+00
         0.15331E+02
        -0.13351E+02
        -0.25368E+01
         0.10853E+01
        -0.22522E+01
         0.43915E+00
         0.69986E+01
         0.57060E+01
         0.95680E+01
         0.40671E+00
        -0.27812E+01
         0.17171E+02
        -0.34157E+01
        -0.14583E+02
        -0.12853E+01
         0.56769E+01
         0.46934E+01
         0.22438E+01
         0.17680E+02
         0.13006E+01
        -0.94127E+01
         0.17132E+01
        -0.10858E+02
        -0.61861E+01
         0.73415E+01
         0.81983E+01
         0.11231E+02
         0.38940E+01
        -0.28921E+01
        -0.13400E+01
        -0.10799E+00
        -0.38567E+00
         0.10266E+01
         0.77511E+01
         0.69751E+01
        -0.53304E+01
         0.69434E+01
        -0.73875E+01
        -0.87746E+01
         0.89225E+01
         0.16948E+01
         0.50755E+01
         0.14114E+02
        -0.11948E+01
        -0.46861E+01
        -0.55426E+00
         0.67553E+01
        -0.83427E+01
         0.66943E+01
        -0.53923E+01
         0.71012E+01
        -0.40315E+01
        -0.26185E+01
         0.13269E+02
        -0.20120E+01
         0.26179E+00
        -0.37367E+01
        -0.70967E+01
         0.19443E+00
         0.17571E+01
         0.18883E+01
         0.29153E+00
         0.17496E+01
        -0.40776E+01
         0.50496E+00
         0.20253E+01
         0.45879E+01
         0.11368E+02
         0.11401E+01
         0.71445E+01
        -0.18683E+01
         0.10708E+01
         0.38452E+01
         0.15389E+00
        -0.13356E+02
        -0.94328E+01
         0.18261E+02
        -0.40974E+01
         0.17955E+02
        -0.98098E+01
         0.58810E+01
         0.86913E+01
        -0.97381E+00
        -0.90094E+00
        -0.46089E+01
        -0.32784E+01
        -0.56145E+01
         0.26572E+00
        -0.45131E+01
         0.44402E+01
        -0.56250E-01
        -0.12301E+02
        -0.77814E+01
        -0.16214E+01
        -0.16979E+01
        -0.46653E+00
         0.12117E+02
        -0.24698E+01
        -0.11093E+02
         0.21416E+02
        -0.73208E+01
        -0.14456E+02
        -0.35652E+01
        -0.13759E+01
        -0.51281E+00
        -0.28123E+01
        -0.20346E+01
        -0.30525E+01
        -0.33695E+01
        -0.11093E+02
        -0.85653E+01
         0.50322E+01
         0.23197E+01
        -0.45048E+01
         0.15188E+02
         0.12537E+02
        -0.87105E+01
        -0.21678E+02
        -0.76685E+01
        -0.24453E+02
        -0.25532E+01
         0.13122E+01
        -0.48316E+01
         0.21447E+01
        -0.18409E+01
         0.69895E+00
         0.67101E+01
         0.64175E+01
         0.52639E+01
         0.29498E+01
         0.19446E+01
        -0.14841E+01
        -0.46255E+01
         0.16534E+02
         0.91461E+01
         0.11994E+02
         0.93790E+01
        -0.62028E+01
        -0.37679E+00
        -0.57180E+01
        -0.29048E+01
         0.19870E+00
        -0.86639E+01
         0.40646E+01
         0.73413E+00
        -0.38902E+01
        -0.16668E+01
        -0.84563E+01
        -0.60718E+01
         0.16437E+01
         0.76974E+01
         0.22285E+01
        -0.25537E+01
        -0.25273E+02
         0.80906E+01
        -0.64039E+01
         0.91041E+01
        -0.12453E+02
        -0.55217E+00
         0.46270E+00
        -0.29072E+01
         0.26673E+01
        -0.80581E+01
         0.47137E+01
         0.14723E+01
         0.51806E+01
         0.15222E+02
        -0.24311E+01
         0.21298E+01
         0.30143E+01
        -0.18557E+01
         0.79708E+01
         0.41264E+01
        -0.70612E+01
         0.72655E+01
        -0.62306E+01
        -0.54879E+01
        -0.89221E+01
        -0.21465E+02
        -0.17534E+02
         0.41362E+01
         0.40987E+01
         0.14470E+01
        -0.13788E+01
         0.88841E+01
         0.93621E+01
        -0.12878E+01
        -0.48713E+01
         0.57901E+00
         0.29528E+01
        -0.41188E+01
        -0.53923E+01
         0.94264E+01
        -0.49269E+01
        -0.60241E+01
         0.99916E+01
         0.10938E+02
         0.19206E+02
         0.12332E+02
        -0.39160E+01
        -0.41004E+01
         0.54301E+01
         0.32116E+01
        -0.25961E+01
         0.35117E+01
        -0.11283E+00
         0.64919E+01
         0.32520E+01
        -0.10608E+01
         0.69438E+01
         0.78346E+00
         0.54472E+00
         0.32760E+01
        -0.61674E-01
        -0.41612E+01
        -0.45083E+01
         0.45676E+01
         0.48561E+01
        -0.11741E+02
         0.22339E+01
        -0.73401E+01
        -0.33648E+01
         0.48057E+01
         0.60621E+01
        -0.33107E+01
        -0.43025E+01
        -0.10724E+02
         0.60946E+01
        -0.75204E+01
        -0.36542E+01
        -0.56320E+01
        -0.20204E+01
         0.94515E+01
         0.27309E+01
         0.67184E+01
        -0.79611E+01
         0.73936E+00
         0.63805E+01
        -0.17606E+01
        -0.16209E+01
        -0.47902E+01
         0.15150E+01
        -0.68251E+01
         0.32674E+01
        -0.71909E+01
         0.27044E+01
        -0.46599E+01
         0.35932E+01
        -0.41142E+01
         0.46754E+01
         0.44742E+01
         0.72265E+00
         0.88510E+01
         0.24439E+01
        -0.61490E+00
         0.13803E+02
        -0.38659E-01
        -0.88434E+00
         0.37985E+01
         0.49309E+01
        -0.12528E+01
        -0.45494E+01
         0.90913E+00
        -0.11018E+01
        -0.45890E+01
         0.37308E-01
         0.15198E+02
         0.95861E+01
        -0.55556E+00
        -0.66205E+01
         0.32986E+01
        -0.28803E+01
        -0.56158E+01
        -0.26016E+02
        -0.80146E+01
        -0.20402E+02
        -0.33825E+01
         0.88593E+00
        -0.13090E+01
        -0.40139E+01
        -0.46095E+01
         0.84131E+00
        -0.18900E+01
         0.98263E+01
         0.82571E+00
         0.72084E+01
         0.33396E+00
         0.56608E+00
        -0.28764E+01
         0.28359E+01
         0.71475E+00
        -0.40251E+01
        -0.39532E+01
         0.18431E+01
         0.96554E+00
        -0.25656E+01
        -0.86215E+01
         0.10383E+02
        -0.94399E+01
        -0.67557E+01
        -0.14762E+01
        -0.11291E+01
        -0.25101E+01
        -0.32742E+00
         0.25107E+01
         0.16051E+01
        -0.59888E+01
        -0.20854E+01
         0.45181E+00
        -0.17454E+02
         0.51648E+01
         0.49597E+01
        -0.22405E+00
        -0.80849E+01
         0.10022E+01
         0.51220E+01
        -0.15635E+01
        -0.19109E+01
        -0.77278E+01
         0.33174E+01
        -0.51959E+01
         0.71526E+01
        -0.11164E+01
         0.42484E+01
        -0.33926E+01
         0.24918E+01
        -0.10286E+02
         0.11107E+01
         0.20529E+01
         0.18196E+01
         0.19214E+01
         0.49168E+01
         0.64305E+01
         0.53288E+00
        -0.76391E+01
        -0.11131E+01
        -0.18287E+01
        -0.67939E+01
        -0.70372E+01
         0.18155E+00
         0.46501E+01
         0.23505E+01
        -0.67297E+01
        -0.11001E+02
        -0.10539E+02
        -0.20990E+01
         0.11618E+01
         0.80454E+00
         0.75978E+01
        -0.53475E+01
         0.25148E+01
         0.15956E+02
         0.29588E+01
         0.10651E+02
         0.76512E+01
        -0.58723E-01
         0.14535E+01
         0.10973E+02
         0.30519E+01
         0.65812E+01
        -0.11039E+00
         0.74045E+01
        -0.43496E+01
         0.80353E+01
         0.54864E+01
         0.63197E+01
         0.52087E+01
         0.18610E+01
         0.43208E+01
         0.64210E+01
         0.14379E+01
        -0.37919E+01
        -0.61155E+01
         0.83724E+01
        -0.45683E+01
         0.63466E+01
        -0.29132E+01
        -0.25925E+01
         0.59979E+01
         0.50738E+01
        -0.28751E+01
        -0.47172E+01
        -0.48207E+01
         0.97387E+01
        -0.46674E+00
        -0.30050E+01
        -0.37601E+01
         0.10984E+01
         0.36411E+01
         0.29216E+01
         0.72054E+01
         0.39417E+01
        -0.17247E+01
         0.55391E+01
        -0.65783E+01
        -0.32619E+01
        -0.53727E+01
        -0.76086E+01
        -0.83463E+01
         0.25302E+00
        -0.74664E+01
         0.37281E+01
         0.18303E+01
        -0.75680E+00
        -0.54866E+01
         0.12846E+02
         0.23973E+01
        -0.12663E+01
         0.69766E+01
        -0.25530E+01
         0.17522E+01
        -0.40259E+01
        -0.10151E+01
         0.19419E+01
         0.26731E+01
        -0.14931E+01
        -0.84774E+00
        -0.66987E+01
        -0.55999E+01
        -0.38801E+00
        -0.12944E+01
         0.14503E+01
        -0.12778E+01
         0.33210E+01
         0.43031E+01
        -0.14170E+01
         0.77573E+00
        -0.99663E+01
        -0.41094E+01
        -0.21120E+02
        -0.65174E+01
        -0.56256E+01
        -0.27751E+01
        -0.55111E+01
        -0.80559E+01
        -0.41423E+01
        -0.20956E-01
         0.29027E+01
         0.12363E+01
         0.87317E+01
         0.71101E+01
         0.10934E+02
        -0.26900E+01
        -0.52893E+01
         0.58039E+01
         0.57059E+00
         0.10657E+01
        -0.25744E+00
        -0.74908E+01
         0.61721E+01
        -0.17397E+01
        -0.45472E+01
        -0.10114E+02
        -0.62025E+01
         0.48202E+00
        -0.43851E+01
        -0.16389E+01
         0.89526E+00
        -0.66871E+00
        -0.14265E+01
        -0.26907E+01
        -0.16130E+01
        -0.45559E+01
        -0.27961E+01
         0.35737E+00
        -0.10067E+02
         0.10204E+00
        -0.94977E-01
         0.19498E+01
        -0.24529E+01
        -0.11605E+01
         0.36531E+01
        -0.18530E+01
         0.69629E+01
         0.40044E+01
         0.23964E+01
         0.12961E+02
        -0.57186E+01
        -0.71983E+01
         0.27799E+01
        -0.51746E+00
         0.66214E+01
         0.45475E-01
        -0.42587E+01
        -0.83047E+01
        -0.28006E+01
         0.22537E+01
        -0.66293E+00
         0.43480E+01
         0.59388E+01
        -0.28318E+01
        -0.29600E+01
         0.39635E+00
         0.85934E+01
         0.65612E+01
        -0.20331E+01
        -0.64718E+01
         0.58788E+01
        -0.20272E+01
         0.72198E+01
         0.84026E+01
        -0.10448E+01
        -0.56285E+01
        -0.79500E+01
        -0.84240E+00
        -0.41243E+01
        -0.25071E+01
         0.15437E+02
         0.20325E+01
         0.36513E+01
        -0.23094E+01
         0.81930E+01
         0.71172E+01
         0.42579E+01
         0.81850E+00
         0.80345E+01
        -0.81268E+01
         0.15303E+01
        -0.15877E+02
         0.26251E+01
         0.12325E+02
         0.51718E+01
         0.65819E+01
         0.27808E+01
         0.28279E+01
         0.42782E+01
         0.25352E+01
        -0.26547E+01
        -0.47977E+01
         0.95380E+01
         0.72298E+01
         0.50137E+01
         0.21764E+01
         0.70668E+00
         0.29833E+01
         0.67620E+00
         0.21022E+01
        -0.86329E+01
        -0.46942E+01
         0.25801E+01
        -0.62953E+01
         0.74069E+00
        -0.10675E+01
        -0.45842E-01
        -0.16834E+01
        -0.63784E+00
        -0.25531E+01
        -0.12193E+01
         0.23820E+00
         0.40390E+01
         0.26389E+01
        -0.34476E+01
        -0.52878E+01
        -0.27845E+01
        -0.18493E+01
         0.55229E+01
        -0.71400E+01
         0.32224E+01
         0.61536E+00
        -0.10207E+01
        -0.48315E+00
         0.61759E+01
        -0.20414E+01
        -0.13573E+01
        -0.37947E+00
         0.21348E+01
         0.54723E+01
        -0.12392E+02
        -0.71185E+01
        -0.25572E+01
        -0.39148E+01
        -0.24745E+01
         0.46474E+00
        -0.12458E+01
         0.43889E+01
         0.52820E+01
         0.92554E+01
         0.98918E+01
         0.48129E+01
        -0.37923E+01
        -0.24656E+01
        -0.10228E+01
         0.11550E+01
        -0.41545E+01
        -0.20574E+01
        -0.18982E+00
        -0.97689E+01
        -0.61887E+01
        -0.46244E+01
        -0.31726E+01
        -0.56309E+01
         0.27963E+01
        -0.14639E+01
        -0.24063E+00
         0.76675E+01
         0.61417E+01
         0.12361E+02
         0.29294E+01
         0.28498E+01
         0.24196E+00
         0.10371E+02
         0.15288E+01
        -0.16663E+01
         0.50591E+01
        -0.14651E-02
         0.51120E+01
         0.11863E+01
        -0.14077E+02
        -0.17316E+02
         0.17606E+01
        -0.25496E+01
        -0.48091E+01
        -0.18049E+01
        -0.11198E+01
        -0.41934E+01
        -0.61897E+00
        -0.46219E+01
         0.18872E+01
        -0.17536E+01
        -0.35269E+01
         0.51261E+00
         0.55768E+00
        -0.19456E+01
        -0.21911E+01
         0.11947E+01
        -0.23930E+00
        -0.20219E+01
         0.17780E+01
        -0.53358E+01
         0.69867E+01
         0.47974E+01
         0.26118E+01
        -0.21143E+01
         0.55975E+01
         0.60472E+01
         0.22883E+01
        -0.13990E+01
         0.20350E+01
         0.35660E+01
         0.11561E+02
         0.33941E+01
        -0.35040E+01
        -0.25641E+01
        -0.50626E+01
        -0.43667E+01
         0.83512E+01
        -0.14790E+00
        -0.24373E+01
        -0.40005E+00
         0.98037E-01
        -0.25862E+00
        -0.45478E+01
         0.20124E+01
         0.16658E+01
        -0.15595E+01
        -0.44643E+01
        -0.32143E+01
         0.53448E+01
         0.42287E+01
        -0.18126E+01
        -0.14844E+01
        -0.13382E+01
        -0.53301E+01
         0.58003E+00
         0.51910E+01
         0.20272E+01
         0.88716E+01
         0.61048E+01
         0.52681E+01
         0.49508E+01
        -0.48198E+01
         0.18909E+01
         0.13162E+01
        -0.55174E+01
        -0.47912E+01
         0.65542E+01
         0.80266E+01
         0.44865E+01
         0.67746E+01
         0.97430E+00
         0.65698E+01
         0.60809E+00
        -0.19258E+01
        -0.12871E+01
        -0.88022E+00
         0.10604E+02
         0.41102E+01
         0.18056E+01
         0.97867E+01
         0.12335E+01
         0.32568E+01
         0.24335E+00
         0.23814E+01
        -0.44167E+01
        -0.11580E+01
         0.68737E+01
         0.16990E+01
         0.15459E+01
        -0.97687E+00
         0.56011E+01
        -0.41971E+01
        -0.23043E+01
         0.10034E+02
        -0.23141E+01
         0.54437E+01
         0.45695E+01
         0.46560E+01
         0.31754E+01
         0.20129E+01
        -0.21044E+01
         0.12987E+01
         0.10352E+00
        -0.50674E+00
        -0.87058E+00
         0.56840E+01
         0.12380E+01
        -0.53373E+01
         0.84933E+01
         0.75369E+00
         0.33610E+01
         0.22894E+01
         0.33026E+01
         0.39004E+01
        -0.92865E+01
        -0.69055E+01
        -0.47150E+01
         0.77607E+00
         0.19403E+01
         0.56282E+01
         0.74559E+01
         0.62879E+01
         0.69753E+01
         0.52703E+00
         0.10270E+01
         0.40625E+01
        -0.90273E+00
        -0.60506E+00
         0.46945E+00
         0.20883E+01
        -0.18324E+01
        -0.58498E+00
        -0.39042E+01
        -0.10062E+02
        -0.26200E+01
        -0.59394E+01
        -0.31056E+01
        -0.91235E+00
        -0.39525E+01
         0.80763E+01
         0.28767E+01
        -0.67497E+00
         0.12732E+02
        -0.16781E+01
        -0.77496E+00
         0.28401E+00
        -0.78206E+00
         0.28522E+01
        -0.30409E+01
         0.51875E+01
         0.98948E+01
        -0.24340E+01
        -0.51159E+00
        -0.55237E+01
        -0.75412E+01
        -0.13061E+02
        -0.46464E+01
        -0.52713E+01
        -0.41267E+01
        -0.22366E+00
        -0.42990E+00
        -0.88645E-01
         0.25974E+01
         0.45271E+01
        -0.20140E+01
        -0.25078E+01
        -0.20578E+01
         0.33379E+01
        -0.13762E+02
        -0.18218E+01
         0.31709E+01
        -0.87895E+00
        -0.23218E+01
        -0.45406E+01
        -0.22727E+01
        -0.23213E+01
        -0.60633E+01
        -0.17136E+01
        -0.23105E+01
        -0.70532E+00
        -0.46281E+00
        -0.10058E+02
         0.45374E+01
        -0.39564E+01
         0.28202E+01
         0.20557E+01
         0.50758E+01
         0.34994E+01
        -0.31785E+01
        -0.22954E+01
        -0.17627E+01
         0.26024E+01
        -0.10272E+01
        -0.15282E+01
         0.13339E+01
         0.33822E+01
         0.58974E+00
        -0.18330E+01
        -0.11574E+02
        -0.12671E+02
        -0.55198E+01
         0.29224E+01
         0.18175E+01
         0.34761E+01
         0.52715E+01
         0.29248E+01
         0.16919E+00
         0.17150E+01
         0.14446E+01
         0.25080E+01
        -0.39309E+01
         0.60877E+01
         0.28729E+01
         0.17514E+01
        -0.80082E+01
        -0.14981E+01
         0.13010E+01
        -0.33069E+01
        -0.33310E+01
         0.12323E+01
         0.78139E+00
         0.12144E+02
         0.40895E+01
        -0.31701E+01
         0.13433E+01
         0.58795E+01
         0.92934E+01
         0.67475E+00
        -0.70460E+01
         0.11230E+01
         0.96569E+01
         0.19958E+01
        -0.89015E+00
        -0.35179E+00
        -0.52346E+01
         0.70533E+01
         0.15529E+00
         0.15306E+01
         0.17815E+00
        -0.34339E+00
         0.21549E+01
        -0.10259E+00
         0.35721E+01
         0.32142E+01
        -0.85812E+00
         0.25411E+01
         0.34039E+01
        -0.32680E+01
        -0.14772E+00
        -0.10385E+01
        -0.35339E+01
         0.18002E+01
        -0.69074E+00
        -0.78936E+00
         0.58506E+01
        -0.11539E+01
         0.18911E+01
         0.14213E+01
         0.21941E+01
         0.97431E+01
        -0.47584E+01
         0.34925E+01
        -0.63297E+01
        -0.57328E+01
        -0.66265E+01
        -0.92145E+01
         0.11345E+01
         0.17780E+00
         0.36840E+00
         0.76468E-02
        -0.91883E+00
        -0.34086E+01
        -0.17955E+01
        -0.26404E+01
        -0.26321E+01
        -0.86139E+00
         0.82402E+01
         0.11700E+02
         0.87832E+01
         0.29780E+01
         0.76197E+00
         0.39924E+01
         0.40785E+01
         0.30363E+01
         0.24393E+01
         0.14991E+01
        -0.44105E+01
        -0.38633E+01
         0.21414E+01
        -0.55770E+01
        -0.32028E+01
         0.16234E+01
         0.18862E+01
         0.65269E+01
         0.59433E+01
        -0.14602E+01
         0.62044E+01
         0.29335E+01
        -0.49445E+01
        -0.64593E+01
        -0.65734E+01
         0.40280E+01
         0.60183E+01
        -0.65716E+01
        -0.57900E+01
         0.25392E+01
         0.72003E+01
         0.41262E+01
        -0.60241E+01
        -0.27498E+01
         0.49179E+01
         0.51908E+01
         0.10184E+01
        -0.24594E+01
         0.76637E+00
         0.16905E+01
        -0.21132E+01
        -0.76554E+00
        -0.32720E+01
        -0.23371E+01
         0.17211E-02
        -0.27203E+01
         0.10512E+01
        -0.45391E+00
         0.56735E+00
        -0.13742E+01
         0.18530E+01
        -0.45986E+01
         0.23251E+01
         0.12636E+01
        -0.18744E+00
         0.30048E+01
        -0.11699E+01
         0.44290E+01
        -0.26299E+01
        -0.42344E+01
        -0.23689E+01
        -0.54033E+01
         0.43501E+00
        -0.16874E+01
        -0.13913E+01
         0.34719E+01
         0.21919E+01
         0.56148E+01
         0.75341E+00
        -0.24573E+01
         0.19609E+01
        -0.40061E+00
        -0.31382E+01
         0.75932E+00
         0.30311E+01
         0.50267E+00
        -0.22408E+01
        -0.73536E+01
        -0.16374E+02
        -0.96226E+01
        -0.39164E+01
         0.13523E+01
         0.12466E+01
        -0.22281E+01
        -0.54684E+01
        -0.25915E+01
         0.12426E+01
         0.11674E+01
         0.11244E+01
        -0.32706E+00
        -0.12918E+01
        -0.67746E+00
        -0.29839E+01
        -0.22478E+01
        -0.38632E+01
        -0.69042E+01
        -0.21152E+01
         0.10807E+01
        -0.15832E+00
         0.12787E+01
         0.12782E+02
         0.15989E+02
         0.10524E+02
        -0.31930E+01
         0.16353E+01
         0.87822E+01
         0.71449E+01
         0.41134E+01
        -0.34434E+01
        -0.16711E+01
         0.45703E+01
         0.41893E+01
        -0.72650E+01
        -0.10322E+02
         0.70850E+00
         0.48851E+01
         0.17598E+00
        -0.15481E+01
        -0.30526E+01
        -0.28554E+01
        -0.33726E+01
        -0.46749E+01
        -0.49365E+00
         0.44106E+01
         0.71893E+00
        -0.38452E+00
        -0.57064E+01
        -0.85365E+00
        -0.69885E+00
        -0.18064E+01
        -0.39597E+01
         0.43143E+01
         0.17936E+01
         0.23449E+01
         0.51993E+01
         0.10937E+01
         0.10738E+02
         0.86725E+01
         0.44041E+01
         0.49582E+01
        -0.11034E+02
         0.33175E+01
        -0.22972E+00
        -0.96714E+01
        -0.33272E+01
        -0.54789E+01
         0.30746E+01
         0.99580E+00
         0.18936E+01
        -0.23748E+01
         0.25083E+01
         0.35090E+01
        -0.17430E+00
        -0.20413E+00
        -0.23451E+01
         0.64409E+01
         0.13542E+02
        -0.16497E+01
        -0.30420E+00
         0.13140E+01
         0.11773E+01
         0.51176E+01
        -0.72186E+00
        -0.16818E+01
        -0.15348E+01
        -0.36843E+01
        -0.48037E+01
        -0.39494E+01
         0.53661E+00
         0.99929E+00
         0.66074E+01
         0.15810E+01
         0.77307E+01
         0.11114E+02
         0.38683E+01
        -0.43644E+01
        -0.41038E+01
         0.44695E+01
        -0.12560E+01
        -0.20291E+01
        -0.62575E+01
        -0.22767E+01
         0.43351E+01
         0.13791E+01
        -0.19846E+01
         0.53209E+00
         0.68904E+01
         0.59771E+01
         0.13992E+01
        -0.65495E+01
         0.42110E+01
         0.13613E+02
         0.26821E+00
        -0.15374E+01
        -0.32269E+01
        -0.55837E+01
        -0.35277E+01
        -0.21715E+01
         0.30077E+01
         0.27587E+01
        -0.49109E+01
         0.10188E+01
        -0.13756E+01
        -0.26411E+01
         0.65791E+01
         0.48830E+01
        -0.99391E+00
         0.92830E+01
         0.51333E+01
        -0.16693E+01
         0.73330E+00
        -0.23273E+01
        -0.22948E+01
        -0.15131E+01
        -0.51616E+01
        -0.61656E+01
         0.20236E+00
        -0.44819E+01
         0.68733E+00
        -0.26521E+01
         0.32285E+01
        -0.12372E+01
         0.23878E+01
         0.34001E+01
        -0.14858E+01
        -0.41014E+01
        -0.92026E+00
        -0.34600E+01
         0.65358E+01
         0.20557E+01
        -0.25507E+01
        -0.94875E-01
        -0.10912E+02
        -0.94517E+01
        -0.11999E+02
        -0.70737E+01
        -0.87583E+01
         0.29525E+01
        -0.15322E+01
        -0.22735E+01
         0.15429E+01
        -0.11974E+01
        -0.55360E+00
        -0.36212E+01
        -0.54874E+01
        -0.33574E+01
        -0.27799E+01
         0.16020E+01
        -0.75293E+01
        -0.74923E+00
         0.37152E+01
        -0.34678E+01
        -0.48860E+01
         0.52920E+01
        -0.39069E+01
         0.25139E+01
         0.90460E+01
         0.16381E+02
         0.11335E+02
         0.38535E+01
        -0.20034E+01
         0.41938E+01
         0.77020E+01
        -0.38852E+01
        -0.13396E+00
        -0.60709E+01
        -0.34113E+01
        -0.16070E+01
        -0.49005E+01
        -0.59077E+01
        -0.44285E+01
         0.31358E+01
         0.45976E+01
         0.22343E+01
         0.15672E+01
        -0.38436E+01
         0.61558E+00
         0.55546E+01
         0.47252E-01
         0.26863E+01
        -0.47737E+01
        -0.83044E+01
        -0.39514E+01
        -0.22060E+01
        -0.20641E+01
        -0.63767E+01
        -0.85068E+00
         0.48226E+00
        -0.22841E+01
        -0.37298E+01
         0.86944E+01
        -0.23135E+01
        -0.69363E+01
        -0.85698E+00
        -0.26451E+01
        -0.54847E+01
        -0.56574E+01
        -0.47078E+01
         0.16311E+00
        -0.47977E+01
        -0.35229E+01
        -0.16249E+01
        -0.23319E+01
        -0.83872E+01
        -0.22177E+00
        -0.23483E+01
        -0.68534E+01
        -0.75313E+00
        -0.35362E+01
         0.17503E+01
         0.51002E+01
         0.29336E+01
         0.28663E+01
         0.43351E+01
        -0.28868E+01
         0.70695E+01
         0.53350E+01
         0.13770E+02
         0.27986E+01
        -0.22098E+00
         0.58159E+00
        -0.30262E+00
        -0.22289E+01
         0.14668E+01
         0.10790E+01
        -0.40390E+01
        -0.30617E+01
        -0.47823E+01
        -0.32313E+01
        -0.51591E+00
         0.24825E+01
        -0.17869E+01
         0.29085E+01
         0.59847E+01
         0.24914E+02
         0.28159E+02
         0.13968E+02
         0.11694E+02
         0.11106E+02
         0.14198E+01
         0.68357E+01
         0.38317E+01
        -0.60227E+01
        -0.27382E+00
         0.15938E+01
        -0.52272E+00
         0.30150E+01
         0.35870E+01
        -0.32054E+00
        -0.11738E+02
  
SCALARS                     velocity_y  double 1
LOOKUP_TABLE default
        -0.36822E+01
        -0.58179E+01
        -0.22772E+01
         0.84825E+01
         0.74324E+00
        -0.33997E+01
         0.33242E+00
        -0.24593E+00
        -0.81656E+01
        -0.12525E+01
        -0.35933E+01
        -0.16027E+01
         0.13590E+01
         0.60578E+01
         0.69665E+00
         0.19262E+01
         0.71881E+01
        -0.66930E+01
         0.15777E+01
        -0.48865E-01
        -0.68835E+01
         0.89227E+01
        -0.60552E+01
        -0.45669E+01
        -0.71194E+00
        -0.39287E+01
        -0.70536E+01
         0.37871E+01
         0.15652E+01
        -0.37318E+01
        -0.31818E+01
        -0.21792E+01
        -0.31450E+00
         0.38770E+01
        -0.55562E+01
        -0.35581E+01
        -0.70748E+01
        -0.39078E+01
        -0.12711E+01
        -0.30606E+01
        -0.84551E+01
        -0.21583E+01
        -0.41931E+01
         0.12723E+01
        -0.55420E+01
         0.10118E+02
        -0.24413E+01
         0.28178E+00
        -0.10396E+02
         0.15920E+01
         0.16867E+02
         0.29173E+01
         0.20480E+02
         0.49355E+00
        -0.57852E+01
         0.38331E+01
         0.15441E+02
         0.16097E+02
         0.42319E+01
         0.11577E+01
         0.38159E+01
         0.68056E+01
         0.51808E+00
        -0.25197E+01
        -0.10927E+02
        -0.10284E+01
        -0.69378E+01
        -0.26386E+01
        -0.11775E+02
         0.44004E+00
        -0.57340E+00
        -0.12149E+02
         0.45107E+01
        -0.15712E+01
        -0.11172E+02
        -0.61583E+01
        -0.26496E+01
         0.25286E+00
         0.77586E+01
        -0.51353E+00
        -0.13167E+02
         0.27681E+01
         0.10377E+01
        -0.19625E+01
        -0.77426E+01
        -0.10653E+01
        -0.88430E+01
        -0.22739E+01
        -0.56950E+00
        -0.21311E+01
         0.12256E+02
        -0.26072E+02
        -0.27223E+01
        -0.26611E+01
        -0.63345E+00
        -0.56760E+01
         0.19767E+02
         0.16964E+01
        -0.11309E+02
        -0.20877E+01
         0.83286E+01
        -0.63284E+01
        -0.35332E+01
         0.29080E+01
         0.24977E+01
         0.43142E+01
        -0.78531E+01
        -0.14603E+01
        -0.77457E+01
        -0.13608E+00
        -0.20548E+01
        -0.32788E+01
        -0.28773E+01
        -0.36398E+01
         0.33041E+01
        -0.60716E+01
        -0.74385E+01
        -0.55339E+01
        -0.26657E+01
        -0.35914E+01
         0.27950E+01
        -0.42450E+01
        -0.12420E+01
         0.63354E+00
         0.49993E+01
         0.76341E+00
        -0.94123E+01
        -0.10851E+02
        -0.13817E+01
        -0.14377E+01
         0.80581E+00
         0.12083E+01
         0.12196E+01
        -0.13276E+01
        -0.14618E+02
        -0.76328E+01
         0.17225E+02
        -0.20764E+01
        -0.17246E+02
         0.20772E+01
        -0.56459E+01
        -0.30102E+01
        -0.30627E+01
        -0.89397E+00
         0.19419E+00
         0.23405E+01
        -0.72401E+01
         0.31766E-01
         0.58680E+00
        -0.11027E+01
         0.81751E+00
        -0.14856E+01
         0.13962E+01
         0.90362E+00
        -0.17952E+01
        -0.18015E+01
        -0.85652E+01
         0.33691E+01
         0.10160E+00
         0.90858E+01
         0.11429E+01
         0.98518E+00
         0.15893E+02
         0.18078E+01
         0.39600E+01
        -0.14446E+02
        -0.17701E+01
        -0.14428E+01
        -0.12194E+02
        -0.17091E+01
        -0.17135E+02
         0.33682E+00
         0.27837E+01
        -0.73356E+01
        -0.82658E+01
        -0.20778E+02
         0.11919E+01
         0.19683E+02
        -0.68764E+01
        -0.82536E+01
         0.10519E+01
         0.16869E+02
         0.28045E+02
        -0.94988E+00
         0.14610E+02
         0.10994E+02
         0.50262E+00
        -0.90737E+01
        -0.97279E+01
        -0.29931E+00
        -0.16455E+02
        -0.86383E+01
        -0.10856E+02
         0.59601E+01
        -0.18332E+02
         0.13567E+02
         0.76003E+01
        -0.17861E+02
        -0.63999E+01
        -0.46293E+01
         0.78656E+01
         0.56945E+01
        -0.28811E+02
         0.20679E+01
         0.26268E+02
        -0.18757E+02
        -0.39832E+01
         0.35945E+01
         0.91613E+01
        -0.36161E+01
        -0.11693E+02
         0.11022E+01
        -0.61362E+01
         0.80145E+00
         0.13186E+01
        -0.39083E+01
        -0.10895E+01
        -0.66133E+01
         0.11938E+01
         0.73431E+01
         0.18064E+01
        -0.60013E+01
         0.54275E+01
        -0.94463E+01
         0.12130E+02
         0.26432E+01
         0.14079E+02
        -0.49453E+01
         0.55667E+01
        -0.47874E+01
         0.29643E+01
        -0.12829E+02
         0.57186E+01
        -0.41980E+01
        -0.93654E+01
         0.14192E+01
        -0.86509E+01
         0.27951E+01
        -0.18687E+01
         0.37682E+01
         0.21678E+02
         0.19115E+02
         0.31284E+01
        -0.11162E+02
        -0.99510E+01
         0.43389E+01
        -0.76422E+01
        -0.53999E+01
         0.55256E+01
        -0.85083E-01
         0.56546E+01
        -0.13279E+02
        -0.54503E+01
        -0.72022E+01
        -0.14640E+02
         0.12223E+02
        -0.93759E+01
        -0.20318E+01
        -0.17879E+01
         0.19680E+02
         0.55164E+00
         0.45755E+01
        -0.29304E+01
         0.15437E+01
         0.10349E+02
        -0.34716E+01
         0.11434E+01
         0.32156E+01
        -0.12896E+02
         0.27401E+01
        -0.29674E+01
         0.14684E+02
        -0.32220E+02
         0.18352E+02
         0.20151E+02
        -0.22576E+02
        -0.50916E+01
        -0.35423E+01
         0.60657E+01
        -0.34271E+01
        -0.14082E+02
        -0.63343E+01
         0.11002E+02
        -0.28013E+02
        -0.24198E+01
         0.20307E+01
         0.86679E+01
        -0.25620E+01
         0.12989E-01
         0.25931E+01
         0.26116E+01
        -0.35093E+01
        -0.54217E+01
         0.10372E+02
         0.76536E+01
        -0.22428E+01
         0.26216E+00
        -0.19975E+01
        -0.23291E+01
        -0.55250E+01
        -0.37562E+01
         0.42270E+01
         0.11492E+01
        -0.67669E+01
        -0.14668E+02
        -0.23723E+00
        -0.73739E+01
        -0.33864E+01
         0.98468E+01
         0.97979E+01
        -0.46331E+00
        -0.74382E+01
        -0.82575E+00
         0.51977E+01
        -0.51274E+00
         0.41234E+01
        -0.29615E+01
         0.66873E+01
         0.52396E+00
         0.55536E+01
         0.52660E+01
        -0.18661E+02
         0.74412E+01
        -0.54389E+01
        -0.14723E+02
         0.40346E+01
        -0.66519E+01
        -0.83382E+01
         0.10846E+02
        -0.16394E+02
        -0.11881E+02
        -0.91449E+01
        -0.76705E+01
         0.53568E+01
        -0.40950E+01
         0.34497E+01
         0.10875E+01
         0.96003E+01
        -0.17957E+01
         0.24379E+02
        -0.66242E+01
         0.79954E+01
         0.30057E+01
        -0.51394E+01
        -0.14042E+00
         0.82723E+01
        -0.16310E+02
         0.15407E+02
        -0.12751E+01
         0.12196E+02
        -0.84425E+01
         0.11015E+02
        -0.73010E+01
        -0.29168E+01
         0.89245E+01
        -0.13463E+02
         0.20335E+01
         0.82635E+01
        -0.12847E+02
        -0.10724E+02
         0.15365E+02
        -0.17359E+02
        -0.25619E+01
         0.89287E+00
        -0.26829E+01
         0.68382E+01
        -0.47077E+01
        -0.14107E+02
         0.48979E+01
        -0.29399E+01
         0.30781E+01
        -0.11818E+02
         0.93723E-01
        -0.57385E+01
        -0.88293E+01
         0.49338E+00
        -0.56553E+01
         0.64325E+01
        -0.39650E+01
         0.43564E+01
        -0.11904E+02
         0.11290E+02
         0.23334E+01
         0.14261E+02
        -0.33192E+01
         0.10701E+02
        -0.20198E+01
        -0.98292E+00
         0.15415E+01
        -0.37678E+00
         0.39542E+01
         0.25379E+01
        -0.94132E+01
        -0.20396E+01
        -0.42068E+01
         0.21214E+01
        -0.83427E+01
         0.30214E+01
         0.12034E+02
        -0.13019E+02
         0.17285E+02
         0.24382E+01
        -0.37402E+01
         0.11480E+02
        -0.94703E+01
        -0.48530E+01
         0.13648E+02
        -0.12270E+02
        -0.16759E+02
        -0.19197E+02
         0.62514E+00
         0.63821E+01
         0.68747E+00
         0.23989E+02
        -0.99487E+01
         0.12488E+02
        -0.70096E+01
         0.11845E+01
        -0.17399E+02
         0.63716E+01
         0.40305E+01
         0.71015E+01
        -0.23782E+01
        -0.18361E+01
        -0.21028E+02
         0.94650E+01
        -0.23064E+01
        -0.37174E+01
        -0.12659E+02
         0.10549E+02
        -0.23018E+01
        -0.10527E+02
         0.10779E+02
        -0.15876E+02
        -0.17444E+01
         0.19397E+02
        -0.14938E+02
        -0.13240E+02
         0.19342E+02
        -0.20635E+00
        -0.13294E+01
        -0.15969E+02
         0.91986E+01
        -0.25614E+01
         0.11387E+02
        -0.52226E+00
         0.88355E+01
        -0.21796E+01
         0.53321E+01
         0.29797E+01
         0.13200E+02
        -0.82031E+01
         0.76000E+01
         0.38486E+00
        -0.27425E+00
        -0.59820E+01
        -0.74676E+01
        -0.24326E+01
        -0.67811E+01
         0.60838E+01
        -0.23721E+02
         0.63930E+00
        -0.10038E+02
         0.76057E+01
        -0.22315E+01
         0.63312E+01
         0.13786E+02
        -0.97325E+01
         0.95426E+01
         0.10362E+02
         0.18377E+01
        -0.62445E+00
         0.93317E+00
         0.16538E+02
        -0.56752E+01
        -0.12184E+02
         0.97839E+01
        -0.13098E+02
         0.91680E+01
        -0.28638E+01
        -0.85017E+01
         0.30769E+01
         0.12063E+01
        -0.11230E+02
         0.14754E+02
        -0.10661E+02
        -0.24949E+02
        -0.17653E+02
         0.35954E+01
         0.88481E+01
        -0.11153E+02
         0.10198E+02
        -0.39791E+01
        -0.23838E+01
         0.13329E+02
         0.14017E+02
        -0.49205E+01
         0.15827E+02
        -0.12379E+01
         0.25162E+01
        -0.32248E+01
        -0.33540E+01
        -0.24153E+02
         0.12754E+02
         0.33463E+00
         0.58161E+01
         0.45021E+01
         0.11340E+02
         0.13359E+02
        -0.68135E+00
        -0.40933E+01
        -0.12506E+02
         0.68612E+01
         0.10381E+02
        -0.20635E+02
        -0.38654E+01
         0.14992E+02
        -0.92944E+01
        -0.10722E+02
         0.67357E+00
         0.22185E+01
         0.10515E+02
        -0.89951E+01
        -0.86970E+01
        -0.19142E+01
        -0.11498E+01
         0.55040E+01
        -0.98417E+01
         0.37403E+01
        -0.11195E+02
        -0.33327E+01
        -0.56731E+01
         0.50560E+01
        -0.44135E+01
         0.58169E+00
         0.70777E+01
         0.42960E+01
         0.69545E+01
        -0.68494E+01
         0.18411E+02
        -0.24690E+00
        -0.26039E+01
        -0.53328E+01
         0.44796E+01
        -0.22514E+01
        -0.10049E+01
         0.60538E+01
         0.12715E+00
        -0.11022E+02
        -0.50803E+01
        -0.58370E+01
         0.95516E+01
        -0.11221E+02
        -0.99753E+01
         0.95800E+01
        -0.46836E+01
        -0.43405E+01
         0.11992E+02
         0.32545E+00
        -0.49904E+01
         0.12556E+02
        -0.12071E+02
         0.11075E+02
        -0.12963E+02
        -0.42030E+01
        -0.13451E+01
         0.79957E+01
         0.66022E+01
        -0.16928E+02
         0.32244E+02
        -0.14162E+02
         0.62543E+01
         0.88217E+01
        -0.22064E+01
        -0.10343E+02
         0.10299E+02
         0.13136E+02
         0.17100E+02
         0.71118E+01
         0.87287E+00
        -0.12731E+02
         0.89940E-01
        -0.61187E+01
        -0.85623E+01
        -0.14041E+02
        -0.69076E+01
         0.15196E+02
        -0.11501E+02
        -0.18667E+02
        -0.20839E+02
         0.47932E+01
         0.54242E+00
        -0.19891E+02
        -0.95126E+01
         0.32289E+01
        -0.65191E+01
        -0.14676E+02
        -0.63579E+01
         0.11435E+02
        -0.63336E+01
         0.44888E+01
         0.10887E+02
         0.59222E+01
        -0.92666E+01
        -0.16928E+00
        -0.59854E+01
         0.80831E+01
        -0.44429E+01
         0.49600E+01
        -0.17173E+01
         0.14480E+01
        -0.13926E+01
        -0.38308E+01
         0.63259E+01
        -0.60843E+01
        -0.11041E+01
        -0.63408E+00
         0.63550E+00
        -0.63459E+01
         0.64658E+00
         0.90533E+01
         0.16528E+02
        -0.57046E+01
         0.17242E+01
         0.13535E+02
         0.90220E+01
         0.19890E+01
        -0.43476E+01
        -0.21667E+01
         0.13899E+02
         0.26236E+01
         0.70541E+01
         0.71735E+01
         0.50463E+01
        -0.28534E+01
        -0.17239E+02
        -0.72943E+01
         0.72652E+01
        -0.34508E+01
        -0.29962E+02
         0.54609E+01
        -0.24365E+02
        -0.14371E+02
         0.59222E+01
        -0.19633E+01
        -0.20287E+01
        -0.34516E+01
         0.19512E+02
        -0.16595E+02
        -0.88297E+01
         0.24911E+02
         0.11550E+02
         0.51250E+01
         0.19696E+02
         0.66604E+00
         0.66015E+01
         0.32445E+01
         0.10978E+02
         0.89768E+01
         0.12986E+02
         0.23111E+01
        -0.59233E+01
         0.40929E+01
        -0.99605E+01
         0.58456E+01
         0.44378E+01
         0.45941E+01
        -0.71756E+01
         0.15171E+02
         0.11222E+02
        -0.11286E+02
        -0.51324E+01
        -0.72459E+00
        -0.10961E+02
        -0.17076E+02
         0.10924E+02
         0.51755E+01
        -0.66150E+01
        -0.20607E+02
        -0.12679E+02
         0.26476E+01
         0.58983E+01
         0.33797E+01
        -0.80797E+01
         0.36279E+01
        -0.58462E+01
        -0.93132E+00
         0.32217E+01
        -0.54857E+01
         0.31126E+01
        -0.39813E+01
         0.36716E+01
         0.29473E+01
        -0.12707E+01
        -0.44025E+01
         0.97911E+01
        -0.36650E+01
         0.68748E+01
        -0.55575E+01
         0.10239E+02
        -0.36438E+01
         0.43153E+01
         0.14497E+02
        -0.38948E+01
        -0.14661E+02
        -0.61152E+01
        -0.90200E+01
         0.39910E+01
        -0.12157E+02
        -0.11564E+02
         0.23044E+02
        -0.85915E+01
         0.22769E+01
        -0.47274E+01
         0.62971E+01
        -0.41750E+01
         0.42186E+01
        -0.13589E+02
         0.16886E+02
        -0.91398E+01
        -0.67041E+01
        -0.84796E-01
         0.32753E+01
        -0.93365E+00
        -0.51698E+01
         0.31638E+02
        -0.33520E+02
         0.20421E+01
         0.56499E+00
        -0.46100E+01
         0.10812E+02
         0.36611E+01
         0.12684E+02
         0.14978E+02
         0.98345E+01
         0.49967E+01
         0.39042E+01
        -0.17415E+01
        -0.11275E+01
        -0.60300E+01
         0.28534E+01
        -0.17846E+02
        -0.23329E+01
        -0.81413E+01
        -0.51838E+01
        -0.14123E+02
         0.88289E+01
         0.47474E+01
        -0.13829E+02
        -0.69968E+01
         0.14557E+01
        -0.50946E+01
        -0.15145E+02
        -0.64413E+00
         0.53238E+01
        -0.10106E+02
         0.23901E+01
         0.50364E+01
         0.65897E+01
        -0.31953E+01
        -0.26028E+01
         0.66605E+00
         0.70198E+01
        -0.12792E+02
         0.22951E+01
        -0.15235E+02
         0.43090E+01
        -0.28764E+01
         0.31607E+01
         0.60692E+01
        -0.74214E+01
         0.25499E+00
        -0.96013E+00
         0.10696E+01
        -0.47221E+01
         0.96906E+01
         0.56629E+00
         0.24980E+02
        -0.83960E+01
        -0.18415E+00
         0.89860E+01
        -0.20209E+01
        -0.11041E+02
        -0.77060E+01
        -0.10258E+02
         0.35452E+00
        -0.88739E+01
        -0.10885E+02
         0.14036E+02
        -0.78745E+01
         0.12041E+02
        -0.47825E+01
         0.78248E+01
         0.32406E+01
         0.34079E+01
        -0.15160E+02
         0.14771E+02
        -0.11742E+02
        -0.96633E+01
         0.40944E+01
        -0.27593E+01
         0.37650E+01
        -0.62155E+01
         0.95804E+01
        -0.25817E+02
        -0.30837E+01
         0.88314E+01
         0.17870E+01
         0.37364E+01
         0.19409E+01
         0.11287E+02
         0.64600E+01
         0.11615E+02
         0.74690E+01
         0.10013E+02
         0.66531E+01
         0.60384E+01
        -0.35375E+01
         0.95462E+01
        -0.10667E+02
         0.49182E+01
        -0.12801E+01
        -0.69347E+00
        -0.33946E+01
         0.14184E+02
        -0.31600E+01
        -0.18150E+02
        -0.65254E+01
         0.36925E+01
        -0.79820E+01
        -0.17696E+02
         0.34477E+01
        -0.52559E+01
         0.39648E+01
        -0.22622E+01
        -0.84659E+01
        -0.13740E+02
         0.26921E+00
         0.38108E+01
        -0.59109E+01
         0.32387E+01
        -0.43539E+00
         0.47139E+01
         0.10266E+02
         0.21519E+01
         0.44802E+00
         0.69579E+00
         0.38870E+01
         0.37861E+01
         0.15896E+02
         0.16489E+02
         0.20680E+02
        -0.13469E+01
         0.15957E+02
        -0.11809E+02
         0.16895E+02
         0.61309E+01
         0.78156E+01
         0.84967E+01
        -0.22983E+01
        -0.23392E+01
        -0.56084E+00
         0.16543E+01
         0.92089E+01
        -0.14407E+02
        -0.49604E+01
         0.98978E+01
         0.15065E+01
         0.30910E+01
        -0.78470E+01
        -0.55457E+00
        -0.34216E+01
         0.10370E+01
        -0.17779E+02
         0.67013E+01
        -0.13008E+02
        -0.66652E+01
         0.79379E+00
         0.89920E+01
         0.20085E+00
         0.54426E+01
         0.12596E+02
        -0.95050E+01
         0.13789E+01
         0.20311E+01
        -0.12166E+01
         0.36941E+01
         0.51447E+01
         0.77750E+01
         0.15354E+02
         0.64760E+01
         0.11526E+02
         0.14666E+02
         0.26062E+01
        -0.37239E+01
        -0.10475E+02
        -0.31324E+01
        -0.10242E+02
         0.68530E+01
        -0.17895E+00
        -0.12705E+02
        -0.22526E+01
         0.14049E+02
         0.15423E+02
         0.22291E+00
        -0.23547E+01
         0.51616E+01
         0.71608E+01
         0.42760E+01
         0.10902E+02
        -0.65979E+01
        -0.15025E+01
        -0.45213E+01
         0.14010E+01
         0.12008E+02
        -0.19584E+01
        -0.21309E+01
         0.31313E+01
        -0.19270E+01
        -0.14125E+01
        -0.14651E+02
        -0.56360E+01
        -0.37356E+00
         0.25930E+01
        -0.33168E+01
         0.54125E+01
        -0.83138E+01
        -0.12565E+02
        -0.14942E+02
         0.89181E+00
        -0.14259E+02
         0.10052E+02
        -0.23028E+01
         0.97206E+01
        -0.12759E+02
         0.89056E+00
         0.48356E+01
        -0.16666E+01
        -0.10057E+02
        -0.69878E+01
        -0.10180E+02
         0.80897E+00
        -0.83243E+00
        -0.33104E+01
         0.93896E+01
        -0.28781E+01
         0.16181E+02
         0.76418E-01
         0.23310E+01
        -0.62243E+01
         0.47428E+01
        -0.19988E+01
         0.11660E+02
        -0.23971E+01
        -0.34853E+01
         0.30514E+01
        -0.19500E+01
         0.17335E+01
         0.16766E+00
         0.33340E+01
        -0.73936E+01
         0.52738E+00
        -0.44349E+01
        -0.28909E+00
        -0.41921E+01
         0.92000E+01
         0.61354E+01
         0.59644E+01
         0.19079E+01
        -0.50368E+01
         0.12258E+01
        -0.43731E+00
        -0.98729E+00
        -0.62774E+01
         0.10474E+02
         0.61187E+01
         0.19634E+01
        -0.10785E+01
         0.25295E+01
        -0.59580E+01
        -0.99648E+00
        -0.64155E+01
        -0.77819E+01
         0.21268E+01
         0.28777E+01
        -0.51116E+01
        -0.58996E+01
         0.58307E+01
        -0.96859E+01
        -0.71513E+00
         0.18576E+01
        -0.10280E+02
        -0.82361E+01
        -0.74786E+01
         0.15466E+01
         0.11618E+01
        -0.81557E+01
         0.29071E+01
        -0.25674E+01
         0.68990E+01
         0.25533E+01
         0.66740E+01
         0.21256E+01
        -0.36952E+01
         0.25236E+01
         0.20672E+02
         0.13307E+02
         0.20605E+02
        -0.61742E+01
         0.12785E+02
        -0.62308E+01
         0.15684E+02
         0.12505E+00
         0.44818E+01
         0.82662E+01
         0.23052E+01
        -0.22941E+01
         0.46958E+00
        -0.26612E+01
         0.47474E+01
        -0.81267E+01
         0.16630E+01
         0.76468E+01
         0.49235E+01
        -0.48196E+01
         0.26051E+01
         0.52850E+01
        -0.29187E+01
        -0.45735E+00
        -0.10435E+02
         0.17012E+01
        -0.49392E+01
         0.61069E+00
         0.15354E+01
         0.39116E+01
         0.19894E+00
         0.68076E+01
         0.49144E+01
        -0.76165E+01
        -0.30331E+00
         0.91380E+01
         0.63507E+01
        -0.45730E+01
        -0.49174E-01
        -0.58142E+00
         0.80212E+01
        -0.20902E+01
         0.25436E+01
         0.55424E+01
         0.15901E+01
         0.89552E+00
        -0.81517E+01
         0.47178E+01
        -0.18607E+01
         0.48100E+00
         0.46627E+01
        -0.13672E+01
        -0.22926E+01
         0.40140E+01
         0.96134E+01
         0.83097E+01
         0.32229E+01
         0.10905E+01
         0.28646E+01
         0.29598E+01
         0.57541E+01
        -0.56632E+00
        -0.24928E+01
         0.98153E+01
         0.46339E+00
         0.80201E+01
         0.73613E+01
        -0.24702E+01
        -0.16242E+01
         0.44247E+01
        -0.31146E+00
        -0.72807E+01
        -0.18348E+01
        -0.70211E+01
         0.86265E+00
        -0.23086E+01
         0.59532E+01
        -0.14698E+01
        -0.10499E+02
        -0.18644E+02
        -0.28434E+00
        -0.73119E+01
         0.62605E+01
        -0.41317E+01
         0.40649E+01
        -0.68847E+01
         0.42568E+01
         0.44344E+01
         0.40793E+01
        -0.36088E+01
        -0.10510E-01
        -0.66511E+01
         0.18906E+01
        -0.63126E+00
        -0.32055E+01
         0.53931E+01
        -0.34236E+01
         0.53818E+01
        -0.41444E+01
         0.46734E+01
        -0.37845E+00
         0.52710E+01
        -0.51524E+01
         0.37351E+01
         0.75176E+00
        -0.46850E+01
         0.30605E+01
        -0.28991E+01
        -0.34485E+01
         0.50265E+01
        -0.46789E+01
        -0.29758E+01
        -0.15452E+01
        -0.13270E+01
        -0.68474E+01
        -0.91051E+01
         0.10421E+02
         0.10416E+00
         0.20754E+01
         0.23225E+01
         0.60569E+01
        -0.36997E+01
         0.68179E+00
         0.65155E+01
         0.65694E+01
         0.98115E+01
         0.12944E+01
        -0.31002E+01
         0.38750E+01
         0.12759E+01
         0.11267E+01
         0.38558E+01
         0.59978E+01
        -0.15191E+01
        -0.33454E+01
         0.16256E+01
         0.61519E+01
         0.38041E+01
         0.57842E+01
        -0.40932E+01
         0.37067E+00
        -0.40016E+01
        -0.45904E+01
        -0.22176E+01
        -0.67084E+01
         0.51444E+00
        -0.25576E+01
        -0.12221E+02
        -0.14814E+01
        -0.63704E+01
         0.73211E+01
        -0.76684E+01
         0.52685E+01
        -0.17400E+01
         0.32073E+01
         0.26565E+01
         0.46885E+01
         0.78538E+01
         0.14368E+02
        -0.12812E+01
         0.85194E+01
         0.85151E+01
         0.46855E+01
        -0.14708E+01
         0.48411E+01
         0.30039E+01
         0.66739E+00
        -0.18380E+01
        -0.82134E+00
         0.20012E+01
         0.62379E+01
        -0.35525E+00
         0.21619E+00
         0.49748E+01
        -0.14108E+01
        -0.20504E+01
        -0.82781E+00
         0.17871E+00
        -0.12840E+02
        -0.19876E+01
         0.20478E+01
         0.17860E+01
        -0.25969E+00
         0.54726E+01
        -0.40293E+01
        -0.25950E+01
        -0.19217E+01
         0.29666E+01
         0.14206E+02
        -0.74600E+01
         0.10044E+02
        -0.74182E+01
         0.12184E+00
        -0.16619E+01
        -0.35333E+01
         0.44803E+01
         0.73034E+01
         0.11244E+01
         0.15527E+00
         0.22160E+01
        -0.14913E+01
        -0.10739E+01
        -0.89224E+01
        -0.62567E+00
         0.31503E+01
         0.44925E+01
         0.72022E+00
        -0.35321E+01
         0.13680E+01
         0.21000E+01
        -0.42116E-01
        -0.44093E+01
         0.39922E+00
         0.48404E+01
         0.41758E+01
        -0.69795E+01
         0.32545E+01
         0.11438E+01
        -0.28765E+01
         0.93116E+01
        -0.21066E+01
         0.54377E+01
         0.81098E+01
         0.11588E+01
         0.23334E+01
         0.73247E+01
         0.79729E+01
         0.57444E+01
        -0.17479E+01
        -0.97475E+01
         0.91211E+01
        -0.14145E+00
         0.37704E+01
        -0.33505E-01
         0.11780E+01
        -0.31481E+01
         0.41340E+01
         0.38910E+01
        -0.45994E+01
        -0.60481E+01
        -0.69396E+01
        -0.80959E+01
         0.38554E+01
         0.24738E+01
        -0.12037E+01
        -0.27548E+01
        -0.16126E+01
         0.35985E+00
         0.17999E+01
        -0.23493E+01
         0.81517E+00
         0.61475E+01
         0.58914E+01
        -0.86897E+00
         0.21857E+01
        -0.44295E+01
        -0.26099E+01
         0.11980E+02
        -0.73272E+00
         0.63758E+01
        -0.43283E+00
         0.41320E+01
         0.58234E+01
         0.19581E+01
         0.38604E+01
        -0.27167E+01
        -0.63697E+01
         0.60489E+01
        -0.92289E+00
         0.27733E+01
         0.35645E+01
        -0.56520E+01
         0.35002E+01
         0.10107E+01
         0.60030E+01
         0.21158E+00
         0.99993E+00
        -0.52554E+01
        -0.50721E+01
        -0.42100E+01
         0.25366E+01
        -0.24970E+01
        -0.31800E+01
        -0.46122E+01
        -0.59649E+01
        -0.45943E+01
        -0.22814E+01
         0.89963E+01
         0.22621E+02
         0.77534E+01
         0.54871E+01
         0.65652E+01
         0.68851E+01
        -0.36442E+01
        -0.21770E+00
        -0.66462E+01
        -0.86001E-01
         0.17698E+00
        -0.95172E+00
        -0.64479E+01
        -0.90659E+01
        -0.51635E+01
        -0.58097E+01
        -0.81545E+01
        -0.10557E+02
        -0.70496E+01
        -0.31993E+00
        -0.21817E+01
        -0.58547E+01
         0.52338E+01
         0.44071E+01
         0.43622E+01
         0.60604E+01
        -0.42398E-01
         0.42868E+01
         0.74810E+01
         0.43038E+01
         0.16219E+02
         0.19437E+02
        -0.24690E+00
        -0.15837E+01
        -0.61066E-01
         0.25204E+01
        -0.34727E+00
        -0.16160E+01
        -0.43128E+01
        -0.49692E+01
        -0.15996E+01
        -0.31124E+01
        -0.11100E+00
        -0.33107E+01
        -0.81345E+01
        -0.27370E+01
        -0.23634E+00
        -0.68717E+01
         0.11408E+01
         0.27906E+01
        -0.67850E+01
         0.38176E+01
        -0.34767E+01
        -0.96297E+01
        -0.22880E+01
        -0.61860E+00
         0.54617E+00
         0.43436E+01
        -0.71886E+01
         0.16689E+01
        -0.35268E+01
        -0.27583E+01
        -0.29734E+01
        -0.33117E+01
         0.58271E+01
         0.45575E+01
         0.59934E+01
         0.35074E+01
         0.78124E+00
         0.68814E+01
         0.70322E+01
        -0.32813E+01
        -0.57186E+01
        -0.77612E+00
         0.12069E+02
         0.83166E+01
         0.97083E+00
        -0.72600E+00
        -0.35042E+01
        -0.27395E+01
        -0.16228E+01
         0.10017E+01
         0.36696E+00
         0.56951E+00
        -0.53983E+01
         0.43784E-01
         0.11513E+01
         0.44382E+01
         0.48326E+01
         0.32669E+01
        -0.15033E+01
         0.22265E+01
         0.63735E+01
         0.70597E-01
         0.11177E+01
         0.50738E+01
         0.70233E+01
        -0.10278E+01
        -0.11525E+01
         0.11459E+02
        -0.29020E+00
         0.21999E+01
         0.84391E+01
         0.27450E+01
        -0.54909E+01
        -0.95338E-01
         0.19824E+01
        -0.11885E+01
        -0.11816E+02
        -0.44129E+01
         0.13254E+01
        -0.39916E+00
        -0.69774E+01
        -0.90047E+01
        -0.45227E+01
        -0.47334E+01
         0.34108E+01
         0.43856E+01
        -0.42043E+01
        -0.22795E+01
        -0.11394E+01
         0.16242E+01
         0.12700E+02
        -0.38532E+01
        -0.46550E+01
         0.99582E+01
        -0.58250E+01
        -0.14108E+01
         0.43700E+00
        -0.43488E+01
         0.36914E+01
         0.16595E+01
         0.43383E+01
         0.44685E+00
         0.36426E+01
         0.41155E+01
         0.56339E+00
        -0.19387E+01
         0.95399E+01
         0.51520E+01
        -0.45110E+01
         0.33280E+01
        -0.45234E+01
         0.21011E+01
        -0.33092E+01
         0.18956E+01
         0.21695E+01
        -0.36324E+01
        -0.55220E+01
        -0.68802E+01
        -0.34098E+01
        -0.79901E+01
        -0.15513E+02
        -0.72100E+01
        -0.63209E+00
        -0.14580E+00
         0.41155E+01
         0.20205E+02
         0.97309E+01
         0.34507E+01
         0.14044E+01
         0.63017E+01
         0.59987E+01
         0.77489E+01
        -0.11834E+02
        -0.88517E+00
        -0.78813E+01
        -0.21177E+01
        -0.17302E+00
        -0.37646E+01
        -0.42365E+01
        -0.27828E+00
         0.83720E+00
        -0.78312E+01
        -0.11531E+02
         0.10189E+00
        -0.44164E+01
        -0.66697E+01
         0.22052E+01
        -0.36013E+01
         0.13356E+01
         0.56152E+00
        -0.20859E+01
         0.12646E+02
         0.13401E+01
         0.11178E+02
         0.15773E+02
         0.82322E+01
        -0.23132E+01
        -0.42197E-02
         0.63657E+00
         0.18953E+01
         0.12745E+01
        -0.15343E+01
         0.27189E+01
        -0.14352E+01
         0.92130E+00
        -0.15364E+01
         0.27178E+01
         0.33384E+00
        -0.16457E+01
         0.80221E+01
         0.79738E+01
        -0.50078E+01
         0.43215E+01
        -0.14959E+01
        -0.23274E+01
        -0.10253E+01
        -0.11555E+01
        -0.25936E+01
        -0.54371E+00
        -0.50022E+01
         0.41759E+01
         0.77350E+01
        -0.43665E+01
         0.15451E+00
        -0.14424E+01
        -0.18027E+01
        -0.39758E+01
        -0.60266E+00
        -0.19287E+01
        -0.11120E+00
        -0.13093E+01
        -0.55539E+00
         0.67852E+01
         0.27569E+01
         0.34982E+01
         0.49269E+01
         0.10429E+02
         0.67080E+01
         0.44668E+01
         0.32209E+01
         0.32166E+01
         0.29051E+01
         0.94384E+00
         0.33574E+00
        -0.15499E+01
        -0.14268E+01
        -0.20750E+01
        -0.12802E+01
        -0.96927E+01
        -0.32226E+01
         0.62924E+01
        -0.65416E+01
         0.29717E+00
         0.18973E+01
         0.69216E+00
        -0.92684E+01
        -0.33129E+01
         0.40875E+01
        -0.73432E+01
        -0.22079E+01
         0.10864E+02
         0.35970E+01
         0.87177E+01
        -0.12216E+01
         0.28385E+01
         0.31466E+01
         0.12896E+01
         0.12040E+01
        -0.69938E+01
        -0.72878E+01
        -0.61091E+01
        -0.12311E+01
         0.62238E+00
         0.40593E+00
         0.43457E-02
        -0.21227E+01
        -0.22557E+01
        -0.23134E+01
         0.25049E+00
        -0.17857E+01
         0.16375E+01
        -0.12887E+01
        -0.38046E+01
        -0.61759E+01
        -0.91908E+00
        -0.42827E+01
        -0.24580E+01
        -0.72757E+01
        -0.31183E+01
         0.36644E+01
        -0.92738E+01
         0.26270E+01
        -0.20271E+00
         0.21150E+01
        -0.26243E+01
         0.96447E+00
        -0.32454E+01
         0.19426E+01
        -0.29982E+01
        -0.13568E+01
        -0.44198E-01
        -0.45174E+00
         0.64338E+01
         0.57822E+01
         0.17679E+01
         0.52205E+01
         0.35507E+00
        -0.15076E+01
         0.13075E+01
        -0.14876E+01
        -0.69475E-01
         0.11132E+01
        -0.11377E+01
        -0.11081E+02
        -0.76238E+01
        -0.54971E+01
        -0.90577E+01
        -0.29360E+01
         0.32618E+01
         0.91198E+00
        -0.18902E+01
        -0.23537E+01
        -0.14270E+01
         0.49122E+00
         0.53856E+00
         0.75288E+00
        -0.62439E+01
        -0.37782E+01
        -0.31995E+01
         0.23706E+01
        -0.65683E+01
        -0.31709E+01
         0.29194E+01
         0.18443E+01
        -0.39277E+00
        -0.46221E+01
        -0.50303E+00
        -0.17422E+00
        -0.83322E+01
        -0.12470E+02
        -0.62441E+01
         0.30089E+01
        -0.13359E+01
        -0.74953E+01
        -0.28300E+01
        -0.32159E+00
         0.21223E+01
         0.57330E+01
         0.38097E+01
         0.92485E+00
        -0.13813E+01
         0.11952E+01
         0.19452E+01
         0.11498E+02
         0.37122E+00
         0.24066E+01
         0.43876E+01
         0.82575E+00
         0.50149E+01
         0.22027E+01
        -0.69984E+00
        -0.23006E+01
         0.19182E+01
        -0.21612E+01
        -0.36415E+00
         0.33700E+01
         0.20514E+01
        -0.23123E+01
         0.71237E+01
        -0.17758E+00
         0.39205E+01
        -0.58735E+00
         0.52286E+01
         0.70375E+01
         0.20635E+01
         0.16024E+01
        -0.10282E+01
        -0.12591E+01
        -0.12668E+01
        -0.63631E+00
        -0.39976E+01
        -0.38941E+01
         0.57305E+01
         0.14000E+01
        -0.23359E+01
        -0.21116E-01
        -0.18248E+01
         0.11778E+01
         0.64958E+01
         0.52065E+01
         0.25144E+01
         0.77288E+01
         0.42824E+01
         0.10302E+02
         0.15866E+02
         0.19324E+01
        -0.12257E+01
        -0.13562E+00
         0.36800E+00
         0.26012E+01
         0.46255E+01
         0.12436E+01
        -0.54042E+00
         0.19849E+01
         0.16917E+01
         0.11175E+01
         0.49521E+01
         0.20214E+01
         0.24860E+00
        -0.11791E+01
        -0.26303E+01
        -0.19720E+01
        -0.67248E+01
        -0.30469E+01
        -0.55986E+01
        -0.19439E+02
         0.21018E+01
         0.83814E+01
         0.16948E+01
        -0.32869E+01
        -0.24541E+01
         0.68988E+01
         0.13850E+02
         0.25161E+00
        -0.10188E+02
        -0.87313E+00
        -0.57885E+00
        -0.34622E+00
         0.26131E+01
         0.66967E+01
        -0.34550E+01
        -0.28139E+01
        -0.60062E+00
        -0.25331E+01
        -0.18388E+01
         0.98036E-01
        -0.15571E+01
        -0.99358E+00
         0.98908E+00
         0.52973E+01
        -0.22383E+01
         0.33002E+01
        -0.54361E+01
        -0.72173E+01
        -0.51158E+01
        -0.10915E+01
        -0.66930E+01
        -0.39211E+00
        -0.28195E+01
         0.24815E+00
         0.33945E+01
         0.23796E+01
         0.57039E+01
         0.13471E+01
         0.44841E+01
         0.76328E+01
         0.12094E+01
        -0.19519E+01
         0.38703E+01
         0.64638E+01
         0.51574E+01
         0.41872E+01
         0.12244E+01
        -0.52448E+00
         0.34745E+01
         0.18101E+01
        -0.47113E+01
        -0.24345E+01
        -0.30946E+01
        -0.21415E+01
        -0.38908E+01
        -0.10585E+02
        -0.16796E+02
        -0.47103E+00
         0.36370E+01
         0.39992E+01
         0.26565E+01
         0.71778E+01
         0.10302E+01
         0.39277E+01
         0.38006E+01
         0.13281E+01
        -0.76016E+00
         0.39388E+00
        -0.55094E+01
        -0.63547E+00
        -0.47694E+01
         0.45333E+01
         0.46414E+01
         0.49664E+01
         0.11138E+01
         0.43939E+01
         0.26405E+00
         0.21334E+00
        -0.75834E+01
        -0.23214E+01
         0.18886E+01
        -0.15955E+00
         0.14710E+01
        -0.37109E+01
         0.18155E+01
        -0.11942E+01
         0.92707E+01
         0.11990E+01
         0.32885E+01
         0.77436E+01
        -0.28563E+01
        -0.25014E+01
         0.49316E+01
         0.83667E+00
         0.25053E+01
        -0.10384E+01
        -0.23334E+01
         0.20004E+01
        -0.27501E+01
        -0.17226E+01
         0.14743E+01
         0.55367E+01
         0.10755E+01
         0.39636E+01
        -0.50744E+01
         0.59830E+01
         0.33264E+01
        -0.64437E+00
         0.94057E+01
         0.69683E+00
        -0.94145E+00
         0.35860E+01
        -0.22310E+01
        -0.40426E+01
        -0.30131E+01
        -0.37057E+01
         0.10189E+01
         0.86877E+01
         0.34129E+00
         0.13256E+01
         0.15556E+01
        -0.62273E+00
        -0.60281E+00
         0.12171E+01
         0.46180E+01
        -0.53267E-02
         0.78912E+01
         0.66843E+01
        -0.34216E+01
         0.16071E+01
         0.22126E+01
         0.85505E+01
         0.30246E+01
         0.30008E+01
         0.15777E+02
         0.14641E+02
         0.41879E+01
         0.51961E+01
         0.13763E+01
        -0.54044E+01
        -0.76670E+01
         0.87293E+00
         0.45944E+01
         0.54832E+01
         0.10217E+01
         0.77171E+00
         0.37048E+01
         0.88556E-02
         0.32286E+00
         0.28306E+01
        -0.73961E+00
         0.13274E+01
         0.32689E+01
        -0.36902E+01
        -0.18050E+02
         0.94950E+00
        -0.53735E+01
        -0.54111E+01
         0.92666E+00
        -0.25224E+01
         0.60580E+01
         0.15412E+00
        -0.54009E+01
        -0.25712E+00
         0.11940E+02
        -0.33339E+00
         0.42047E+01
        -0.15279E+00
         0.32696E+01
         0.38931E+01
         0.61877E+01
        -0.50872E+00
         0.36365E+01
        -0.10821E+01
        -0.55202E+01
         0.46270E+01
        -0.23745E+01
         0.10546E+01
         0.21368E+01
         0.20633E+01
         0.18696E+01
        -0.13223E+01
         0.59785E+01
         0.71736E+01
         0.83263E+01
         0.36825E+01
         0.60469E+01
        -0.32162E+01
         0.67037E+01
         0.22135E+01
         0.85629E+01
         0.42436E+01
        -0.16328E+01
         0.27471E+01
         0.12681E+01
         0.10901E+02
         0.83679E+01
        -0.39488E+01
         0.52396E+01
         0.10706E+02
         0.10090E+02
         0.35592E+01
         0.93223E+00
        -0.38423E+01
         0.77174E+01
         0.47853E+01
        -0.53081E+00
        -0.73121E+01
        -0.18995E+01
        -0.74009E+00
         0.54890E+01
        -0.34259E+01
        -0.87264E+00
        -0.20623E+01
        -0.57597E+01
        -0.21554E+01
         0.58491E+01
         0.17658E+02
        -0.68681E+01
        -0.16389E+01
        -0.58988E+01
         0.28823E+01
        -0.15015E+02
        -0.28735E+01
         0.23236E+00
        -0.11635E+02
        -0.17623E+01
        -0.22938E+01
         0.14727E+02
        -0.73144E+00
        -0.77935E+01
        -0.54431E+01
        -0.12899E+02
        -0.15474E+02
        -0.13018E+02
        -0.56779E+00
        -0.39274E+01
         0.32110E+00
         0.33617E+01
        -0.30322E+01
         0.69401E+00
        -0.30844E+01
        -0.23023E+01
         0.51561E+01
         0.19092E+01
         0.51068E+01
         0.93909E+01
         0.94551E+01
         0.16169E+01
         0.26727E+01
  
SCALARS                     velocity_z  double 1
LOOKUP_TABLE default
         0.25377E+02
         0.32962E+01
        -0.58679E+01
        -0.50098E+02
         0.00000E+00
         0.00000E+00
         0.00000E+00
         0.00000E+00
         0.21502E+02
         0.22514E+02
         0.00000E+00
         0.00000E+00
         0.80524E+00
         0.10634E+02
         0.00000E+00
         0.00000E+00
        -0.14179E+02
        -0.15934E+02
         0.00000E+00
         0.00000E+00
        -0.54014E+00
        -0.25135E+01
         0.40108E+01
         0.00000E+00
         0.00000E+00
         0.00000E+00
        -0.12706E+02
         0.81661E+01
         0.00000E+00
         0.00000E+00
        -0.14124E+02
         0.91214E+01
         0.32270E+02
         0.00000E+00
         0.00000E+00
         0.00000E+00
        -0.23153E+02
         0.82962E+01
         0.00000E+00
         0.00000E+00
         0.29470E+02
        -0.56864E+01
         0.00000E+00
         0.00000E+00
        -0.75468E+01
        -0.16099E+02
         0.00000E+00
         0.00000E+00
         0.22466E+01
         0.00000E+00
         0.44923E+02
         0.00000E+00
         0.25153E+02
         0.00000E+00
        -0.24676E+02
         0.00000E+00
         0.32219E+02
        -0.16747E+02
         0.00000E+00
         0.00000E+00
        -0.22034E+02
         0.55838E+01
         0.00000E+00
         0.00000E+00
        -0.36455E+01
         0.00000E+00
         0.90839E+01
         0.00000E+00
        -0.30294E+02
         0.33128E+02
         0.00000E+00
         0.00000E+00
        -0.28044E+02
         0.00000E+00
        -0.18428E+02
         0.00000E+00
         0.11360E+02
         0.00000E+00
         0.68086E+00
         0.00000E+00
        -0.25062E+02
         0.55985E+01
         0.00000E+00
         0.00000E+00
        -0.52137E+00
         0.00000E+00
        -0.72429E+01
         0.00000E+00
        -0.12075E+02
         0.00000E+00
        -0.40714E+01
         0.18040E+01
         0.00000E+00
         0.00000E+00
         0.45724E+01
         0.00000E+00
         0.91334E+01
         0.00000E+00
         0.87220E+01
         0.00000E+00
        -0.97571E+01
        -0.22715E+01
         0.00000E+00
         0.00000E+00
         0.27846E+02
        -0.18553E+02
         0.00000E+00
         0.00000E+00
        -0.28263E+02
         0.00000E+00
         0.27111E+02
         0.00000E+00
        -0.15333E+02
         0.00000E+00
         0.59631E+01
         0.00000E+00
        -0.52368E+01
         0.00000E+00
         0.81208E+01
         0.00000E+00
         0.30141E+01
         0.00000E+00
        -0.32656E+01
         0.00000E+00
         0.15284E+02
         0.00000E+00
        -0.10661E+02
         0.00000E+00
         0.64785E+01
         0.00000E+00
        -0.25051E+00
         0.00000E+00
        -0.10275E+02
         0.00000E+00
         0.52314E+01
         0.00000E+00
         0.67208E+00
         0.00000E+00
         0.61384E+01
         0.00000E+00
        -0.96881E+01
         0.00000E+00
         0.85924E+01
         0.00000E+00
        -0.12403E+02
         0.00000E+00
         0.47654E+01
         0.00000E+00
        -0.10597E+02
         0.00000E+00
         0.17059E+02
         0.00000E+00
        -0.14702E+02
         0.00000E+00
        -0.37690E+01
         0.00000E+00
        -0.71348E+01
         0.59069E+01
         0.14719E+02
        -0.38302E+02
         0.39021E+01
         0.23458E+02
        -0.25679E+02
         0.34014E+02
        -0.35788E+01
        -0.17517E+02
         0.19815E+01
         0.10410E+02
         0.38607E+01
        -0.26595E+02
         0.76611E+01
        -0.25295E+02
         0.17370E+01
         0.32181E+02
         0.81066E+01
        -0.35100E+01
         0.24346E+02
        -0.15414E+02
        -0.15507E+02
        -0.12343E+02
         0.21334E+02
         0.20117E+02
         0.28167E+02
        -0.29260E+02
        -0.50329E+01
        -0.69196E+01
        -0.12445E+02
         0.18487E+02
         0.40415E+01
         0.25728E+02
        -0.27879E+02
         0.19891E+02
         0.10855E+00
        -0.61397E+01
         0.91587E+01
         0.11318E+02
        -0.23969E+02
         0.28719E+02
         0.13582E+01
        -0.91304E+01
        -0.13731E+01
         0.16955E+02
        -0.32144E+02
         0.20107E+02
        -0.15592E+02
        -0.36122E+01
         0.14066E+02
        -0.30483E+02
         0.12291E+02
        -0.90241E+01
        -0.26813E+02
         0.18986E+02
        -0.14753E+02
         0.62908E+01
        -0.48228E+01
        -0.10143E+02
         0.17207E+01
        -0.17806E+01
         0.95265E+01
        -0.18742E+01
        -0.59761E+01
        -0.33156E+01
         0.37298E+01
        -0.25614E+01
        -0.58057E+01
         0.40263E+01
        -0.13070E+02
         0.18199E+02
        -0.64070E+01
         0.16799E+01
         0.46551E+01
        -0.10717E+02
         0.34432E+01
         0.14664E-01
         0.21744E+02
        -0.65848E+01
         0.13163E+02
        -0.47479E+02
        -0.77131E+01
         0.26420E+02
        -0.23204E+02
         0.34236E+02
        -0.35379E+01
        -0.35067E+02
         0.29127E+01
        -0.95446E+00
         0.11535E+02
        -0.40122E+00
         0.68010E+01
        -0.23956E+02
        -0.26943E+02
         0.34762E+02
         0.15315E+02
         0.35490E+01
        -0.23864E+00
        -0.75257E+01
        -0.52223E+01
         0.36132E+01
         0.42993E+02
         0.22384E+02
        -0.63680E+01
        -0.11547E+02
        -0.23946E+02
        -0.10998E+02
        -0.10199E+02
         0.13865E+02
         0.46431E+01
         0.72154E+01
         0.67068E+01
         0.56567E+01
         0.17963E+01
         0.10051E+02
         0.69800E+00
         0.78863E+01
        -0.24529E+01
         0.99891E+01
         0.88780E+01
        -0.68502E+01
        -0.12725E+02
         0.27353E+02
        -0.38588E+02
         0.25650E+02
        -0.11479E+02
         0.50296E+01
         0.10341E+02
        -0.13800E+02
         0.11647E+02
        -0.75433E+00
        -0.91098E+01
         0.75759E+01
        -0.16686E+01
        -0.39506E+01
         0.43537E+01
         0.22683E+01
         0.28055E+01
        -0.25999E+01
         0.50427E+01
        -0.99089E+00
         0.35318E+01
         0.54936E+01
        -0.52570E+01
         0.91123E+01
         0.19878E+01
         0.43019E+01
         0.28611E+00
         0.27701E+01
        -0.10627E+01
        -0.75444E+01
         0.90765E+01
        -0.50736E+01
        -0.92920E+00
        -0.48426E+01
         0.11081E+02
        -0.21594E+02
         0.82764E+01
        -0.51831E+02
        -0.49653E+01
         0.35603E+02
        -0.20868E+02
         0.56322E+02
        -0.16454E+02
        -0.26731E+02
        -0.41483E+02
         0.38385E+01
         0.17430E+02
         0.85331E+01
         0.13583E+02
         0.32561E+00
        -0.15236E+02
         0.54153E+02
         0.20141E+02
        -0.45898E+01
        -0.12150E+01
        -0.28374E+00
         0.15679E+01
        -0.42698E+02
         0.43554E+02
         0.25807E+02
        -0.23379E+02
         0.13371E+02
        -0.37251E+02
        -0.50884E+01
        -0.41298E+02
         0.76745E+01
        -0.32832E+01
         0.23947E+02
         0.80846E+00
         0.48944E+01
         0.69444E+01
        -0.51718E+01
        -0.10457E+02
         0.15681E+02
        -0.15073E+01
         0.17311E+02
        -0.92378E+01
         0.17784E+02
        -0.90525E+01
         0.21051E+02
        -0.30072E+02
         0.41530E+02
        -0.12635E+02
         0.18201E+02
        -0.22573E+02
        -0.15225E+02
        -0.53722E+01
         0.11012E+00
         0.28523E+01
         0.17025E+01
        -0.57621E+01
         0.42710E+01
        -0.79573E+01
        -0.11548E+01
         0.13265E+01
        -0.49029E+01
        -0.12117E+02
         0.44146E+01
        -0.67011E+01
        -0.43514E+01
        -0.58783E+00
         0.23868E+01
        -0.83301E+01
         0.21097E+01
        -0.25473E+01
        -0.52554E+01
         0.93532E+01
        -0.50250E+01
        -0.42162E+01
         0.76048E+01
         0.66306E+01
        -0.85709E+01
         0.13657E+02
        -0.94435E+01
         0.14200E+02
        -0.49481E+02
         0.98257E+01
         0.31893E+02
        -0.66442E+01
         0.47566E+02
        -0.27764E+02
        -0.34738E+02
        -0.26326E+02
        -0.12909E+02
         0.29707E+02
         0.37153E+02
        -0.74144E+01
        -0.58186E+00
        -0.22872E+02
         0.54741E+02
         0.24024E+02
        -0.18484E+02
        -0.10541E+02
         0.59790E+01
        -0.31157E+01
         0.28777E+01
         0.35113E+02
         0.16967E+02
        -0.31727E+02
         0.14703E+02
        -0.16239E+01
         0.69789E+01
        -0.36976E+02
        -0.26775E+01
         0.18303E+01
         0.51515E+01
        -0.37156E+01
        -0.15321E+02
        -0.13395E+01
         0.20707E+02
        -0.13000E+02
         0.13511E+02
        -0.21946E+02
        -0.12943E+01
         0.23899E+01
         0.19036E+02
        -0.71855E+01
         0.67764E+01
        -0.27494E+02
         0.46369E+02
        -0.13908E+02
         0.62130E+01
         0.97965E+01
        -0.23782E+02
        -0.39311E+01
         0.18296E+02
         0.17654E+02
        -0.14111E+02
         0.30737E+01
         0.56402E+01
         0.45020E+00
         0.71595E+01
        -0.41950E+01
         0.78855E+01
         0.71713E+01
         0.68141E+01
         0.20751E+01
        -0.12061E+01
        -0.30083E+01
         0.12750E+01
        -0.60866E+01
         0.46029E+01
         0.12324E+01
         0.41247E+01
        -0.33175E+01
        -0.77045E+01
         0.42856E+01
        -0.16875E+02
         0.16865E+02
        -0.13810E+02
         0.65169E+01
        -0.43095E+01
         0.24175E+02
        -0.53786E+02
         0.18972E+01
         0.15412E+02
        -0.39234E+01
         0.42631E+02
        -0.21297E+02
        -0.96890E+01
        -0.40170E+02
        -0.48728E+01
         0.23507E+02
         0.20211E+02
        -0.39134E+00
        -0.10154E+02
         0.10982E+02
         0.36067E+02
         0.15546E+02
        -0.50822E+01
        -0.60355E+01
         0.24376E+01
        -0.30989E+00
        -0.13413E+02
         0.20692E+02
         0.11093E+02
        -0.20190E+02
         0.53812E+01
         0.46860E+01
        -0.99195E+01
        -0.22363E+02
         0.28019E+01
         0.19137E+02
         0.26566E+02
        -0.34272E+01
        -0.88778E+01
        -0.56703E+01
         0.52929E+01
        -0.15099E+02
         0.17982E+02
        -0.16223E+02
        -0.23595E+01
         0.80219E+01
         0.41149E+01
        -0.71112E+01
         0.40459E+02
        -0.25359E+02
         0.26128E+02
        -0.27407E+02
        -0.97911E+00
         0.13180E+02
        -0.14061E+02
        -0.19559E+02
         0.14182E+02
         0.16236E+02
        -0.36537E+01
        -0.71167E+00
         0.64454E+01
        -0.13301E+01
         0.92715E+01
        -0.10151E+02
         0.43580E+01
        -0.50376E+01
         0.38870E+01
         0.20984E+01
        -0.59223E+01
         0.65734E+01
        -0.70299E+01
         0.31055E+01
        -0.71969E+01
        -0.93479E+01
         0.99201E+01
         0.43875E+01
         0.49646E+01
         0.94419E+01
        -0.16077E+02
         0.11697E+02
        -0.16149E+02
         0.56196E+01
         0.80290E+00
         0.42146E+02
        -0.52779E+02
         0.10344E+02
         0.72390E+01
        -0.59040E+01
         0.21422E+02
        -0.23553E+02
        -0.97185E+01
         0.13911E+02
        -0.26186E+01
         0.10063E+02
        -0.57951E+01
        -0.15347E+02
        -0.24091E+02
         0.10514E+02
         0.14015E+02
         0.22871E+01
         0.45745E+01
         0.30761E+01
        -0.12674E+02
         0.23444E+01
         0.66053E+01
         0.43870E+01
         0.26380E+02
        -0.15676E+02
         0.49791E+01
        -0.23931E+02
        -0.78397E+01
        -0.93296E+01
         0.29144E+02
         0.15844E+02
         0.32306E+02
         0.23927E+01
        -0.10278E+02
        -0.20007E+02
         0.36110E+01
         0.11104E+02
         0.66343E+01
        -0.14810E+02
         0.20647E+02
         0.62284E+01
        -0.16884E+02
        -0.23014E+02
         0.13363E+02
        -0.18949E+02
         0.23087E+02
        -0.29899E+02
        -0.96734E+00
         0.10395E+02
        -0.17691E+02
        -0.22848E+01
         0.76789E+01
         0.38083E+00
         0.89641E+01
         0.21328E+00
         0.32115E+00
         0.58305E+01
         0.19982E+01
        -0.29490E+01
         0.62057E+01
         0.44796E+01
         0.43942E+01
         0.11825E+01
         0.46691E+01
        -0.87692E+00
        -0.45391E+01
         0.18442E+01
         0.17597E+02
        -0.43528E+01
         0.84371E+01
        -0.90056E+01
         0.92438E+01
         0.44334E+01
        -0.86131E+01
         0.21431E+02
        -0.92512E+01
         0.86558E+01
        -0.54795E+01
         0.37181E+02
        -0.54856E+02
         0.88666E+01
         0.99899E+01
        -0.12733E+02
         0.17184E+02
        -0.14224E+00
         0.12216E+02
         0.80467E+01
         0.76977E+01
         0.17050E+02
        -0.96937E+01
        -0.18408E+01
        -0.31274E+02
         0.72553E+01
         0.18720E+02
        -0.73319E+01
         0.17826E+02
        -0.18608E+01
         0.33913E+01
        -0.12769E+02
         0.28420E+02
         0.25746E+01
         0.27834E+02
        -0.23526E+01
         0.38054E+01
        -0.17369E+02
         0.42189E+01
        -0.75994E+01
         0.30349E+02
         0.15271E+02
         0.32779E+02
         0.16782E+01
        -0.29266E+01
        -0.11051E+02
         0.10011E+02
         0.68338E+01
         0.16339E+02
        -0.88978E+01
         0.46627E+01
         0.10360E+02
        -0.16663E+02
        -0.78064E+01
         0.23704E+02
        -0.28939E+02
         0.12142E+02
        -0.15467E+02
         0.58270E+01
         0.20254E+01
        -0.14649E+02
        -0.54067E+01
         0.62724E+01
         0.35641E+01
         0.10595E+02
        -0.81963E+01
         0.56928E+01
        -0.30282E+01
         0.74545E+01
        -0.35114E+01
         0.41333E+01
        -0.18324E+00
        -0.11093E+01
         0.97770E+01
        -0.99807E+01
         0.48178E+01
         0.12968E+02
         0.82955E+00
         0.50231E+01
        -0.20382E+01
         0.16544E+02
        -0.94500E+00
         0.12900E+02
        -0.63193E+01
         0.60368E+01
         0.26670E+01
        -0.42381E+01
         0.11066E+02
        -0.54046E+01
         0.40627E+02
        -0.57577E+02
         0.64726E+01
         0.47919E+00
        -0.11872E+02
         0.63158E+01
         0.76765E+01
        -0.34295E+01
         0.25148E+02
         0.36477E+01
         0.42568E+01
        -0.12557E+02
        -0.16366E+01
        -0.33097E+02
         0.10888E+02
         0.16358E+02
        -0.21111E+02
         0.29180E+01
         0.48939E+01
        -0.28836E+01
         0.78908E+01
         0.23944E+02
        -0.12883E+02
         0.17048E+02
        -0.16074E+02
         0.56629E+01
        -0.12613E+02
        -0.11427E+02
        -0.84477E+01
         0.23159E+02
         0.12850E+02
         0.26952E+02
        -0.11001E+01
        -0.35889E+01
        -0.18212E+02
        -0.36504E+01
         0.10087E+01
         0.16395E+02
        -0.16129E+02
         0.21952E+01
         0.42033E+01
        -0.13161E+02
        -0.14837E+02
         0.12911E+02
        -0.25401E+02
         0.13067E+02
        -0.11643E+02
         0.63802E+01
         0.98119E+01
        -0.16550E+02
         0.64676E+01
        -0.27268E+01
        -0.10146E+02
         0.20997E+02
         0.70644E+00
         0.20595E+01
         0.30932E+01
         0.34099E+01
         0.23028E+01
         0.58134E+01
         0.13090E+02
         0.82133E+01
        -0.24359E+01
         0.66742E+01
        -0.17826E+01
        -0.28586E+01
         0.19253E+01
         0.12259E+02
        -0.10394E+02
         0.70115E+01
        -0.13446E+02
         0.14035E+02
        -0.49879E+01
         0.64691E+01
         0.29406E+01
         0.68957E+01
         0.13788E+02
        -0.45664E+01
         0.37791E+02
        -0.61462E+02
         0.14262E+02
         0.24033E+02
        -0.55388E+01
         0.12014E+02
         0.20161E+02
        -0.12306E+02
         0.16172E+01
         0.23876E-01
         0.20364E+02
         0.16503E+02
         0.30531E+01
        -0.24582E+02
         0.27506E+02
         0.17756E+02
        -0.13916E+02
         0.25837E+02
        -0.27671E+01
         0.37555E+01
         0.91118E+01
         0.10582E+02
        -0.21329E+02
         0.23805E+02
         0.71283E+01
         0.63226E+01
         0.13252E+02
         0.13415E+02
        -0.10569E+02
         0.20929E+02
         0.46468E+01
         0.13437E+02
        -0.18979E+02
        -0.39414E+01
        -0.14290E+01
         0.69426E+01
        -0.98009E+01
         0.19827E+02
         0.33550E+01
         0.38091E+01
        -0.17497E+01
        -0.22127E+01
        -0.27310E+01
         0.11756E+02
        -0.30283E+02
         0.27659E+02
         0.56530E+01
         0.24081E+01
         0.20991E+01
        -0.12221E+01
         0.20652E+02
        -0.11332E+02
        -0.78432E+01
         0.12929E+02
        -0.29069E+01
         0.53093E+00
        -0.18438E+01
         0.33814E+01
         0.79589E+00
        -0.77500E+00
         0.10591E+01
         0.28039E+01
         0.92244E+01
        -0.11997E+01
         0.17209E+01
         0.15395E+02
        -0.59426E+01
         0.14483E+02
        -0.11804E+01
         0.27653E+02
        -0.15751E+00
         0.11530E+02
        -0.12602E+02
         0.13676E+02
        -0.54833E+01
         0.53790E+01
         0.20514E+02
        -0.78973E+01
         0.32757E+02
        -0.57263E+02
         0.13149E+02
         0.18278E+02
        -0.97408E+01
         0.11796E+02
         0.22091E+02
        -0.19621E+02
        -0.99132E+01
        -0.13973E+01
         0.17992E+02
         0.44338E+01
        -0.52682E+01
        -0.32695E+02
         0.11359E+02
         0.22355E+02
        -0.21782E+02
         0.10214E+02
        -0.11263E+01
         0.77198E+01
         0.49343E+01
         0.11578E+02
        -0.41124E+02
         0.17232E+02
         0.53053E+01
         0.11749E+02
         0.10379E+02
         0.33584E+01
        -0.15113E+02
         0.19157E+02
         0.60476E+01
         0.18747E+02
        -0.94022E+00
        -0.65943E+01
        -0.54509E+01
         0.58181E+01
        -0.94821E+00
         0.10166E+02
        -0.24082E+02
        -0.26724E+01
         0.16432E+01
        -0.66386E+01
         0.12957E+01
         0.34973E+02
        -0.25638E+02
         0.20660E+02
         0.20633E+01
         0.74157E+01
         0.73883E+01
        -0.82056E+01
         0.19636E+02
        -0.15037E+02
        -0.71206E+01
         0.15692E+02
         0.60333E+00
         0.11483E+02
         0.17002E+01
         0.70709E+01
         0.67799E+01
         0.15419E+02
         0.10684E+02
         0.10183E+02
        -0.44939E+01
        -0.98771E-01
         0.19820E+00
         0.25560E+01
        -0.78455E+01
         0.11709E+02
        -0.16212E+02
         0.91459E+01
        -0.79034E+01
         0.97513E+01
        -0.12099E+02
         0.12490E+02
        -0.82483E+01
         0.10579E+02
         0.19822E+02
        -0.38813E+01
         0.32496E+02
        -0.54404E+02
         0.66139E+01
         0.20397E+02
         0.34774E+01
         0.11148E+02
         0.22855E+02
        -0.12701E+02
         0.15525E+02
         0.12771E+01
         0.24270E+02
         0.11192E+02
        -0.47456E+01
        -0.23510E+02
         0.26652E+02
         0.33213E+02
        -0.19375E+02
         0.18053E+02
         0.68900E+01
         0.11137E+01
         0.22782E+02
         0.19139E+02
        -0.12505E+02
         0.15150E+02
         0.11841E+01
         0.89417E+01
         0.12192E+02
         0.12128E+02
        -0.60191E+01
         0.16073E+02
         0.18352E+02
         0.22476E+02
        -0.14116E+02
        -0.45198E+01
         0.34719E+01
         0.56882E+01
         0.28215E+01
         0.22809E+02
         0.18104E+01
         0.69648E+01
         0.23961E+00
        -0.16538E+01
        -0.97302E+01
         0.95630E+01
        -0.32719E+02
         0.22982E+02
        -0.62038E+01
        -0.45940E+01
         0.65688E+01
        -0.35278E+00
         0.24608E+02
        -0.46169E+01
        -0.10052E+02
         0.98242E+01
        -0.61770E+01
         0.10069E+02
        -0.19362E+01
         0.76880E+01
        -0.44296E-01
        -0.37650E+01
         0.16190E+02
        -0.55044E+01
         0.11742E+02
         0.73648E+01
        -0.63938E+01
         0.77887E+01
        -0.57485E+01
         0.14583E+02
         0.29272E+00
         0.22274E+02
        -0.26013E+01
         0.13774E+02
        -0.91694E+01
         0.11418E+02
        -0.80912E+01
         0.63106E+01
         0.21023E+02
        -0.35750E+01
         0.40846E+02
        -0.54258E+02
         0.14643E+02
         0.20499E+02
        -0.10079E+02
         0.14802E+02
         0.13595E+02
        -0.14717E+02
        -0.79900E+01
        -0.23857E+01
         0.77129E+01
         0.11700E+02
         0.58572E+01
        -0.25070E+02
         0.11130E+02
         0.24274E+02
        -0.25224E+02
         0.61298E+01
         0.69432E+01
         0.19508E+02
         0.65312E+01
         0.55614E+01
        -0.21837E+02
         0.24789E+02
         0.14277E+02
         0.31015E+02
         0.29431E+02
         0.55617E+01
        -0.27504E+01
         0.36762E+02
         0.88967E+01
         0.11590E+02
        -0.29295E+01
        -0.28973E+01
        -0.94241E+01
         0.17004E+01
        -0.11191E+02
         0.92104E+01
        -0.19289E+02
        -0.19502E+01
         0.89016E+00
        -0.77386E+01
        -0.29736E+01
         0.23467E+02
        -0.23247E+02
         0.26613E+02
        -0.51333E+01
         0.44335E+01
         0.26098E+02
        -0.12545E+01
         0.20946E+02
        -0.17785E+02
         0.16470E+01
         0.16920E+02
         0.64436E+01
         0.81103E+01
        -0.40461E+00
         0.83978E+01
         0.54627E+01
         0.14727E+02
         0.48396E+01
         0.13102E+02
        -0.41758E+01
         0.35247E+01
         0.23368E+01
         0.15446E+02
        -0.12463E+01
         0.11435E+02
         0.19131E+01
         0.17400E+02
        -0.62003E+01
         0.20883E+02
         0.34709E+01
         0.12136E+02
        -0.18367E+01
         0.11162E+02
         0.27426E+02
         0.51259E+00
         0.42551E+02
        -0.46681E+02
         0.15366E+02
         0.23338E+02
        -0.13789E+01
         0.14473E+02
         0.18543E+02
        -0.21715E+02
         0.10495E+02
         0.11635E+02
         0.19512E+02
         0.14284E+02
         0.14828E+02
        -0.20949E+02
         0.18870E+02
         0.34319E+02
        -0.77604E+01
         0.10760E+02
         0.90269E+01
         0.92664E+01
         0.16764E+02
         0.33440E+02
        -0.32667E+02
         0.18836E+02
         0.10010E+02
         0.18472E+02
         0.25895E+02
        -0.69663E+00
        -0.10349E+02
         0.18723E+02
         0.13412E+02
         0.23640E+02
        -0.51186E+01
        -0.73188E+01
        -0.68692E+01
         0.11600E+02
        -0.22082E+01
         0.15414E+02
         0.13453E+02
         0.24168E+02
         0.64052E+01
        -0.72851E+01
        -0.12218E+02
         0.19199E+02
        -0.25105E+02
         0.29439E+02
        -0.16624E+01
         0.34172E+01
         0.84619E+01
        -0.62582E+01
         0.14582E+02
        -0.85364E+01
        -0.56800E+01
         0.11031E+02
        -0.43300E+01
         0.52660E+01
        -0.29354E+01
         0.10190E+01
         0.56011E+01
        -0.78949E+01
        -0.10158E+01
        -0.53620E+01
         0.16728E+02
         0.10662E+02
         0.42281E+01
         0.13284E+02
        -0.61151E+01
         0.20750E+02
        -0.79882E+01
         0.20069E+02
        -0.39618E+01
         0.91322E+01
        -0.66135E+00
         0.63250E+01
        -0.88435E+01
         0.11989E+02
         0.20164E+02
        -0.78576E+01
         0.37297E+02
        -0.52122E+02
         0.94022E+01
         0.14053E+02
        -0.10761E+02
         0.17336E+02
         0.16529E+02
        -0.90696E+01
        -0.36537E+01
        -0.30823E+01
         0.11952E+02
         0.12471E+02
        -0.11165E+00
        -0.22540E+02
         0.28094E+02
         0.29579E+02
        -0.11311E+02
         0.17883E+02
         0.39373E+01
         0.11800E+02
         0.79284E+01
         0.11167E+02
        -0.11658E+02
         0.19160E+02
         0.91218E+01
         0.16349E+02
         0.11210E+02
         0.20792E+01
        -0.94198E+01
         0.24851E+02
         0.14710E+02
         0.28617E+02
         0.83731E+01
        -0.67595E+00
        -0.57609E+01
         0.52131E+01
        -0.66924E+00
         0.87091E+01
        -0.53653E+01
         0.10151E+02
         0.13031E+01
        -0.64483E+01
        -0.20758E+01
         0.34057E+02
        -0.22927E+02
         0.23934E+02
        -0.41827E+01
         0.12524E+02
         0.26472E+02
        -0.56181E+01
         0.16426E+02
         0.39967E+00
         0.61468E+01
         0.26148E+02
         0.38819E+01
         0.11185E+02
         0.11129E+02
         0.31694E+01
         0.99556E+01
         0.10645E+02
         0.15812E+02
         0.13948E+02
         0.20006E+01
         0.18293E+01
         0.71996E+01
         0.17046E+02
         0.41663E+01
         0.23072E+02
        -0.61604E+01
         0.18134E+02
         0.44228E+01
         0.17526E+02
         0.45239E+01
         0.99711E+01
         0.22147E+01
         0.20466E+02
         0.21895E+02
        -0.26248E+00
         0.45586E+02
        -0.45161E+02
         0.17386E+02
         0.28294E+02
         0.91926E+00
         0.15501E+02
         0.10419E+02
        -0.80918E+01
         0.14849E+02
         0.16557E+02
         0.26140E+02
         0.46963E+01
         0.10745E+02
        -0.23783E+02
         0.18363E+02
         0.29131E+02
        -0.11766E+02
         0.86949E+01
         0.11505E+02
         0.18859E+02
         0.20718E+02
         0.33495E+02
        -0.73833E+01
         0.26768E+02
         0.87886E+01
         0.28248E+02
         0.19038E+02
         0.46218E+01
        -0.47934E+01
         0.30835E+02
         0.16742E+02
         0.31901E+02
         0.14289E+01
        -0.59912E+01
        -0.46961E+01
         0.11524E+02
         0.17842E+01
         0.34387E+01
        -0.12315E+02
         0.23212E+02
         0.15172E+02
         0.18383E+01
        -0.39168E+01
         0.24162E+02
        -0.22185E+02
         0.29143E+02
        -0.52857E+01
         0.37923E+01
         0.11294E+02
        -0.82483E-01
         0.24031E+02
        -0.12820E+02
        -0.22692E+01
         0.94395E+01
        -0.37822E+01
         0.11013E+01
         0.81298E+01
         0.14928E+02
         0.74363E+01
         0.90550E+01
         0.45151E+01
         0.52299E+01
         0.17319E+01
         0.15746E+02
         0.25542E+01
         0.73368E+01
        -0.80655E+01
         0.12057E+02
         0.48698E+01
         0.44691E+01
        -0.55261E+01
         0.11970E+02
        -0.37434E+01
         0.52762E+01
         0.55793E+00
         0.37903E+01
         0.29491E+02
         0.11348E+01
         0.48942E+02
        -0.43506E+02
         0.17509E+02
         0.20289E+02
        -0.20242E+01
         0.26665E+02
         0.18976E+02
         0.41521E+01
        -0.26668E+00
         0.78238E+01
         0.14122E+02
         0.53589E+01
         0.91044E+01
        -0.17438E+02
         0.32966E+02
         0.34346E+02
         0.40278E+01
         0.27724E+02
         0.49222E+01
         0.13021E+02
         0.84354E+01
         0.26593E+02
        -0.35851E+01
         0.23843E+02
         0.10286E+02
         0.17899E+02
         0.10983E+02
         0.19032E+01
        -0.29563E+01
         0.30040E+02
         0.20406E+02
         0.31989E+02
         0.57175E+01
        -0.34354E+00
        -0.68716E+01
         0.11169E+02
         0.75557E+01
         0.16078E+02
         0.60854E+01
         0.13707E+02
         0.73827E+00
        -0.55975E+01
        -0.63420E+01
         0.26458E+02
        -0.18347E+02
         0.33599E+02
        -0.64553E+00
         0.14330E+02
         0.25702E+02
        -0.67499E+01
         0.16505E+01
         0.14623E+02
         0.82096E+01
         0.25262E+02
         0.66332E+01
         0.22685E+02
         0.13092E+02
         0.40920E+01
         0.19661E+02
         0.14436E+02
         0.22715E+02
         0.11055E+02
         0.10636E+02
         0.51801E+01
         0.55381E+01
         0.21150E+02
         0.11806E+02
         0.18669E+02
         0.13131E+01
         0.17700E+02
         0.14043E+02
         0.19861E+02
         0.86412E+01
         0.21216E+02
         0.10783E+02
         0.25439E+02
         0.21504E+02
        -0.34689E+01
         0.47836E+02
        -0.43149E+02
         0.15759E+02
         0.18236E+02
        -0.10670E+01
         0.19660E+02
         0.83370E+01
         0.21019E+00
         0.11886E+02
         0.17131E+02
         0.23173E+02
         0.92673E+01
         0.98598E+01
        -0.19660E+02
         0.19342E+02
         0.38527E+02
        -0.97353E+01
         0.16241E+02
         0.13294E+02
         0.21363E+02
         0.16131E+02
         0.17735E+02
        -0.20915E+01
         0.18781E+02
         0.88553E+01
         0.21696E+02
         0.20800E+02
         0.72895E+01
        -0.25388E+01
         0.30031E+02
         0.24069E+02
         0.30407E+02
         0.15626E+02
         0.17402E+01
        -0.38650E+01
         0.43163E+01
         0.43975E+01
         0.18623E+02
        -0.68743E+01
         0.12472E+02
         0.38658E+01
         0.57775E+01
         0.43183E+01
         0.34689E+02
        -0.20577E+02
         0.30663E+02
        -0.34273E+01
         0.10288E+02
         0.16213E+02
        -0.11658E+02
         0.11764E+02
        -0.56433E+01
         0.93668E+01
         0.19988E+02
         0.18220E+01
         0.76538E+01
         0.17748E+02
         0.88123E+01
         0.10115E+02
        -0.18316E+01
         0.46028E+01
         0.88115E+01
         0.58162E+01
         0.16520E+02
         0.26276E+01
         0.94874E+01
         0.79777E+01
         0.15198E+02
         0.56676E+01
         0.42851E+01
        -0.92349E+00
         0.11948E+02
         0.36161E+01
         0.67914E+01
         0.99910E+01
         0.89655E+01
         0.30782E+02
         0.86135E+01
         0.55265E+02
        -0.35217E+02
         0.15747E+02
         0.28229E+02
         0.16403E+02
         0.31690E+02
         0.13027E+02
         0.63047E+01
         0.14852E+02
         0.20745E+02
         0.31952E+02
         0.11608E+02
         0.14341E+02
        -0.84544E+01
         0.25207E+02
         0.46927E+02
         0.10858E+02
         0.23513E+02
         0.86227E+01
         0.15082E+02
         0.13526E+02
         0.44015E+02
         0.15785E+01
         0.32766E+02
         0.14040E+02
         0.20691E+02
         0.12436E+02
         0.52260E+01
         0.75005E+00
         0.37280E+02
         0.27093E+02
         0.37917E+02
        -0.25661E+01
        -0.26198E+00
         0.22481E+01
         0.22376E+02
         0.11838E+02
         0.19305E+02
         0.38424E+01
         0.26845E+02
         0.11067E+02
         0.21221E+01
         0.19388E+01
         0.35441E+02
        -0.14997E+02
         0.37632E+02
        -0.12281E+01
         0.16357E+02
         0.29197E+02
         0.24367E+01
         0.16913E+02
         0.14842E+02
         0.16340E+02
         0.19114E+02
         0.86541E+01
         0.17186E+02
         0.13273E+02
         0.10025E+02
         0.14731E+02
         0.10965E+02
         0.20999E+02
         0.13000E+02
         0.19564E+02
         0.17123E+02
         0.10382E+02
         0.21226E+02
         0.10356E+02
         0.19218E+02
         0.50709E+01
         0.22575E+02
         0.22626E+02
         0.19449E+02
         0.12808E+02
         0.58346E+01
         0.93607E+01
         0.21979E+02
         0.18160E+02
        -0.46495E+01
         0.45640E+02
        -0.42855E+02
         0.10301E+02
         0.18479E+02
         0.15748E+01
         0.21892E+02
         0.21734E+01
         0.46405E+00
         0.12576E+01
         0.16888E+02
         0.27321E+02
         0.49317E+01
         0.11879E+02
        -0.14351E+02
         0.13456E+02
         0.42612E+02
         0.19979E+01
         0.15916E+02
         0.10359E+02
         0.17603E+02
         0.15109E+02
         0.28448E+02
        -0.20353E+01
         0.21864E+02
         0.64666E+01
         0.17011E+02
         0.85280E+01
         0.98157E+00
        -0.78093E+01
         0.27935E+02
         0.20201E+02
         0.27227E+02
         0.76013E+01
        -0.13286E-01
        -0.22346E+01
         0.17298E+02
         0.28869E+01
         0.10669E+02
        -0.59516E+01
         0.21121E+02
         0.78081E+01
         0.30309E+01
        -0.29279E+00
         0.32936E+02
        -0.22810E+02
         0.32689E+02
        -0.37675E+01
         0.14206E+02
         0.24358E+02
        -0.95811E+01
         0.15735E+02
        -0.27243E+01
         0.25091E+02
         0.22112E+02
         0.12318E+02
         0.11553E+02
         0.12047E+02
         0.71412E+01
         0.98120E+01
         0.71648E+01
         0.20763E+02
         0.10892E+02
         0.98189E+01
         0.65106E+01
         0.11870E+02
         0.60030E+01
         0.10397E+02
         0.23487E+02
         0.72195E+01
         0.84023E+01
         0.61972E+01
         0.73799E+01
         0.91437E+01
        -0.14470E+01
         0.13330E+02
         0.12960E+02
         0.30186E+02
         0.33916E+01
         0.58630E+02
        -0.31696E+02
         0.21221E+02
         0.26461E+02
         0.11076E+02
         0.35355E+02
         0.89418E+01
         0.67350E+01
         0.14413E+02
         0.18787E+02
         0.30553E+02
         0.19891E+02
         0.17202E+02
        -0.57424E+01
         0.19701E+02
         0.53911E+02
         0.91879E+01
         0.21320E+02
         0.84182E+01
         0.23304E+02
         0.14579E+02
         0.31929E+02
         0.77403E+01
         0.29381E+02
         0.75093E+01
         0.24957E+02
         0.31292E+02
         0.78423E+01
        -0.17611E+01
         0.37385E+02
         0.25976E+02
         0.32732E+02
         0.21660E+02
         0.17064E+01
        -0.26082E+01
         0.17919E+02
         0.90457E+01
         0.34609E+02
         0.17648E+02
         0.29872E+02
         0.75932E+01
         0.78361E+01
         0.45440E+01
         0.44491E+02
        -0.10351E+02
         0.45963E+02
         0.17787E+01
         0.14700E+02
         0.23676E+02
        -0.79438E+01
         0.14536E+02
         0.91035E+01
         0.66450E+01
         0.12526E+02
         0.15821E+02
         0.21008E+01
         0.11738E+02
         0.10387E+02
         0.11854E+02
         0.21563E+02
         0.11094E+02
         0.18411E+02
         0.15142E+02
         0.10642E+02
         0.16272E+02
         0.19425E+02
         0.18154E+02
         0.14486E+02
         0.12719E+02
         0.18701E+02
         0.18650E+02
         0.17746E+02
         0.16809E+02
         0.10301E+02
         0.18829E+02
         0.12172E+02
         0.23128E+02
        -0.72632E+00
         0.52669E+02
        -0.36206E+02
         0.10199E+02
         0.19587E+02
         0.69401E+01
         0.28288E+02
         0.40280E+01
         0.45715E+01
         0.82609E+01
         0.17475E+02
         0.28534E+02
         0.96307E+01
         0.16952E+02
        -0.88417E+01
         0.20880E+02
         0.48196E+02
         0.48281E+01
         0.17724E+02
         0.76017E+01
         0.21688E+02
         0.14256E+02
         0.30296E+02
         0.16853E+02
         0.28239E+02
        -0.31087E+00
         0.22158E+02
         0.13953E+02
         0.10488E+02
        -0.11078E+02
         0.34426E+02
         0.16489E+02
         0.29343E+02
         0.10461E+02
         0.13408E+01
        -0.29707E+00
         0.17589E+02
         0.42806E+01
         0.12760E+02
        -0.11995E+02
         0.19329E+02
         0.66078E+01
         0.47463E+01
        -0.15768E+01
         0.38165E+02
        -0.12023E+02
         0.37928E+02
        -0.75407E+01
         0.14720E+02
         0.36684E+02
        -0.77815E+01
         0.14476E+02
         0.11808E+02
         0.17105E+02
         0.19912E+02
         0.11100E+02
         0.11313E+02
         0.21787E+02
         0.13492E+02
         0.15307E+02
         0.12321E+02
         0.22652E+02
         0.14398E+02
         0.11830E+02
         0.18471E+02
         0.10163E+02
         0.12138E+02
         0.18308E+02
         0.17036E+02
         0.11736E+02
         0.20478E+02
         0.15679E+02
         0.14991E+02
         0.11929E+02
         0.18871E+02
         0.16958E+02
         0.13213E+02
         0.32237E+02
         0.71424E+01
         0.61191E+02
        -0.32346E+02
         0.19170E+02
         0.27601E+02
         0.62581E+01
         0.28009E+02
         0.10024E+02
         0.50859E+01
         0.16695E+02
         0.14284E+02
         0.22240E+02
         0.16713E+02
         0.19197E+02
        -0.14476E+02
         0.26678E+02
         0.43095E+02
         0.40542E+01
         0.21165E+02
         0.88926E+01
         0.19393E+02
         0.14460E+02
         0.31804E+02
         0.14337E+02
         0.28753E+02
         0.10115E+02
         0.25903E+02
         0.23173E+02
         0.12297E+02
         0.51036E+01
         0.37424E+02
         0.31782E+02
         0.41499E+02
         0.13457E+02
         0.59602E+01
        -0.16952E+01
         0.20769E+02
         0.15370E+02
         0.23528E+02
         0.70198E+01
         0.29532E+02
         0.15709E+02
         0.15467E+01
         0.22199E+01
         0.38781E+02
        -0.10057E+02
         0.40694E+02
         0.14394E+01
         0.16834E+02
         0.34549E+02
         0.26373E+01
         0.63977E+01
         0.14063E+02
         0.13041E+02
         0.18177E+02
         0.21247E+02
         0.19804E+02
         0.13718E+02
         0.15488E+02
         0.18852E+02
         0.14044E+02
         0.19036E+02
         0.11821E+02
         0.14741E+02
         0.14961E+02
         0.97232E+01
         0.12268E+02
         0.11014E+02
         0.15554E+02
         0.10387E+02
         0.20413E+02
         0.17146E+02
         0.13538E+02
         0.16370E+02
         0.13132E+02
         0.11268E+02
         0.16608E+02
         0.29823E+02
         0.11073E+02
         0.61080E+02
        -0.25082E+02
         0.46463E+01
         0.22057E+02
         0.23936E+02
         0.34984E+02
        -0.58205E+01
         0.87608E+01
         0.11743E+02
         0.19866E+02
         0.29364E+02
         0.33554E+01
         0.19746E+02
        -0.43256E+01
         0.52912E+01
         0.57512E+02
         0.26116E+01
         0.18455E+02
         0.12515E+02
         0.15401E+02
         0.14419E+02
         0.31414E+02
         0.26464E+02
         0.26971E+02
         0.19943E+00
         0.22549E+02
         0.72195E+01
         0.21280E+02
         0.13189E+00
         0.30528E+02
         0.34650E+02
         0.36613E+02
         0.44118E+01
         0.56223E+01
         0.11398E+01
         0.19176E+02
         0.80535E+01
         0.10594E+02
        -0.90246E+01
         0.19646E+02
         0.11591E+02
         0.23886E+01
        -0.30711E+01
         0.32594E+02
        -0.24515E+02
         0.37336E+02
        -0.29591E+01
         0.13877E+02
         0.38452E+02
        -0.86753E+01
         0.19937E+02
         0.16180E+02
         0.20827E+02
         0.12767E+02
         0.16886E+02
         0.10804E+02
         0.11021E+02
        -0.19189E+01
         0.15846E+01
        -0.99004E+01
         0.13716E+01
        -0.13284E+02
         0.26166E+01
         0.12872E+02
         0.74971E+01
         0.84687E+01
         0.72653E+01
         0.13413E+02
         0.12620E+02
         0.15140E+02
         0.23811E+02
         0.22220E+02
         0.23689E+02
         0.11594E+02
         0.27829E+02
         0.18014E+02
  
SCALARS                 acceleration_x  double 1
LOOKUP_TABLE default
        -0.10274E+09
        -0.56784E+08
        -0.47043E+08
        -0.58441E+08
         0.35897E+09
         0.14014E+09
         0.10111E+09
         0.18777E+09
        -0.22348E+08
        -0.25168E+08
         0.30843E+08
         0.45670E+08
        -0.46160E+08
        -0.85250E+08
         0.96124E+08
         0.22850E+09
        -0.11325E+09
        -0.10021E+09
         0.50548E+09
         0.38410E+09
        -0.35794E+08
        -0.11642E+08
        -0.13772E+08
         0.60382E+08
         0.33869E+08
         0.48275E+08
        -0.43523E+08
        -0.16636E+08
         0.93613E+08
         0.17701E+08
        -0.63867E+08
        -0.96427E+08
        -0.85366E+08
         0.27163E+09
         0.46058E+09
         0.38367E+09
        -0.45273E+08
        -0.49221E+08
         0.15668E+09
         0.19332E+09
        -0.11221E+08
        -0.15066E+08
         0.44780E+08
         0.42372E+08
        -0.12783E+08
        -0.44053E+08
         0.53040E+08
         0.12584E+09
        -0.82599E+08
         0.35831E+09
        -0.41785E+08
         0.12375E+09
        -0.50575E+08
         0.14258E+09
        -0.44554E+08
         0.14037E+09
        -0.25367E+08
        -0.40875E+08
         0.81904E+08
         0.14932E+09
        -0.49343E+08
        -0.27307E+08
         0.16641E+09
         0.81430E+08
        -0.60479E+08
         0.20978E+09
        -0.52518E+08
         0.11805E+09
        -0.13355E+08
        -0.18625E+08
         0.18081E+08
         0.20782E+08
        -0.16672E+08
         0.38672E+08
        -0.24474E+08
         0.27209E+08
        -0.24104E+08
         0.35560E+08
        -0.19846E+08
         0.45408E+08
        -0.11029E+08
        -0.93244E+07
         0.34513E+08
         0.41362E+08
        -0.15761E+08
         0.40627E+08
        -0.12466E+08
         0.25263E+08
        -0.73479E+07
         0.15643E+08
        -0.27157E+07
        -0.33467E+07
         0.11890E+08
         0.79070E+07
        -0.14048E+08
         0.36383E+08
        -0.22896E+08
         0.48386E+08
        -0.25059E+08
         0.28196E+08
        -0.14797E+08
        -0.20799E+08
         0.15504E+07
         0.25447E+08
        -0.15774E+08
        -0.11374E+08
        -0.32015E+08
         0.28628E+07
        -0.14717E+08
        -0.35394E+08
        -0.65246E+07
        -0.72748E+07
        -0.42184E+07
         0.23672E+08
        -0.41660E+07
        -0.56505E+05
        -0.95657E+07
        -0.62232E+07
        -0.55330E+07
         0.95540E+07
        -0.13267E+08
         0.24774E+08
        -0.95009E+07
        -0.15614E+08
        -0.13916E+08
         0.29899E+08
        -0.14353E+08
         0.77012E+06
        -0.18244E+08
        -0.28119E+07
        -0.10744E+07
         0.75615E+06
         0.43303E+06
         0.15207E+08
        -0.21230E+07
         0.18097E+08
        -0.97346E+07
        -0.13469E+08
        -0.13503E+08
        -0.25978E+08
        -0.20357E+08
         0.94661E+07
        -0.13651E+08
         0.16553E+08
        -0.15147E+08
        -0.17306E+07
        -0.14688E+08
         0.27390E+08
        -0.14954E+08
         0.13291E+08
        -0.12954E+08
        -0.36834E+07
        -0.13524E+08
         0.22485E+08
        -0.64562E+07
         0.22982E+08
        -0.37562E+08
        -0.21756E+08
        -0.17035E+08
        -0.18185E+08
        -0.10278E+08
        -0.71828E+07
        -0.19026E+08
        -0.35745E+08
        -0.43999E+08
        -0.40067E+08
        -0.87847E+07
        -0.25091E+06
        -0.33380E+07
        -0.19194E+08
        -0.65888E+07
        -0.27065E+08
        -0.43512E+08
        -0.27638E+08
        -0.35030E+08
        -0.25937E+08
        -0.95657E+07
        -0.14712E+08
        -0.76108E+07
        -0.37624E+08
        -0.27695E+08
        -0.28333E+08
        -0.23333E+08
        -0.17018E+08
        -0.98242E+07
        -0.61673E+07
        -0.13874E+08
        -0.13176E+08
        -0.15768E+08
        -0.17487E+08
        -0.69104E+07
        -0.80716E+07
        -0.68007E+07
        -0.10020E+08
        -0.96510E+07
        -0.94792E+07
        -0.75121E+07
        -0.34101E+07
        -0.98244E+07
        -0.10015E+08
        -0.84089E+07
        -0.93983E+07
        -0.21656E+07
        -0.39225E+07
        -0.11741E+08
        -0.14041E+08
        -0.17018E+07
        -0.24789E+07
        -0.12326E+08
        -0.11708E+08
        -0.18655E+08
        -0.13060E+08
        -0.97026E+07
        -0.57710E+07
        -0.14620E+08
        -0.40218E+07
        -0.94726E+07
        -0.20611E+07
        -0.55277E+07
        -0.83681E+07
        -0.19280E+08
        -0.26995E+07
        -0.83682E+06
        -0.10351E+08
        -0.15189E+08
        -0.21658E+05
        -0.11106E+07
        -0.93156E+07
        -0.14992E+08
        -0.10268E+08
        -0.92622E+07
        -0.15484E+08
        -0.19788E+08
        -0.89519E+07
        -0.11671E+08
        -0.93115E+07
        -0.79913E+07
        -0.53151E+07
        -0.92747E+07
        -0.45821E+07
        -0.49234E+07
        -0.55395E+07
        -0.13101E+08
        -0.86975E+07
         0.37272E+07
        -0.84632E+05
        -0.13766E+07
        -0.26655E+07
        -0.30996E+07
        -0.62716E+07
        -0.14539E+08
        -0.54191E+07
        -0.14190E+08
        -0.10212E+08
         0.10557E+07
        -0.54954E+07
         0.68325E+07
        -0.88513E+07
        -0.85244E+07
        -0.79164E+07
        -0.95001E+07
        -0.11264E+08
        -0.14413E+07
         0.20021E+07
        -0.10097E+07
        -0.32718E+07
        -0.17378E+07
        -0.44102E+07
        -0.26554E+07
        -0.14137E+07
        -0.17126E+07
        -0.15500E+07
        -0.83481E+06
        -0.33959E+06
         0.68911E+06
        -0.12594E+07
        -0.22892E+07
         0.70171E+06
        -0.54612E+07
        -0.12000E+08
        -0.30761E+07
        -0.37744E+07
        -0.11337E+08
        -0.11014E+08
         0.23309E+07
         0.22032E+07
        -0.75825E+07
        -0.12184E+08
        -0.82045E+07
        -0.46627E+07
        -0.22580E+07
         0.28212E+07
        -0.13922E+07
         0.62971E+07
         0.11399E+08
         0.14414E+08
         0.42687E+07
        -0.31490E+07
        -0.75761E+06
        -0.57819E+07
        -0.50841E+07
        -0.91552E+07
        -0.15398E+08
        -0.23657E+07
         0.50460E+07
         0.36850E+07
        -0.85776E+07
        -0.53292E+07
         0.52668E+07
         0.51866E+07
        -0.92284E+07
        -0.62911E+07
        -0.64797E+07
        -0.58232E+07
        -0.23487E+07
        -0.55249E+07
         0.44161E+07
        -0.18886E+06
        -0.32568E+07
        -0.10500E+07
        -0.20964E+07
         0.13612E+07
        -0.35633E+07
        -0.47300E+07
         0.23306E+06
        -0.24181E+07
        -0.77870E+07
         0.21211E+07
         0.31393E+07
        -0.22505E+07
        -0.63229E+06
        -0.16002E+06
         0.64163E+07
         0.81956E+07
         0.33909E+07
        -0.28481E+07
        -0.19133E+06
         0.12447E+06
        -0.21822E+07
        -0.25486E+07
         0.27752E+07
        -0.85167E+06
        -0.59525E+05
         0.29322E+05
        -0.29514E+07
        -0.63111E+07
         0.17509E+08
         0.81651E+07
         0.34102E+07
        -0.37953E+07
         0.18673E+07
         0.59235E+07
         0.12145E+08
         0.53871E+07
         0.63865E+07
        -0.11452E+07
        -0.43356E+07
        -0.10415E+08
        -0.18606E+07
        -0.18208E+06
        -0.49209E+07
        -0.64466E+07
         0.72993E+06
         0.63927E+06
         0.14657E+08
         0.15520E+08
         0.72155E+07
         0.55130E+07
         0.44598E+07
        -0.11187E+07
        -0.72033E+06
         0.22960E+07
         0.75769E+07
         0.10237E+08
         0.12207E+08
         0.26078E+07
         0.21598E+08
         0.84748E+07
        -0.42134E+06
        -0.30565E+07
        -0.23328E+07
         0.26835E+07
        -0.76981E+07
         0.20386E+06
        -0.62973E+07
        -0.52438E+07
         0.32771E+06
         0.30094E+07
         0.43763E+07
         0.12298E+08
         0.15821E+06
         0.59320E+06
         0.16287E+07
        -0.16720E+07
         0.75572E+07
         0.10519E+07
        -0.13495E+07
        -0.17722E+07
        -0.23572E+07
        -0.42767E+07
        -0.39777E+07
         0.18895E+06
        -0.48812E+06
        -0.37504E+07
        -0.53819E+07
        -0.12312E+07
        -0.45129E+07
        -0.31795E+07
        -0.29449E+06
        -0.66534E+05
         0.70951E+07
         0.12892E+08
        -0.23428E+07
        -0.53289E+07
        -0.62332E+07
        -0.79967E+05
         0.38973E+07
         0.93764E+07
         0.17446E+07
        -0.50819E+07
        -0.11509E+07
         0.44128E+07
        -0.63027E+07
        -0.97287E+07
         0.83052E+07
        -0.50742E+04
        -0.29017E+07
        -0.42266E+07
         0.50565E+07
         0.78261E+07
         0.17591E+08
         0.96943E+07
         0.73156E+07
        -0.31282E+07
         0.83845E+06
         0.19191E+07
         0.79720E+07
         0.78128E+07
         0.18246E+07
        -0.39866E+07
        -0.21925E+07
        -0.39030E+07
         0.17240E+08
         0.16688E+08
         0.53788E+07
        -0.20421E+07
         0.27261E+07
         0.15870E+07
         0.33002E+07
         0.62375E+07
         0.77185E+07
         0.88855E+07
         0.25847E+08
         0.98131E+07
         0.13015E+08
         0.31139E+07
        -0.62070E+06
        -0.48540E+07
         0.11560E+07
         0.77829E+07
        -0.37309E+07
         0.50175E+07
         0.12462E+07
         0.32887E+07
        -0.14609E+07
        -0.22315E+07
         0.48822E+07
         0.99392E+07
         0.40468E+06
        -0.33797E+07
        -0.37542E+07
        -0.50868E+06
        -0.39759E+07
        -0.45042E+07
        -0.63775E+07
        -0.16732E+07
        -0.10300E+07
         0.98245E+06
        -0.39240E+06
         0.64958E+07
        -0.16551E+07
         0.48818E+06
         0.11870E+07
        -0.14600E+07
        -0.36909E+07
        -0.19876E+07
         0.25176E+07
         0.37020E+07
         0.47651E+07
         0.59401E+07
        -0.96216E+06
         0.26921E+07
        -0.27914E+05
         0.70285E+06
         0.93865E+07
         0.11607E+08
        -0.24085E+07
         0.11113E+07
        -0.20618E+07
         0.24698E+07
        -0.50025E+07
        -0.67144E+07
        -0.95072E+07
        -0.95703E+07
        -0.87665E+07
        -0.43665E+07
        -0.98989E+06
        -0.51286E+07
        -0.13280E+07
         0.30631E+07
         0.15569E+07
        -0.19129E+07
        -0.16784E+07
        -0.21675E+07
         0.57755E+07
         0.52031E+07
         0.41052E+05
        -0.36982E+07
        -0.24194E+07
        -0.60532E+07
        -0.17530E+08
        -0.96864E+07
        -0.10747E+08
        -0.50322E+07
         0.37361E+07
        -0.14968E+07
        -0.54534E+07
         0.20141E+07
         0.80363E+07
        -0.42556E+07
         0.12503E+08
         0.80891E+07
         0.55149E+07
         0.11931E+06
        -0.56770E+06
        -0.28397E+07
         0.68446E+07
         0.64988E+07
        -0.23723E+07
         0.12252E+08
         0.36741E+07
        -0.17133E+07
        -0.13229E+08
        -0.99681E+07
        -0.37684E+07
        -0.58832E+07
         0.11521E+07
        -0.45506E+07
        -0.75814E+06
         0.65754E+06
        -0.24143E+06
        -0.34850E+07
        -0.92772E+07
         0.44460E+06
         0.24064E+07
         0.32152E+07
        -0.24903E+07
        -0.20736E+06
        -0.47403E+07
         0.31566E+07
         0.77817E+06
         0.27493E+07
        -0.12165E+07
         0.36293E+07
        -0.17096E+07
        -0.68204E+06
         0.57815E+06
        -0.11343E+07
         0.39049E+06
         0.42535E+07
        -0.31859E+07
         0.48719E+07
         0.45778E+07
        -0.19803E+07
        -0.67644E+07
         0.29916E+07
         0.20459E+07
         0.77648E+07
        -0.12228E+07
        -0.39288E+07
         0.84352E+07
         0.22799E+07
        -0.34370E+07
        -0.40016E+07
        -0.55604E+07
        -0.96530E+07
        -0.79026E+07
        -0.28764E+07
        -0.21713E+07
         0.14527E+07
         0.23424E+07
         0.50894E+07
         0.75837E+07
         0.10264E+07
        -0.63536E+07
        -0.75613E+07
        -0.50482E+07
        -0.49225E+07
        -0.18004E+08
        -0.86353E+06
        -0.60864E+07
         0.11543E+07
         0.81173E+06
        -0.84329E+07
        -0.82677E+07
        -0.69482E+07
         0.53318E+07
         0.42391E+07
         0.11044E+08
         0.11704E+06
        -0.16585E+07
        -0.47824E+07
        -0.68561E+07
        -0.10311E+08
         0.29462E+07
         0.70551E+07
         0.85408E+06
         0.86792E+07
         0.37324E+07
         0.18948E+07
        -0.56000E+07
        -0.21825E+07
         0.27350E+07
         0.34985E+07
         0.32394E+07
        -0.17052E+07
         0.18497E+07
         0.73510E+06
         0.25195E+07
        -0.11371E+07
        -0.22168E+07
         0.84025E+07
         0.23209E+07
         0.44620E+07
        -0.16616E+07
        -0.78363E+07
        -0.79236E+07
         0.62482E+07
        -0.35830E+07
        -0.52423E+06
        -0.41166E+07
         0.13745E+07
        -0.62006E+07
        -0.54135E+07
         0.27993E+07
         0.49428E+07
         0.18256E+06
        -0.89594E+06
        -0.82902E+07
         0.24604E+07
         0.55107E+07
        -0.42438E+07
        -0.73778E+07
        -0.24083E+06
        -0.63625E+06
         0.65623E+07
        -0.25892E+07
        -0.19222E+07
         0.16984E+08
         0.72091E+07
        -0.17020E+07
         0.26388E+07
         0.34743E+07
        -0.32289E+07
        -0.90503E+07
        -0.91670E+07
        -0.10924E+07
         0.13964E+07
         0.38919E+07
         0.87720E+07
         0.69243E+07
        -0.11639E+07
        -0.62792E+07
        -0.44723E+07
        -0.27815E+07
        -0.16087E+07
         0.39612E+07
        -0.28439E+06
         0.11503E+08
         0.85986E+06
        -0.10317E+08
        -0.98860E+07
        -0.20962E+07
        -0.28162E+07
        -0.41532E+07
        -0.63661E+07
         0.29709E+07
        -0.73361E+07
         0.41276E+07
         0.18507E+07
         0.24397E+07
        -0.49067E+06
         0.46457E+07
         0.34281E+07
        -0.58711E+07
        -0.43517E+07
        -0.50882E+07
        -0.88872E+06
        -0.22628E+07
        -0.39016E+07
        -0.47666E+07
        -0.23744E+07
        -0.22882E+07
        -0.32259E+07
        -0.43230E+07
        -0.49570E+07
        -0.33538E+07
        -0.42749E+07
         0.20753E+07
         0.25593E+07
         0.46708E+06
         0.19791E+06
         0.40794E+07
        -0.14482E+07
        -0.48831E+06
        -0.18381E+07
        -0.67970E+07
         0.57008E+06
         0.28325E+07
        -0.34260E+07
         0.13306E+07
         0.10083E+07
         0.29724E+07
         0.51588E+07
         0.20474E+07
         0.80425E+07
        -0.92503E+06
         0.45241E+07
        -0.30535E+07
        -0.41461E+06
         0.32264E+07
         0.80178E+07
        -0.52285E+07
         0.78815E+06
        -0.63254E+07
        -0.30661E+07
         0.56507E+07
         0.93105E+06
        -0.35520E+06
        -0.49792E+07
         0.20290E+07
         0.10006E+07
        -0.66438E+07
        -0.39950E+07
         0.22278E+07
         0.14341E+07
         0.39461E+06
         0.52122E+07
         0.96393E+06
        -0.36647E+07
        -0.17544E+07
         0.42122E+07
         0.60956E+07
        -0.49785E+06
        -0.93777E+06
        -0.27756E+07
        -0.87495E+05
        -0.23810E+07
        -0.68426E+07
        -0.71642E+07
        -0.18208E+07
        -0.59198E+06
        -0.68961E+07
        -0.17295E+08
        -0.64419E+07
        -0.22188E+07
         0.56071E+07
         0.41042E+07
         0.53220E+07
         0.62231E+07
         0.77216E+07
         0.70153E+07
         0.78112E+07
         0.40023E+07
        -0.92467E+07
        -0.68521E+07
         0.61458E+06
         0.35042E+07
         0.38578E+07
         0.14311E+07
        -0.16502E+07
        -0.24949E+07
        -0.30588E+07
        -0.36167E+07
        -0.27156E+07
        -0.43736E+07
        -0.17696E+07
        -0.10973E+06
         0.97999E+06
         0.11645E+07
        -0.35983E+07
        -0.12638E+07
         0.34832E+05
        -0.39515E+07
        -0.46371E+07
         0.36733E+06
         0.34015E+07
        -0.26995E+07
         0.49821E+07
         0.40133E+06
         0.56973E+07
        -0.10247E+07
         0.90150E+07
         0.17529E+08
         0.73870E+06
         0.48582E+07
         0.71464E+05
         0.14811E+07
         0.19652E+07
         0.63893E+07
        -0.61090E+07
        -0.20223E+07
        -0.57770E+07
        -0.14314E+07
         0.30809E+07
         0.97972E+06
         0.90615E+06
        -0.32614E+07
         0.85693E+06
        -0.14130E+07
        -0.72879E+07
        -0.10826E+07
        -0.51395E+06
         0.36573E+07
        -0.11743E+07
         0.12766E+07
        -0.51006E+05
        -0.14169E+07
         0.86862E+06
         0.32327E+07
        -0.15564E+07
        -0.31427E+07
         0.23072E+07
         0.90892E+07
        -0.34413E+07
         0.34181E+07
         0.91496E+06
        -0.30276E+07
         0.49813E+07
         0.17556E+07
         0.24413E+06
        -0.10127E+08
        -0.13059E+08
        -0.32631E+07
         0.72137E+07
         0.10141E+08
         0.82325E+07
         0.41295E+07
         0.34907E+07
         0.76301E+07
         0.41508E+07
         0.21859E+07
         0.73415E+06
        -0.99448E+06
        -0.16776E+07
        -0.47023E+05
         0.64586E+07
         0.76716E+07
         0.22708E+06
        -0.31265E+07
        -0.34851E+07
        -0.16460E+07
        -0.65223E+07
        -0.46522E+07
        -0.24296E+07
         0.28872E+07
         0.29402E+07
         0.74992E+07
         0.47283E+06
        -0.25660E+06
        -0.25574E+06
         0.46964E+07
        -0.19184E+06
        -0.29152E+06
         0.39438E+07
         0.16081E+06
        -0.66336E+06
        -0.28745E+07
         0.35699E+07
        -0.44350E+07
         0.59794E+07
         0.53575E+07
         0.41075E+07
        -0.73747E+06
         0.89313E+07
         0.43952E+07
        -0.32908E+07
         0.17065E+07
        -0.37496E+07
        -0.33620E+07
        -0.13772E+07
         0.18829E+07
        -0.47201E+07
        -0.60441E+06
         0.45649E+06
         0.27036E+07
         0.36951E+07
        -0.36521E+07
        -0.11329E+08
        -0.67034E+07
        -0.51773E+07
         0.92897E+06
        -0.79696E+06
         0.37519E+07
        -0.68139E+06
        -0.87178E+06
         0.21343E+07
         0.22302E+07
        -0.66862E+07
        -0.33925E+07
        -0.84568E+07
        -0.67146E+07
        -0.68130E+07
         0.33922E+07
         0.47050E+07
        -0.94539E+06
        -0.53013E+07
        -0.62285E+07
         0.14584E+07
        -0.83412E+06
         0.35361E+07
         0.88510E+07
         0.47527E+07
        -0.47556E+06
        -0.25778E+07
        -0.19411E+07
         0.74146E+06
         0.82970E+07
         0.31922E+07
        -0.10436E+07
         0.19291E+07
        -0.31798E+07
        -0.65585E+07
        -0.24754E+07
         0.19738E+07
        -0.36378E+07
        -0.35945E+07
        -0.19100E+07
        -0.20455E+07
        -0.40373E+07
        -0.16913E+07
        -0.11290E+07
         0.21805E+07
        -0.13360E+07
         0.54280E+06
         0.26065E+07
         0.12705E+08
         0.70051E+07
         0.58506E+07
         0.44963E+07
         0.28607E+07
         0.38481E+07
         0.70346E+07
         0.22708E+05
        -0.23115E+07
        -0.37345E+07
        -0.38513E+07
        -0.96323E+07
         0.54894E+05
        -0.10311E+07
         0.44136E+07
         0.22752E+07
         0.11978E+07
        -0.44299E+05
        -0.24239E+07
         0.84918E+04
         0.17445E+07
         0.12695E+07
         0.40995E+05
        -0.11182E+07
         0.80437E+06
         0.31819E+07
         0.43537E+07
        -0.25915E+07
        -0.86129E+06
        -0.17518E+07
        -0.62573E+07
        -0.81121E+07
        -0.86927E+07
        -0.23911E+07
        -0.31481E+07
         0.14723E+06
        -0.54025E+06
         0.44997E+06
         0.17118E+07
         0.16598E+07
        -0.23029E+07
        -0.55998E+06
        -0.58076E+07
        -0.16468E+07
        -0.85057E+07
        -0.52856E+07
        -0.52271E+07
        -0.73440E+07
        -0.90080E+07
        -0.99703E+07
        -0.36488E+06
         0.31576E+07
         0.10610E+08
         0.43716E+07
        -0.24194E+07
        -0.21867E+07
         0.35367E+07
         0.68491E+07
         0.12664E+07
         0.25637E+07
         0.60305E+07
         0.50231E+07
        -0.49240E+07
        -0.10091E+08
         0.20092E+07
         0.12233E+08
         0.76762E+07
         0.21202E+07
         0.22198E+06
        -0.26570E+06
        -0.12348E+06
         0.44899E+06
        -0.27563E+07
         0.55103E+06
        -0.14759E+07
        -0.33452E+07
         0.13560E+07
        -0.26180E+07
         0.22048E+07
         0.16251E+07
         0.37380E+06
        -0.27536E+07
         0.14250E+07
         0.40878E+07
         0.33207E+07
         0.26415E+07
         0.53129E+06
        -0.19339E+07
         0.37448E+07
         0.22988E+07
         0.46668E+07
         0.45592E+07
        -0.66681E+06
         0.35652E+07
        -0.46129E+07
         0.92082E+04
         0.36476E+07
         0.16640E+07
         0.18674E+07
         0.20741E+06
         0.11554E+07
         0.94697E+06
        -0.87801E+07
        -0.25476E+07
        -0.39358E+06
        -0.14717E+07
         0.36408E+07
         0.68154E+07
         0.55162E+07
         0.49601E+05
         0.29342E+07
        -0.66336E+06
        -0.50763E+07
        -0.76201E+07
        -0.31864E+07
         0.55859E+06
         0.11968E+07
        -0.49268E+06
        -0.47088E+07
         0.10922E+06
        -0.16519E+08
        -0.52157E+07
        -0.18131E+08
        -0.96297E+07
        -0.51319E+07
        -0.54539E+07
        -0.54376E+06
        -0.38913E+07
         0.27597E+07
         0.19533E+08
         0.33221E+08
         0.15686E+08
        -0.40876E+06
        -0.18174E+08
        -0.12271E+08
         0.41448E+07
        -0.39577E+07
        -0.67541E+07
        -0.20821E+07
         0.13043E+07
         0.37257E+07
        -0.12235E+07
         0.17598E+07
         0.74323E+07
         0.49036E+07
         0.22801E+07
         0.21544E+07
         0.68069E+06
         0.79699E+06
         0.55759E+06
        -0.89169E+06
        -0.84670E+06
         0.42591E+06
         0.20161E+07
         0.18499E+07
         0.72680E+06
         0.54568E+07
         0.21105E+07
         0.13810E+06
         0.95579E+06
         0.12761E+07
         0.18224E+07
         0.79371E+06
         0.15534E+07
         0.10811E+07
        -0.11577E+07
         0.26265E+07
         0.47331E+07
         0.71994E+06
         0.26881E+07
        -0.22544E+07
         0.21593E+07
        -0.98452E+06
         0.13331E+07
         0.78107E+05
        -0.20104E+07
         0.22493E+06
         0.90241E+05
        -0.59271E+05
         0.39875E+06
        -0.79892E+06
        -0.53353E+06
        -0.68261E+06
        -0.12394E+07
         0.50116E+07
         0.53501E+07
        -0.19181E+07
        -0.24570E+07
         0.34733E+07
        -0.14965E+07
        -0.21690E+07
        -0.25889E+07
        -0.33905E+07
        -0.22795E+07
        -0.89654E+06
        -0.30428E+06
        -0.22619E+07
        -0.95772E+06
        -0.11227E+08
         0.55910E+07
        -0.18496E+08
        -0.85063E+07
        -0.10382E+07
        -0.23816E+07
         0.45735E+07
        -0.29186E+07
         0.27388E+07
         0.13125E+08
         0.91067E+07
         0.30973E+07
         0.11959E+08
         0.14738E+07
        -0.35727E+07
         0.49046E+06
        -0.92254E+07
        -0.71348E+07
         0.60504E+06
        -0.73043E+07
        -0.44206E+07
        -0.20457E+07
         0.26710E+07
         0.40333E+07
         0.26372E+07
         0.78926E+07
        -0.33129E+07
        -0.24892E+07
        -0.18211E+07
        -0.43318E+07
         0.11105E+07
        -0.17995E+07
         0.12745E+07
         0.16086E+07
        -0.15017E+07
         0.68283E+06
         0.75306E+07
         0.36903E+07
         0.78071E+06
         0.26731E+07
         0.10664E+06
         0.37448E+07
         0.34446E+07
        -0.28310E+07
         0.10033E+08
         0.54270E+07
         0.48143E+07
         0.28664E+07
         0.46168E+07
         0.14382E+08
        -0.36530E+06
         0.85692E+07
         0.21303E+06
        -0.37374E+06
         0.32186E+06
        -0.90810E+05
         0.12414E+07
         0.36652E+07
        -0.28126E+07
        -0.50274E+07
         0.62384E+07
         0.82495E+06
        -0.12258E+07
        -0.31509E+07
         0.44600E+06
         0.42800E+07
         0.26790E+07
         0.37840E+07
         0.25810E+07
         0.23964E+07
         0.90052E+06
         0.95690E+06
        -0.93737E+06
        -0.93507E+06
        -0.14159E+07
        -0.34826E+07
        -0.56410E+07
        -0.32282E+07
        -0.26489E+07
         0.71236E+07
        -0.11423E+08
        -0.96692E+07
        -0.18147E+07
         0.16573E+07
         0.60279E+07
         0.32138E+07
         0.39719E+07
         0.35455E+06
        -0.25693E+08
        -0.26599E+08
        -0.14515E+08
        -0.38002E+07
        -0.31019E+07
        -0.60043E+07
        -0.88651E+07
        -0.39618E+07
         0.63538E+07
        -0.66703E+05
        -0.25688E+07
        -0.68821E+07
        -0.75694E+07
         0.25990E+07
         0.12591E+08
         0.11904E+08
        -0.18595E+07
        -0.20746E+07
        -0.45224E+07
        -0.34374E+07
        -0.32294E+07
        -0.23422E+07
         0.28218E+07
         0.20669E+07
        -0.14629E+07
        -0.12696E+07
         0.52263E+07
         0.17955E+07
        -0.32677E+06
         0.36073E+06
        -0.28605E+07
         0.21950E+07
         0.55341E+06
        -0.18897E+07
         0.61421E+07
         0.27387E+07
         0.41856E+07
        -0.12628E+07
         0.65529E+07
         0.11740E+08
        -0.15051E+07
         0.59125E+07
        -0.31060E+06
         0.24822E+07
         0.76704E+07
         0.25629E+07
         0.66671E+06
         0.19554E+07
        -0.21957E+07
        -0.39052E+07
        -0.55108E+07
        -0.51900E+07
        -0.36603E+07
        -0.22187E+07
         0.25013E+07
         0.81896E+07
         0.10613E+08
         0.97688E+07
         0.18384E+07
         0.25859E+07
        -0.36164E+06
         0.55041E+06
        -0.71863E+06
        -0.29424E+06
        -0.46932E+06
        -0.26802E+07
        -0.41749E+07
        -0.21083E+07
        -0.50915E+07
         0.69833E+07
        -0.43543E+07
        -0.38458E+07
         0.82193E+06
         0.50276E+07
         0.21882E+07
         0.73770E+07
         0.60991E+07
        -0.14079E+07
        -0.24634E+08
        -0.18971E+08
        -0.16656E+07
         0.65325E+07
         0.49094E+07
        -0.34270E+07
        -0.10524E+08
        -0.70922E+07
         0.86146E+07
         0.62228E+07
         0.91252E+07
         0.43435E+07
        -0.40122E+07
         0.36755E+07
         0.18317E+08
         0.14718E+08
        -0.26745E+07
        -0.78163E+06
        -0.24166E+07
        -0.44837E+07
         0.56042E+06
        -0.27685E+07
         0.35892E+07
         0.69342E+06
        -0.32123E+06
         0.79845E+06
         0.95609E+07
         0.67049E+07
         0.44242E+07
         0.19064E+07
         0.14494E+07
         0.26773E+07
         0.42290E+07
        -0.15209E+07
         0.40762E+07
         0.41839E+07
         0.17940E+07
        -0.23482E+06
         0.13048E+07
         0.40306E+07
         0.39357E+07
         0.29980E+07
         0.16083E+06
         0.38774E+07
         0.72486E+07
         0.54160E+07
         0.14762E+07
         0.92625E+06
        -0.12781E+07
        -0.43170E+07
         0.58817E+07
         0.31638E+07
         0.26532E+07
        -0.26784E+07
         0.42291E+06
         0.43164E+07
         0.70999E+06
         0.30356E+07
         0.90229E+06
        -0.16420E+07
        -0.24816E+07
        -0.11160E+07
        -0.16703E+07
        -0.39306E+06
         0.31445E+06
        -0.79596E+06
        -0.47130E+06
        -0.24775E+07
         0.75552E+07
         0.21306E+08
         0.57053E+07
         0.43505E+07
         0.44862E+07
         0.88648E+07
         0.76698E+07
         0.10396E+07
        -0.74679E+07
        -0.13652E+08
        -0.29888E+08
        -0.28761E+08
         0.73429E+07
         0.11729E+08
         0.18895E+07
        -0.81324E+07
        -0.15172E+08
        -0.97414E+07
         0.49655E+07
        -0.19080E+07
         0.60265E+06
         0.17839E+07
         0.32564E+07
         0.11183E+08
         0.16359E+08
         0.17566E+08
        -0.40957E+06
        -0.48612E+07
        -0.55312E+07
        -0.22955E+07
        -0.40217E+07
        -0.41178E+07
        -0.35804E+07
         0.75234E+06
         0.24480E+07
         0.17267E+07
         0.26903E+07
         0.68265E+06
        -0.52029E+07
         0.24337E+07
         0.46109E+07
         0.10326E+07
         0.21395E+07
         0.90239E+06
        -0.10440E+06
        -0.12992E+07
         0.67716E+07
         0.69933E+07
         0.44815E+07
        -0.21369E+06
        -0.71136E+06
         0.55853E+06
        -0.38690E+06
        -0.27236E+07
        -0.25790E+07
        -0.17952E+07
        -0.11769E+06
         0.13440E+07
        -0.15122E+07
        -0.32385E+07
        -0.17266E+07
        -0.40671E+07
        -0.60826E+07
         0.29971E+07
         0.26395E+06
        -0.34227E+07
        -0.47684E+07
         0.16823E+07
         0.57420E+07
         0.14832E+07
         0.17209E+07
         0.42982E+07
         0.10566E+07
        -0.13122E+07
        -0.22448E+07
        -0.20181E+07
        -0.43614E+06
        -0.25901E+07
         0.94973E+07
         0.76594E+07
         0.69004E+07
         0.45163E+07
         0.56647E+07
         0.51018E+07
         0.44962E+07
         0.15550E+07
        -0.15971E+08
        -0.27660E+08
        -0.12222E+08
        -0.94911E+07
         0.79957E+07
         0.10280E+08
         0.52084E+07
         0.59870E+07
         0.41367E+07
         0.85357E+05
        -0.20514E+07
        -0.44698E+07
        -0.38395E+07
        -0.27973E+07
         0.35104E+07
         0.93547E+07
         0.10917E+08
         0.75410E+07
        -0.20375E+07
        -0.51470E+07
        -0.63645E+07
        -0.12496E+07
        -0.51453E+07
        -0.17282E+07
        -0.52260E+07
        -0.30522E+07
        -0.15505E+07
        -0.33068E+07
        -0.64858E+07
        -0.23812E+07
        -0.58059E+07
        -0.62138E+07
        -0.11986E+06
        -0.46279E+07
        -0.49769E+07
        -0.25678E+07
        -0.41477E+07
        -0.67997E+07
         0.28315E+07
         0.16612E+06
         0.51064E+07
         0.84835E+06
        -0.48907E+07
        -0.15576E+07
        -0.47210E+07
        -0.21050E+07
        -0.17037E+07
        -0.52921E+07
        -0.53356E+07
        -0.13284E+07
        -0.38210E+07
         0.11462E+07
        -0.71818E+07
        -0.78884E+07
        -0.76148E+07
         0.26399E+07
         0.37504E+07
        -0.95068E+06
        -0.50980E+07
        -0.10571E+07
        -0.18853E+06
         0.49334E+07
         0.47155E+07
         0.78628E+07
         0.28477E+07
        -0.13885E+07
        -0.26873E+06
         0.45067E+07
         0.83385E+07
         0.27194E+07
         0.21929E+08
         0.82205E+07
         0.16523E+08
         0.10712E+08
         0.10641E+08
         0.70172E+07
         0.80680E+07
         0.20863E+07
        -0.89886E+07
        -0.12349E+08
        -0.43471E+07
         0.94156E+07
         0.17981E+08
         0.12997E+08
         0.47963E+07
        -0.20614E+07
        -0.62492E+06
         0.10579E+06
         0.14693E+06
         0.13684E+07
        -0.11477E+07
         0.24687E+07
         0.11574E+08
         0.10375E+08
         0.11507E+08
         0.75743E+07
         0.50271E+05
        -0.77016E+06
        -0.20607E+07
         0.61509E+06
        -0.35646E+07
        -0.10467E+07
        -0.39166E+06
         0.99052E+06
        -0.24731E+07
        -0.56492E+06
        -0.38288E+07
        -0.22247E+07
        -0.35958E+07
        -0.19171E+07
        -0.80038E+06
        -0.67081E+07
        -0.74938E+07
        -0.31234E+07
        -0.79598E+07
        -0.11393E+08
        -0.31004E+07
        -0.33789E+07
        -0.24823E+06
        -0.37225E+07
        -0.47654E+07
        -0.91764E+07
         0.84041E+06
         0.14842E+07
        -0.92287E+05
        -0.83587E+07
        -0.68682E+07
        -0.10964E+08
        -0.41785E+06
         0.56534E+07
        -0.71498E+07
        -0.51349E+07
        -0.39955E+07
         0.28526E+07
         0.52373E+07
         0.33345E+07
         0.28935E+07
         0.28753E+07
        -0.36277E+05
         0.14786E+04
        -0.27897E+07
        -0.41173E+07
        -0.55728E+07
        -0.47487E+06
         0.73931E+07
         0.12164E+08
         0.11230E+08
         0.31194E+07
         0.21698E+07
        -0.16969E+07
         0.54692E+07
         0.48581E+07
         0.42897E+06
         0.15704E+07
         0.73471E+07
         0.21879E+07
         0.19169E+07
         0.12832E+07
        -0.62049E+06
         0.15455E+08
         0.11180E+08
        -0.29424E+06
        -0.23775E+07
        -0.31408E+07
         0.10474E+08
         0.24419E+08
         0.20954E+08
         0.26375E+07
        -0.21557E+07
         0.50570E+06
         0.33243E+07
        -0.19931E+07
        -0.81431E+07
        -0.71261E+07
         0.35737E+07
         0.29092E+07
        -0.36569E+06
         0.28055E+07
        -0.30825E+07
         0.19015E+06
         0.40817E+07
         0.33841E+07
        -0.47848E+06
        -0.62744E+06
         0.35735E+07
         0.31391E+06
        -0.22700E+07
         0.15892E+07
         0.79285E+06
        -0.44355E+07
        -0.65580E+07
         0.57700E+06
        -0.83019E+07
        -0.72814E+07
        -0.64848E+07
         0.40466E+06
        -0.75483E+07
        -0.10034E+08
        -0.40546E+07
        -0.88695E+07
         0.60925E+06
         0.47488E+06
         0.74657E+06
        -0.32200E+07
        -0.43605E+07
        -0.86676E+07
         0.86553E+06
         0.50403E+07
        -0.10898E+08
        -0.58254E+07
        -0.33634E+07
        -0.28720E+06
         0.11311E+06
        -0.47643E+06
         0.50308E+06
         0.41319E+07
         0.54574E+07
        -0.45819E+07
        -0.38764E+07
        -0.41550E+07
        -0.72929E+07
        -0.40940E+07
         0.19802E+07
         0.64426E+07
         0.67375E+07
         0.20053E+07
        -0.17259E+07
        -0.16581E+06
         0.85044E+07
         0.13854E+07
        -0.10650E+08
        -0.36051E+07
         0.44085E+07
        -0.28082E+07
        -0.37088E+07
        -0.98833E+07
        -0.59628E+06
         0.10696E+08
         0.15270E+07
        -0.46783E+07
        -0.22667E+06
         0.25763E+07
         0.10920E+08
         0.20407E+08
         0.17707E+08
         0.22848E+06
        -0.58659E+07
        -0.22336E+07
         0.66703E+07
         0.63675E+07
        -0.34056E+07
        -0.16886E+07
         0.33071E+07
         0.60845E+07
         0.10570E+08
         0.64915E+07
         0.79529E+07
         0.79323E+07
         0.26339E+07
        -0.19992E+06
        -0.14872E+07
        -0.27440E+07
         0.62636E+07
         0.38836E+07
         0.16492E+07
         0.32301E+07
         0.52665E+07
        -0.26650E+07
        -0.34788E+07
         0.12942E+07
        -0.35072E+07
         0.20921E+07
        -0.19820E+07
         0.18820E+07
        -0.47408E+07
        -0.88652E+07
        -0.10581E+07
        -0.66809E+07
        -0.56990E+06
        -0.15194E+07
         0.14423E+07
         0.56294E+07
        -0.19194E+07
        -0.46812E+07
         0.22558E+07
         0.63095E+07
         0.42278E+07
         0.52632E+07
         0.29585E+07
        -0.47277E+06
        -0.48483E+07
        -0.42854E+07
        -0.22895E+07
         0.16579E+07
         0.38247E+07
        -0.36469E+07
        -0.13003E+07
        -0.67647E+06
        -0.24012E+07
        -0.14739E+07
         0.83615E+06
         0.49832E+07
         0.72119E+07
         0.57915E+07
        -0.19013E+08
        -0.18338E+08
        -0.11974E+08
        -0.84396E+07
        -0.83244E+07
         0.21994E+07
         0.12611E+08
         0.22956E+07
        -0.72519E+07
        -0.11518E+08
         0.15994E+07
        -0.31489E+07
        -0.12777E+08
        -0.65029E+07
         0.74805E+07
         0.50720E+07
         0.84893E+07
         0.19334E+08
         0.11796E+08
         0.74167E+07
         0.54484E+07
         0.64552E+07
         0.15019E+08
         0.75863E+07
        -0.10211E+08
        -0.13974E+08
        -0.86218E+06
         0.21195E+07
         0.11343E+08
         0.68883E+07
         0.10120E+08
         0.10190E+08
        -0.35548E+07
        -0.65131E+07
        -0.24734E+07
        -0.39744E+07
        -0.64753E+06
         0.56718E+07
         0.54342E+07
        -0.76691E+06
         0.57583E+07
        -0.13377E+07
        -0.87817E+06
         0.19350E+07
        -0.23295E+07
         0.30123E+07
        -0.26261E+07
        -0.22459E+07
        -0.31445E+07
        -0.77730E+07
         0.10772E+07
        -0.66379E+07
        -0.29078E+06
         0.13842E+07
         0.45230E+07
         0.68262E+07
         0.17137E+07
        -0.38643E+07
         0.80149E+07
         0.11689E+08
         0.11756E+08
         0.10239E+08
         0.69151E+07
         0.32699E+07
         0.35243E+06
         0.19187E+07
         0.51864E+07
         0.38798E+07
         0.25641E+06
        -0.23088E+07
         0.51157E+06
         0.19024E+07
         0.13787E+06
         0.38518E+07
         0.81672E+07
         0.12293E+08
         0.13584E+08
         0.10581E+08
        -0.24731E+08
        -0.26478E+08
        -0.19557E+08
        -0.38257E+07
         0.79474E+07
         0.13286E+08
         0.17478E+08
         0.89606E+07
        -0.48288E+07
        -0.37676E+07
         0.67370E+07
        -0.10184E+07
         0.42751E+07
         0.59657E+07
         0.12966E+08
         0.14557E+08
         0.23430E+08
         0.38279E+08
         0.25059E+08
         0.10343E+08
         0.67281E+07
        -0.93487E+06
        -0.45612E+07
        -0.10029E+08
        -0.16234E+08
        -0.19786E+08
         0.72807E+07
         0.18633E+08
         0.16484E+08
         0.82036E+07
        -0.59841E+06
        -0.57943E+06
         0.17899E+08
         0.14175E+07
        -0.57168E+07
        -0.13728E+08
         0.10798E+08
         0.26685E+08
         0.27382E+08
        -0.10691E+08
         0.37657E+07
        -0.63994E+07
        -0.14367E+08
        -0.26313E+07
        -0.14306E+07
        -0.78214E+07
        -0.27916E+07
         0.43377E+06
         0.42440E+07
         0.72896E+07
        -0.22798E+08
        -0.48068E+07
        -0.13727E+08
        -0.15688E+08
        -0.20433E+08
        -0.12967E+08
        -0.11723E+08
        -0.13218E+08
        -0.32803E+07
         0.39010E+07
        -0.93539E+07
         0.74694E+07
         0.17707E+08
        -0.55898E+07
        -0.65260E+07
        -0.13058E+08
        -0.15116E+08
        -0.32688E+07
         0.41616E+07
         0.88502E+07
         0.38841E+07
         0.17635E+06
        -0.14359E+08
        -0.15408E+08
        -0.83936E+07
        -0.66903E+07
        -0.25680E+08
        -0.83454E+07
        -0.74519E+08
        -0.72816E+08
        -0.43940E+08
         0.34915E+06
         0.42419E+08
         0.71161E+08
         0.46417E+08
        -0.25721E+08
        -0.58884E+08
        -0.67468E+08
        -0.47125E+08
        -0.41557E+08
        -0.13307E+08
         0.83378E+07
         0.39362E+07
         0.20721E+08
         0.53780E+08
         0.69236E+08
         0.56254E+08
         0.31049E+07
        -0.38069E+08
        -0.67988E+08
        -0.10228E+09
        -0.12089E+09
        -0.92896E+08
        -0.63941E+08
  
SCALARS                 acceleration_y  double 1
LOOKUP_TABLE default
        -0.21651E+09
        -0.11870E+09
        -0.91249E+08
        -0.11587E+09
         0.77957E+09
         0.29066E+09
         0.22383E+09
         0.41027E+09
        -0.47303E+08
        -0.50135E+08
         0.10091E+09
         0.12086E+09
        -0.10561E+09
        -0.17611E+09
         0.21896E+09
         0.53502E+09
        -0.25330E+09
        -0.21273E+09
         0.11275E+10
         0.83475E+09
        -0.99098E+08
        -0.47018E+08
        -0.47920E+08
         0.18319E+09
         0.63264E+08
         0.67930E+08
        -0.88526E+08
        -0.35009E+08
         0.22866E+09
         0.63114E+08
        -0.15098E+09
        -0.22802E+09
        -0.18430E+09
         0.57187E+09
         0.10094E+10
         0.83593E+09
        -0.11536E+09
        -0.11821E+09
         0.32304E+09
         0.43624E+09
        -0.43092E+08
        -0.42846E+08
         0.86049E+08
         0.11295E+09
        -0.42854E+08
        -0.11720E+09
         0.71930E+08
         0.24437E+09
        -0.18612E+09
         0.75907E+09
        -0.11092E+09
         0.28891E+09
        -0.98803E+08
         0.31563E+09
        -0.10073E+09
         0.26936E+09
        -0.68689E+08
        -0.99602E+08
         0.15142E+09
         0.33953E+09
        -0.11568E+09
        -0.80676E+08
         0.37829E+09
         0.19952E+09
        -0.12543E+09
         0.44165E+09
        -0.93746E+08
         0.27083E+09
        -0.26480E+08
        -0.34555E+08
         0.37119E+08
         0.48181E+08
        -0.38825E+08
         0.57424E+08
        -0.39742E+08
         0.89744E+08
        -0.44626E+08
         0.87786E+08
        -0.41252E+08
         0.61948E+08
        -0.25452E+08
        -0.44712E+08
         0.36141E+08
         0.76134E+08
        -0.48486E+08
         0.10673E+09
        -0.35027E+08
         0.67097E+08
        -0.28551E+08
         0.57453E+08
        -0.21721E+08
        -0.24354E+08
         0.28344E+08
         0.41925E+08
        -0.40261E+08
         0.84778E+08
        -0.51562E+08
         0.96565E+08
        -0.52629E+08
         0.88004E+08
        -0.42123E+08
        -0.41255E+08
         0.55946E+08
         0.90995E+08
        -0.68805E+07
        -0.26928E+08
        -0.23439E+08
         0.73141E+07
        -0.12740E+08
        -0.23651E+07
        -0.12883E+08
        -0.14593E+07
        -0.10620E+08
         0.77431E+07
        -0.19240E+08
         0.27341E+08
        -0.17657E+08
         0.23851E+08
        -0.24750E+08
        -0.10182E+08
        -0.22032E+08
        -0.36825E+08
        -0.32227E+08
         0.82181E+07
        -0.26921E+08
        -0.29297E+08
        -0.28108E+08
        -0.21381E+06
        -0.19623E+08
         0.10154E+08
        -0.28175E+08
         0.62078E+07
        -0.14595E+08
         0.32889E+08
        -0.19145E+08
         0.21577E+08
        -0.21642E+08
         0.86380E+07
        -0.20802E+08
        -0.67264E+07
        -0.10805E+08
         0.23601E+07
        -0.10261E+08
         0.18369E+08
        -0.16062E+08
        -0.69653E+06
        -0.17085E+08
        -0.18483E+07
        -0.18612E+08
        -0.56791E+06
        -0.17902E+08
         0.11948E+08
        -0.36939E+08
         0.70144E+07
        -0.24996E+08
         0.10503E+08
        -0.10206E+09
        -0.53584E+08
        -0.42598E+08
        -0.52025E+08
        -0.26365E+08
        -0.23676E+08
        -0.48169E+08
        -0.88942E+08
        -0.12360E+09
        -0.10891E+09
        -0.44873E+08
        -0.19930E+08
        -0.19526E+08
        -0.40794E+08
        -0.12940E+08
        -0.70326E+08
        -0.11332E+09
        -0.82704E+08
        -0.56281E+08
        -0.57128E+08
        -0.18050E+08
        -0.22198E+08
        -0.13552E+08
        -0.57036E+08
        -0.93800E+08
        -0.52871E+08
        -0.47333E+08
        -0.49597E+08
        -0.30691E+08
        -0.51583E+08
        -0.51682E+08
        -0.40196E+08
        -0.53337E+08
        -0.38984E+08
        -0.18002E+08
        -0.16375E+08
        -0.15787E+08
        -0.17027E+08
        -0.22324E+08
        -0.18756E+08
         0.31631E+06
        -0.13861E+08
        -0.25294E+08
        -0.11404E+08
        -0.14295E+08
        -0.22056E+08
        -0.15321E+08
        -0.19643E+08
        -0.26815E+08
        -0.25356E+08
        -0.12923E+08
        -0.14807E+08
        -0.50764E+07
        -0.93922E+07
        -0.15867E+08
        -0.15816E+08
        -0.70329E+07
        -0.13576E+08
        -0.93593E+07
        -0.10962E+08
        -0.12736E+08
        -0.29747E+08
        -0.87306E+07
        -0.25259E+07
        -0.59239E+07
        -0.13206E+08
        -0.10940E+07
        -0.99396E+07
        -0.18056E+08
        -0.69609E+07
         0.35002E+06
        -0.73528E+07
        -0.90035E+07
        -0.61250E+07
         0.21892E+07
         0.76096E+07
        -0.96600E+07
         0.31648E+07
        -0.27998E+08
        -0.16378E+08
        -0.10639E+08
        -0.11967E+08
        -0.73376E+07
        -0.25116E+07
        -0.18547E+08
        -0.30582E+08
        -0.30730E+08
        -0.30005E+08
        -0.17952E+08
        -0.11263E+08
        -0.94937E+07
        -0.12680E+08
        -0.49081E+07
        -0.16898E+08
        -0.25388E+08
        -0.18315E+08
        -0.12048E+08
        -0.87430E+07
        -0.16622E+07
        -0.43510E+07
         0.47429E+07
        -0.14437E+08
        -0.19602E+08
        -0.13360E+08
        -0.80665E+07
        -0.31882E+07
        -0.17313E+07
        -0.96993E+07
        -0.13219E+08
        -0.11794E+08
        -0.11278E+08
        -0.53772E+07
        -0.48148E+07
        -0.14915E+07
        -0.34695E+07
        -0.20489E+07
        -0.42517E+07
        -0.82476E+07
        -0.74594E+07
        -0.28561E+07
        -0.60585E+07
         0.46455E+07
        -0.78139E+06
        -0.11359E+08
        -0.24975E+07
        -0.20432E+07
        -0.66123E+07
        -0.70003E+07
         0.82280E+06
         0.25086E+07
        -0.91533E+07
         0.22960E+07
        -0.84078E+07
        -0.11668E+08
        -0.10553E+08
        -0.12965E+08
        -0.50389E+07
        -0.73034E+07
        -0.93217E+07
        -0.14023E+08
        -0.12763E+07
        -0.86424E+07
        -0.12986E+08
        -0.91141E+07
        -0.25706E+07
         0.60683E+06
        -0.85819E+07
        -0.91143E+07
        -0.13385E+08
        -0.86699E+07
        -0.77544E+07
        -0.10551E+08
        -0.40605E+07
         0.47712E+07
        -0.62798E+05
         0.13949E+08
         0.29817E+06
         0.43106E+07
         0.64092E+07
         0.23639E+07
         0.30165E+07
         0.57802E+07
         0.59009E+06
        -0.43440E+07
         0.29175E+06
        -0.31802E+07
        -0.44133E+07
        -0.29511E+07
         0.17263E+07
        -0.30123E+07
        -0.20963E+06
         0.26243E+07
         0.32446E+07
         0.16356E+07
         0.32426E+07
         0.31567E+07
         0.52141E+07
         0.61588E+07
         0.37967E+07
         0.67722E+06
         0.17885E+07
         0.29399E+07
        -0.15292E+07
         0.28226E+07
         0.30003E+07
         0.25202E+06
         0.26666E+07
         0.86641E+06
         0.28873E+07
         0.46752E+07
         0.27190E+07
         0.87929E+07
         0.68556E+07
         0.46375E+06
        -0.73742E+07
        -0.80016E+07
        -0.80321E+07
        -0.42570E+07
        -0.69940E+06
         0.14810E+07
        -0.49115E+06
        -0.10253E+08
        -0.34153E+07
         0.15542E+07
         0.26907E+07
         0.31180E+07
         0.78455E+07
         0.86891E+07
        -0.73993E+06
         0.14178E+07
         0.55370E+07
        -0.11324E+07
        -0.99439E+06
        -0.73497E+07
        -0.84128E+07
        -0.89986E+07
        -0.87639E+07
        -0.38343E+07
         0.39609E+06
         0.30670E+07
        -0.23962E+07
        -0.13712E+07
         0.11932E+07
         0.12522E+07
        -0.98887E+07
        -0.73393E+07
        -0.21076E+08
        -0.25126E+08
        -0.95600E+07
         0.74885E+06
         0.11893E+08
         0.14922E+08
         0.58874E+07
         0.60960E+07
         0.44729E+07
         0.67718E+07
         0.42547E+07
         0.20641E+07
        -0.15908E+07
         0.48145E+06
         0.28051E+07
         0.30790E+07
         0.53859E+07
         0.61072E+07
        -0.12685E+08
         0.32738E+06
         0.42474E+07
        -0.44349E+07
         0.45982E+07
         0.35516E+07
         0.65568E+07
         0.29018E+07
        -0.10337E+07
        -0.51312E+06
        -0.47172E+05
         0.31376E+07
        -0.46798E+07
        -0.63348E+07
         0.85622E+07
         0.90153E+06
        -0.12520E+07
        -0.78767E+06
        -0.15516E+07
        -0.23653E+07
         0.54828E+07
         0.14054E+07
         0.44919E+07
         0.28001E+07
        -0.40999E+07
         0.60800E+07
         0.72176E+07
         0.72216E+06
        -0.14504E+08
        -0.82983E+07
         0.21512E+07
        -0.35565E+07
        -0.53699E+07
        -0.57554E+07
        -0.44845E+07
        -0.10484E+08
        -0.49030E+07
         0.74249E+06
         0.30388E+07
         0.23811E+07
         0.44557E+07
         0.38433E+07
         0.11860E+08
         0.31704E+07
         0.14653E+08
         0.66935E+07
         0.96803E+07
         0.14434E+07
        -0.64968E+07
        -0.50913E+07
        -0.38319E+07
        -0.48728E+07
        -0.13833E+08
         0.21436E+06
        -0.73995E+07
        -0.10463E+07
         0.73089E+07
         0.74192E+07
        -0.49430E+07
        -0.33518E+06
        -0.55416E+07
        -0.96404E+07
         0.47882E+07
         0.15567E+08
         0.21141E+08
         0.15766E+08
         0.38048E+07
         0.14201E+07
        -0.20177E+07
         0.32752E+07
         0.36825E+07
         0.26062E+06
        -0.11995E+07
        -0.80973E+06
        -0.22111E+07
        -0.12590E+07
        -0.39938E+07
         0.17629E+07
        -0.14527E+08
         0.13658E+07
         0.80278E+06
        -0.46214E+07
         0.51986E+07
         0.21890E+07
         0.56807E+06
        -0.29677E+07
         0.59859E+07
         0.29941E+07
        -0.39835E+06
         0.61542E+06
         0.13079E+07
         0.12178E+08
         0.76741E+07
         0.10740E+08
         0.29675E+06
         0.22841E+06
        -0.13834E+07
         0.13356E+07
         0.68451E+07
         0.91864E+07
         0.25957E+07
         0.15507E+07
        -0.13895E+07
         0.41459E+07
         0.25106E+07
         0.14337E+07
        -0.11280E+08
        -0.41954E+07
         0.93224E+07
         0.56954E+07
        -0.56852E+06
         0.30024E+07
         0.38002E+07
         0.28487E+06
         0.12746E+07
         0.19047E+06
        -0.16712E+07
        -0.23395E+07
         0.11824E+07
         0.17613E+07
         0.47695E+07
        -0.25306E+07
         0.27641E+07
        -0.38193E+07
         0.44210E+07
        -0.37607E+06
        -0.47955E+07
        -0.10284E+07
         0.20826E+07
        -0.22745E+07
        -0.18958E+08
        -0.25442E+07
        -0.75523E+07
         0.42265E+07
         0.73724E+07
         0.76270E+07
        -0.15634E+07
         0.51494E+07
         0.86411E+07
         0.60021E+07
         0.52640E+07
         0.78222E+07
         0.74526E+07
         0.60702E+07
         0.37687E+07
         0.14730E+07
        -0.17182E+07
        -0.41656E+07
        -0.25333E+07
         0.50993E+06
        -0.39939E+07
        -0.94731E+06
        -0.32049E+07
         0.60997E+07
        -0.33954E+07
         0.66291E+07
         0.45104E+06
        -0.24722E+07
        -0.70778E+07
         0.66682E+07
        -0.12070E+07
        -0.10154E+07
        -0.23497E+07
        -0.32110E+07
         0.29985E+07
         0.13178E+07
        -0.39261E+07
        -0.50459E+07
         0.38386E+07
         0.13182E+08
         0.73325E+07
         0.60880E+07
         0.72715E+07
         0.36882E+07
        -0.14181E+07
         0.47315E+07
         0.15571E+07
         0.28607E+07
         0.17855E+07
         0.43868E+07
        -0.29839E+07
        -0.54242E+07
        -0.85181E+07
         0.34640E+06
        -0.47339E+07
        -0.39439E+07
         0.11198E+07
         0.89756E+07
         0.44591E+07
         0.60639E+07
         0.52005E+07
         0.23009E+07
        -0.92097E+06
        -0.26308E+07
        -0.21094E+07
         0.22856E+06
         0.69064E+07
         0.42012E+07
        -0.45394E+07
        -0.99881E+07
        -0.67732E+07
        -0.63930E+07
         0.49375E+07
        -0.12645E+07
         0.52843E+06
         0.23544E+06
        -0.58797E+07
        -0.92528E+07
        -0.23039E+08
        -0.67085E+07
        -0.18625E+07
         0.47295E+07
         0.85749E+06
        -0.32988E+07
        -0.38245E+07
         0.17662E+08
         0.17147E+08
         0.56688E+07
        -0.27166E+07
        -0.28340E+07
        -0.98373E+07
        -0.50323E+07
         0.60263E+07
        -0.66817E+06
         0.46159E+07
        -0.15659E+06
        -0.11689E+07
         0.28019E+07
        -0.16092E+07
        -0.18656E+07
         0.23395E+07
         0.74027E+07
         0.26019E+07
         0.31813E+07
         0.13523E+08
         0.11873E+07
        -0.18916E+07
         0.66367E+07
        -0.42094E+07
        -0.39247E+06
        -0.31863E+07
         0.32111E+07
        -0.39529E+07
        -0.51202E+07
        -0.46449E+06
        -0.51519E+07
         0.75764E+07
         0.54786E+07
        -0.95449E+06
         0.57992E+05
        -0.61516E+05
        -0.34285E+07
        -0.29058E+07
        -0.14215E+06
        -0.18316E+07
        -0.30209E+07
         0.65879E+06
         0.18719E+07
         0.12155E+07
        -0.46476E+07
        -0.60425E+07
        -0.76601E+06
        -0.23170E+06
        -0.27146E+07
         0.23164E+07
         0.70880E+07
         0.24344E+07
         0.52382E+07
         0.10300E+07
        -0.31886E+07
        -0.43517E+07
        -0.41451E+07
        -0.31048E+07
        -0.73627E+06
         0.83185E+07
         0.76903E+06
        -0.44912E+07
         0.47470E+06
        -0.81515E+07
        -0.20664E+07
         0.61851E+07
        -0.41641E+07
        -0.39042E+07
        -0.40267E+06
         0.11635E+07
        -0.12269E+07
        -0.42949E+07
        -0.23017E+07
         0.42093E+07
         0.94064E+06
         0.65319E+07
         0.36884E+07
        -0.11147E+08
         0.33660E+07
         0.55989E+07
         0.67027E+07
         0.48760E+07
         0.63126E+07
         0.11459E+07
         0.10668E+08
         0.89313E+07
        -0.60276E+05
         0.13142E+07
         0.46069E+05
         0.22689E+07
         0.31057E+07
         0.23572E+07
        -0.73946E+06
        -0.42227E+07
        -0.55244E+07
         0.16265E+07
        -0.44257E+07
         0.44281E+07
         0.43844E+07
         0.15145E+07
        -0.22494E+07
         0.49436E+06
         0.20135E+07
         0.10894E+07
         0.51982E+07
        -0.27859E+07
         0.16556E+07
        -0.67675E+06
        -0.37000E+06
         0.49356E+06
        -0.53339E+07
         0.40919E+06
        -0.75672E+06
        -0.49459E+07
        -0.28501E+07
        -0.48306E+06
         0.27839E+07
         0.30382E+07
         0.25918E+07
         0.29330E+07
        -0.21019E+06
         0.43730E+07
         0.11318E+07
        -0.83147E+06
         0.63568E+07
         0.81127E+07
         0.23217E+07
         0.35803E+07
         0.27611E+07
        -0.16448E+06
         0.41059E+06
         0.24328E+07
         0.44187E+07
         0.41384E+07
         0.20452E+07
        -0.15694E+07
        -0.31924E+07
         0.17472E+07
        -0.30444E+07
        -0.16724E+08
        -0.12826E+07
        -0.88795E+07
        -0.14413E+06
         0.18439E+07
        -0.20374E+07
         0.37001E+07
         0.92061E+07
         0.91814E+07
         0.22754E+07
         0.92380E+06
         0.47326E+07
         0.13993E+08
         0.66279E+07
         0.52260E+07
         0.49469E+07
        -0.93818E+07
        -0.19992E+07
         0.40606E+07
         0.10130E+08
         0.12724E+07
         0.32183E+07
         0.49643E+07
         0.87251E+07
         0.59975E+06
        -0.28692E+07
        -0.13599E+07
        -0.23061E+07
        -0.11238E+06
         0.30862E+06
         0.10456E+07
        -0.10792E+07
        -0.62036E+07
        -0.58604E+07
         0.73744E+04
        -0.19934E+07
        -0.24357E+07
         0.42146E+05
        -0.18369E+07
        -0.46826E+07
        -0.19176E+07
        -0.51987E+06
         0.14427E+07
         0.11517E+07
        -0.37678E+07
         0.17807E+07
        -0.14713E+07
        -0.20785E+07
        -0.40766E+06
        -0.82518E+07
         0.49645E+07
        -0.32629E+07
        -0.27000E+07
         0.12775E+07
         0.68075E+06
         0.40384E+07
         0.17806E+07
         0.21983E+07
         0.11739E+07
        -0.17722E+07
         0.40575E+07
         0.88165E+06
        -0.20246E+07
         0.50631E+07
         0.78005E+07
         0.13260E+07
        -0.25002E+07
        -0.24287E+05
        -0.34429E+07
         0.22859E+04
         0.14442E+07
         0.25087E+07
         0.59185E+07
         0.53833E+07
         0.15984E+07
        -0.23928E+06
         0.36800E+07
        -0.16059E+07
        -0.18276E+07
         0.89342E+06
        -0.79818E+06
        -0.18102E+07
        -0.24602E+07
        -0.34969E+07
         0.15905E+07
        -0.48370E+07
        -0.46038E+07
         0.20664E+07
        -0.94478E+07
        -0.58588E+07
         0.14077E+07
         0.47859E+07
         0.17611E+07
         0.86133E+07
         0.62379E+07
         0.36194E+07
        -0.32909E+07
         0.87633E+06
        -0.84416E+07
         0.10267E+07
         0.70635E+07
        -0.15788E+07
        -0.95102E+07
        -0.49106E+07
         0.78168E+06
         0.14820E+07
         0.17926E+07
        -0.33407E+05
         0.25088E+07
         0.11036E+07
         0.22907E+07
         0.12272E+07
        -0.13250E+07
        -0.49296E+06
         0.87417E+07
         0.38134E+07
         0.40644E+06
         0.18475E+07
         0.24946E+07
        -0.33898E+07
        -0.33469E+07
        -0.21369E+07
        -0.69675E+07
        -0.34369E+07
        -0.33472E+06
        -0.25073E+06
         0.74732E+06
        -0.70001E+07
         0.15616E+07
        -0.43569E+07
        -0.16311E+06
         0.21465E+07
         0.13867E+07
         0.11538E+07
        -0.18846E+07
         0.44220E+06
        -0.24676E+07
        -0.31539E+07
         0.36117E+07
         0.98420E+06
        -0.13346E+07
         0.71347E+07
         0.95784E+07
         0.57192E+07
         0.26902E+07
        -0.93403E+05
        -0.22420E+07
         0.72946E+06
         0.14411E+07
         0.51979E+07
         0.63149E+07
         0.44347E+07
         0.10790E+07
         0.10340E+07
         0.75949E+07
         0.15113E+07
        -0.27964E+06
        -0.14370E+07
        -0.12354E+07
        -0.44008E+07
         0.61032E+06
         0.21592E+07
         0.33348E+07
        -0.25567E+06
        -0.98743E+07
        -0.49616E+07
        -0.40260E+07
        -0.63303E+07
        -0.95931E+07
         0.32111E+06
        -0.19867E+07
        -0.27699E+07
        -0.71264E+06
         0.37807E+07
         0.57429E+07
         0.96671E+07
        -0.21343E+06
         0.28912E+07
         0.31017E+07
        -0.36358E+07
        -0.27676E+07
         0.66907E+06
         0.30255E+07
         0.75715E+06
        -0.74766E+06
        -0.27278E+06
        -0.11560E+07
        -0.20688E+07
        -0.44271E+05
         0.28416E+07
         0.40007E+07
         0.43926E+07
         0.34716E+07
        -0.14054E+07
        -0.40674E+07
         0.48809E+07
         0.47043E+07
        -0.48403E+05
         0.36632E+07
         0.17559E+07
        -0.50744E+07
         0.65702E+06
        -0.44273E+07
        -0.84960E+06
        -0.60579E+07
        -0.12507E+08
         0.71577E+07
        -0.63222E+07
         0.57352E+07
         0.68575E+07
         0.33772E+07
         0.39113E+07
         0.40038E+05
        -0.19396E+07
         0.92107E+06
        -0.12231E+07
         0.16802E+07
         0.14805E+06
        -0.27111E+07
         0.12275E+08
         0.12470E+08
         0.85276E+07
         0.64063E+07
        -0.10328E+07
        -0.27595E+07
        -0.54256E+07
        -0.32169E+07
         0.25485E+07
         0.22438E+07
         0.15095E+07
         0.12231E+07
         0.25137E+07
         0.79848E+07
         0.32903E+06
         0.35409E+07
         0.26424E+07
        -0.18496E+07
        -0.11842E+08
        -0.13213E+08
        -0.13514E+08
        -0.69071E+07
         0.69407E+07
        -0.20981E+07
         0.60186E+07
         0.14424E+08
         0.33901E+07
        -0.83328E+07
        -0.30440E+07
        -0.62324E+07
        -0.28700E+07
        -0.39536E+06
        -0.39560E+06
         0.32363E+07
         0.27602E+07
        -0.33343E+07
        -0.44543E+07
        -0.64199E+07
        -0.39574E+07
         0.63989E+07
         0.86716E+07
         0.97221E+06
         0.95251E+06
         0.12792E+07
        -0.11096E+06
         0.35663E+06
        -0.64083E+06
        -0.18106E+07
        -0.93756E+05
         0.76231E+06
         0.22905E+06
        -0.30316E+07
        -0.79628E+07
        -0.60640E+07
         0.13648E+07
        -0.86573E+06
         0.11261E+06
         0.19810E+07
        -0.39034E+06
         0.15709E+07
         0.25778E+07
         0.17013E+07
         0.15013E+07
         0.20166E+07
         0.23156E+07
         0.34183E+07
         0.93279E+06
         0.67129E+06
        -0.24817E+06
         0.53408E+06
         0.32033E+07
        -0.29275E+06
         0.12702E+07
        -0.27254E+06
        -0.26515E+06
         0.28313E+07
         0.22058E+07
        -0.98411E+06
         0.66102E+07
         0.47798E+07
         0.12339E+07
        -0.16628E+07
         0.16249E+06
        -0.45694E+06
         0.10763E+07
         0.81710E+06
         0.49485E+07
         0.36173E+07
         0.19290E+07
         0.21372E+07
         0.34020E+07
         0.44679E+07
         0.47636E+06
         0.75992E+07
         0.43141E+07
        -0.43670E+07
        -0.15494E+08
        -0.16076E+08
        -0.99106E+07
        -0.35258E+07
        -0.27224E+07
        -0.17724E+08
        -0.14619E+08
        -0.15631E+08
        -0.23864E+07
        -0.22413E+07
         0.10269E+05
        -0.14497E+05
         0.38426E+07
        -0.45629E+06
        -0.68034E+07
         0.16864E+07
         0.75613E+07
         0.78849E+07
         0.85164E+07
         0.87216E+05
        -0.14845E+08
        -0.79156E+07
         0.69357E+06
         0.44813E+07
         0.61482E+07
         0.69036E+07
         0.39784E+07
         0.43771E+07
         0.45328E+07
         0.36975E+07
         0.17045E+07
         0.19642E+07
        -0.19814E+06
         0.56903E+07
         0.17994E+07
         0.17750E+07
         0.24234E+07
         0.52391E+07
         0.29551E+07
         0.88326E+06
         0.30930E+07
         0.21710E+07
        -0.68742E+06
         0.52746E+06
         0.30132E+07
         0.54723E+06
         0.67026E+07
        -0.58341E+06
         0.42485E+07
        -0.10752E+07
        -0.24371E+07
        -0.21229E+06
         0.88782E+05
         0.25037E+07
         0.30186E+07
         0.17995E+07
         0.16068E+07
         0.28544E+07
         0.45303E+07
         0.35541E+07
         0.61745E+07
         0.35199E+07
         0.31238E+07
         0.47379E+07
         0.30044E+07
         0.38173E+07
        -0.58056E+06
        -0.21487E+07
        -0.20971E+07
         0.52082E+06
         0.49073E+06
        -0.13024E+07
        -0.24760E+07
        -0.27296E+07
         0.25346E+07
        -0.72893E+07
        -0.63464E+07
        -0.11589E+08
        -0.12422E+08
        -0.15219E+08
        -0.15305E+08
        -0.11339E+08
        -0.14338E+08
        -0.19949E+08
        -0.76581E+07
        -0.16992E+07
        -0.71576E+07
        -0.52716E+07
        -0.29157E+06
         0.91322E+06
         0.18414E+07
        -0.72029E+07
        -0.13215E+08
        -0.89161E+07
        -0.27025E+07
         0.92636E+06
        -0.10433E+07
        -0.93258E+07
        -0.14485E+08
        -0.70941E+07
        -0.59018E+07
         0.31987E+07
         0.68834E+06
         0.48187E+07
         0.45999E+07
         0.48163E+07
         0.20575E+07
        -0.54090E+07
        -0.32420E+07
         0.41895E+07
        -0.10578E+07
        -0.30371E+07
         0.24091E+07
        -0.21183E+07
        -0.16461E+06
         0.82551E+07
         0.75137E+07
         0.30140E+07
         0.82832E+07
         0.48526E+07
        -0.28014E+07
        -0.13084E+06
        -0.24169E+07
        -0.11170E+07
         0.95032E+07
        -0.23262E+07
         0.41074E+07
        -0.47205E+05
        -0.10196E+07
        -0.17642E+07
        -0.51335E+07
         0.60498E+07
         0.15557E+07
         0.59170E+07
         0.23122E+07
         0.91762E+07
         0.46088E+07
        -0.98890E+05
         0.34480E+07
        -0.33617E+07
        -0.42939E+07
         0.20102E+06
        -0.17172E+07
        -0.31230E+07
        -0.47309E+07
        -0.65863E+07
        -0.69742E+07
        -0.23849E+07
         0.39479E+06
        -0.84987E+06
        -0.31428E+07
        -0.36242E+07
        -0.88374E+06
        -0.21409E+07
        -0.60022E+07
        -0.65859E+07
        -0.19628E+07
        -0.16768E+07
        -0.64424E+07
        -0.46328E+07
         0.54928E+07
         0.74923E+07
         0.30168E+07
         0.97861E+07
        -0.14189E+07
        -0.53949E+07
        -0.33511E+07
         0.53600E+07
         0.34482E+07
        -0.32220E+07
        -0.32431E+07
        -0.57942E+07
         0.49763E+07
         0.94510E+07
        -0.47127E+06
        -0.54997E+07
         0.51402E+07
         0.20477E+07
        -0.66448E+07
        -0.14794E+07
        -0.41482E+07
         0.22849E+07
         0.61628E+06
         0.39977E+07
        -0.13694E+07
        -0.99533E+07
        -0.30703E+07
        -0.18398E+06
         0.44272E+06
        -0.11117E+08
        -0.91988E+07
        -0.10883E+08
         0.15708E+07
         0.13781E+07
         0.36815E+07
         0.12572E+07
         0.16458E+07
         0.67852E+07
         0.10367E+05
         0.21516E+07
        -0.32117E+07
         0.36820E+07
         0.13458E+08
         0.16803E+05
         0.60439E+07
         0.44729E+07
         0.11408E+07
        -0.35948E+07
        -0.43881E+07
         0.20414E+07
         0.11336E+07
         0.12279E+07
        -0.44803E+06
         0.13164E+08
         0.46348E+07
        -0.37133E+07
         0.16630E+07
        -0.43825E+07
        -0.70776E+07
        -0.41012E+07
        -0.61894E+07
        -0.74425E+07
         0.14494E+07
        -0.23002E+07
        -0.54516E+07
        -0.28782E+07
        -0.14550E+07
        -0.13358E+07
        -0.27214E+07
        -0.53458E+07
        -0.40455E+07
         0.65384E+07
        -0.64927E+06
        -0.49896E+07
        -0.28791E+07
         0.77048E+06
         0.64087E+06
         0.47019E+07
         0.15344E+08
         0.16446E+08
         0.36353E+07
         0.11926E+08
         0.79532E+07
        -0.57522E+07
        -0.43775E+07
         0.75910E+07
         0.65823E+07
        -0.12267E+07
        -0.10335E+08
        -0.10165E+08
         0.67112E+07
         0.51256E+07
        -0.37669E+07
        -0.78541E+07
        -0.21297E+07
        -0.69933E+07
        -0.89785E+07
        -0.50300E+07
        -0.48097E+07
        -0.28949E+07
        -0.25530E+07
        -0.89769E+06
        -0.24532E+07
        -0.26628E+07
        -0.29461E+07
        -0.38459E+07
        -0.36014E+07
        -0.17984E+07
        -0.63245E+07
        -0.48421E+07
        -0.46689E+06
        -0.44829E+07
         0.36728E+07
        -0.70086E+06
        -0.37519E+06
         0.36893E+07
        -0.77175E+06
        -0.29850E+07
        -0.45195E+07
        -0.15564E+07
         0.79987E+07
        -0.21930E+07
         0.74837E+07
        -0.19111E+07
        -0.14655E+07
        -0.65426E+06
        -0.33240E+07
         0.42977E+07
         0.33550E+07
         0.22619E+07
        -0.48292E+06
         0.27164E+07
        -0.25148E+06
        -0.17581E+07
        -0.54181E+07
        -0.42935E+07
         0.85188E+06
         0.55727E+07
        -0.51654E+07
        -0.83866E+07
         0.55197E+06
        -0.25806E+07
        -0.10148E+08
        -0.53453E+07
        -0.18396E+07
         0.17060E+06
        -0.23491E+06
        -0.37556E+07
        -0.23909E+07
         0.52942E+07
         0.91238E+07
        -0.59035E+07
        -0.27203E+07
         0.61848E+07
         0.14792E+08
         0.20014E+08
         0.20458E+08
         0.21229E+08
         0.29848E+08
         0.22898E+08
        -0.11750E+07
        -0.92261E+07
        -0.35042E+07
         0.71055E+05
        -0.35509E+07
        -0.99284E+07
        -0.22159E+08
        -0.21136E+08
        -0.35636E+07
        -0.28123E+07
        -0.38968E+07
        -0.71715E+07
        -0.12779E+08
        -0.11879E+08
        -0.18999E+07
        -0.62083E+07
        -0.69348E+07
        -0.79577E+07
        -0.34607E+07
        -0.49924E+07
        -0.83713E+06
        -0.23496E+07
        -0.45152E+07
        -0.35244E+07
        -0.42293E+07
        -0.16538E+07
        -0.51544E+07
        -0.38990E+07
        -0.59311E+07
        -0.71373E+07
         0.89063E+06
        -0.18723E+07
        -0.78289E+06
        -0.10073E+07
        -0.39619E+07
         0.30469E+06
        -0.41154E+07
        -0.32332E+06
         0.15975E+07
        -0.20237E+07
         0.29578E+07
        -0.79263E+07
        -0.41036E+07
        -0.24090E+07
        -0.51608E+07
         0.40170E+07
         0.39229E+07
         0.28410E+07
         0.14499E+07
        -0.77566E+07
        -0.57124E+07
        -0.33511E+07
        -0.10487E+08
        -0.71538E+07
        -0.28482E+07
        -0.24750E+07
        -0.96381E+07
        -0.12625E+08
         0.49349E+06
         0.53141E+06
        -0.18493E+07
         0.15067E+07
         0.38650E+07
         0.44796E+07
         0.43992E+07
         0.54287E+07
         0.31164E+07
         0.54392E+07
         0.80407E+07
         0.97232E+07
         0.43287E+07
        -0.16124E+07
         0.67073E+07
         0.15619E+08
         0.17309E+08
         0.15302E+08
         0.31188E+07
        -0.12486E+07
         0.44241E+07
        -0.66094E+07
         0.35674E+07
         0.76454E+07
        -0.32833E+07
        -0.68797E+07
        -0.13006E+08
        -0.15479E+08
        -0.18429E+07
        -0.10734E+07
        -0.15288E+07
        -0.37905E+06
         0.36677E+07
         0.46331E+07
         0.48353E+07
        -0.33547E+07
        -0.79943E+07
        -0.75321E+07
        -0.15488E+07
        -0.46358E+07
        -0.78118E+06
        -0.69526E+07
        -0.63558E+07
         0.19760E+07
        -0.25871E+07
        -0.22997E+07
         0.32113E+07
        -0.34904E+07
        -0.69444E+07
         0.24488E+07
         0.18344E+07
         0.36038E+07
         0.17566E+07
         0.22133E+07
         0.19987E+07
         0.38347E+07
         0.25155E+07
         0.74945E+06
         0.56194E+05
        -0.12389E+06
         0.19679E+07
        -0.92764E+07
        -0.79323E+07
        -0.79570E+07
        -0.31397E+07
         0.80540E+06
         0.36040E+07
        -0.81957E+06
        -0.17931E+07
        -0.90768E+07
        -0.81137E+07
        -0.67743E+07
        -0.47135E+07
        -0.42933E+07
        -0.49410E+07
        -0.87400E+07
        -0.12204E+08
        -0.77563E+07
         0.32332E+06
         0.20834E+07
         0.46434E+07
         0.43021E+07
         0.13070E+07
        -0.20306E+07
        -0.36562E+07
        -0.27094E+07
        -0.95889E+05
        -0.44440E+07
        -0.24576E+07
         0.59881E+07
         0.64739E+07
         0.42296E+07
         0.12456E+08
         0.12452E+08
         0.91584E+07
         0.56008E+07
        -0.17727E+08
        -0.78420E+07
         0.88435E+07
        -0.19855E+07
        -0.16058E+07
        -0.25579E+07
        -0.39832E+06
        -0.28658E+07
        -0.12347E+08
        -0.14828E+08
        -0.84153E+07
        -0.74199E+07
        -0.43414E+07
        -0.17120E+07
         0.46639E+07
         0.53415E+07
         0.14190E+05
         0.36529E+07
         0.20511E+07
         0.46670E+07
         0.18631E+07
         0.57186E+07
         0.17196E+07
         0.20835E+07
         0.45985E+07
         0.30537E+07
         0.43867E+07
         0.69810E+07
         0.35148E+07
        -0.58444E+06
         0.55887E+07
         0.33561E+07
         0.49082E+06
         0.31310E+07
         0.54527E+06
         0.31134E+07
         0.56202E+07
         0.36003E+07
         0.65360E+07
        -0.27812E+06
        -0.59665E+06
         0.33894E+07
        -0.18677E+06
         0.27115E+07
        -0.13821E+07
        -0.54059E+07
         0.21769E+07
        -0.23146E+07
        -0.59265E+06
        -0.30757E+07
        -0.30593E+07
         0.46157E+07
         0.79800E+06
        -0.15453E+07
        -0.69307E+06
        -0.19907E+07
        -0.40285E+07
        -0.62271E+07
        -0.68369E+07
         0.58136E+06
        -0.31403E+06
         0.16452E+07
         0.47208E+07
        -0.82392E+05
        -0.39100E+07
        -0.58809E+07
        -0.63532E+07
        -0.56316E+07
        -0.27744E+07
        -0.17976E+08
         0.77982E+06
        -0.17182E+08
        -0.18769E+07
         0.74908E+07
         0.10952E+08
         0.77982E+07
         0.13905E+07
        -0.66101E+07
        -0.14083E+08
         0.61585E+07
         0.74761E+07
         0.39567E+07
        -0.61879E+07
        -0.10276E+08
         0.49717E+06
         0.32218E+07
         0.55730E+07
         0.12253E+08
         0.80335E+07
         0.44040E+07
         0.54359E+07
         0.51858E+07
         0.75723E+07
         0.23029E+07
        -0.31141E+06
         0.42786E+07
         0.50041E+07
         0.58996E+07
         0.11843E+07
         0.55465E+07
         0.17103E+07
         0.60652E+07
         0.87235E+07
         0.23969E+07
         0.79639E+07
         0.10266E+08
         0.54696E+07
         0.42739E+07
         0.10698E+08
         0.38839E+07
        -0.41260E+07
         0.14069E+07
        -0.30617E+07
        -0.87480E+05
         0.33101E+07
         0.68683E+06
         0.45914E+07
        -0.34325E+07
        -0.63027E+07
         0.49219E+07
        -0.67551E+07
         0.89751E+07
         0.42380E+07
         0.10716E+07
         0.25995E+07
        -0.71713E+07
        -0.67115E+07
        -0.49167E+07
        -0.83136E+06
         0.73107E+07
         0.51649E+07
         0.33966E+07
         0.75631E+05
        -0.31702E+07
        -0.14388E+07
         0.68007E+07
         0.45399E+07
         0.45642E+07
        -0.39667E+07
        -0.16392E+07
         0.45149E+07
        -0.48396E+06
        -0.31699E+07
        -0.18584E+07
         0.84825E+06
         0.44027E+07
         0.67518E+06
        -0.94556E+07
        -0.16156E+07
        -0.30767E+07
         0.70727E+07
         0.12734E+08
         0.66855E+07
        -0.15640E+07
        -0.31954E+06
        -0.13887E+08
        -0.12861E+08
         0.21001E+08
         0.22589E+08
         0.12241E+08
        -0.19811E+07
        -0.45476E+07
         0.28859E+07
         0.36728E+07
         0.43868E+07
         0.15982E+08
         0.11925E+08
         0.22430E+07
         0.36307E+06
         0.14225E+06
         0.74599E+07
         0.36736E+07
        -0.12230E+07
        -0.15577E+07
         0.13337E+07
        -0.37427E+06
        -0.38980E+07
        -0.18930E+07
        -0.58574E+07
         0.25616E+07
        -0.29427E+06
        -0.11997E+07
        -0.16429E+07
         0.42620E+07
         0.51611E+07
         0.60430E+07
         0.11309E+07
         0.16198E+07
        -0.28977E+07
        -0.51935E+06
        -0.37574E+07
        -0.14229E+07
        -0.27444E+07
        -0.47164E+07
        -0.54255E+07
        -0.26584E+07
        -0.37784E+07
        -0.33323E+07
        -0.63331E+07
        -0.12524E+07
        -0.14765E+07
         0.35800E+07
        -0.31891E+07
        -0.78145E+07
        -0.76329E+07
        -0.67570E+07
        -0.56442E+07
         0.48724E+07
         0.41200E+07
         0.47821E+07
        -0.16193E+07
        -0.13726E+07
         0.48048E+07
         0.17815E+08
         0.92766E+07
         0.31247E+06
        -0.33942E+07
        -0.29241E+07
         0.40520E+07
        -0.78165E+06
        -0.28700E+07
        -0.22700E+07
        -0.16265E+07
         0.29558E+06
        -0.50051E+07
         0.13339E+07
        -0.44770E+06
        -0.83384E+07
        -0.46132E+07
         0.89874E+07
         0.13876E+08
         0.11618E+08
         0.18649E+08
         0.78340E+07
         0.14010E+08
         0.31436E+08
         0.23569E+08
        -0.33856E+07
        -0.10424E+08
         0.28511E+07
         0.13416E+08
         0.12028E+08
         0.13562E+08
         0.24882E+08
         0.14337E+08
         0.21753E+07
        -0.13176E+07
        -0.30870E+07
         0.69581E+07
         0.16386E+07
        -0.44349E+07
        -0.24899E+07
        -0.10955E+06
        -0.12574E+07
        -0.45253E+07
        -0.26252E+07
        -0.78247E+07
        -0.31041E+06
        -0.48608E+07
        -0.66622E+06
        -0.66528E+07
        -0.20097E+07
         0.28612E+07
         0.40827E+07
        -0.71379E+07
        -0.12169E+06
        -0.53562E+06
         0.15072E+07
        -0.99449E+06
         0.80908E+06
         0.88164E+06
        -0.49181E+07
        -0.35640E+07
        -0.88564E+07
        -0.95146E+07
        -0.66844E+07
        -0.10603E+08
        -0.99916E+07
        -0.86361E+07
        -0.26529E+07
        -0.50407E+07
        -0.65401E+07
        -0.97625E+07
        -0.63142E+07
        -0.94049E+07
         0.38088E+07
         0.34971E+07
         0.41866E+07
        -0.19315E+07
         0.59510E+05
         0.18112E+07
         0.54587E+07
        -0.21414E+07
        -0.43782E+07
        -0.11214E+08
        -0.77961E+07
         0.41479E+07
         0.78709E+05
        -0.17844E+07
        -0.44545E+07
        -0.89199E+07
        -0.10744E+08
        -0.10335E+08
        -0.46667E+07
         0.23079E+07
        -0.17049E+08
        -0.89858E+07
         0.92825E+07
         0.24017E+08
         0.25382E+08
         0.27641E+08
         0.19772E+08
         0.19192E+08
         0.20452E+08
         0.12470E+08
        -0.14792E+08
        -0.11199E+08
         0.84779E+07
         0.19983E+08
         0.19738E+08
         0.27883E+08
         0.44293E+08
         0.27361E+08
         0.15678E+08
         0.11970E+08
         0.56767E+07
         0.10791E+08
         0.87435E+07
         0.20221E+07
        -0.15009E+08
        -0.11309E+08
         0.69522E+06
        -0.55488E+07
         0.10959E+08
         0.65028E+07
        -0.21086E+08
        -0.14370E+08
        -0.18298E+08
        -0.14513E+08
        -0.32139E+08
        -0.11286E+08
        -0.13029E+08
        -0.15660E+08
        -0.11026E+08
        -0.15235E+08
        -0.19056E+08
        -0.15794E+08
        -0.29209E+07
        -0.66179E+07
        -0.54847E+06
        -0.39979E+07
        -0.88723E+06
        -0.56904E+07
        -0.20004E+08
        -0.13242E+08
        -0.91213E+07
        -0.14084E+08
        -0.20738E+08
        -0.19086E+08
        -0.22794E+08
        -0.14541E+08
        -0.19433E+08
        -0.64236E+07
         0.15059E+08
         0.11841E+07
        -0.81810E+07
        -0.12382E+08
        -0.16093E+08
        -0.24221E+08
        -0.26864E+08
        -0.26788E+08
        -0.19767E+08
         0.31605E+07
         0.10472E+08
         0.28101E+08
         0.22713E+07
        -0.11803E+08
        -0.12533E+08
        -0.68055E+06
         0.23762E+08
         0.90816E+07
        -0.49064E+07
         0.25879E+08
        -0.29102E+08
        -0.16462E+08
         0.15754E+08
         0.45641E+08
         0.49589E+08
         0.61172E+08
         0.57101E+08
         0.49990E+08
         0.36175E+08
         0.35316E+06
        -0.48882E+08
        -0.36817E+08
         0.11565E+08
         0.48109E+08
         0.64731E+08
         0.83719E+08
         0.10593E+09
         0.97997E+08
         0.74971E+08
         0.59421E+08
         0.58904E+08
         0.76436E+08
         0.71885E+08
         0.43588E+08
  
SCALARS                 acceleration_z  double 1
LOOKUP_TABLE default
        -0.65083E+07
        -0.10122E+08
        -0.10718E+08
        -0.13760E+07
         0.00000E+00
         0.00000E+00
         0.00000E+00
         0.00000E+00
        -0.71490E+07
        -0.12005E+07
         0.00000E+00
         0.00000E+00
        -0.38667E+07
        -0.10502E+08
         0.00000E+00
         0.00000E+00
        -0.29972E+07
        -0.14931E+08
         0.00000E+00
         0.00000E+00
        -0.33369E+07
        -0.90784E+07
        -0.63737E+07
         0.00000E+00
         0.00000E+00
         0.00000E+00
        -0.13079E+08
        -0.14585E+08
         0.00000E+00
         0.00000E+00
         0.83224E+07
        -0.20400E+07
         0.39233E+07
         0.00000E+00
         0.00000E+00
         0.00000E+00
         0.53284E+07
        -0.96227E+07
         0.00000E+00
         0.00000E+00
         0.82542E+07
         0.76694E+07
         0.00000E+00
         0.00000E+00
         0.18896E+08
         0.32263E+08
         0.00000E+00
         0.00000E+00
        -0.16391E+08
         0.00000E+00
         0.16642E+08
         0.00000E+00
        -0.11881E+08
         0.00000E+00
        -0.77916E+07
         0.00000E+00
        -0.66669E+07
        -0.71886E+07
         0.00000E+00
         0.00000E+00
         0.97101E+07
         0.10832E+08
         0.00000E+00
         0.00000E+00
         0.62590E+07
         0.00000E+00
        -0.75001E+06
         0.00000E+00
        -0.15835E+08
        -0.16507E+08
         0.00000E+00
         0.00000E+00
        -0.12470E+08
         0.00000E+00
        -0.43163E+07
         0.00000E+00
        -0.85081E+06
         0.00000E+00
        -0.17246E+07
         0.00000E+00
         0.41874E+07
         0.30638E+07
         0.00000E+00
         0.00000E+00
         0.79042E+07
         0.00000E+00
         0.19627E+08
         0.00000E+00
         0.14164E+08
         0.00000E+00
         0.18200E+08
         0.81795E+07
         0.00000E+00
         0.00000E+00
         0.82383E+07
         0.00000E+00
         0.10701E+08
         0.00000E+00
         0.29329E+07
         0.00000E+00
        -0.22507E+07
         0.34280E+06
         0.00000E+00
         0.00000E+00
        -0.26665E+08
        -0.12404E+08
         0.00000E+00
         0.00000E+00
        -0.19105E+08
         0.00000E+00
        -0.21056E+08
         0.00000E+00
        -0.62838E+07
         0.00000E+00
         0.12078E+07
         0.00000E+00
         0.25976E+07
         0.00000E+00
         0.41007E+07
         0.00000E+00
        -0.10383E+08
         0.00000E+00
        -0.75382E+07
         0.00000E+00
         0.53764E+06
         0.00000E+00
         0.62528E+07
         0.00000E+00
         0.97910E+07
         0.00000E+00
         0.46654E+07
         0.00000E+00
         0.15276E+08
         0.00000E+00
         0.15766E+08
         0.00000E+00
         0.18581E+08
         0.00000E+00
         0.16673E+08
         0.00000E+00
         0.40885E+07
         0.00000E+00
         0.11730E+08
         0.00000E+00
         0.59924E+07
         0.00000E+00
        -0.13660E+06
         0.00000E+00
        -0.46922E+07
         0.00000E+00
        -0.10640E+08
         0.00000E+00
         0.45970E+07
         0.00000E+00
        -0.52718E+06
         0.00000E+00
         0.36708E+07
         0.30896E+07
         0.35901E+07
         0.62407E+06
         0.55349E+05
         0.32837E+07
        -0.41811E+06
         0.20988E+07
         0.59998E+07
         0.49126E+07
        -0.33535E+07
        -0.73111E+07
        -0.44763E+07
        -0.16875E+07
        -0.12466E+08
         0.10339E+07
         0.10955E+08
        -0.41643E+07
        -0.51542E+07
        -0.56385E+07
        -0.11113E+06
         0.32974E+07
        -0.71978E+07
        -0.79601E+07
         0.28555E+07
        -0.36419E+07
        -0.77246E+06
        -0.28569E+07
         0.85024E+07
         0.33617E+07
        -0.27714E+07
        -0.45566E+07
        -0.55459E+07
        -0.37510E+07
        -0.17893E+08
        -0.64816E+07
        -0.60486E+07
        -0.53177E+07
        -0.28896E+07
        -0.53660E+07
        -0.11275E+08
        -0.10255E+08
        -0.26240E+07
        -0.11982E+08
        -0.83300E+07
         0.52447E+07
        -0.59595E+07
        -0.45601E+07
         0.17355E+07
        -0.21681E+07
        -0.92757E+07
         0.24111E+07
         0.11001E+08
         0.14432E+08
         0.27156E+07
        -0.40533E+07
         0.10299E+08
         0.13125E+08
         0.66722E+07
        -0.11406E+07
        -0.17925E+08
        -0.89051E+07
         0.72237E+06
        -0.37931E+07
        -0.31993E+07
        -0.24973E+07
        -0.10318E+08
        -0.12821E+08
        -0.28952E+07
         0.55552E+07
         0.81030E+07
         0.39158E+07
        -0.27758E+07
         0.10398E+07
        -0.26798E+07
        -0.17703E+08
        -0.69160E+06
         0.48900E+07
        -0.16877E+07
        -0.53142E+06
         0.39157E+07
         0.35134E+07
        -0.88442E+07
        -0.36944E+07
        -0.16120E+08
        -0.10673E+08
         0.14850E+07
         0.26551E+07
        -0.72367E+07
        -0.50360E+07
        -0.10460E+08
        -0.70636E+07
        -0.34095E+07
         0.11248E+07
         0.11360E+08
        -0.13577E+07
         0.43198E+07
         0.59328E+07
         0.80368E+07
         0.30829E+07
        -0.57022E+07
        -0.99867E+07
         0.40228E+07
         0.46984E+06
        -0.46694E+07
        -0.55418E+07
         0.35124E+07
        -0.48249E+05
         0.10125E+07
         0.22349E+07
         0.10052E+07
         0.99202E+07
        -0.21540E+08
         0.65710E+06
        -0.41828E+07
        -0.30283E+07
         0.29017E+07
        -0.67015E+07
        -0.15976E+08
        -0.30306E+07
        -0.28037E+07
        -0.14522E+08
        -0.63866E+07
         0.67802E+07
        -0.31861E+07
        -0.91108E+07
        -0.44273E+07
         0.18569E+06
        -0.13725E+08
        -0.13602E+07
         0.19885E+08
        -0.13412E+07
         0.90479E+07
         0.10042E+08
         0.13316E+08
         0.15802E+08
         0.23374E+07
        -0.14588E+07
        -0.83066E+07
        -0.11213E+08
        -0.95619E+07
         0.48788E+07
         0.83031E+06
         0.28816E+07
        -0.55096E+07
         0.43567E+07
         0.52747E+07
         0.64357E+07
         0.15067E+08
         0.11513E+08
        -0.16726E+07
        -0.37900E+07
        -0.97128E+07
        -0.14415E+08
        -0.95287E+07
        -0.92937E+07
        -0.52214E+07
        -0.72631E+06
         0.21567E+06
         0.31391E+07
        -0.70732E+07
        -0.12604E+07
        -0.43313E+07
        -0.63611E+07
        -0.68679E+07
        -0.10648E+07
         0.80003E+07
         0.73673E+07
         0.13420E+07
        -0.55240E+05
         0.10380E+08
         0.35017E+07
        -0.18585E+07
         0.20366E+07
         0.11258E+08
         0.63749E+07
         0.94537E+07
        -0.38460E+06
         0.47610E+07
         0.96723E+07
         0.21802E+07
         0.12433E+08
         0.17387E+07
         0.50010E+07
         0.54007E+07
        -0.24716E+07
         0.13077E+08
         0.15686E+08
         0.10691E+08
         0.10900E+08
        -0.15151E+08
         0.53067E+06
         0.22998E+07
         0.76034E+07
         0.11029E+08
         0.66802E+07
         0.76606E+07
         0.11253E+08
        -0.31034E+07
         0.49913E+07
         0.10271E+08
         0.54624E+07
         0.68966E+07
         0.68402E+07
         0.36432E+07
         0.58148E+06
        -0.12215E+08
        -0.14730E+07
         0.50846E+07
        -0.72078E+07
        -0.41110E+06
         0.10439E+08
         0.12760E+08
         0.81590E+07
         0.44064E+07
         0.36100E+07
         0.21941E+07
         0.77807E+07
         0.57430E+07
         0.10289E+08
        -0.57445E+07
         0.12993E+07
        -0.52853E+07
        -0.19916E+07
        -0.53276E+06
         0.20757E+07
        -0.62279E+07
        -0.18952E+06
         0.11666E+07
        -0.10001E+07
        -0.86427E+07
        -0.16251E+08
        -0.14898E+08
        -0.10051E+08
        -0.31845E+07
        -0.58513E+06
        -0.51192E+06
        -0.17755E+07
         0.45941E+07
         0.64412E+07
         0.39579E+07
         0.56691E+07
        -0.63125E+07
         0.16014E+07
        -0.65987E+06
         0.26105E+07
         0.25443E+07
         0.16250E+07
         0.66619E+07
        -0.89155E+07
        -0.11249E+08
        -0.58778E+07
        -0.36244E+07
        -0.77477E+06
        -0.72953E+06
         0.73282E+06
        -0.26801E+07
        -0.12121E+08
         0.99287E+05
        -0.97727E+07
        -0.56943E+06
         0.23714E+07
         0.28895E+07
        -0.39554E+07
        -0.61847E+07
        -0.53242E+07
        -0.53132E+07
        -0.48310E+07
         0.55441E+07
         0.22381E+07
         0.30429E+07
        -0.57103E+06
        -0.35830E+07
         0.17869E+07
         0.33116E+07
        -0.18280E+07
        -0.63843E+07
         0.41965E+07
         0.69984E+07
        -0.72570E+06
         0.61688E+06
         0.58887E+07
         0.18504E+07
        -0.41772E+07
        -0.27356E+07
         0.36000E+07
         0.17224E+08
         0.51309E+07
         0.86756E+07
         0.15198E+07
        -0.49113E+07
        -0.65709E+07
         0.95088E+07
         0.51909E+07
        -0.32645E+07
        -0.16790E+07
        -0.66817E+06
        -0.40929E+07
        -0.10088E+07
        -0.25901E+07
        -0.87974E+07
        -0.70917E+07
        -0.52332E+07
        -0.11729E+07
        -0.83316E+07
        -0.17929E+08
        -0.13694E+08
        -0.44913E+07
         0.75325E+07
         0.69324E+07
        -0.71649E+07
        -0.41596E+07
         0.83360E+07
         0.57138E+07
         0.52928E+07
         0.41552E+07
         0.80322E+07
         0.93121E+07
         0.51942E+07
         0.88306E+07
         0.78577E+07
         0.63027E+07
        -0.20551E+07
         0.54309E+07
         0.61042E+07
         0.37068E+07
         0.63363E+07
        -0.13843E+07
        -0.23437E+06
         0.54071E+07
        -0.52398E+07
        -0.53502E+07
        -0.67432E+06
         0.23966E+07
         0.19333E+07
        -0.11448E+08
         0.18021E+07
        -0.76014E+07
         0.32608E+07
         0.24751E+07
        -0.82025E+07
        -0.98183E+07
        -0.83023E+07
        -0.67617E+07
        -0.51971E+07
        -0.28516E+07
         0.96927E+07
         0.66933E+07
         0.69860E+07
         0.33179E+07
         0.39436E+07
         0.44313E+07
         0.63766E+07
        -0.65640E+07
        -0.52761E+07
         0.71265E+07
         0.55859E+07
         0.14420E+07
         0.13330E+07
         0.39617E+07
        -0.94664E+06
        -0.43536E+07
         0.10787E+07
         0.67330E+07
         0.12219E+08
         0.12659E+08
         0.15998E+08
         0.71415E+07
        -0.68205E+07
        -0.16491E+07
         0.10128E+08
         0.57432E+07
         0.12665E+08
         0.14711E+08
         0.33531E+08
         0.20712E+08
         0.15609E+08
         0.48568E+07
         0.91394E+07
         0.15520E+08
         0.13286E+08
         0.12222E+08
         0.94287E+07
        -0.71067E+07
        -0.81368E+07
        -0.28619E+07
         0.24296E+07
         0.58239E+07
         0.79735E+07
         0.10621E+08
         0.54240E+07
         0.50768E+07
         0.21989E+07
         0.57514E+07
        -0.29874E+07
         0.19799E+07
         0.24387E+07
         0.80987E+05
         0.17867E+07
        -0.38919E+07
        -0.32861E+07
         0.19460E+07
         0.44808E+07
        -0.10880E+07
        -0.25230E+07
         0.51467E+07
        -0.26442E+07
         0.92264E+07
        -0.13606E+06
        -0.49228E+07
        -0.26787E+07
         0.32028E+07
         0.17787E+07
         0.29378E+07
        -0.22803E+07
         0.46052E+07
        -0.10570E+07
         0.12126E+07
        -0.60419E+07
        -0.61154E+07
         0.22091E+07
         0.31603E+07
         0.43144E+07
         0.57319E+07
        -0.76146E+07
        -0.25263E+07
         0.21957E+07
         0.17543E+07
         0.10083E+08
         0.11473E+08
         0.95007E+07
         0.72626E+05
         0.32240E+07
         0.79549E+07
         0.47208E+07
         0.65079E+06
         0.24699E+07
         0.38842E+07
         0.71324E+06
         0.13697E+07
         0.63544E+07
         0.53734E+07
        -0.22927E+07
         0.19693E+07
        -0.91982E+07
        -0.12471E+08
        -0.66593E+07
        -0.18416E+06
        -0.79142E+07
         0.87730E+06
         0.62992E+07
         0.11607E+08
         0.24105E+08
         0.17065E+08
         0.91460E+07
        -0.37536E+07
        -0.40354E+07
         0.65635E+07
         0.17332E+08
         0.17560E+08
         0.17199E+08
         0.71143E+06
        -0.91201E+07
        -0.61330E+07
        -0.58662E+07
         0.30809E+07
         0.17260E+08
         0.44008E+07
         0.50112E+07
         0.36874E+07
         0.16985E+07
         0.56319E+07
        -0.21426E+07
        -0.57908E+06
         0.34856E+07
         0.41011E+07
         0.37573E+07
         0.40716E+07
         0.33665E+07
         0.60430E+07
         0.69503E+07
         0.35117E+07
         0.59880E+06
         0.51350E+07
         0.36349E+07
         0.80727E+07
         0.75019E+07
         0.66741E+07
         0.60060E+07
         0.10356E+08
         0.45297E+07
         0.78378E+07
         0.73896E+07
         0.37038E+07
         0.17144E+07
         0.13573E+07
        -0.36772E+07
         0.43665E+07
        -0.34389E+06
        -0.17169E+06
         0.38271E+07
         0.78813E+07
        -0.11527E+07
        -0.60431E+06
         0.25396E+07
         0.19350E+07
         0.55939E+07
         0.60828E+07
        -0.21778E+07
         0.49288E+06
         0.99323E+07
         0.40879E+07
        -0.48776E+06
         0.49332E+05
         0.70410E+06
        -0.98563E+06
        -0.17649E+07
         0.39295E+07
         0.81088E+07
         0.27017E+07
         0.95736E+07
         0.64657E+07
         0.69232E+07
         0.44173E+07
         0.98725E+07
         0.37245E+07
        -0.38839E+07
         0.38834E+07
        -0.12942E+08
        -0.81254E+07
        -0.41464E+07
         0.10213E+05
        -0.22178E+06
        -0.61302E+06
        -0.89299E+07
        -0.15246E+08
        -0.58705E+07
        -0.43806E+07
         0.55255E+07
         0.38562E+07
        -0.35009E+07
         0.13525E+07
         0.38736E+07
         0.20920E+07
         0.86677E+07
        -0.30652E+07
        -0.49162E+07
        -0.36633E+06
        -0.71122E+06
        -0.29094E+06
         0.23166E+07
         0.13800E+07
         0.39617E+07
        -0.77744E+06
        -0.68912E+07
        -0.58329E+07
         0.64202E+07
         0.11844E+08
         0.12302E+08
         0.28690E+07
         0.36264E+07
        -0.28010E+07
        -0.65391E+07
        -0.11582E+07
         0.95105E+06
         0.39900E+06
         0.57766E+07
         0.11312E+07
         0.82171E+07
         0.42481E+06
        -0.50934E+07
        -0.31666E+07
        -0.34071E+07
        -0.69381E+07
        -0.18043E+07
        -0.14929E+06
        -0.45043E+07
        -0.20015E+07
        -0.24309E+07
         0.26185E+06
         0.37787E+07
         0.23915E+07
         0.58633E+07
         0.32220E+07
         0.52477E+07
         0.55795E+07
         0.19833E+07
         0.37592E+07
         0.19410E+07
         0.44920E+07
         0.14184E+07
         0.51143E+07
         0.55738E+07
         0.39663E+07
         0.87504E+05
        -0.24495E+06
        -0.27462E+07
        -0.17961E+07
         0.11671E+08
         0.10914E+08
         0.28570E+08
         0.23503E+08
         0.17043E+08
         0.86980E+07
         0.86923E+06
        -0.27377E+06
         0.61449E+07
        -0.31173E+06
        -0.10492E+08
         0.14523E+08
         0.11816E+08
         0.15468E+08
         0.15414E+08
         0.76590E+07
         0.31103E+07
         0.17765E+07
         0.49355E+07
         0.42111E+07
         0.80102E+07
         0.92252E+07
         0.70355E+07
        -0.29231E+07
         0.30965E+07
         0.32465E+07
         0.10890E+08
         0.35343E+07
         0.99703E+06
         0.85585E+07
        -0.12831E+07
         0.15628E+07
         0.70531E+07
         0.11918E+08
         0.13705E+08
         0.10758E+08
         0.51398E+07
         0.11427E+08
         0.11113E+08
         0.59571E+07
         0.32715E+07
         0.97295E+07
         0.10462E+08
         0.15772E+08
         0.10233E+08
         0.90275E+07
         0.12310E+08
         0.62159E+07
         0.13449E+08
         0.93520E+07
         0.63095E+07
         0.30932E+07
         0.56549E+07
         0.46439E+07
         0.86810E+07
         0.83995E+07
         0.64870E+07
         0.24101E+07
         0.11326E+08
         0.10192E+08
        -0.26899E+07
        -0.25084E+07
         0.25901E+07
         0.98011E+07
         0.13055E+08
         0.91763E+07
        -0.16001E+07
         0.45021E+07
         0.47481E+07
         0.60261E+07
         0.19884E+07
         0.58532E+07
         0.48345E+07
         0.70847E+07
         0.69363E+07
         0.67994E+07
         0.39496E+06
        -0.11547E+07
        -0.41203E+07
        -0.13681E+08
         0.13486E+08
         0.87061E+07
         0.78625E+07
         0.99932E+07
         0.86051E+07
         0.75428E+07
         0.15971E+07
        -0.11177E+08
        -0.20930E+08
        -0.11468E+08
         0.33375E+07
         0.17703E+08
         0.24814E+08
         0.24427E+08
         0.16638E+08
         0.10239E+08
         0.44836E+07
         0.19700E+06
         0.74920E+07
         0.64744E+07
         0.73820E+07
         0.65686E+07
        -0.15008E+07
        -0.10861E+08
         0.30328E+07
         0.33525E+07
         0.33402E+07
         0.53322E+07
         0.12942E+07
         0.39864E+06
         0.70320E+07
         0.61810E+07
        -0.67119E+06
         0.32120E+07
         0.92759E+07
         0.11189E+08
         0.11576E+08
         0.44978E+07
         0.22337E+07
         0.40839E+06
        -0.45628E+07
         0.59899E+07
         0.24654E+07
         0.20324E+07
         0.14485E+08
         0.10265E+08
         0.14210E+08
         0.53491E+07
        -0.71207E+06
        -0.25498E+07
         0.30135E+07
         0.10717E+07
         0.47703E+06
         0.48261E+07
         0.17406E+07
        -0.26171E+06
         0.63096E+07
         0.66611E+07
         0.41610E+07
         0.81685E+06
         0.42122E+07
         0.67877E+07
         0.76018E+07
         0.21614E+07
        -0.53846E+07
         0.18435E+07
         0.89784E+07
         0.60018E+07
         0.12741E+07
         0.53210E+07
         0.48352E+07
         0.41170E+07
         0.13594E+07
         0.60252E+06
        -0.60096E+07
        -0.42626E+07
        -0.12813E+08
        -0.14579E+08
        -0.72497E+07
        -0.20529E+07
         0.15338E+07
         0.80842E+06
         0.23149E+07
         0.44439E+06
        -0.37635E+06
         0.73503E+07
         0.44222E+07
        -0.18221E+08
        -0.10174E+08
        -0.13415E+08
        -0.69724E+07
         0.43540E+07
         0.71943E+07
         0.33996E+07
         0.60294E+06
        -0.56337E+06
         0.48115E+07
         0.24801E+07
        -0.15846E+07
        -0.30847E+07
        -0.92737E+07
        -0.12734E+08
         0.59985E+07
         0.42328E+07
         0.64967E+07
         0.63640E+07
         0.72466E+07
         0.58526E+07
         0.60029E+07
         0.99004E+07
         0.39496E+07
         0.77893E+07
         0.51764E+07
         0.78112E+07
         0.68699E+07
         0.62797E+07
         0.19946E+07
         0.39736E+07
         0.14767E+07
         0.65891E+07
         0.31560E+07
         0.16443E+07
         0.39233E+07
         0.46073E+07
         0.24748E+07
         0.76280E+06
         0.22701E+07
        -0.78330E+06
         0.40260E+07
        -0.22490E+06
         0.89590E+06
         0.15014E+07
         0.23666E+07
        -0.36874E+06
         0.53554E+07
         0.61202E+07
         0.66251E+07
         0.11396E+07
         0.17057E+07
         0.23129E+07
         0.16457E+07
         0.88357E+06
         0.92268E+06
         0.62856E+07
         0.63482E+07
        -0.92192E+06
        -0.39875E+07
        -0.28108E+07
         0.41251E+06
         0.37596E+07
         0.32387E+07
         0.42991E+07
         0.18584E+07
         0.16668E+07
        -0.92805E+07
        -0.46507E+07
        -0.94521E+07
        -0.33582E+07
         0.13717E+07
         0.32476E+07
        -0.13068E+07
        -0.67491E+07
         0.17663E+08
         0.11159E+08
        -0.71446E+07
        -0.70235E+07
        -0.58816E+07
        -0.20201E+08
        -0.13070E+08
        -0.55067E+07
        -0.23079E+07
        -0.19936E+07
         0.15007E+07
        -0.46535E+07
        -0.32627E+07
        -0.13746E+07
        -0.19861E+06
        -0.31731E+06
        -0.16338E+07
        -0.20221E+07
         0.72103E+07
         0.45622E+07
         0.70896E+07
         0.80295E+07
         0.90495E+07
         0.84871E+07
         0.52944E+07
         0.10291E+08
         0.66552E+07
         0.98800E+07
         0.10660E+07
         0.67083E+07
         0.81320E+07
         0.66391E+07
         0.20896E+07
         0.71858E+07
         0.55991E+07
         0.89411E+07
         0.72640E+07
         0.44414E+07
        -0.15660E+07
         0.20908E+07
        -0.62927E+06
         0.60067E+07
         0.52493E+07
         0.45739E+07
         0.91420E+07
         0.52377E+07
         0.27861E+07
         0.30034E+07
         0.50767E+07
         0.20729E+07
         0.79490E+07
         0.97594E+07
         0.65739E+07
         0.15981E+07
         0.33209E+07
         0.66453E+07
         0.44870E+07
         0.12897E+07
         0.84713E+07
         0.12248E+08
         0.87189E+07
        -0.35817E+06
        -0.37107E+07
        -0.46182E+07
         0.11215E+07
         0.64134E+07
         0.73396E+07
         0.83894E+07
         0.30956E+07
         0.34617E+07
        -0.12759E+07
        -0.70930E+05
         0.17903E+07
         0.80182E+07
         0.39889E+07
        -0.94328E+06
         0.60948E+07
         0.39127E+07
         0.15178E+08
        -0.52064E+05
         0.13215E+08
         0.13005E+08
         0.14944E+08
         0.33553E+07
        -0.13675E+06
        -0.63332E+07
        -0.10935E+08
        -0.15604E+08
        -0.87699E+07
         0.67081E+06
         0.56195E+06
        -0.31408E+07
         0.62215E+06
         0.51173E+06
        -0.38426E+07
        -0.14840E+07
        -0.47183E+06
        -0.79096E+05
        -0.13225E+07
         0.11040E+07
         0.16667E+07
         0.24921E+07
         0.53078E+07
         0.41931E+07
         0.21005E+07
         0.49783E+07
         0.19741E+07
         0.97811E+07
         0.12977E+08
         0.12192E+07
         0.71511E+05
         0.44338E+07
         0.49401E+07
         0.55012E+07
         0.63094E+07
         0.74913E+07
         0.32627E+07
         0.85102E+07
         0.10043E+07
        -0.87103E+05
         0.33240E+07
         0.11933E+07
         0.16393E+07
        -0.17716E+07
        -0.15319E+07
         0.34158E+07
         0.10152E+07
         0.89303E+06
         0.37392E+07
         0.54504E+07
         0.60920E+07
         0.22092E+07
         0.71475E+07
         0.32907E+07
         0.38051E+07
         0.25165E+07
         0.84479E+07
         0.10385E+08
         0.11368E+08
         0.14649E+07
         0.16778E+07
         0.59649E+07
         0.40164E+07
         0.32827E+07
         0.16806E+07
         0.34817E+07
         0.26750E+07
         0.21763E+07
         0.11174E+08
         0.12209E+08
         0.82604E+07
         0.74981E+07
         0.17899E+07
         0.51740E+07
         0.12384E+08
        -0.53968E+07
         0.19791E+07
        -0.34382E+07
         0.92825E+07
         0.97938E+07
         0.11697E+08
         0.34774E+07
         0.28619E+07
        -0.27774E+07
        -0.77073E+07
        -0.10150E+08
        -0.31473E+07
         0.92937E+07
         0.13932E+08
         0.63500E+07
         0.30217E+07
         0.57771E+07
         0.86007E+07
         0.10556E+08
        -0.16017E+07
         0.48694E+07
         0.73497E+07
         0.48134E+07
         0.98102E+07
         0.89964E+07
         0.73317E+07
         0.10215E+06
        -0.42747E+07
        -0.25822E+07
         0.60906E+07
         0.11220E+08
         0.15245E+08
         0.19126E+07
         0.31671E+07
         0.28057E+07
        -0.13358E+07
         0.49380E+07
         0.62838E+07
         0.83670E+07
         0.90313E+07
         0.12227E+08
         0.51966E+07
         0.99140E+06
         0.32288E+06
         0.24311E+07
        -0.12791E+07
        -0.26244E+07
         0.21463E+07
         0.51721E+07
         0.73985E+07
         0.78325E+07
         0.98156E+07
         0.11823E+08
         0.14387E+08
         0.96985E+07
         0.11713E+08
         0.33509E+07
         0.32109E+07
         0.80481E+07
         0.16670E+08
         0.10623E+08
         0.90937E+07
         0.53963E+07
         0.85750E+07
         0.16062E+08
         0.12075E+08
         0.10574E+08
         0.78743E+07
         0.95682E+07
         0.10467E+08
         0.87545E+07
         0.14580E+08
         0.19913E+08
         0.91817E+07
         0.97334E+07
         0.84250E+07
         0.78324E+07
         0.13739E+08
         0.63835E+07
         0.81235E+07
         0.64017E+07
         0.11618E+08
         0.12262E+08
         0.14578E+08
         0.18299E+08
         0.11199E+08
         0.67351E+07
         0.10574E+08
         0.10625E+08
         0.12618E+08
         0.10664E+08
         0.14929E+08
         0.15140E+08
         0.17116E+08
         0.17182E+08
         0.17983E+08
         0.15952E+08
        -0.42663E+06
         0.35505E+07
         0.54424E+07
         0.41383E+07
         0.58073E+07
         0.50427E+07
         0.53370E+07
         0.33488E+07
        -0.26914E+07
         0.38652E+07
         0.33219E+07
         0.40876E+07
         0.91150E+07
         0.47980E+07
        -0.59222E+06
         0.24374E+07
         0.16331E+07
         0.34743E+07
         0.97863E+07
         0.12305E+08
         0.90280E+07
         0.99521E+07
         0.72538E+07
         0.70801E+07
         0.88888E+07
         0.13635E+07
         0.54664E+07
         0.48067E+07
         0.57139E+07
         0.10656E+08
         0.43085E+07
         0.18876E+07
         0.75867E+07
         0.95185E+07
         0.67370E+07
         0.52896E+07
         0.75964E+07
         0.41353E+07
         0.62744E+07
         0.12215E+08
         0.24245E+08
         0.13350E+08
         0.92294E+07
         0.44517E+07
         0.28363E+07
         0.63559E+07
         0.52640E+07
         0.68503E+07
         0.59221E+07
         0.62929E+07
         0.27420E+07
         0.30713E+07
         0.64830E+07
         0.14482E+08
         0.37276E+07
         0.87706E+07
         0.46724E+07
        -0.27378E+07
        -0.13855E+07
         0.45606E+07
         0.21017E+08
         0.24091E+08
         0.34350E+08
         0.27948E+08
         0.26120E+08
         0.14824E+08
         0.67950E+07
         0.72397E+07
         0.11291E+08
         0.14091E+08
         0.18920E+08
         0.14081E+08
         0.63875E+07
         0.10947E+07
         0.73128E+07
         0.12621E+08
         0.34342E+07
         0.12861E+07
        -0.18319E+07
         0.25209E+07
         0.42857E+07
         0.33986E+07
         0.54683E+07
         0.51884E+07
         0.41239E+07
         0.64080E+06
        -0.24754E+07
         0.20111E+07
         0.15416E+07
         0.48595E+07
         0.95780E+07
        -0.12867E+07
        -0.19845E+07
         0.22347E+07
         0.23332E+07
         0.32077E+07
         0.90325E+07
         0.12143E+08
         0.64392E+07
         0.83996E+07
         0.56111E+07
         0.57807E+07
         0.71128E+07
         0.15573E+07
        -0.20591E+07
        -0.98760E+06
         0.35082E+07
         0.95752E+07
         0.28438E+07
         0.82727E+06
         0.74297E+07
         0.11324E+08
         0.11159E+08
         0.74055E+07
         0.86928E+07
         0.75632E+06
         0.60207E+07
         0.14779E+08
         0.30318E+08
         0.16447E+08
         0.10589E+08
         0.56885E+07
         0.50563E+07
         0.68842E+07
         0.26157E+07
         0.43261E+07
         0.69142E+07
         0.10877E+08
         0.10911E+08
         0.70217E+07
         0.21510E+08
         0.17986E+08
         0.13336E+08
         0.93284E+07
         0.13812E+07
         0.91413E+06
         0.90264E+07
         0.48783E+07
         0.21962E+08
         0.27578E+08
         0.43077E+08
         0.38677E+08
         0.30097E+08
         0.14834E+08
         0.41019E+07
        -0.23087E+07
         0.43904E+07
         0.12937E+08
         0.15354E+08
         0.67401E+07
         0.54858E+07
         0.54285E+07
         0.77553E+07
         0.11559E+08
         0.97717E+07
         0.33231E+07
        -0.14397E+07
         0.54781E+07
         0.77451E+07
         0.50284E+07
         0.54830E+07
         0.77620E+07
         0.39754E+07
         0.57408E+06
        -0.72751E+07
         0.44848E+06
        -0.48689E+07
         0.42218E+07
         0.80839E+07
        -0.12685E+07
         0.15616E+07
        -0.16418E+07
        -0.58371E+07
        -0.41499E+06
         0.26056E+07
         0.47393E+07
         0.36661E+07
         0.47014E+07
         0.70450E+07
         0.42731E+07
         0.30322E+07
         0.51304E+07
         0.20338E+07
        -0.56291E+06
        -0.30508E+07
         0.42134E+07
         0.63953E+07
         0.97838E+07
         0.71412E+07
         0.10003E+08
         0.87072E+06
         0.41344E+07
         0.71003E+07
         0.83126E+07
         0.91952E+07
         0.98699E+07
         0.18744E+08
         0.11486E+08
         0.81934E+07
         0.10860E+08
         0.12594E+08
         0.12212E+08
         0.97254E+07
         0.77062E+07
         0.47098E+07
         0.45805E+07
         0.16444E+07
         0.71530E+07
         0.26584E+07
         0.63481E+07
        -0.49868E+07
        -0.27565E+07
         0.54753E+05
         0.55767E+07
         0.91776E+07
         0.44729E+06
         0.14770E+08
         0.17432E+08
         0.24622E+08
         0.15647E+08
         0.11495E+08
         0.78584E+07
         0.10576E+08
         0.74889E+07
         0.66858E+07
         0.65769E+07
         0.10551E+07
        -0.31938E+07
        -0.89666E+06
        -0.13098E+07
        -0.62422E+07
        -0.11850E+08
         0.10902E+07
         0.74122E+06
         0.11661E+08
         0.14678E+08
         0.15292E+08
         0.11496E+08
         0.97453E+07
         0.12459E+08
         0.13577E+08
         0.12968E+08
         0.66050E+07
         0.13617E+08
         0.98400E+07
         0.11154E+08
         0.11404E+08
         0.11180E+08
         0.10621E+08
         0.73014E+07
         0.68081E+07
         0.99453E+07
         0.97541E+07
         0.10994E+08
         0.10421E+08
         0.10278E+08
         0.12449E+08
         0.13262E+08
         0.13489E+08
         0.11607E+08
         0.11857E+08
         0.45101E+07
        -0.10019E+07
         0.92849E+07
         0.11778E+08
         0.12832E+08
         0.13113E+08
         0.15104E+08
         0.44553E+07
         0.87741E+07
         0.10193E+08
         0.14306E+08
         0.98305E+07
         0.62114E+07
         0.77219E+07
         0.12511E+08
         0.12999E+08
         0.13433E+08
         0.13983E+08
         0.15636E+08
         0.10437E+08
         0.74623E+07
         0.56556E+07
         0.82665E+07
         0.10488E+08
         0.13173E+08
         0.63891E+06
         0.74291E+07
        -0.84799E+07
        -0.11421E+08
        -0.65176E+07
         0.65828E+07
         0.71387E+07
        -0.35617E+07
         0.98057E+07
        -0.32595E+07
        -0.18590E+08
        -0.12666E+08
        -0.90583E+07
        -0.56432E+07
         0.99739E+07
         0.85422E+07
         0.26862E+07
         0.52373E+07
         0.16476E+08
         0.24186E+08
         0.15647E+08
         0.12222E+08
         0.15233E+08
         0.13194E+08
         0.23513E+08
         0.12130E+08
         0.31951E+07
         0.85693E+07
         0.12376E+08
         0.82597E+07
         0.93067E+07
         0.95065E+07
         0.83259E+07
         0.53362E+07
        -0.16732E+07
         0.61134E+07
         0.10998E+08
         0.93117E+07
         0.76550E+07
         0.86457E+07
         0.10340E+08
         0.20921E+07
         0.10188E+07
         0.51754E+07
         0.72963E+07
         0.11972E+08
         0.13316E+08
         0.13709E+08
         0.10151E+08
         0.41353E+07
         0.97697E+07
         0.33126E+07
         0.60035E+07
         0.29183E+06
        -0.25203E+07
         0.91683E+07
         0.10870E+08
         0.79850E+07
         0.13907E+08
         0.14915E+08
         0.10771E+08
         0.10494E+08
         0.85254E+07
         0.99789E+07
         0.51653E+07
         0.31952E+07
         0.42322E+07
         0.83022E+07
         0.11119E+08
         0.85638E+07
         0.94768E+07
         0.12194E+08
         0.88072E+07
         0.83412E+07
         0.89926E+07
         0.10146E+08
         0.72586E+07
         0.93689E+07
         0.44482E+07
         0.36780E+07
        -0.42225E+06
        -0.45577E+07
        -0.74629E+07
         0.47207E+07
         0.22215E+08
         0.75760E+07
         0.12402E+08
        -0.62600E+06
        -0.18108E+08
        -0.12663E+08
        -0.69921E+07
         0.19421E+07
         0.59928E+07
         0.42716E+07
         0.37801E+07
        -0.20684E+07
         0.53961E+07
         0.10368E+08
         0.39133E+07
         0.95857E+07
         0.18443E+08
         0.11149E+08
         0.12481E+08
         0.75182E+06
         0.81306E+07
         0.53799E+07
         0.95112E+07
         0.10459E+08
         0.12535E+08
         0.14943E+08
         0.60855E+07
         0.11138E+08
         0.95661E+07
         0.17434E+08
         0.74559E+07
         0.95057E+07
         0.77733E+07
         0.96545E+07
         0.86537E+07
         0.96236E+07
         0.13651E+08
         0.11554E+08
         0.15944E+08
         0.18177E+08
         0.13837E+08
         0.11472E+08
         0.98325E+07
         0.12522E+08
         0.20439E+08
         0.87060E+07
         0.12658E+08
         0.93379E+07
         0.35011E+07
         0.11114E+08
         0.16464E+08
         0.11135E+08
         0.18409E+08
         0.17191E+08
         0.79506E+07
         0.60118E+07
         0.54800E+07
         0.12881E+08
         0.13310E+08
         0.12669E+08
         0.15385E+08
         0.11221E+08
         0.74343E+07
         0.72122E+07
         0.78509E+07
         0.85705E+07
         0.10865E+08
         0.14549E+08
         0.14513E+08
         0.13297E+08
         0.11091E+08
         0.13772E+08
         0.10412E+08
         0.22622E+08
         0.15987E+08
         0.19658E+08
         0.16282E+08
         0.10890E+08
         0.82279E+07
        -0.60524E+07
         0.88689E+07
        -0.38710E+07
        -0.11790E+08
        -0.10575E+08
        -0.55133E+07
        -0.15283E+07
        -0.65885E+07
        -0.10778E+08
        -0.56607E+07
        -0.50172E+07
         0.14001E+07
         0.83410E+07
         0.10159E+08
         0.14257E+08
         0.24978E+08
         0.20404E+08
         0.22239E+08
         0.17759E+08
        -0.17282E+07
        -0.48924E+07
         0.10741E+06
         0.57285E+07
         0.40171E+07
         0.94428E+07
        -0.65097E+07
        -0.22271E+07
         0.18625E+07
         0.55826E+07
        -0.88810E+07
         0.42519E+07
         0.25203E+07
        -0.22701E+07
         0.36743E+07
         0.70933E+07
         0.57068E+07
         0.83324E+07
         0.10639E+08
         0.91979E+07
         0.11637E+08
         0.71142E+07
         0.13279E+08
         0.13376E+08
         0.96755E+07
         0.78011E+07
         0.27165E+07
         0.53925E+05
        -0.46549E+07
         0.36767E+07
         0.11370E+08
         0.76251E+07
         0.13186E+08
         0.11937E+08
         0.42091E+05
         0.51513E+05
         0.30788E+06
         0.68053E+07
         0.38955E+07
         0.19115E+07
         0.69624E+07
         0.67223E+07
         0.52126E+07
         0.10288E+08
         0.79388E+07
         0.69097E+07
         0.67291E+07
         0.10220E+08
         0.10482E+08
         0.92062E+07
         0.68997E+07
         0.99395E+07
         0.13097E+08
         0.78796E+07
         0.27301E+08
         0.27672E+08
         0.21666E+08
         0.11881E+08
         0.63981E+07
        -0.20528E+07
         0.51080E+07
        -0.10079E+08
        -0.90497E+07
        -0.37151E+07
         0.96370E+07
         0.66363E+07
         0.16423E+08
         0.14663E+08
         0.35161E+07
         0.40603E+07
         0.17350E+08
         0.21462E+08
         0.17561E+08
         0.14688E+08
         0.16365E+08
         0.82793E+07
         0.11228E+08
         0.41212E+07
        -0.23562E+07
         0.83052E+07
         0.14618E+08
         0.75651E+07
         0.14367E+08
         0.12811E+08
         0.39372E+07
        -0.70388E+07
        -0.73388E+07
        -0.84448E+07
        -0.43519E+07
         0.25550E+07
         0.10739E+08
        -0.66312E+07
        -0.23287E+07
         0.84573E+07
        -0.77667E+06
         0.42249E+07
         0.13753E+08
         0.11259E+08
         0.13581E+08
         0.13892E+08
         0.17565E+08
         0.22686E+08
        -0.67716E+06
         0.23453E+08
        -0.58270E+07
        -0.50507E+07
        -0.71226E+06
         0.78829E+07
         0.21121E+08
         0.28080E+08
         0.17256E+08
         0.15087E+08
         0.17917E+08
         0.16580E+08
         0.14269E+08
         0.19567E+06
         0.50125E+06
         0.30208E+07
         0.99417E+07
         0.10385E+08
         0.13274E+08
         0.22542E+08
         0.27548E+08
         0.31158E+08
         0.25334E+08
         0.22465E+08
         0.18795E+08
         0.17609E+08
         0.14138E+08
         0.13267E+08
         0.21933E+08
         0.19061E+08
         0.21178E+08
         0.17231E+08
         0.11267E+08
        -0.64717E+07
        -0.16373E+08
        -0.18977E+08
        -0.99880E+07
        -0.72836E+07
         0.63160E+06
         0.45407E+06
         0.68715E+07
         0.17190E+08
         0.31671E+08
         0.31109E+08
         0.26320E+08
         0.29354E+08
         0.32388E+08
         0.42366E+08
         0.38943E+08
         0.27671E+08
         0.13369E+08
        -0.11815E+08
        -0.36099E+07
         0.43099E+07
         0.20726E+08
         0.19506E+08
         0.97852E+07
         0.11576E+08
        -0.10075E+08
        -0.41610E+07
         0.25960E+08
         0.30633E+08
         0.10512E+08
         0.28673E+08
         0.41509E+08
         0.25059E+08
         0.14887E+08
         0.36979E+08
         0.33381E+08
        -0.13949E+08
        -0.27580E+07
         0.54591E+07
        -0.21912E+08
        -0.10763E+08
        -0.17494E+08
        -0.12851E+08
        -0.25777E+08
        -0.45807E+08
         0.18018E+08
        -0.45458E+08
         0.31858E+08
         0.20729E+08
         0.99540E+07
        -0.17691E+07
        -0.20292E+08
        -0.46899E+08
        -0.30370E+06
         0.70297E+07
        -0.23323E+08
        -0.16301E+07
         0.76571E+07
         0.37676E+08
         0.35523E+08
         0.36909E+08
         0.52610E+08
         0.23297E+08
        -0.11616E+07
        -0.32630E+08
        -0.44408E+08
        -0.61480E+08
        -0.40926E+08
        -0.25669E+08
        -0.17075E+08
        -0.19685E+08
        -0.41333E+08
        -0.10634E+08
        -0.31281E+08
        -0.39237E+08
        -0.24347E+08
        -0.13373E+08
        -0.39592E+07
         0.12437E+08
         0.32698E+08
         0.35926E+08
         0.47305E+08
         0.65560E+08
         0.82706E+08
         0.79490E+08
         0.45735E+08
         0.23440E+08
        -0.21974E+07
        -0.24262E+08
        -0.31840E+08
        -0.53373E+08
        -0.69839E+08
        -0.59279E+08
        -0.69816E+08
        -0.77023E+08
        -0.91408E+08
        -0.10222E+09
        -0.70603E+08
        -0.51832E+08
  
SCALARS                         fint_x  double 1
LOOKUP_TABLE default
         0.25282E+03
         0.11102E+03
         0.98531E+02
         0.21011E+03
        -0.44168E+03
        -0.13702E+03
        -0.10588E+03
        -0.33748E+03
         0.43165E+02
         0.61982E+02
        -0.29785E+02
        -0.56229E+02
         0.63805E+02
         0.14163E+03
        -0.66453E+02
        -0.18988E+03
         0.30887E+03
         0.20167E+03
        -0.68923E+03
        -0.38664E+03
         0.29257E+02
         0.17921E+02
         0.23314E+02
        -0.24690E+02
        -0.26071E+02
        -0.40864E+02
         0.60318E+02
         0.29167E+02
        -0.64916E+02
        -0.15519E+02
         0.20737E+03
         0.24449E+03
         0.27509E+03
        -0.44094E+03
        -0.58379E+03
        -0.61806E+03
         0.85929E+02
         0.10668E+03
        -0.14869E+03
        -0.20948E+03
         0.22983E+02
         0.34174E+02
        -0.45862E+02
        -0.48058E+02
         0.22276E+02
         0.47680E+02
        -0.46219E+02
        -0.68104E+02
         0.17014E+03
        -0.36911E+03
         0.71465E+02
        -0.10584E+03
         0.90920E+02
        -0.12826E+03
         0.81812E+02
        -0.12894E+03
         0.40361E+02
         0.79171E+02
        -0.65175E+02
        -0.14463E+03
         0.12115E+03
         0.47410E+02
        -0.20430E+03
        -0.70694E+02
         0.16577E+03
        -0.28744E+03
         0.12495E+03
        -0.14037E+03
         0.14451E+02
         0.31113E+02
        -0.97826E+01
        -0.17361E+02
         0.31603E+02
        -0.36656E+02
         0.49013E+02
        -0.27247E+02
         0.46559E+02
        -0.34343E+02
         0.30129E+02
        -0.34467E+02
         0.10526E+02
         0.14716E+02
        -0.16471E+02
        -0.32642E+02
         0.32918E+02
        -0.42429E+02
         0.21027E+02
        -0.21307E+02
         0.10903E+02
        -0.11608E+02
         0.26403E+01
         0.55451E+01
        -0.57808E+01
        -0.65508E+01
         0.31584E+02
        -0.40900E+02
         0.53961E+02
        -0.57014E+02
         0.47657E+02
        -0.26811E+02
         0.17325E+02
         0.41787E+02
        -0.90767E+00
        -0.25558E+02
         0.11780E+02
         0.10792E+02
         0.11957E+02
        -0.13583E+01
         0.13081E+02
         0.15734E+02
         0.68288E+01
         0.38071E+01
         0.43049E+01
        -0.12078E+02
         0.41289E+01
         0.27999E-01
         0.10102E+02
         0.32853E+01
         0.61650E+01
        -0.53210E+01
         0.13926E+02
        -0.12999E+02
         0.77988E+01
         0.64080E+01
         0.93169E+01
        -0.10009E+02
         0.12401E+02
        -0.33269E+00
         0.20989E+02
         0.16174E+01
         0.13577E+01
        -0.47775E+00
        -0.52535E+00
        -0.92246E+01
         0.23244E+01
        -0.99070E+01
         0.96791E+01
         0.66963E+01
         0.10905E+02
         0.10490E+02
         0.13839E+02
        -0.32180E+01
         0.12121E+02
        -0.73498E+01
         0.17802E+02
         0.10170E+01
         0.17831E+02
        -0.16627E+02
         0.14690E+02
        -0.65294E+01
         0.10333E+02
         0.14693E+01
         0.13192E+02
        -0.10966E+02
         0.74557E+01
        -0.13270E+02
         0.92434E+02
         0.42526E+02
         0.35683E+02
         0.65410E+02
         0.19855E+02
         0.17694E+02
         0.26285E+02
         0.59349E+02
         0.12004E+03
         0.80579E+02
         0.71734E+01
         0.38616E+00
         0.56503E+01
         0.26564E+02
         0.11549E+02
         0.87905E+02
         0.11038E+03
         0.89107E+02
         0.66489E+02
         0.56220E+02
         0.19591E+02
         0.33372E+02
         0.13261E+02
         0.40716E+02
         0.57020E+02
         0.48455E+02
         0.41883E+02
         0.31218E+02
         0.15624E+02
         0.11943E+02
         0.34068E+02
         0.22872E+02
         0.43242E+02
         0.41643E+02
         0.74774E+01
         0.13481E+02
         0.12889E+02
         0.20064E+02
         0.18643E+02
         0.14391E+02
         0.71697E+01
         0.53809E+01
         0.20518E+02
         0.16889E+02
         0.12474E+02
         0.91349E+01
         0.35877E+01
         0.88186E+01
         0.27674E+02
         0.26708E+02
         0.19926E+01
         0.49829E+01
         0.92026E+01
         0.11109E+02
         0.16573E+02
         0.13669E+02
         0.99037E+01
         0.57207E+01
         0.15446E+02
         0.44845E+01
         0.99487E+01
         0.16922E+01
         0.37010E+01
         0.72299E+01
         0.22183E+02
         0.34122E+01
         0.10153E+01
         0.11332E+02
         0.15101E+02
         0.17489E-01
         0.75489E+00
         0.82713E+01
         0.17620E+02
         0.12465E+02
         0.90969E+01
         0.12348E+02
         0.19304E+02
         0.10337E+02
         0.28724E+02
         0.18198E+02
         0.16741E+02
         0.19127E+02
         0.17920E+02
         0.11291E+02
         0.67983E+01
         0.91922E+01
         0.35757E+02
         0.17481E+02
        -0.30407E+01
         0.13023E+00
         0.23301E+01
         0.36839E+01
         0.54319E+01
         0.20376E+02
         0.36898E+02
         0.17481E+02
         0.26935E+02
         0.22139E+02
        -0.21622E+01
         0.12467E+02
        -0.11904E+02
         0.95780E+01
         0.17543E+02
         0.13538E+02
         0.17028E+02
         0.20643E+02
         0.22914E+01
        -0.38761E+01
         0.24797E+01
         0.56790E+01
         0.47682E+01
         0.10512E+02
         0.28733E+01
         0.23607E+01
         0.32456E+01
         0.31036E+01
         0.16127E+01
         0.51559E+00
        -0.65772E+00
         0.19871E+01
         0.47806E+01
        -0.11832E+01
         0.80997E+01
         0.11661E+02
         0.50957E+01
         0.84860E+01
         0.26728E+02
         0.20955E+02
        -0.27293E+01
        -0.44310E+01
         0.56593E+01
         0.11561E+02
         0.72855E+01
         0.48805E+01
         0.23054E+01
        -0.27972E+01
         0.14715E+01
        -0.70267E+01
        -0.11980E+02
        -0.11837E+02
        -0.28584E+01
         0.27208E+01
         0.87181E+00
         0.73101E+01
         0.61694E+01
         0.10023E+02
         0.15308E+02
         0.19102E+01
        -0.34293E+01
        -0.32717E+01
         0.10081E+02
         0.64697E+01
        -0.51719E+01
        -0.41353E+01
         0.90037E+01
         0.72646E+01
         0.15948E+02
         0.11378E+02
         0.49206E+01
         0.19892E+02
        -0.85338E+01
         0.46553E+00
         0.44947E+01
         0.17413E+01
         0.57238E+01
        -0.27339E+01
         0.29042E+01
         0.72772E+01
        -0.39446E+00
         0.33372E+01
         0.13644E+02
        -0.68934E+01
        -0.79707E+01
         0.72631E+01
         0.12002E+01
         0.34694E+00
        -0.13140E+02
        -0.18593E+02
        -0.59073E+01
         0.30816E+01
         0.39360E+00
        -0.21283E+00
         0.39054E+01
         0.46661E+01
        -0.44100E+01
         0.16485E+01
         0.14620E+00
        -0.50888E-01
         0.81023E+01
         0.15057E+02
        -0.18946E+02
        -0.13632E+02
        -0.64617E+01
         0.75990E+01
        -0.36075E+01
        -0.89938E+01
        -0.11592E+02
        -0.84984E+01
        -0.13337E+02
         0.19308E+01
         0.64287E+01
         0.10118E+02
         0.30820E+01
         0.40938E+00
         0.11603E+02
         0.12268E+02
        -0.85471E+00
        -0.12863E+01
        -0.10936E+02
        -0.14726E+02
        -0.64042E+01
        -0.57707E+01
        -0.45544E+01
         0.11094E+01
         0.76169E+00
        -0.25639E+01
        -0.79673E+01
        -0.84089E+01
        -0.81748E+01
        -0.22532E+01
        -0.24857E+02
        -0.10717E+02
         0.51135E+00
         0.33461E+01
         0.23190E+01
        -0.21667E+01
         0.52309E+01
        -0.18098E+00
         0.74006E+01
         0.63660E+01
        -0.32174E+00
        -0.23989E+01
        -0.42703E+01
        -0.14201E+02
        -0.38940E+00
        -0.11588E+01
        -0.34124E+01
         0.60229E+01
        -0.14606E+02
        -0.25937E+01
         0.18614E+01
         0.29372E+01
         0.64380E+01
         0.85843E+01
         0.32389E+01
        -0.29065E+00
         0.82610E+00
         0.51688E+01
         0.94275E+01
         0.40024E+01
         0.11464E+02
         0.10267E+02
         0.55902E+00
         0.14427E+00
        -0.14530E+02
        -0.29247E+02
         0.40810E+01
         0.57651E+01
         0.12817E+02
         0.13672E+00
        -0.69646E+01
        -0.17150E+02
        -0.27712E+01
         0.98343E+01
         0.28270E+01
        -0.76575E+01
         0.17312E+02
         0.23231E+02
        -0.89865E+01
         0.84702E-02
         0.54975E+01
         0.84619E+01
        -0.97697E+01
        -0.11883E+02
        -0.16790E+02
        -0.15291E+02
        -0.15276E+02
         0.52732E+01
        -0.12429E+01
        -0.18639E+01
        -0.13204E+02
        -0.17566E+02
        -0.43029E+01
         0.75880E+01
         0.25674E+01
         0.78574E+01
        -0.12859E+02
        -0.15834E+02
        -0.47717E+01
         0.21376E+01
        -0.27846E+01
        -0.15742E+01
        -0.34912E+01
        -0.69702E+01
        -0.81210E+01
        -0.73003E+01
        -0.17310E+02
        -0.84791E+01
        -0.14980E+02
        -0.39387E+01
         0.75338E+00
         0.53137E+01
        -0.11491E+01
        -0.62834E+01
         0.25348E+01
        -0.44541E+01
        -0.14646E+01
        -0.39925E+01
         0.14340E+01
         0.17784E+01
        -0.47644E+01
        -0.11477E+02
        -0.99613E+00
         0.66010E+01
         0.78666E+01
         0.18332E+01
         0.76856E+01
         0.11109E+02
         0.87924E+01
         0.27715E+01
         0.28143E+01
        -0.19707E+01
         0.31921E+00
        -0.99904E+01
         0.28009E+01
        -0.67189E+00
        -0.20789E+01
         0.47477E+01
         0.93799E+01
         0.64212E+01
        -0.47792E+01
        -0.80283E+01
        -0.97579E+01
        -0.13477E+02
         0.16759E+01
        -0.29122E+01
         0.57373E-01
        -0.12016E+01
        -0.16749E+02
        -0.21209E+02
         0.38242E+01
        -0.21502E+01
         0.50650E+01
        -0.42854E+01
         0.13748E+02
         0.16048E+02
         0.10287E+02
         0.15972E+02
         0.16607E+02
         0.87414E+01
         0.19127E+01
         0.77877E+01
         0.12675E+01
        -0.48310E+01
        -0.32508E+01
         0.32241E+01
         0.24876E+01
         0.21047E+01
        -0.95651E+01
        -0.11699E+02
        -0.96824E-01
         0.70407E+01
         0.28331E+01
         0.12192E+02
         0.13071E+02
         0.91907E+01
         0.95295E+01
         0.52679E+01
        -0.38172E+01
         0.14850E+01
         0.57715E+01
        -0.22523E+01
        -0.84604E+01
         0.34971E+01
        -0.83742E+01
        -0.69897E+01
        -0.63488E+01
        -0.15095E+00
         0.68914E+00
         0.31086E+01
        -0.68035E+01
        -0.52463E+01
         0.16115E+01
        -0.10876E+02
        -0.43177E+01
         0.20800E+01
         0.12983E+02
         0.79425E+01
         0.36780E+01
         0.67931E+01
        -0.28360E+01
         0.88860E+01
         0.15887E+01
        -0.23708E+01
         0.46677E+00
         0.85982E+01
         0.12783E+02
        -0.73602E+00
        -0.65772E+01
        -0.64452E+01
         0.20239E+01
         0.31886E+00
         0.80215E+01
        -0.43384E+01
        -0.13626E+01
        -0.89426E+01
         0.30930E+01
        -0.11731E+02
         0.32455E+01
         0.14793E+01
        -0.11839E+01
         0.25735E+01
        -0.68008E+00
        -0.46007E+01
         0.65454E+01
        -0.83284E+01
        -0.81561E+01
         0.36149E+01
         0.10736E+02
        -0.57866E+01
        -0.50264E+01
        -0.13471E+02
         0.33622E+01
         0.93987E+01
        -0.91271E+01
        -0.38044E+01
         0.65099E+01
         0.80102E+01
         0.10745E+02
         0.14659E+02
         0.75427E+01
         0.45357E+01
         0.45336E+01
        -0.24482E+01
        -0.34708E+01
        -0.49405E+01
        -0.12559E+02
        -0.23078E+01
         0.14988E+02
         0.14398E+02
         0.59117E+01
         0.99197E+01
         0.13421E+02
         0.81931E+00
         0.53942E+01
        -0.12084E+01
        -0.82954E+00
         0.83685E+01
         0.87538E+01
         0.77755E+01
        -0.56165E+01
        -0.34844E+01
        -0.73978E+01
        -0.10114E+00
         0.19095E+01
         0.60519E+01
         0.83236E+01
         0.11286E+02
        -0.29283E+01
        -0.56950E+01
        -0.58008E+00
        -0.77035E+01
        -0.43861E+01
        -0.23003E+01
         0.54946E+01
         0.17386E+01
        -0.26696E+01
        -0.40395E+01
        -0.79747E+01
         0.33290E+01
        -0.38765E+01
        -0.26517E+01
        -0.48719E+01
         0.28064E+01
         0.30530E+01
        -0.13902E+02
        -0.63457E+01
        -0.89386E+01
         0.13491E+01
         0.12048E+02
         0.13407E+02
        -0.85755E+01
         0.62725E+01
         0.17057E+01
         0.10471E+02
        -0.44449E+01
         0.11772E+02
         0.11743E+02
        -0.57319E+01
        -0.11215E+02
        -0.31791E+00
         0.96898E+00
         0.17025E+02
        -0.42057E+01
        -0.98035E+01
         0.77392E+01
         0.11704E+02
         0.46572E+00
         0.15633E+01
        -0.11383E+02
         0.71230E+01
         0.46025E+01
        -0.18377E+02
        -0.12027E+02
         0.32233E+01
        -0.52819E+01
        -0.67141E+01
         0.49035E+01
         0.86382E+01
         0.14453E+02
         0.22808E+01
        -0.23529E+01
        -0.57654E+01
        -0.85132E+01
        -0.11466E+02
         0.26170E+01
         0.14814E+02
         0.85177E+01
         0.32573E+01
         0.32434E+01
        -0.29519E+01
         0.26982E+00
        -0.10190E+02
        -0.90019E+00
         0.10546E+02
         0.98127E+01
         0.22204E+01
         0.31538E+01
         0.43775E+01
         0.52339E+01
        -0.19901E+01
         0.63393E+01
        -0.47529E+01
        -0.23425E+01
        -0.29622E+01
         0.53710E+00
        -0.46172E+01
        -0.27670E+01
         0.39870E+01
         0.38623E+01
         0.59793E+01
         0.10789E+01
         0.22198E+01
         0.31073E+01
         0.46533E+01
         0.27415E+01
         0.56335E+01
         0.62966E+01
         0.90607E+01
         0.17890E+02
         0.64862E+01
         0.10554E+02
        -0.28566E+01
        -0.42317E+01
        -0.12775E+01
        -0.39622E+00
        -0.33091E+01
         0.22262E+01
         0.82622E+00
         0.25192E+01
         0.11897E+02
        -0.18554E+01
        -0.72082E+01
         0.11085E+02
        -0.25262E+01
        -0.21874E+01
        -0.60861E+01
        -0.11706E+02
        -0.35650E+01
        -0.86973E+01
         0.18988E+01
        -0.77326E+01
         0.54240E+01
         0.75537E+00
        -0.51162E+01
        -0.15502E+02
         0.12848E+02
        -0.13670E+01
         0.17411E+02
         0.73482E+01
        -0.61141E+01
        -0.15530E+01
         0.67260E+00
         0.99658E+01
        -0.39213E+01
        -0.15196E+01
         0.63413E+01
         0.62980E+01
        -0.46511E+01
        -0.24162E+01
        -0.58444E+00
        -0.50572E+01
        -0.15960E+01
         0.82400E+01
         0.41399E+01
        -0.80240E+01
        -0.71386E+01
         0.10043E+01
         0.69863E+00
         0.26334E+01
         0.77469E-01
         0.24928E+01
         0.69960E+01
         0.71126E+01
         0.19295E+01
         0.66342E+00
         0.72729E+01
         0.14223E+02
         0.43156E+01
         0.19174E+01
        -0.64575E+01
        -0.51959E+01
        -0.64627E+01
        -0.68118E+01
        -0.76736E+01
        -0.56620E+01
        -0.53037E+01
        -0.35519E+01
         0.10866E+02
         0.83185E+01
        -0.60278E+00
        -0.27903E+01
        -0.37666E+01
        -0.16523E+01
         0.40628E+01
         0.48688E+01
         0.64115E+01
         0.13059E+02
         0.52527E+01
         0.10801E+02
         0.24346E+01
         0.18133E+00
        -0.26813E+01
        -0.23298E+01
         0.29160E+01
         0.19424E+01
        -0.58930E-01
         0.54083E+01
         0.81144E+01
        -0.11959E+01
        -0.86602E+01
         0.87387E+01
        -0.94592E+01
        -0.87079E+00
        -0.11665E+02
         0.23254E+01
        -0.15696E+02
        -0.18954E+02
        -0.15157E+01
        -0.83030E+01
        -0.12675E+00
        -0.26957E+01
        -0.31149E+01
        -0.12350E+02
         0.15013E+02
         0.35073E+01
         0.15910E+02
         0.34335E+01
        -0.33335E+01
        -0.16339E+01
        -0.17156E+01
         0.65272E+01
        -0.16562E+01
         0.21461E+01
         0.69561E+01
         0.17065E+01
         0.10729E+01
        -0.61607E+01
         0.17388E+01
        -0.12383E+01
         0.84446E-01
         0.31860E+01
        -0.20500E+01
        -0.61594E+01
         0.18228E+01
         0.63427E+01
        -0.17183E+01
        -0.86234E+01
         0.30455E+01
        -0.35787E+01
        -0.93569E+00
         0.30064E+01
        -0.52811E+01
        -0.19688E+01
        -0.25762E+00
         0.83300E+01
         0.87492E+01
         0.28199E+01
        -0.83088E+01
        -0.12842E+02
        -0.99982E+01
        -0.45200E+01
        -0.34688E+01
        -0.61577E+01
        -0.28179E+01
        -0.19398E+01
        -0.86268E+00
         0.12073E+01
         0.16450E+01
         0.37434E-01
        -0.63067E+01
        -0.88573E+01
        -0.55912E+00
         0.61001E+01
         0.73056E+01
         0.59461E+01
         0.12618E+02
         0.11492E+02
         0.33408E+01
        -0.47682E+01
        -0.80473E+01
        -0.14993E+02
        -0.38281E+00
         0.39430E+00
         0.43265E+00
        -0.64187E+01
         0.33562E+00
         0.94933E+00
        -0.10045E+02
        -0.52083E+00
         0.12595E+01
         0.62377E+01
        -0.73087E+01
         0.10064E+02
        -0.10410E+02
        -0.57924E+01
        -0.84243E+01
         0.12603E+01
        -0.15817E+02
        -0.79916E+01
         0.52140E+01
        -0.32980E+01
         0.92158E+01
         0.58299E+01
         0.37947E+01
        -0.45207E+01
         0.51070E+01
         0.10078E+01
        -0.86418E+00
        -0.54104E+01
        -0.71422E+01
         0.55469E+01
         0.10814E+02
         0.10565E+02
         0.10808E+02
        -0.15646E+01
         0.11798E+01
        -0.36384E+01
         0.11280E+01
         0.19602E+01
        -0.50377E+01
        -0.42502E+01
         0.78307E+01
         0.68502E+01
         0.62963E+01
         0.63704E+01
         0.60264E+01
        -0.35516E+01
        -0.48127E+01
         0.93898E+00
         0.56228E+01
         0.69901E+01
        -0.15399E+01
         0.68623E+00
        -0.23693E+01
        -0.76489E+01
        -0.54749E+01
         0.60234E+00
         0.31311E+01
         0.21246E+01
        -0.73676E+00
        -0.66953E+01
        -0.21668E+01
         0.92604E+00
        -0.22668E+01
         0.38602E+01
         0.64298E+01
         0.19702E+01
        -0.19276E+01
         0.42000E+01
         0.88508E+01
         0.37258E+01
         0.42882E+01
         0.14592E+02
         0.32724E+01
         0.27897E+01
        -0.29967E+01
         0.22051E+01
        -0.14862E+01
        -0.52078E+01
        -0.10276E+02
        -0.10762E+02
        -0.98971E+01
        -0.61366E+01
        -0.50038E+01
        -0.12535E+02
        -0.17926E+02
        -0.73582E-01
         0.43891E+01
         0.81050E+01
         0.78846E+01
         0.21860E+02
        -0.95556E-01
         0.11147E+01
        -0.90483E+01
        -0.38878E+01
        -0.21180E+01
         0.80467E-01
         0.38388E+01
        -0.16407E-01
        -0.42881E+01
        -0.22011E+01
        -0.11302E+00
         0.26871E+01
        -0.87031E+00
        -0.53043E+01
        -0.82408E+01
         0.51858E+01
         0.16649E+01
         0.26609E+01
         0.59724E+01
         0.12783E+02
         0.18145E+02
         0.40267E+01
         0.46592E+01
        -0.14274E+00
         0.89429E+00
        -0.10118E+01
        -0.40411E+01
        -0.31637E+01
         0.26971E+01
         0.11313E+01
         0.43226E+01
         0.15624E+01
         0.75201E+01
         0.55342E+01
         0.53480E+01
         0.72958E+01
         0.95585E+01
         0.11198E+02
         0.38550E+00
        -0.25983E+01
        -0.71096E+01
        -0.37780E+01
         0.27875E+01
         0.27703E+01
        -0.42962E+01
        -0.74963E+01
        -0.12583E+01
        -0.20687E+01
        -0.40927E+01
        -0.44568E+01
         0.57859E+01
         0.12251E+02
        -0.19694E+01
        -0.97340E+01
        -0.74975E+01
        -0.24478E+01
        -0.54662E+00
         0.51818E+00
         0.25888E+00
        -0.16235E+01
         0.53340E+01
        -0.13620E+01
         0.20274E+01
         0.55181E+01
        -0.37139E+01
         0.52273E+01
        -0.17817E+01
        -0.24963E+01
        -0.63229E+00
         0.37528E+01
        -0.24920E+01
        -0.13320E+02
        -0.84660E+01
        -0.85638E+01
        -0.10088E+01
         0.41977E+01
        -0.76662E+01
        -0.52172E+01
        -0.81228E+01
        -0.49283E+01
         0.13664E+01
        -0.60915E+01
         0.81447E+01
        -0.16710E-01
        -0.57744E+01
        -0.32143E+01
        -0.45906E+01
        -0.35956E+00
        -0.31871E+01
        -0.22777E+01
         0.94998E+01
         0.42462E+01
         0.74489E+00
         0.29447E+01
        -0.70383E+01
        -0.10353E+02
        -0.52651E+01
        -0.78152E-01
        -0.61246E+01
         0.11170E+01
         0.75111E+01
         0.73858E+01
         0.52741E+01
        -0.12560E+01
        -0.28258E+01
         0.93930E+00
         0.55152E+01
        -0.22076E+00
         0.12292E+02
         0.49481E+01
         0.16022E+02
         0.10083E+02
         0.52518E+01
         0.54192E+01
         0.57724E+00
         0.43734E+01
        -0.29173E+01
        -0.16077E+02
        -0.22263E+02
        -0.13556E+02
         0.47100E+00
         0.23030E+02
         0.14908E+02
        -0.45363E+01
         0.39322E+01
         0.54494E+01
         0.14128E+01
        -0.11572E+01
        -0.43778E+01
         0.14853E+01
        -0.17245E+01
        -0.59128E+01
        -0.47900E+01
        -0.26323E+01
        -0.53055E+01
        -0.13273E+01
        -0.16711E+01
        -0.20172E+01
         0.17259E+01
         0.20935E+01
        -0.58473E+00
        -0.33238E+01
        -0.50685E+01
        -0.14502E+01
        -0.44053E+01
        -0.32413E+01
        -0.23359E+00
        -0.13008E+01
        -0.22312E+01
        -0.59398E+01
        -0.20244E+01
        -0.50388E+01
        -0.20529E+01
         0.25132E+01
        -0.53766E+01
        -0.10742E+02
        -0.12530E+01
        -0.29055E+01
         0.46178E+01
        -0.36892E+01
         0.17357E+01
        -0.24167E+01
        -0.12359E+00
         0.38825E+01
        -0.55299E+00
        -0.15642E+00
         0.16358E+00
        -0.95997E+00
         0.86440E+00
         0.88908E+00
         0.12917E+01
         0.24798E+01
        -0.96888E+01
        -0.81273E+01
         0.18308E+01
         0.38708E+01
        -0.72496E+01
         0.25194E+01
         0.32086E+01
         0.25087E+01
         0.56114E+01
         0.51257E+01
         0.21172E+01
         0.58022E+00
         0.26493E+01
         0.19367E+01
         0.83509E+01
        -0.53041E+01
         0.16336E+02
         0.89071E+01
         0.10627E+01
         0.23670E+01
        -0.48572E+01
         0.32825E+01
        -0.28969E+01
        -0.10805E+02
        -0.61033E+01
        -0.26769E+01
        -0.13782E+02
        -0.18680E+01
         0.43409E+01
        -0.53678E+00
         0.91652E+01
         0.57562E+01
        -0.41050E+00
         0.64799E+01
         0.51941E+01
         0.24834E+01
        -0.26170E+01
        -0.32080E+01
        -0.25765E+01
        -0.91115E+01
         0.81589E+01
         0.48528E+01
         0.38188E+01
         0.15679E+02
        -0.21497E+01
         0.44508E+01
        -0.17488E+01
        -0.26503E+01
         0.41158E+01
        -0.13616E+01
        -0.60736E+01
        -0.56667E+01
        -0.13204E+01
        -0.36330E+01
        -0.18641E+00
        -0.12209E+02
        -0.87899E+01
         0.91875E+01
        -0.19052E+02
        -0.11783E+02
        -0.98548E+01
        -0.65058E+01
        -0.80343E+01
        -0.15543E+02
         0.74793E+00
        -0.14639E+02
        -0.37499E+00
         0.67686E+00
        -0.50909E+00
         0.17533E+00
        -0.30522E+01
        -0.63525E+01
         0.77663E+01
         0.12114E+02
        -0.67496E+01
        -0.13744E+01
         0.23193E+01
         0.63038E+01
        -0.86231E+00
        -0.65020E+01
        -0.25571E+01
        -0.59606E+01
        -0.53868E+01
        -0.40338E+01
        -0.13318E+01
        -0.92700E+00
         0.15513E+01
         0.21026E+01
         0.33442E+01
         0.66424E+01
         0.66074E+01
         0.65314E+01
         0.19698E+01
        -0.67580E+01
         0.10084E+02
         0.10125E+02
         0.18580E+01
        -0.16475E+01
        -0.64047E+01
        -0.36172E+01
        -0.42037E+01
        -0.29196E+00
         0.17221E+02
         0.22989E+02
         0.16730E+02
         0.48177E+01
         0.37694E+01
         0.65711E+01
         0.88067E+01
         0.31960E+01
        -0.43101E+01
         0.59171E-01
         0.30183E+01
         0.83548E+01
         0.74149E+01
        -0.20667E+01
        -0.12303E+02
        -0.13742E+02
         0.45798E+01
         0.40435E+01
         0.94841E+01
         0.12447E+02
         0.62526E+01
         0.57947E+01
        -0.38699E+01
        -0.34034E+01
         0.40109E+01
         0.25301E+01
        -0.42111E+01
        -0.27565E+01
         0.55263E+00
        -0.48958E+00
         0.49994E+01
        -0.71584E+01
        -0.14128E+01
         0.61356E+01
        -0.11664E+02
        -0.59466E+01
        -0.85676E+01
         0.28662E+01
        -0.11402E+02
        -0.12686E+02
         0.30803E+01
        -0.10100E+02
         0.54591E+00
        -0.44909E+01
        -0.12127E+02
        -0.49474E+01
        -0.16394E+01
        -0.33887E+01
         0.60659E+01
         0.94185E+01
         0.59624E+01
         0.86452E+01
         0.69248E+01
         0.44385E+01
        -0.48363E+01
        -0.12442E+02
        -0.10131E+02
        -0.15386E+02
        -0.38368E+01
        -0.43523E+01
         0.53472E+00
        -0.53308E+00
         0.11891E+01
         0.66164E+00
         0.11086E+01
         0.51130E+01
         0.48902E+01
         0.42676E+01
         0.37849E+01
        -0.66248E+01
         0.38422E+01
         0.40273E+01
        -0.84171E+00
        -0.49989E+01
        -0.23260E+01
        -0.83087E+01
        -0.64589E+01
         0.11596E+01
         0.16512E+02
         0.16397E+02
         0.19200E+01
        -0.82833E+01
        -0.59664E+01
         0.37504E+01
         0.10454E+02
         0.57208E+01
        -0.58429E+01
        -0.55197E+01
        -0.10722E+02
        -0.52729E+01
         0.39295E+01
        -0.29221E+01
        -0.17899E+02
        -0.16990E+02
         0.65876E+01
         0.15231E+01
         0.50683E+01
         0.16244E+02
        -0.10852E+01
         0.68515E+01
        -0.49198E+01
        -0.11411E+01
         0.88106E+00
        -0.15901E+01
        -0.76963E+01
        -0.10292E+02
        -0.74815E+01
        -0.25836E+01
        -0.25326E+01
        -0.87340E+01
        -0.10801E+02
         0.49407E+01
        -0.77411E+01
        -0.90858E+01
        -0.36720E+01
         0.53302E+00
        -0.22703E+01
        -0.43550E+01
        -0.80511E+01
        -0.51207E+01
        -0.28225E+00
        -0.70083E+01
        -0.11455E+02
        -0.10452E+02
        -0.36304E+01
        -0.16050E+01
         0.35329E+01
         0.10421E+02
        -0.63636E+01
        -0.52692E+01
        -0.50188E+01
         0.53578E+01
        -0.81777E+00
        -0.65579E+01
        -0.67769E+00
        -0.47803E+01
        -0.18830E+01
         0.27631E+01
         0.36684E+01
         0.10806E+01
         0.27637E+01
         0.88386E+00
        -0.74292E+00
         0.15187E+01
         0.55206E+00
         0.50175E+01
        -0.56147E+01
        -0.20212E+02
        -0.50318E+01
        -0.45559E+01
        -0.45952E+01
        -0.88161E+01
        -0.81561E+01
        -0.11717E+01
         0.79131E+01
         0.11247E+02
         0.20036E+02
         0.24859E+02
        -0.84656E+01
        -0.14876E+02
        -0.22966E+01
         0.88995E+01
         0.15070E+02
         0.78573E+01
        -0.33673E+01
         0.16923E+01
        -0.70806E+00
        -0.21656E+01
        -0.31886E+01
        -0.88892E+01
        -0.15988E+02
        -0.20278E+02
         0.10089E+01
         0.94710E+01
         0.11602E+02
         0.83205E+01
         0.77891E+01
         0.10194E+02
         0.49052E+01
        -0.12373E+01
        -0.67167E+01
        -0.34365E+01
        -0.21636E+01
        -0.10477E+01
         0.87979E+01
        -0.32937E+01
        -0.80552E+01
        -0.33696E+01
        -0.54670E+01
        -0.29329E+01
         0.19827E+00
         0.28218E+01
        -0.13860E+02
        -0.15875E+02
        -0.77965E+01
         0.23086E+00
         0.14546E+01
        -0.95393E+00
         0.67795E+00
         0.49179E+01
         0.40741E+01
         0.34637E+01
         0.28946E+00
        -0.23286E+01
         0.41822E+01
         0.78246E+01
         0.18680E+01
         0.67722E+01
         0.11504E+02
        -0.59948E+01
        -0.51043E+00
         0.52005E+01
         0.45515E+01
        -0.26489E+01
        -0.11983E+02
        -0.24955E+01
        -0.25433E+01
        -0.41607E+01
        -0.17481E+01
         0.29508E+01
         0.53044E+01
         0.38516E+01
         0.51089E+00
         0.52482E+01
        -0.70559E+01
        -0.72660E+01
        -0.60829E+01
        -0.47298E+01
        -0.58037E+01
        -0.50748E+01
        -0.47834E+01
        -0.17540E+01
         0.16934E+02
         0.22792E+02
         0.81939E+01
         0.82037E+01
        -0.92194E+01
        -0.13042E+02
        -0.63313E+01
        -0.65516E+01
        -0.41087E+01
        -0.68842E-01
         0.13909E+01
         0.39643E+01
         0.45110E+01
         0.33958E+01
        -0.34367E+01
        -0.74340E+01
        -0.10671E+02
        -0.87047E+01
         0.50191E+01
         0.10026E+02
         0.13351E+02
         0.45314E+01
         0.99667E+01
         0.42795E+01
         0.71559E+01
         0.50168E+01
         0.42556E+01
         0.65767E+01
         0.52109E+01
         0.36538E+01
         0.98169E+01
         0.83978E+01
         0.20934E+00
         0.15106E+02
         0.12723E+02
         0.83500E+01
         0.78776E+01
         0.14770E+02
        -0.57951E+01
        -0.37711E+00
        -0.88828E+01
        -0.91644E+00
         0.99961E+01
         0.26601E+01
         0.82599E+01
         0.37972E+01
         0.26901E+01
         0.10208E+02
         0.13124E+02
         0.23013E+01
         0.10573E+02
        -0.27719E+01
         0.77700E+01
         0.13133E+02
         0.14400E+02
        -0.52800E+01
        -0.72529E+01
         0.14445E+01
         0.48661E+01
         0.16642E+01
         0.39341E+00
        -0.82996E+01
        -0.69673E+01
        -0.76093E+01
        -0.47110E+01
         0.31223E+01
         0.63508E+00
        -0.86027E+01
        -0.97679E+01
        -0.55129E+01
        -0.16287E+02
        -0.77981E+01
        -0.14558E+02
        -0.11219E+02
        -0.10905E+02
        -0.69816E+01
        -0.85871E+01
        -0.23548E+01
         0.95357E+01
         0.10177E+02
         0.29145E+01
        -0.81385E+01
        -0.20735E+02
        -0.16492E+02
        -0.58310E+01
         0.22557E+01
         0.62065E+00
        -0.85312E-01
        -0.99608E-01
        -0.12136E+01
         0.13484E+01
        -0.29970E+01
        -0.11329E+02
        -0.82432E+01
        -0.11249E+02
        -0.87429E+01
        -0.12384E+00
         0.14999E+01
         0.43231E+01
        -0.22316E+01
         0.69060E+01
         0.25928E+01
         0.53602E+00
        -0.16271E+01
         0.67902E+01
         0.11228E+01
         0.30732E+01
         0.34131E+01
         0.60796E+01
         0.25873E+01
         0.13977E+01
         0.21903E+02
         0.19165E+02
         0.10162E+02
         0.15118E+02
         0.24752E+02
         0.63452E+01
         0.76706E+01
         0.43176E+00
         0.40209E+01
         0.97359E+01
         0.15670E+02
        -0.14682E+01
        -0.26747E+01
         0.14566E+00
         0.16120E+02
         0.16896E+02
         0.18991E+02
         0.11568E+01
        -0.13684E+02
         0.77354E+01
         0.85470E+01
         0.75549E+01
        -0.57051E+01
        -0.10129E+02
        -0.50668E+01
        -0.27619E+01
        -0.45260E+01
         0.75696E-01
        -0.24872E-02
         0.41209E+01
         0.39836E+01
         0.92186E+01
         0.10679E+01
        -0.17475E+02
        -0.23224E+02
        -0.13156E+02
        -0.63271E+01
        -0.16110E+01
         0.16097E+01
        -0.48165E+01
        -0.50881E+01
        -0.43970E+00
        -0.15628E+01
        -0.78232E+01
        -0.24713E+01
        -0.20347E+01
        -0.10579E+01
         0.41605E+00
        -0.13359E+02
        -0.12894E+02
         0.37343E+00
         0.28908E+01
         0.34368E+01
        -0.10402E+02
        -0.19691E+02
        -0.14203E+02
        -0.23388E+01
         0.25326E+01
        -0.61391E+00
        -0.32532E+01
         0.15832E+01
         0.79613E+01
         0.82254E+01
        -0.88042E+01
        -0.56645E+01
         0.76723E+00
        -0.10183E+02
         0.59729E+01
        -0.47117E+00
        -0.55832E+01
        -0.55559E+01
         0.13142E+01
         0.12462E+01
        -0.28655E+01
        -0.48151E+00
         0.38376E+01
        -0.21417E+01
        -0.13842E+01
         0.14486E+02
         0.16780E+02
        -0.18782E+01
         0.15768E+02
         0.15820E+02
         0.13271E+02
        -0.91869E+00
         0.13128E+02
         0.10837E+02
         0.82801E+01
         0.15145E+02
        -0.10627E+01
        -0.85492E+00
        -0.11779E+01
         0.62085E+01
         0.10728E+02
         0.15012E+02
        -0.23975E+01
        -0.12211E+02
         0.11791E+02
         0.96944E+01
         0.63590E+01
         0.57433E+00
        -0.21878E+00
         0.72398E+00
        -0.48021E+00
        -0.65032E+01
        -0.11387E+02
         0.77061E+01
         0.57249E+01
         0.40190E+01
         0.12063E+02
         0.92065E+01
        -0.46813E+01
        -0.12303E+02
        -0.78930E+01
        -0.40693E+01
         0.12810E+01
         0.15728E+00
        -0.74858E+01
        -0.14511E+01
         0.10919E+02
         0.35883E+01
        -0.46963E+01
         0.31742E+01
         0.39391E+01
         0.81493E+01
         0.39985E+00
        -0.92459E+01
        -0.17614E+01
         0.59388E+01
         0.27564E+00
        -0.28190E+01
        -0.10844E+02
        -0.16455E+02
        -0.12000E+02
        -0.20260E+00
         0.68914E+01
         0.27116E+01
        -0.65263E+01
        -0.50568E+01
         0.33300E+01
         0.19491E+01
        -0.81478E+01
        -0.11844E+02
        -0.22177E+02
        -0.23574E+02
        -0.15413E+02
        -0.19661E+02
        -0.36009E+01
         0.32801E+00
         0.40860E+01
         0.54466E+01
        -0.50178E+01
        -0.59560E+01
        -0.27879E+01
        -0.43469E+01
        -0.91927E+01
         0.87064E+01
         0.89049E+01
        -0.42147E+01
         0.66617E+01
        -0.45461E+01
         0.40560E+01
        -0.42727E+01
         0.82441E+01
         0.95736E+01
         0.21599E+01
         0.11406E+02
         0.99254E+00
         0.27326E+01
        -0.22744E+01
        -0.10852E+02
         0.47226E+01
         0.81064E+01
        -0.62517E+01
        -0.15299E+02
        -0.45739E+01
        -0.87569E+01
        -0.55925E+01
         0.94535E+00
         0.93781E+01
         0.65122E+01
         0.21854E+01
        -0.26090E+01
        -0.79798E+01
         0.61326E+01
         0.19198E+01
         0.65415E+00
         0.39714E+01
         0.33144E+01
        -0.19769E+01
        -0.95178E+01
        -0.84488E+01
        -0.11758E+02
         0.14108E+02
         0.17395E+02
         0.10535E+02
         0.88396E+01
         0.85364E+01
        -0.21896E+01
        -0.13440E+02
        -0.25966E+01
         0.77066E+01
         0.94993E+01
        -0.10726E+01
         0.27220E+01
         0.14741E+02
         0.82566E+01
        -0.90973E+01
        -0.55495E+01
        -0.84294E+01
        -0.15588E+02
        -0.79931E+01
        -0.65758E+01
        -0.64007E+01
        -0.78363E+01
        -0.14692E+02
        -0.60232E+01
         0.99850E+01
         0.16128E+02
         0.21243E+01
        -0.41250E+01
        -0.23802E+02
        -0.25027E+02
        -0.19615E+02
        -0.25264E+02
         0.48574E+01
         0.10680E+02
         0.67981E+01
         0.78837E+01
         0.51824E+00
        -0.86970E+01
        -0.91858E+01
         0.10306E+01
        -0.10049E+02
         0.43715E+01
         0.22489E+01
        -0.63050E+01
         0.44248E+01
        -0.65463E+01
         0.53739E+01
         0.50991E+01
         0.54678E+01
         0.83934E+01
        -0.21978E+01
         0.11332E+02
         0.50564E+00
        -0.24869E+01
        -0.71298E+01
        -0.13156E+02
        -0.42168E+01
         0.66911E+01
        -0.22224E+02
        -0.28370E+02
        -0.12719E+02
        -0.17033E+02
        -0.13070E+02
        -0.65381E+01
        -0.68175E+00
        -0.29159E+01
        -0.49506E+01
        -0.61048E+01
        -0.53495E+00
         0.38819E+01
        -0.75515E+00
        -0.18392E+01
        -0.22800E+00
        -0.86621E+01
        -0.19313E+02
        -0.23485E+02
        -0.15915E+02
        -0.21494E+02
         0.18345E+02
         0.25116E+02
         0.17197E+02
         0.40073E+01
        -0.81518E+01
        -0.13230E+02
        -0.18635E+02
        -0.10143E+02
         0.51347E+01
         0.31080E+01
        -0.45183E+01
         0.88033E+00
        -0.49326E+01
        -0.75764E+01
        -0.15771E+02
        -0.15927E+02
        -0.23263E+02
        -0.30860E+02
        -0.16978E+02
        -0.91695E+01
        -0.79040E+01
         0.11349E+01
         0.44609E+01
         0.79607E+01
         0.15878E+02
         0.22836E+02
        -0.89701E+01
        -0.18131E+02
        -0.17296E+02
        -0.14907E+02
         0.58002E+00
         0.71845E+00
        -0.12226E+02
        -0.11618E+01
         0.78579E+01
         0.13612E+02
        -0.43191E+01
        -0.20458E+02
        -0.23143E+02
         0.71787E+01
        -0.32856E+01
         0.10458E+02
         0.18402E+02
         0.42880E+01
         0.13588E+01
         0.84996E+01
         0.28563E+01
        -0.49246E+00
        -0.36897E+01
        -0.39356E+01
         0.23254E+02
         0.41031E+01
         0.11927E+02
         0.14086E+02
         0.16101E+02
         0.12494E+02
         0.14425E+02
         0.11443E+02
         0.45493E+01
        -0.47363E+01
         0.50600E+01
        -0.62123E+01
        -0.16734E+02
         0.55884E+01
         0.63126E+01
         0.99230E+01
         0.72144E+01
         0.25716E+01
        -0.43413E+01
        -0.74400E+01
        -0.28665E+01
        -0.85237E-01
         0.11873E+02
         0.17326E+02
         0.99255E+01
         0.63916E+01
         0.15043E+02
         0.84786E+01
         0.27635E+02
         0.34536E+02
         0.19315E+02
        -0.18287E+00
        -0.21758E+02
        -0.35435E+02
        -0.24751E+02
         0.14563E+02
         0.31317E+02
         0.27832E+02
         0.15804E+02
         0.17963E+02
         0.76774E+01
        -0.52953E+01
        -0.23940E+01
        -0.11336E+02
        -0.26699E+02
        -0.27909E+02
        -0.19056E+02
        -0.13764E+01
         0.22362E+02
         0.41269E+02
         0.50011E+02
         0.47976E+02
         0.45432E+02
         0.36900E+02
  
SCALARS                         fint_y  double 1
LOOKUP_TABLE default
         0.53278E+03
         0.23207E+03
         0.19112E+03
         0.41660E+03
        -0.95918E+03
        -0.28418E+03
        -0.23440E+03
        -0.73736E+03
         0.91366E+02
         0.12347E+03
        -0.97450E+02
        -0.14880E+03
         0.14598E+03
         0.29258E+03
        -0.15137E+03
        -0.44458E+03
         0.69086E+03
         0.42812E+03
        -0.15373E+04
        -0.84026E+03
         0.81000E+02
         0.72376E+02
         0.81123E+02
        -0.74906E+02
        -0.48698E+02
        -0.57502E+02
         0.12269E+03
         0.61378E+02
        -0.15856E+03
        -0.55333E+02
         0.49021E+03
         0.57815E+03
         0.59389E+03
        -0.92832E+03
        -0.12794E+04
        -0.13466E+04
         0.21896E+03
         0.25620E+03
        -0.30657E+03
        -0.47272E+03
         0.88262E+02
         0.97190E+02
        -0.88128E+02
        -0.12810E+03
         0.74679E+02
         0.12684E+03
        -0.62680E+02
        -0.13226E+03
         0.38337E+03
        -0.78195E+03
         0.18970E+03
        -0.24709E+03
         0.17762E+03
        -0.28393E+03
         0.18497E+03
        -0.24743E+03
         0.10929E+03
         0.19292E+03
        -0.12049E+03
        -0.32887E+03
         0.28403E+03
         0.14006E+03
        -0.46440E+03
        -0.17321E+03
         0.34379E+03
        -0.60512E+03
         0.22304E+03
        -0.32206E+03
         0.28653E+02
         0.57726E+02
        -0.20083E+02
        -0.40249E+02
         0.73595E+02
        -0.54430E+02
         0.79589E+02
        -0.89869E+02
         0.86199E+02
        -0.84782E+02
         0.62624E+02
        -0.47022E+02
         0.24292E+02
         0.70565E+02
        -0.17247E+02
        -0.60084E+02
         0.10127E+03
        -0.11146E+03
         0.59079E+02
        -0.56591E+02
         0.42365E+02
        -0.42631E+02
         0.21118E+02
         0.40351E+02
        -0.13781E+02
        -0.34734E+02
         0.90516E+02
        -0.95303E+02
         0.12152E+03
        -0.11378E+03
         0.10009E+03
        -0.83678E+02
         0.49320E+02
         0.82887E+02
        -0.32753E+02
        -0.91391E+02
         0.51385E+01
         0.25551E+02
         0.87538E+01
        -0.34703E+01
         0.11324E+02
         0.10514E+01
         0.13484E+02
         0.76367E+00
         0.10838E+02
        -0.39506E+01
         0.19068E+02
        -0.13547E+02
         0.18646E+02
        -0.12591E+02
         0.27578E+02
         0.56706E+01
         0.23127E+02
         0.19322E+02
         0.26453E+02
        -0.33727E+01
         0.18023E+02
         0.98072E+01
         0.24284E+02
         0.92365E-01
         0.22575E+02
        -0.58404E+01
         0.35606E+02
        -0.39222E+01
         0.17707E+02
        -0.19950E+02
         0.20961E+02
        -0.11812E+02
         0.21518E+02
        -0.42947E+01
         0.16800E+02
         0.27163E+01
         0.73456E+01
        -0.80231E+00
         0.91115E+01
        -0.81561E+01
         0.18877E+02
         0.40932E+00
         0.20741E+02
         0.11219E+01
         0.18284E+02
         0.27898E+00
         0.14280E+02
        -0.47658E+01
         0.36030E+02
        -0.34208E+01
         0.28865E+02
        -0.60647E+01
         0.25115E+03
         0.10474E+03
         0.89227E+02
         0.18713E+03
         0.50931E+02
         0.58323E+02
         0.66547E+02
         0.14767E+03
         0.33722E+03
         0.21903E+03
         0.36643E+02
         0.30673E+02
         0.33052E+02
         0.56457E+02
         0.22681E+02
         0.22841E+03
         0.28745E+03
         0.26664E+03
         0.10682E+03
         0.12383E+03
         0.36968E+02
         0.50354E+02
         0.23614E+02
         0.61724E+02
         0.19312E+03
         0.90418E+02
         0.84964E+02
         0.90980E+02
         0.48811E+02
         0.99887E+02
         0.12691E+03
         0.69777E+02
         0.14627E+03
         0.92835E+02
         0.19479E+02
         0.27350E+02
         0.29920E+02
         0.34097E+02
         0.43122E+02
         0.28474E+02
        -0.30189E+00
         0.21872E+02
         0.52825E+02
         0.19232E+02
         0.21206E+02
         0.21438E+02
         0.25382E+02
         0.44161E+02
         0.63205E+02
         0.48233E+02
         0.15132E+02
         0.29763E+02
         0.37899E+01
         0.89119E+01
         0.14096E+02
         0.16553E+02
         0.71787E+01
         0.13458E+02
         0.98878E+01
         0.12223E+02
         0.13376E+02
         0.24423E+02
         0.58455E+01
         0.21823E+01
         0.68158E+01
         0.16693E+02
         0.13274E+01
         0.10882E+02
         0.17951E+02
         0.56210E+01
        -0.23791E+00
         0.65285E+01
         0.10581E+02
         0.74357E+01
        -0.21501E+01
        -0.60684E+01
         0.94234E+01
        -0.36546E+01
         0.68905E+02
         0.32009E+02
         0.22287E+02
         0.43065E+02
         0.14177E+02
         0.61891E+01
         0.25611E+02
         0.50747E+02
         0.83872E+02
         0.60306E+02
         0.14645E+02
         0.17332E+02
         0.16070E+02
         0.17525E+02
         0.86012E+01
         0.54899E+02
         0.64431E+02
         0.59078E+02
         0.22869E+02
         0.18954E+02
         0.34043E+01
         0.98705E+01
        -0.82636E+01
         0.15622E+02
         0.40341E+02
         0.22846E+02
         0.14458E+02
         0.58428E+01
         0.27523E+01
         0.18778E+02
         0.32464E+02
         0.20471E+02
         0.30944E+02
         0.12817E+02
         0.52099E+01
         0.24906E+01
         0.65750E+01
         0.41027E+01
         0.82136E+01
         0.12522E+02
         0.71196E+01
         0.45063E+01
         0.12652E+02
        -0.78333E+01
         0.11589E+01
         0.11038E+02
         0.41372E+01
         0.45937E+01
         0.15588E+02
         0.13319E+02
        -0.96344E+00
        -0.50452E+01
         0.68317E+01
        -0.21786E+01
         0.74661E+01
         0.12214E+02
         0.10775E+02
         0.12855E+02
         0.53259E+01
         0.81495E+01
         0.97962E+01
         0.11516E+02
         0.85463E+00
         0.74672E+01
         0.14943E+02
         0.11523E+02
         0.31194E+01
        -0.66435E+00
         0.85319E+01
         0.73595E+01
         0.90965E+01
         0.76975E+01
         0.91133E+01
         0.12809E+02
         0.39873E+01
        -0.38041E+01
         0.61269E-01
        -0.16107E+02
        -0.73384E+00
        -0.84227E+01
        -0.13427E+02
        -0.85110E+01
        -0.58292E+01
        -0.14248E+02
        -0.81438E+00
         0.72042E+01
        -0.79657E+00
         0.63874E+01
         0.35970E+01
         0.45403E+01
        -0.29217E+01
         0.41573E+01
         0.36728E+00
        -0.85287E+01
        -0.82381E+01
        -0.52787E+01
        -0.61552E+01
        -0.68440E+01
        -0.10678E+02
        -0.13972E+02
        -0.66144E+01
        -0.73274E+00
        -0.36792E+01
        -0.50270E+01
         0.27369E+01
        -0.51677E+01
        -0.47678E+01
        -0.48782E+00
        -0.65493E+01
        -0.15037E+01
        -0.79265E+01
        -0.11154E+02
        -0.29421E+01
        -0.14680E+02
        -0.12990E+02
        -0.92852E+00
         0.14247E+02
         0.12149E+02
         0.76662E+01
         0.67157E+01
         0.14605E+01
        -0.24969E+01
         0.72827E+00
         0.99606E+01
         0.56571E+01
        -0.34943E+01
        -0.63443E+01
        -0.59335E+01
        -0.91867E+01
        -0.17484E+02
         0.55209E+00
        -0.13453E+01
        -0.49144E+01
         0.11853E+01
         0.10155E+01
         0.72889E+01
         0.88958E+01
         0.10048E+02
         0.92155E+01
         0.31495E+01
        -0.26524E+00
        -0.26500E+01
         0.27578E+01
         0.17341E+01
        -0.14481E+01
        -0.13709E+01
         0.98304E+01
         0.59257E+01
         0.14321E+02
         0.22307E+02
         0.11235E+02
        -0.90911E+00
        -0.11676E+02
        -0.11895E+02
        -0.57447E+01
        -0.70392E+01
        -0.11009E+02
        -0.13229E+02
        -0.89144E+01
        -0.74354E+01
         0.30747E+01
        -0.11871E+01
        -0.38693E+01
        -0.51031E+01
        -0.14710E+02
        -0.12258E+02
         0.10329E+02
        -0.50359E+00
        -0.71885E+01
         0.61122E+01
        -0.80548E+01
        -0.11546E+02
        -0.16656E+02
        -0.93698E+01
         0.19622E+01
         0.11126E+01
         0.96602E-01
        -0.71184E+01
         0.81521E+01
         0.68535E+01
        -0.17606E+02
        -0.15414E+01
         0.22373E+01
         0.14407E+01
         0.24646E+01
         0.45773E+01
        -0.13468E+02
        -0.24387E+01
        -0.12338E+02
        -0.66863E+01
         0.44363E+01
        -0.10149E+02
        -0.13674E+02
        -0.14458E+01
         0.28022E+02
         0.12600E+02
        -0.20532E+01
         0.56098E+01
         0.11213E+02
         0.97019E+01
         0.66480E+01
         0.10183E+02
         0.81209E+01
        -0.16694E+01
        -0.71660E+01
        -0.45321E+01
        -0.52176E+01
        -0.77371E+01
        -0.88464E+01
        -0.30082E+01
        -0.12999E+02
        -0.70067E+01
        -0.98880E+01
        -0.14317E+01
         0.68728E+01
         0.56893E+01
         0.40317E+01
         0.40034E+01
         0.92642E+01
        -0.18522E+00
         0.85170E+01
         0.13234E+01
        -0.88712E+01
        -0.81219E+01
         0.49135E+01
         0.27060E+00
         0.37649E+01
         0.85579E+01
        -0.56270E+01
        -0.18899E+02
        -0.20751E+02
        -0.12564E+02
        -0.37130E+01
        -0.16397E+01
         0.49667E+01
        -0.63969E+01
        -0.77164E+01
        -0.93923E+00
         0.23188E+01
         0.19972E+01
         0.30483E+01
         0.20855E+01
         0.10912E+02
        -0.35361E+01
         0.11818E+02
        -0.21005E+01
        -0.13586E+01
         0.63604E+01
        -0.91046E+01
        -0.71182E+01
        -0.14437E+01
         0.95875E+01
        -0.11363E+02
        -0.64933E+01
         0.81574E+00
        -0.13963E+01
        -0.22781E+01
        -0.13174E+02
        -0.15773E+02
        -0.18362E+02
        -0.52951E+00
        -0.41737E+00
         0.21965E+01
        -0.25841E+01
        -0.16816E+02
        -0.15939E+02
        -0.71334E+01
        -0.37062E+01
         0.15034E+01
        -0.69194E+01
        -0.47559E+01
        -0.28702E+01
         0.21795E+02
         0.63707E+01
        -0.88978E+01
        -0.89823E+01
         0.11871E+01
        -0.50605E+01
        -0.56322E+01
        -0.27661E+00
        -0.21110E+01
        -0.42824E+00
         0.39417E+01
         0.44539E+01
        -0.13846E+01
        -0.35476E+01
        -0.35565E+01
         0.24011E+01
        -0.24510E+01
         0.39981E+01
        -0.45170E+01
         0.37312E+00
         0.50753E+01
         0.11500E+01
        -0.21925E+01
         0.18692E+01
         0.12698E+02
         0.21984E+01
         0.86941E+01
        -0.53473E+01
        -0.89494E+01
        -0.83492E+01
         0.15540E+01
        -0.41570E+01
        -0.58699E+01
        -0.53278E+01
        -0.61861E+01
        -0.94962E+01
        -0.73138E+01
        -0.48366E+01
        -0.36783E+01
        -0.17008E+01
         0.42294E+01
         0.81343E+01
         0.53087E+01
        -0.18386E+01
         0.77216E+01
         0.23372E+01
         0.44162E+01
        -0.10098E+02
         0.92802E+01
        -0.13288E+02
        -0.36657E+00
         0.38015E+01
         0.11977E+02
        -0.91647E+01
         0.21134E+01
         0.33027E+01
         0.59741E+01
         0.10379E+02
        -0.56924E+01
        -0.28582E+01
         0.80394E+01
         0.11449E+02
        -0.66854E+01
        -0.14258E+02
        -0.15065E+02
        -0.10407E+02
        -0.12955E+02
        -0.67326E+01
         0.22506E+01
        -0.91522E+01
        -0.38256E+01
        -0.49630E+01
        -0.49096E+01
        -0.10494E+02
         0.32287E+01
         0.90511E+01
         0.16134E+02
        -0.69342E+00
         0.91475E+01
         0.59889E+01
        -0.10688E+01
        -0.14154E+02
        -0.93105E+01
        -0.10219E+02
        -0.77058E+01
        -0.22336E+01
         0.15251E+01
         0.59150E+01
         0.49759E+01
        -0.43522E+00
        -0.80877E+01
        -0.84662E+01
         0.33838E+01
         0.94766E+01
         0.60029E+01
         0.66925E+01
        -0.50458E+01
         0.12549E+01
        -0.55950E+00
        -0.26347E+00
         0.61936E+01
         0.76054E+01
         0.15432E+02
         0.57969E+01
         0.21443E+01
        -0.59850E+01
        -0.10410E+01
         0.36110E+01
         0.38012E+01
        -0.14257E+02
        -0.11646E+02
        -0.50315E+01
         0.31924E+01
         0.34405E+01
         0.96522E+01
         0.40088E+01
        -0.58824E+01
         0.77150E+00
        -0.11363E+02
         0.30571E+00
         0.24497E+01
        -0.10107E+02
         0.31117E+01
         0.46042E+01
        -0.32219E+01
        -0.12247E+02
        -0.71140E+01
        -0.63730E+01
        -0.10980E+02
        -0.18254E+01
         0.32007E+01
        -0.91086E+01
         0.73691E+01
         0.12770E+01
         0.81049E+01
        -0.10384E+02
         0.75045E+01
         0.11107E+02
         0.95110E+00
         0.11690E+02
        -0.13194E+02
        -0.59252E+01
         0.19602E+01
        -0.99128E-01
         0.10944E+00
         0.62523E+01
         0.46098E+01
         0.27490E+00
         0.45003E+01
         0.52402E+01
        -0.18124E+01
        -0.44822E+01
        -0.13152E+01
         0.77537E+01
         0.11443E+02
         0.15333E+01
         0.44776E+00
         0.41224E+01
        -0.22110E+01
        -0.11175E+02
        -0.50826E+01
        -0.88262E+01
        -0.15258E+01
         0.30945E+01
         0.72058E+01
         0.93199E+01
         0.73252E+01
         0.14023E+01
        -0.97416E+01
        -0.15505E+01
         0.33469E+01
        -0.45039E+00
         0.72209E+01
         0.21633E+01
        -0.63222E+01
         0.41332E+01
         0.41356E+01
         0.45094E+00
        -0.12263E+01
         0.10087E+01
         0.28771E+01
         0.19890E+01
        -0.48470E+01
        -0.11906E+01
        -0.79309E+01
        -0.40374E+01
         0.11079E+02
        -0.27169E+01
        -0.38022E+01
        -0.59488E+01
        -0.57298E+01
        -0.76635E+01
        -0.11241E+01
        -0.84966E+01
        -0.87191E+01
         0.69595E-01
        -0.32355E+01
        -0.89922E-01
        -0.47554E+01
        -0.11209E+02
        -0.45588E+01
         0.18255E+01
         0.58126E+01
         0.91346E+01
        -0.44487E+01
         0.88600E+01
        -0.35919E+01
        -0.67396E+01
        -0.25625E+01
         0.30829E+01
        -0.86526E+00
        -0.65531E+01
        -0.27724E+01
        -0.16819E+02
         0.52893E+01
        -0.35918E+01
         0.13857E+01
         0.83958E+00
        -0.85942E+00
         0.57682E+01
        -0.83995E+00
         0.12934E+01
         0.87856E+01
         0.51925E+01
         0.76602E+00
        -0.53824E+01
        -0.74657E+01
        -0.44953E+01
        -0.80733E+01
         0.50374E+00
        -0.47316E+01
        -0.18878E+01
         0.15745E+01
        -0.12723E+02
        -0.15679E+02
        -0.35260E+01
        -0.34173E+01
        -0.43528E+01
         0.34339E+00
        -0.69174E+00
        -0.36030E+01
        -0.42872E+01
        -0.68520E+01
        -0.45985E+01
         0.37033E+01
         0.60813E+01
        -0.20462E+01
         0.61412E+01
         0.12459E+02
         0.12169E+01
         0.78620E+01
         0.15089E+00
        -0.18852E+01
         0.20227E+01
        -0.39211E+01
        -0.10317E+02
        -0.96830E+01
        -0.18711E+01
        -0.61889E+00
        -0.40897E+01
        -0.16115E+02
        -0.83911E+01
        -0.63461E+01
        -0.54149E+01
         0.93235E+01
         0.16136E+01
        -0.27571E+01
        -0.89902E+01
        -0.14952E+01
        -0.39071E+01
        -0.48689E+01
        -0.69475E+01
        -0.58557E+00
         0.33127E+01
         0.33481E+01
         0.45003E+01
         0.23556E+00
        -0.11144E+01
        -0.20225E+01
         0.26651E+01
         0.85348E+01
         0.96844E+01
        -0.20177E-01
         0.39880E+01
         0.19738E+01
        -0.64774E-01
         0.31078E+01
         0.64088E+01
         0.33556E+01
         0.16925E+01
        -0.36730E+01
        -0.37284E+01
         0.71537E+01
        -0.38636E+01
         0.30125E+01
         0.47166E+01
         0.70977E+00
         0.89227E+01
        -0.10186E+02
         0.55765E+01
         0.47888E+01
        -0.23252E+01
        -0.10790E+01
        -0.78062E+01
        -0.43759E+01
        -0.38124E+01
        -0.32328E+01
         0.42511E+01
        -0.43901E+01
        -0.14703E+01
         0.38332E+01
        -0.10133E+02
        -0.15077E+02
        -0.20139E+01
         0.23864E+01
         0.38283E-01
         0.71876E+01
        -0.38506E-02
        -0.21385E+01
        -0.24334E+01
        -0.97986E+01
        -0.12104E+02
        -0.37724E+01
         0.45592E+00
        -0.43098E+01
         0.32410E+01
         0.13611E+01
        -0.84763E+00
         0.70637E+00
         0.18952E+01
         0.25160E+01
         0.34725E+01
        -0.16862E+01
         0.54246E+01
         0.48582E+01
        -0.16996E+01
         0.63299E+01
         0.50630E+01
        -0.16214E+01
        -0.60604E+01
        -0.21388E+01
        -0.94278E+01
        -0.61988E+01
        -0.29210E+01
         0.22341E+01
        -0.77765E+00
         0.99195E+01
        -0.12464E+01
        -0.69263E+01
         0.12569E+01
         0.92865E+01
         0.56696E+01
        -0.19246E+01
        -0.28915E+01
        -0.37578E+01
         0.12068E+00
        -0.48534E+01
        -0.27262E+01
        -0.31498E+01
        -0.20268E+01
         0.36266E+01
         0.98559E+00
        -0.70774E+01
        -0.58598E+01
        -0.68760E+00
        -0.25250E+01
        -0.43643E+01
         0.11039E+02
         0.85250E+01
         0.69210E+01
         0.13229E+02
         0.74580E+01
         0.68529E+00
         0.56898E+00
        -0.13010E+01
         0.75684E+01
        -0.32028E+01
         0.74456E+01
         0.28885E+00
        -0.39028E+01
        -0.21970E+01
        -0.22297E+01
         0.46318E+01
        -0.76678E+00
         0.67994E+01
         0.75723E+01
        -0.39078E+01
        -0.16410E+01
         0.25266E+01
        -0.14278E+02
        -0.18514E+02
        -0.86867E+01
        -0.25677E+01
         0.14721E+00
         0.46803E+01
        -0.12286E+01
        -0.21333E+01
        -0.50407E+01
        -0.10454E+02
        -0.99714E+01
        -0.25468E+01
        -0.19705E+01
        -0.88950E+01
        -0.30517E+01
         0.20820E+00
         0.13634E+01
         0.10928E+01
         0.46077E+01
        -0.62429E+00
        -0.21446E+01
        -0.35370E+01
         0.28693E+00
         0.10426E+02
         0.40819E+01
         0.26976E+01
         0.54706E+01
         0.11051E+02
        -0.40671E+00
         0.24130E+01
         0.30317E+01
         0.70812E+00
        -0.30509E+01
        -0.38981E+01
        -0.85780E+01
         0.25080E+00
        -0.35099E+01
        -0.30409E+01
         0.28938E+01
         0.27029E+01
        -0.77246E+00
        -0.74498E+01
        -0.14770E+01
         0.15674E+01
         0.98589E+00
         0.22367E+01
         0.51121E+01
         0.60843E-01
        -0.46901E+01
        -0.10954E+02
        -0.87765E+01
        -0.28080E+01
         0.21591E+01
         0.68806E+01
        -0.66616E+01
        -0.82286E+01
         0.15767E+00
        -0.93350E+01
        -0.56899E+01
         0.96352E+01
        -0.14259E+01
         0.90639E+01
         0.19281E+01
         0.10545E+02
         0.13521E+02
        -0.14674E+02
         0.10803E+02
        -0.10141E+02
        -0.12456E+02
        -0.53486E+01
        -0.75571E+01
        -0.98415E-01
         0.33630E+01
        -0.25393E+01
         0.29393E+01
        -0.18179E+01
        -0.24680E+00
         0.51316E+01
        -0.24562E+02
        -0.24104E+02
        -0.12953E+02
        -0.61147E+01
         0.16275E+01
         0.57603E+01
         0.91368E+01
         0.47610E+01
        -0.24707E+01
        -0.37142E+01
        -0.33942E+01
        -0.28875E+01
        -0.47914E+01
        -0.93518E+01
        -0.66471E+00
        -0.26355E+01
        -0.25069E+01
         0.16353E+01
         0.12400E+02
         0.13519E+02
         0.13425E+02
         0.73292E+01
        -0.77949E+01
         0.22167E+01
        -0.49526E+01
        -0.96654E+01
        -0.29298E+01
         0.96003E+01
         0.38563E+01
         0.75708E+01
         0.31412E+01
         0.39283E+00
         0.31921E+00
        -0.21963E+01
        -0.24491E+01
         0.39179E+01
         0.54075E+01
         0.62927E+01
         0.31490E+01
        -0.62499E+01
        -0.10011E+02
        -0.23941E+01
        -0.18577E+01
        -0.26820E+01
         0.40124E+00
        -0.69015E+00
         0.15840E+01
         0.24870E+01
         0.15465E+00
        -0.20879E+01
        -0.45735E+00
         0.24497E+01
         0.12231E+02
         0.10257E+02
        -0.18601E+01
         0.15140E+01
        -0.36694E+00
        -0.50506E+01
         0.12655E+01
        -0.29828E+01
        -0.55951E+01
        -0.34829E+01
        -0.34072E+01
        -0.35100E+01
        -0.25030E+01
        -0.70048E+01
        -0.15938E+01
        -0.11852E+01
         0.45035E+00
        -0.84548E+00
        -0.61876E+01
         0.71967E+00
        -0.22021E+01
         0.75175E+00
         0.63775E+00
        -0.30634E+01
        -0.36765E+01
         0.18625E+01
        -0.13226E+02
        -0.92401E+01
        -0.18743E+01
         0.15872E+01
        -0.25603E+00
         0.95379E+00
        -0.18122E+01
        -0.12090E+01
        -0.47963E+01
        -0.59873E+01
        -0.43374E+01
        -0.50463E+01
        -0.64859E+01
        -0.52330E+01
        -0.96282E+00
        -0.56544E+01
        -0.40928E+01
         0.38591E+01
         0.16224E+02
         0.16451E+02
         0.98477E+01
         0.37428E+01
         0.30597E+01
         0.18736E+02
         0.12033E+02
         0.10475E+02
         0.20624E+01
         0.25826E+01
        -0.13012E-01
         0.17613E-01
        -0.42056E+01
         0.45335E+00
         0.54892E+01
        -0.11444E+01
        -0.67084E+01
        -0.92648E+01
        -0.10339E+02
        -0.85471E-01
         0.11810E+02
         0.77323E+01
        -0.80070E+00
        -0.11036E+02
        -0.11988E+02
        -0.14475E+02
        -0.14393E+02
        -0.84720E+01
        -0.11208E+02
        -0.50763E+01
        -0.28099E+01
        -0.53817E+01
         0.39537E+00
        -0.45937E+01
        -0.27635E+01
        -0.30022E+01
        -0.32983E+01
        -0.91602E+01
        -0.96319E+01
        -0.22529E+01
        -0.10033E+02
        -0.41225E+01
         0.14923E+01
        -0.10797E+01
        -0.68386E+01
        -0.95239E+00
        -0.72444E+01
         0.11950E+01
        -0.72585E+01
         0.18955E+01
         0.44182E+01
         0.33592E+00
        -0.17146E+00
        -0.61555E+01
        -0.52325E+01
        -0.49664E+01
        -0.38682E+01
        -0.30884E+01
        -0.75492E+01
        -0.67255E+01
        -0.12354E+02
        -0.68050E+01
        -0.47453E+01
        -0.45223E+01
        -0.47331E+01
        -0.79675E+01
         0.97741E+00
         0.31786E+01
         0.20321E+01
        -0.86198E+00
        -0.11035E+01
         0.30757E+01
         0.47216E+01
         0.31971E+01
        -0.51255E+01
         0.54221E+01
         0.60208E+01
         0.10236E+02
         0.13008E+02
         0.15578E+02
         0.15211E+02
         0.12042E+02
         0.16126E+02
         0.21101E+02
         0.63046E+01
         0.11388E+01
         0.61860E+01
         0.60752E+01
         0.36955E+00
        -0.11096E+01
        -0.20153E+01
         0.71560E+01
         0.10662E+02
         0.60492E+01
         0.23975E+01
        -0.10885E+01
         0.12665E+01
         0.91373E+01
         0.11521E+02
         0.69306E+01
         0.68132E+01
        -0.78777E+01
        -0.13419E+01
        -0.10105E+02
        -0.16649E+02
        -0.93236E+01
        -0.50888E+01
         0.74221E+01
         0.53415E+01
        -0.11483E+02
         0.21093E+01
         0.24495E+01
        -0.36992E+01
         0.35827E+01
         0.22372E+00
        -0.14430E+02
        -0.24498E+02
        -0.76911E+01
        -0.26881E+02
        -0.92150E+01
         0.60820E+01
         0.26783E+00
         0.54857E+01
         0.19438E+01
        -0.10270E+02
         0.47628E+01
        -0.70168E+01
         0.83094E-01
         0.18466E+01
         0.27905E+01
         0.99118E+01
        -0.14875E+02
        -0.26964E+01
        -0.16338E+02
        -0.55716E+01
        -0.99282E+01
        -0.76787E+01
         0.18711E+00
        -0.68982E+01
         0.64995E+01
         0.65232E+01
        -0.19188E+00
         0.27049E+01
         0.65181E+01
         0.79636E+01
         0.97408E+01
         0.67563E+01
         0.39468E+01
        -0.88774E+00
         0.20073E+01
         0.59942E+01
         0.42451E+01
         0.17880E+01
         0.15920E+01
         0.56942E+01
         0.58142E+01
         0.20554E+01
         0.17167E+01
         0.64042E+01
         0.49223E+01
        -0.61822E+01
        -0.79296E+01
        -0.24841E+01
        -0.65592E+01
         0.12264E+01
         0.62181E+01
         0.42483E+01
        -0.65134E+01
        -0.37737E+01
         0.32008E+01
         0.26163E+01
         0.39305E+01
        -0.44144E+01
        -0.11105E+02
         0.57212E+00
         0.53874E+01
        -0.40876E+01
        -0.20008E+01
         0.76709E+01
         0.36437E+01
         0.80851E+01
        -0.47917E+01
        -0.22316E+01
        -0.77402E+01
         0.33881E+01
         0.13651E+02
         0.50555E+01
         0.50444E+00
        -0.88223E+00
         0.89577E+01
         0.14123E+02
         0.18405E+02
        -0.21319E+01
        -0.24084E+01
        -0.12007E+02
        -0.32096E+01
        -0.53437E+01
        -0.12885E+02
        -0.22510E-01
        -0.44042E+01
         0.72898E+01
        -0.64069E+01
        -0.14543E+02
        -0.34388E-01
        -0.10324E+02
        -0.78616E+01
        -0.20639E+01
         0.56835E+01
         0.84706E+01
        -0.50199E+01
        -0.19646E+01
        -0.33924E+01
         0.10805E+01
        -0.14242E+02
        -0.77205E+01
         0.70251E+01
        -0.33268E+01
         0.84738E+01
         0.10753E+02
         0.39146E+01
         0.97481E+01
         0.15533E+02
        -0.24394E+01
         0.34010E+01
         0.52799E+01
         0.47626E+01
         0.32718E+01
         0.31555E+01
         0.51916E+01
         0.62617E+01
         0.81891E+01
        -0.48606E+01
         0.61593E+00
         0.44028E+01
         0.30150E+01
        -0.78903E+00
        -0.63721E+00
        -0.49979E+01
        -0.17282E+02
        -0.17416E+02
        -0.29941E+01
        -0.79939E+01
        -0.68739E+01
         0.66307E+01
         0.55507E+01
        -0.92254E+01
        -0.72035E+01
         0.12185E+01
         0.83365E+01
         0.68947E+01
        -0.59529E+01
        -0.60223E+01
         0.45730E+01
         0.76922E+01
         0.16932E+01
         0.68339E+01
         0.10365E+02
         0.12389E+02
         0.93727E+01
         0.60715E+01
         0.92491E+01
         0.17383E+01
         0.60713E+01
         0.36500E+01
         0.48483E+01
         0.10548E+02
         0.71719E+01
         0.14477E+01
         0.97081E+01
         0.81883E+01
         0.63277E+00
         0.78331E+01
        -0.11982E+02
         0.17901E+01
         0.12188E+01
        -0.70064E+01
         0.16759E+01
         0.61098E+01
         0.10259E+02
         0.27079E+01
        -0.86426E+01
         0.44861E+01
        -0.12783E+02
         0.33539E+01
         0.26488E+01
         0.10340E+01
         0.64150E+01
        -0.10569E+02
        -0.58135E+01
        -0.62523E+01
         0.11658E+01
        -0.29390E+01
         0.41883E+00
         0.33256E+01
         0.10838E+02
         0.83022E+01
        -0.12943E+01
        -0.53191E+01
         0.81341E+01
         0.17502E+02
        -0.92886E+00
         0.38147E+01
         0.98260E+01
         0.88444E+01
         0.41366E+01
        -0.40305E+00
         0.44823E+00
         0.43991E+01
         0.48422E+01
        -0.39345E+01
        -0.86553E+01
         0.52067E+01
         0.28488E+01
        -0.63351E+01
        -0.14711E+02
        -0.21283E+02
        -0.23058E+02
        -0.22495E+02
        -0.24589E+02
        -0.15350E+02
         0.10156E+01
         0.10637E+02
         0.44444E+01
        -0.86364E-01
         0.38859E+01
         0.98617E+01
         0.17873E+02
         0.14333E+02
         0.31607E+01
         0.33043E+01
         0.47306E+01
         0.70223E+01
         0.10157E+02
         0.11609E+02
         0.21931E+01
         0.15292E+02
         0.13511E+02
         0.16691E+02
         0.12544E+02
         0.96691E+01
         0.20724E+01
         0.32190E+01
         0.74259E+01
         0.96700E+01
         0.84170E+01
         0.13300E+01
         0.79107E+01
         0.65931E+01
         0.80270E+01
         0.12469E+02
        -0.29063E+01
         0.47842E+01
         0.25445E+01
         0.19131E+01
         0.86050E+01
        -0.62362E+00
         0.93418E+01
         0.56248E+00
        -0.17259E+01
         0.41381E+01
        -0.50517E+01
         0.13889E+02
         0.74098E+01
         0.38055E+01
         0.99576E+01
        -0.98799E+01
        -0.67966E+01
        -0.78572E+01
        -0.35032E+01
         0.83920E+01
         0.95118E+01
         0.63382E+01
         0.20977E+02
         0.13834E+02
         0.43275E+01
         0.23624E+01
         0.15176E+02
         0.26346E+02
        -0.83033E+00
        -0.78537E+00
         0.17901E+01
        -0.24929E+01
        -0.86913E+01
        -0.10585E+02
        -0.83957E+01
        -0.63592E+01
        -0.63147E+01
        -0.40409E+01
        -0.76276E+01
        -0.85713E+01
        -0.45333E+01
         0.16520E+01
        -0.66719E+01
        -0.16617E+02
        -0.19523E+02
        -0.16224E+02
        -0.25699E+01
         0.83707E+00
        -0.38240E+01
         0.76209E+01
        -0.45256E+01
        -0.92937E+01
         0.35929E+01
         0.68331E+01
         0.10490E+02
         0.10495E+02
         0.16344E+01
         0.12611E+01
         0.18559E+01
         0.37109E+00
        -0.29146E+01
        -0.45285E+01
        -0.55815E+01
         0.82638E+01
         0.15572E+02
         0.15800E+02
         0.56165E+01
         0.89799E+01
         0.19345E+01
         0.95202E+01
         0.10447E+02
        -0.54234E+01
         0.51454E+01
         0.18477E+01
        -0.49276E+01
         0.59017E+01
         0.93851E+01
        -0.42771E+01
        -0.59876E+01
        -0.92125E+01
        -0.57120E+01
        -0.42037E+01
        -0.43415E+01
        -0.78482E+01
        -0.57104E+01
        -0.13037E+01
        -0.60705E-01
         0.25322E+00
        -0.33608E+01
         0.16230E+02
         0.14309E+02
         0.12564E+02
         0.60565E+01
        -0.19811E+01
        -0.62434E+01
         0.22678E+01
         0.43363E+01
         0.98202E+01
         0.13508E+02
         0.12811E+02
         0.94274E+01
         0.83029E+01
         0.75077E+01
         0.83425E+01
         0.19213E+02
         0.16185E+02
        -0.54393E+00
        -0.30783E+01
        -0.44937E+01
        -0.71171E+01
        -0.29391E+01
         0.47990E+01
         0.69791E+01
         0.31738E+01
         0.19439E+00
         0.33005E+01
         0.23313E+01
        -0.52761E+01
        -0.67801E+01
        -0.43344E+01
        -0.12393E+02
        -0.13253E+02
        -0.10337E+02
        -0.59417E+01
         0.14610E+02
         0.52578E+01
        -0.76440E+01
         0.22897E+01
         0.20375E+01
         0.31098E+01
         0.43587E+00
         0.28462E+01
         0.99570E+01
         0.10053E+02
         0.74630E+01
         0.87173E+01
         0.52703E+01
         0.16757E+01
        -0.37054E+01
        -0.52216E+01
        -0.16380E-01
        -0.89990E+01
        -0.39944E+01
        -0.97907E+01
        -0.67594E+01
        -0.11079E+02
        -0.42596E+01
        -0.28515E+01
        -0.75540E+01
        -0.83843E+01
        -0.87188E+01
        -0.56034E+01
        -0.53924E+01
         0.98813E+00
        -0.75423E+01
        -0.58607E+01
        -0.16026E+01
        -0.80076E+01
        -0.17740E+01
        -0.59133E+01
        -0.12209E+02
        -0.73682E+01
        -0.14838E+02
         0.48375E+00
         0.64447E+00
        -0.69247E+01
         0.31893E+00
        -0.47369E+01
         0.24906E+01
         0.85323E+01
        -0.41984E+01
         0.56940E+01
         0.10265E+01
         0.85150E+01
         0.74051E+01
        -0.49937E+01
        -0.13283E+01
         0.29220E+01
         0.13861E+01
         0.38501E+01
         0.61214E+01
         0.59439E+01
         0.10762E+02
        -0.12131E+01
         0.52824E+00
        -0.24302E+01
        -0.45675E+01
         0.13629E+00
         0.87926E+01
         0.13900E+02
         0.12130E+02
         0.65972E+01
         0.56274E+01
         0.13347E+02
        -0.73973E+00
         0.15131E+02
         0.19658E+01
        -0.76782E+01
        -0.10898E+02
        -0.83035E+01
        -0.15706E+01
         0.70165E+01
         0.11610E+02
        -0.41294E+01
        -0.64623E+01
        -0.45634E+01
         0.78534E+01
         0.12494E+02
        -0.54402E+00
        -0.31996E+01
        -0.44941E+01
        -0.83053E+01
        -0.71239E+01
        -0.51740E+01
        -0.65991E+01
        -0.50747E+01
        -0.60149E+01
        -0.22514E+01
         0.35945E+00
        -0.10541E+02
        -0.97433E+01
        -0.12378E+02
        -0.42989E+01
        -0.10747E+02
        -0.42378E+01
        -0.82964E+01
        -0.14322E+02
        -0.65834E+01
        -0.15818E+02
        -0.82319E+01
        -0.83899E+01
        -0.72255E+01
        -0.14417E+02
        -0.67809E+01
         0.13476E+02
        -0.35997E+01
         0.99660E+01
         0.16616E+00
        -0.71918E+01
        -0.14056E+01
        -0.10424E+02
         0.59697E+01
         0.68072E+01
        -0.10051E+02
         0.11534E+02
        -0.15655E+02
        -0.76296E+01
        -0.16906E+01
        -0.50122E+01
         0.17643E+02
         0.11624E+02
         0.13619E+02
         0.20141E+01
        -0.79094E+01
        -0.85953E+01
        -0.64217E+01
        -0.15125E+00
         0.61318E+01
         0.21863E+01
        -0.64915E+01
        -0.71454E+01
        -0.95233E+01
         0.66715E+01
         0.24208E+01
        -0.43671E+01
         0.80050E+00
         0.71285E+01
         0.43932E+01
        -0.16199E+01
        -0.51577E+01
        -0.13701E+01
         0.70184E+01
         0.15325E+01
         0.27082E+01
        -0.74078E+01
        -0.13055E+02
        -0.66544E+01
         0.16661E+01
         0.36118E+00
         0.14749E+02
         0.10605E+02
        -0.14083E+02
        -0.19526E+02
        -0.14120E+02
         0.25149E+01
         0.55299E+01
        -0.31577E+01
        -0.36472E+01
        -0.35373E+01
        -0.10831E+02
        -0.10574E+02
        -0.26352E+01
        -0.44075E+00
        -0.13918E+00
        -0.59243E+01
        -0.35920E+01
         0.14116E+01
         0.38377E+01
        -0.25962E+01
         0.78529E+00
         0.14156E+02
         0.36686E+01
         0.14518E+02
        -0.35020E+01
         0.48281E+00
         0.32961E+01
         0.32610E+01
        -0.34143E+01
        -0.79151E+01
        -0.10216E+02
        -0.15219E+01
        -0.28273E+01
         0.94665E+01
         0.13294E+01
         0.12237E+02
         0.27027E+01
         0.59634E+01
         0.96515E+01
         0.12318E+02
         0.46228E+01
         0.40803E+01
         0.68018E+01
         0.10813E+02
         0.21812E+01
         0.26555E+01
        -0.56455E+01
         0.61475E+01
         0.19227E+02
         0.13218E+02
         0.18726E+02
         0.13686E+02
        -0.52713E+01
        -0.68549E+01
        -0.90398E+01
         0.32379E+01
         0.26549E+01
        -0.73016E+01
        -0.17005E+02
        -0.14598E+02
        -0.65194E+00
         0.57076E+01
         0.43173E+01
        -0.39183E+01
         0.12928E+01
         0.64540E+01
         0.53671E+01
         0.31065E+01
        -0.34627E+00
         0.10162E+02
        -0.98977E+00
         0.42467E+00
         0.73360E+01
         0.48319E+01
        -0.92164E+01
        -0.13814E+02
        -0.12381E+02
        -0.21094E+02
        -0.83253E+01
        -0.11555E+02
        -0.21081E+02
        -0.20374E+02
         0.39057E+01
         0.13236E+02
        -0.34674E+01
        -0.14679E+02
        -0.11943E+02
        -0.10935E+02
        -0.16860E+02
        -0.12711E+02
        -0.25555E+01
         0.15995E+01
         0.30197E+01
        -0.55245E+01
        -0.16024E+01
         0.51187E+01
         0.61348E+01
         0.21322E+00
         0.26385E+01
         0.16442E+02
         0.50884E+01
         0.19400E+02
         0.42415E+00
         0.79706E+01
         0.18311E+01
         0.13197E+02
         0.16084E+01
        -0.43872E+01
        -0.69013E+01
         0.95923E+01
         0.21237E+00
         0.17504E+01
        -0.38599E+01
         0.32404E+01
        -0.15369E+01
        -0.19160E+01
         0.10064E+02
         0.80918E+01
         0.15400E+02
         0.10274E+02
         0.13639E+02
         0.18102E+02
         0.17375E+02
         0.15516E+02
         0.41819E+01
         0.97147E+01
         0.16093E+02
         0.16904E+02
         0.17508E+02
         0.22826E+02
        -0.41207E+01
        -0.58175E+01
        -0.79131E+01
         0.38621E+01
        -0.11512E+00
        -0.27526E+01
        -0.52105E+01
         0.33694E+01
         0.91344E+01
         0.18855E+02
         0.11508E+02
        -0.40101E+01
        -0.13017E+00
         0.40129E+01
         0.10534E+02
         0.17041E+02
         0.12587E+02
         0.20994E+02
         0.34617E+01
        -0.21892E+01
         0.14993E+02
         0.94121E+01
        -0.95213E+01
        -0.23916E+02
        -0.27061E+02
        -0.31287E+02
        -0.21024E+02
        -0.15832E+02
        -0.13716E+02
        -0.10779E+02
         0.17067E+02
         0.14223E+02
        -0.10312E+02
        -0.21864E+02
        -0.19598E+02
        -0.22479E+02
        -0.30009E+02
        -0.24258E+02
        -0.18418E+02
        -0.14531E+02
        -0.55518E+01
        -0.85662E+01
        -0.85514E+01
        -0.23338E+01
         0.18491E+02
         0.11005E+02
        -0.72947E+00
         0.10083E+02
        -0.10622E+02
        -0.80629E+01
         0.14403E+02
         0.11779E+02
         0.25152E+02
         0.14390E+02
         0.12855E+02
         0.86525E+01
         0.11012E+02
         0.10515E+02
         0.96206E+01
         0.24898E+02
         0.24407E+02
         0.25738E+02
         0.27743E+01
         0.71917E+01
         0.56118E+00
         0.45387E+01
         0.77136E+00
         0.30722E+01
         0.20404E+02
         0.11304E+02
         0.79249E+01
         0.12646E+02
         0.16342E+02
         0.18390E+02
         0.28047E+02
         0.12588E+02
         0.26951E+02
         0.77989E+01
        -0.81460E+01
        -0.98478E+00
         0.77313E+01
         0.12379E+02
         0.15567E+02
         0.18406E+02
         0.12822E+02
         0.21074E+02
         0.20621E+02
        -0.26569E+01
        -0.77287E+01
        -0.13582E+02
        -0.18781E+01
         0.13272E+02
         0.14820E+02
         0.65016E+00
        -0.13920E+02
        -0.92265E+01
         0.18195E+01
        -0.12274E+02
         0.12793E+02
         0.86218E+01
        -0.80806E+01
        -0.22727E+02
        -0.26442E+02
        -0.34635E+02
        -0.30369E+02
        -0.20622E+02
        -0.12132E+02
        -0.15265E+00
         0.28203E+02
         0.23382E+02
        -0.70336E+01
        -0.26319E+02
        -0.32136E+02
        -0.33747E+02
        -0.35883E+02
        -0.43441E+02
        -0.44038E+02
        -0.36069E+02
        -0.28802E+02
        -0.30335E+02
        -0.35156E+02
        -0.25155E+02
  
SCALARS                         fint_z  double 1
LOOKUP_TABLE default
         0.16015E+02
         0.19789E+02
         0.22450E+02
         0.49471E+01
         0.53380E+03
         0.33975E+03
         0.11535E+03
         0.71263E+03
         0.13808E+02
         0.29564E+01
         0.17846E+03
         0.79497E+02
         0.53447E+01
         0.17448E+02
         0.18510E+03
         0.40676E+03
         0.81746E+01
         0.30048E+02
         0.88136E+03
         0.67680E+03
         0.27274E+01
         0.13975E+02
         0.10790E+02
         0.95490E+02
         0.91378E+02
         0.66604E+02
         0.18126E+02
         0.25571E+02
         0.16876E+03
         0.65001E+01
        -0.27023E+02
         0.51725E+01
        -0.12643E+02
         0.73456E+03
         0.96887E+03
         0.75307E+03
        -0.10113E+02
         0.20855E+02
         0.26788E+03
         0.15567E+03
        -0.16906E+02
        -0.17397E+02
         0.11036E+03
         0.38043E+03
        -0.32930E+02
        -0.34919E+02
         0.24370E+02
         0.26625E+03
         0.33761E+02
         0.30264E+03
        -0.28463E+02
         0.27217E+03
         0.21359E+02
        -0.42365E+02
         0.14307E+02
         0.35006E+03
         0.10608E+02
         0.13924E+02
         0.23809E+02
         0.34353E+03
        -0.23841E+02
        -0.18806E+02
         0.26409E+03
         0.21210E+03
        -0.17155E+02
         0.48476E+03
         0.17845E+01
         0.16114E+03
         0.17135E+02
         0.27576E+02
         0.50452E+02
         0.59353E+02
         0.23638E+02
         0.19616E+02
         0.86440E+01
         0.25656E+03
         0.16434E+01
         0.85256E+02
         0.26181E+01
         0.15035E+02
        -0.39966E+01
        -0.48352E+01
         0.73348E+02
         0.10005E+03
        -0.16508E+02
         0.12046E+03
        -0.33104E+02
         0.28510E+02
        -0.21016E+02
         0.29975E+02
        -0.17694E+02
        -0.13552E+02
         0.31358E+02
         0.10961E+03
        -0.18522E+02
         0.90774E+02
        -0.25218E+02
         0.29637E+03
        -0.55779E+01
         0.69603E+02
         0.26352E+01
        -0.68874E+00
        -0.30174E+02
         0.19663E+03
         0.19914E+02
         0.11770E+02
        -0.27131E+02
         0.21314E+02
         0.16982E+02
         0.11517E+02
         0.22038E+02
        -0.74288E+01
         0.64127E+01
         0.30686E+02
        -0.11971E+01
         0.19649E+02
        -0.27431E+01
         0.20933E+02
        -0.45692E+01
        -0.86894E+01
         0.10898E+02
         0.15573E+01
         0.61877E+01
         0.15863E+02
        -0.35995E+00
        -0.18595E+02
        -0.54022E+01
        -0.11440E+02
        -0.11264E+02
         0.25654E+01
        -0.58959E+01
        -0.18890E+02
        -0.18533E+02
         0.14418E+02
        -0.17261E+02
        -0.71283E+01
        -0.18475E+02
        -0.12118E+02
        -0.13465E+02
        -0.68841E+00
        -0.27794E+01
        -0.41529E+02
        -0.10416E+02
        -0.32604E+02
        -0.70427E+01
        -0.20742E+01
         0.16583E+00
        -0.10229E+02
         0.46094E+01
        -0.17310E+00
         0.84871E+01
        -0.36061E+02
        -0.44839E+01
         0.25376E+01
         0.60880E+00
         0.29780E+01
        -0.90333E+01
        -0.60393E+01
        -0.75199E+01
        -0.22448E+01
        -0.10692E+00
        -0.80890E+01
         0.57762E+00
        -0.34848E+01
        -0.16369E+02
        -0.98798E+01
         0.27384E+01
         0.11252E+02
         0.75771E+01
         0.23354E+01
         0.21850E+02
        -0.33579E+01
        -0.27788E+02
         0.13426E+02
         0.97829E+01
         0.12222E+02
         0.22760E+00
        -0.74798E+01
         0.12542E+02
         0.86143E+01
        -0.58790E+01
         0.62282E+01
         0.13866E+01
         0.52407E+01
        -0.13522E+02
        -0.65098E+01
         0.68053E+01
         0.79098E+01
         0.15209E+02
         0.89325E+01
         0.19361E+02
         0.10826E+02
         0.11464E+02
         0.10649E+02
         0.55817E+01
         0.81464E+01
         0.10761E+02
         0.16182E+02
         0.54800E+01
         0.20207E+02
         0.12357E+02
        -0.50977E+01
         0.98730E+01
         0.10252E+02
        -0.40907E+01
         0.41241E+01
         0.10861E+02
        -0.48467E+01
        -0.82131E+01
        -0.13694E+02
        -0.24126E+01
         0.42424E+01
        -0.10512E+02
        -0.13011E+02
        -0.70490E+01
         0.12718E+01
         0.18825E+02
         0.73112E+01
        -0.48366E+00
         0.32771E+01
         0.36810E+01
         0.31566E+01
         0.12518E+02
         0.14037E+02
         0.28785E+01
        -0.44859E+01
        -0.55076E+01
        -0.34768E+01
         0.32623E+01
        -0.12623E+01
         0.26320E+01
         0.14118E+02
         0.67466E+00
        -0.56468E+01
         0.41536E+01
         0.10386E+01
        -0.82028E+01
        -0.12644E+02
         0.17088E+02
         0.91039E+01
         0.22260E+02
         0.17711E+02
        -0.40532E+01
        -0.53363E+01
         0.59039E+01
         0.77493E+01
         0.17706E+02
         0.97623E+01
         0.59749E+01
        -0.36544E+01
        -0.28829E+02
         0.43795E+01
        -0.81996E+01
        -0.12861E+02
        -0.16460E+02
        -0.69937E+01
         0.99350E+01
         0.10807E+02
        -0.82791E+01
        -0.80345E+00
         0.83694E+01
         0.10156E+02
        -0.55839E+01
         0.93414E-01
        -0.24865E+01
        -0.38791E+01
        -0.27582E+01
        -0.23646E+02
         0.23308E+02
        -0.10973E+01
         0.79268E+01
         0.60638E+01
        -0.56057E+01
         0.10175E+02
         0.15248E+02
         0.47816E+01
         0.58551E+01
         0.24486E+02
         0.94722E+01
        -0.65886E+01
         0.52781E+01
         0.20484E+02
         0.10437E+02
        -0.35330E+00
         0.16070E+02
         0.27355E+01
        -0.14841E+02
         0.12727E+01
        -0.80345E+01
        -0.10511E+02
        -0.13596E+02
        -0.15668E+02
        -0.24705E+01
         0.16278E+01
         0.87295E+01
         0.92081E+01
         0.64028E+01
        -0.42154E+01
        -0.95546E+00
        -0.36432E+01
         0.66858E+01
        -0.47696E+01
        -0.52439E+01
        -0.51966E+01
        -0.10240E+02
        -0.10222E+02
         0.19657E+01
         0.46011E+01
         0.95377E+01
         0.11493E+02
         0.92966E+01
         0.10732E+02
         0.12851E+02
         0.14192E+01
        -0.45184E+00
        -0.11302E+02
         0.13668E+02
         0.31069E+01
         0.59777E+01
         0.10549E+02
         0.18751E+02
         0.21387E+01
        -0.65206E+01
        -0.11335E+02
        -0.22714E+01
         0.76238E-01
        -0.18187E+02
        -0.11380E+02
         0.47188E+01
        -0.65729E+01
        -0.21371E+02
        -0.13822E+02
        -0.19361E+02
         0.87251E+00
        -0.82942E+01
        -0.10465E+02
        -0.44849E+01
        -0.21260E+02
        -0.31117E+01
        -0.91559E+01
        -0.85821E+01
         0.47840E+01
        -0.32118E+02
        -0.27223E+02
        -0.29350E+02
        -0.26005E+02
         0.16394E+02
        -0.88599E+00
        -0.43578E+01
        -0.15224E+02
        -0.21307E+02
        -0.10143E+02
        -0.73116E+01
        -0.17752E+02
         0.64808E+01
        -0.84151E+01
        -0.15230E+02
        -0.53067E+01
        -0.11424E+02
        -0.15379E+02
        -0.85900E+01
        -0.11066E+01
         0.14304E+02
         0.29639E+01
        -0.37938E+01
         0.68391E+01
         0.36488E+00
        -0.10927E+02
        -0.13031E+02
        -0.80915E+01
        -0.46594E+01
        -0.40311E+01
        -0.23071E+01
        -0.63911E+01
        -0.38459E+01
        -0.88903E+01
         0.66112E+01
        -0.16431E+01
         0.64144E+01
         0.21803E+01
         0.52961E+00
        -0.16759E+01
         0.42319E+01
         0.16825E+00
        -0.13710E+01
         0.12141E+01
         0.84851E+01
         0.12954E+02
         0.14537E+02
         0.11606E+02
         0.78382E+01
         0.11431E+01
         0.10726E+01
         0.63957E+01
        -0.88791E+01
        -0.15882E+02
        -0.54594E+01
        -0.93961E+01
         0.17241E+02
        -0.32144E+01
         0.53731E+00
        -0.40156E+01
        -0.43060E+01
        -0.22397E+01
        -0.11670E+02
         0.28982E+02
         0.28575E+02
         0.18979E+02
         0.68802E+01
         0.16800E+01
         0.14940E+01
        -0.16626E+01
         0.46687E+01
         0.13113E+02
        -0.20416E+00
         0.16709E+02
         0.10176E+01
        -0.43374E+01
        -0.45898E+01
         0.76544E+01
         0.15192E+02
         0.92391E+01
         0.14594E+02
         0.11536E+02
        -0.59989E+01
        -0.37361E+01
        -0.57650E+01
         0.11432E+01
         0.69227E+01
        -0.27133E+01
        -0.31608E+01
         0.28835E+01
         0.13332E+02
        -0.70740E+01
        -0.10375E+02
         0.70483E+00
        -0.10217E+01
        -0.13240E+02
        -0.43635E+01
         0.79507E+01
         0.32034E+01
        -0.72473E+01
        -0.12847E+02
        -0.48683E+01
        -0.76964E+01
        -0.15909E+01
         0.50167E+01
         0.65179E+01
        -0.10059E+02
        -0.58006E+01
         0.34347E+01
         0.13794E+01
         0.44748E+00
         0.35365E+01
         0.11611E+01
         0.32761E+01
         0.10678E+02
         0.77634E+01
         0.52020E+01
         0.94689E+00
         0.56605E+01
         0.15916E+02
         0.16093E+02
         0.54525E+01
        -0.73936E+01
        -0.55248E+01
         0.69921E+01
         0.48031E+01
        -0.20519E+02
        -0.11160E+02
        -0.11090E+02
        -0.14975E+02
        -0.15527E+02
        -0.22968E+02
        -0.71610E+01
        -0.14627E+02
        -0.21469E+02
        -0.12643E+02
         0.16718E+01
        -0.83526E+01
        -0.10330E+02
        -0.51017E+01
        -0.11097E+02
         0.45015E+01
         0.59562E+00
        -0.17468E+02
         0.99471E+01
         0.11603E+02
         0.13809E+01
        -0.54374E+01
        -0.33673E+01
         0.12384E+02
        -0.37040E+01
         0.12996E+02
        -0.58184E+01
        -0.45226E+01
         0.13024E+02
         0.18996E+02
         0.20395E+02
         0.11732E+02
         0.14283E+02
         0.68156E+01
        -0.10488E+02
        -0.11171E+02
        -0.13234E+02
        -0.66422E+01
        -0.76199E+01
        -0.67288E+01
        -0.60862E+01
         0.10352E+02
         0.11017E+02
        -0.12012E+02
        -0.82788E+01
        -0.14002E+01
        -0.22076E+01
        -0.89074E+01
         0.22327E+01
         0.82883E+01
        -0.12632E+01
        -0.13562E+02
        -0.91116E+01
        -0.12011E+02
        -0.14186E+02
        -0.74759E+01
         0.69685E+01
         0.16362E+01
        -0.10719E+02
        -0.64225E+01
        -0.13333E+02
        -0.12089E+02
        -0.22458E+02
        -0.17897E+02
        -0.17969E+02
        -0.61447E+01
        -0.11094E+02
        -0.16989E+02
        -0.13206E+02
        -0.98662E+01
        -0.64049E+01
         0.63083E+01
         0.95622E+01
         0.34744E+01
        -0.23844E+01
        -0.46404E+01
        -0.77822E+01
        -0.12264E+02
        -0.13352E+02
        -0.99135E+01
        -0.46079E+01
        -0.20737E+02
         0.57758E+01
        -0.48848E+01
        -0.33603E+01
        -0.13407E+00
        -0.48834E+01
         0.78017E+01
         0.26707E+01
        -0.29924E+01
        -0.75825E+01
         0.14953E+01
         0.44178E+01
        -0.16741E+02
         0.67230E+01
        -0.29822E+02
         0.25830E+00
         0.10677E+02
         0.54851E+01
        -0.72669E+01
        -0.30979E+01
        -0.31777E+01
         0.46848E+01
        -0.78725E+01
         0.18832E+01
        -0.22135E+01
         0.95890E+01
         0.11829E+02
        -0.54274E+01
        -0.54827E+01
        -0.11863E+02
        -0.13712E+02
         0.82391E+01
         0.42155E+01
        -0.41588E+01
        -0.35116E+01
        -0.19484E+02
        -0.17422E+02
        -0.90681E+01
        -0.11452E+00
        -0.67315E+01
        -0.13406E+02
        -0.69949E+01
        -0.63175E+00
        -0.40901E+01
        -0.87333E+01
        -0.16825E+01
        -0.26081E+01
        -0.74413E+01
        -0.10828E+02
         0.17091E+01
        -0.18685E+01
         0.81521E+01
         0.13056E+02
         0.68054E+01
         0.18276E+00
         0.83796E+01
        -0.98175E+00
        -0.66355E+01
        -0.95401E+01
        -0.16146E+02
        -0.14746E+02
        -0.10530E+02
         0.47499E+01
         0.48992E+01
        -0.71848E+01
        -0.17227E+02
        -0.14175E+02
        -0.11681E+02
        -0.63146E+00
         0.10717E+02
         0.74455E+01
         0.57558E+01
        -0.24543E+01
        -0.16848E+02
        -0.50813E+01
        -0.12336E+02
        -0.71990E+01
        -0.35597E+01
        -0.20316E+02
         0.41431E+01
         0.14292E+01
        -0.48004E+01
        -0.67851E+01
        -0.10273E+02
        -0.81564E+01
        -0.27334E+01
        -0.92906E+01
        -0.11761E+02
        -0.48197E+01
        -0.10483E+01
        -0.16708E+02
        -0.92460E+01
        -0.26106E+02
        -0.14242E+02
        -0.14477E+02
        -0.12298E+02
        -0.23499E+02
        -0.78882E+01
        -0.84768E+01
        -0.15175E+02
        -0.63311E+01
        -0.30498E+01
        -0.24752E+01
         0.58336E+01
        -0.84442E+01
         0.84495E+00
         0.29782E+00
        -0.10529E+02
        -0.18871E+02
         0.12473E+01
         0.10082E+01
        -0.48096E+01
        -0.38731E+01
        -0.10810E+02
        -0.92375E+01
         0.20786E+01
        -0.77712E+00
        -0.20737E+02
        -0.68881E+01
         0.72255E+00
        -0.47877E-01
        -0.11659E+01
         0.22161E+01
         0.41640E+01
        -0.74840E+01
        -0.94960E+01
        -0.54470E+01
        -0.71344E+01
        -0.61346E+01
        -0.61328E+01
        -0.46244E+01
        -0.10091E+02
        -0.36969E+01
         0.41141E+01
        -0.43489E+01
         0.13641E+02
         0.66802E+01
         0.27776E+01
        -0.88249E-02
         0.25538E+00
         0.77592E+00
         0.10843E+02
         0.16689E+02
         0.58344E+01
         0.35358E+01
        -0.37523E+01
        -0.34225E+01
         0.41139E+01
        -0.16420E+01
        -0.38000E+01
        -0.16661E+01
        -0.84618E+01
         0.35391E+01
         0.12103E+02
         0.71504E+00
         0.14907E+01
         0.10500E+01
        -0.44802E+01
        -0.34070E+01
        -0.54533E+01
         0.12855E+01
         0.18848E+02
         0.11677E+02
        -0.52079E+01
        -0.18206E+02
        -0.20815E+02
        -0.39322E+01
        -0.63471E+01
         0.91162E+01
         0.16641E+02
         0.37475E+01
        -0.18056E+01
        -0.86563E+00
        -0.11828E+02
        -0.25668E+01
        -0.14308E+02
        -0.45940E+00
         0.10456E+02
         0.54125E+01
         0.60521E+01
         0.12640E+02
         0.28612E+01
         0.28865E+00
         0.11068E+02
         0.34716E+01
         0.66912E+01
        -0.62755E+00
        -0.40886E+01
        -0.39890E+01
        -0.11103E+02
        -0.64489E+01
        -0.10142E+02
        -0.84737E+01
        -0.18930E+01
        -0.59263E+01
        -0.40522E+01
        -0.75678E+01
        -0.21007E+01
        -0.49621E+01
        -0.92287E+01
        -0.89182E+01
        -0.20648E+00
         0.46661E+00
         0.32161E+01
         0.36231E+01
        -0.86951E+01
        -0.10355E+02
        -0.25296E+02
        -0.24606E+02
        -0.17425E+02
        -0.86354E+01
        -0.92115E+00
         0.30681E+00
        -0.64807E+01
         0.25634E+00
         0.70293E+01
        -0.12550E+02
        -0.13608E+02
        -0.19582E+02
        -0.18717E+02
        -0.83835E+01
        -0.30910E+01
        -0.14338E+01
        -0.33512E+01
        -0.37372E+01
        -0.94128E+01
        -0.11199E+02
        -0.69003E+01
         0.23276E+01
        -0.30233E+01
        -0.37484E+01
        -0.26811E+02
        -0.68972E+01
        -0.20899E+01
        -0.30903E+02
         0.24818E+01
        -0.38593E+01
        -0.97036E+01
        -0.19694E+02
        -0.37497E+02
        -0.21522E+02
        -0.41653E+01
        -0.17562E+02
        -0.18801E+02
        -0.81532E+01
        -0.57248E+01
        -0.31675E+02
        -0.26635E+02
        -0.51055E+02
        -0.19429E+02
        -0.19587E+02
        -0.25204E+02
        -0.14105E+02
        -0.23417E+02
        -0.10112E+02
        -0.12946E+02
        -0.52865E+01
        -0.10030E+02
        -0.84522E+01
        -0.13760E+02
        -0.16236E+02
        -0.15942E+02
        -0.41798E+01
        -0.31191E+02
        -0.24447E+02
         0.29105E+01
         0.41832E+01
        -0.49039E+01
        -0.19615E+02
        -0.25232E+02
        -0.13937E+02
         0.15272E+01
        -0.70964E+01
        -0.99122E+01
        -0.10151E+02
        -0.29441E+01
        -0.56776E+01
        -0.80040E+01
        -0.15930E+02
        -0.16370E+02
        -0.12955E+02
        -0.46255E+00
         0.23305E+01
         0.30687E+01
         0.12980E+02
        -0.11934E+02
        -0.91151E+01
        -0.80406E+01
        -0.99234E+01
        -0.91230E+01
        -0.84591E+01
        -0.16853E+01
         0.91934E+01
         0.14023E+02
         0.99106E+01
        -0.38441E+01
        -0.22417E+02
        -0.30136E+02
        -0.26737E+02
        -0.16534E+02
        -0.82629E+01
        -0.30438E+01
        -0.17482E+00
        -0.88037E+01
        -0.78599E+01
        -0.72386E+01
        -0.52292E+01
         0.14655E+01
         0.12539E+02
        -0.74674E+01
        -0.65412E+01
        -0.70021E+01
        -0.19263E+02
        -0.25038E+01
        -0.98475E+00
        -0.96694E+01
        -0.10208E+02
         0.18371E+01
        -0.64219E+01
        -0.75099E+01
        -0.17193E+02
        -0.19584E+02
        -0.61473E+01
        -0.39079E+01
        -0.13299E+01
         0.11622E+02
        -0.19400E+02
        -0.46811E+01
        -0.44103E+01
        -0.29656E+02
        -0.23295E+02
        -0.24739E+02
        -0.57833E+01
         0.14604E+01
         0.43574E+01
        -0.53368E+01
        -0.19487E+01
        -0.75580E+00
        -0.93267E+01
        -0.42780E+01
         0.45381E+00
        -0.17386E+02
        -0.15993E+02
        -0.45021E+01
        -0.13620E+01
        -0.79741E+01
        -0.13584E+02
        -0.14693E+02
        -0.32829E+01
         0.51395E+01
        -0.29055E+01
        -0.18743E+02
        -0.10109E+02
        -0.18861E+01
        -0.51601E+01
        -0.80045E+01
        -0.92572E+01
        -0.32088E+01
        -0.11482E+01
         0.70383E+01
         0.86071E+01
         0.95398E+01
         0.13831E+02
         0.64127E+01
         0.21494E+01
        -0.15689E+01
        -0.80294E+00
        -0.24552E+01
        -0.49873E+00
         0.39738E+00
        -0.60471E+01
        -0.29630E+01
         0.15746E+02
         0.11720E+02
         0.16991E+02
         0.84687E+01
        -0.47656E+01
        -0.71487E+01
        -0.27434E+01
        -0.40926E+00
         0.49990E+00
        -0.56537E+01
        -0.30108E+01
         0.15535E+01
         0.24551E+01
         0.90566E+01
         0.14702E+02
        -0.14770E+02
        -0.82570E+01
        -0.13620E+02
        -0.23001E+02
        -0.14021E+02
        -0.14462E+02
        -0.82500E+01
        -0.16341E+02
        -0.10814E+02
        -0.15563E+02
        -0.41869E+01
        -0.12001E+02
        -0.11621E+02
        -0.85707E+01
        -0.34889E+01
        -0.12944E+02
        -0.37631E+01
        -0.21351E+02
        -0.59926E+01
        -0.35687E+01
        -0.80320E+01
        -0.10456E+02
        -0.43081E+01
        -0.82463E+00
        -0.46540E+01
         0.13385E+01
        -0.71192E+01
         0.40852E+00
        -0.14189E+01
        -0.29009E+01
        -0.58172E+01
         0.63934E+00
        -0.14764E+02
        -0.14707E+02
        -0.71682E+01
        -0.18998E+01
        -0.32285E+01
        -0.46283E+01
        -0.31811E+01
        -0.13421E+01
        -0.88068E+00
        -0.99051E+01
        -0.13251E+02
         0.15525E+01
         0.59015E+01
         0.27250E+01
        -0.68283E+00
        -0.84536E+01
        -0.76459E+01
        -0.81947E+01
        -0.21766E+01
        -0.33674E+01
         0.69075E+01
         0.44122E+01
         0.83567E+01
         0.35162E+01
        -0.14034E+01
        -0.32263E+01
         0.13867E+01
         0.75798E+01
        -0.18661E+02
        -0.91830E+01
         0.47876E+01
         0.60698E+01
         0.67763E+01
         0.25592E+02
         0.15877E+02
         0.60270E+01
         0.22931E+01
         0.16086E+01
        -0.10185E+01
         0.41289E+01
         0.38338E+01
         0.16687E+01
         0.19468E+00
         0.25250E+00
         0.15957E+01
         0.23345E+01
        -0.17755E+02
        -0.88977E+01
        -0.14864E+02
        -0.29034E+02
        -0.17513E+02
        -0.20978E+02
        -0.72725E+01
        -0.16975E+02
        -0.18228E+02
        -0.19727E+02
        -0.86144E+00
        -0.10304E+02
        -0.13755E+02
        -0.90485E+01
        -0.36543E+01
        -0.23415E+02
        -0.14275E+02
        -0.28987E+02
        -0.13793E+02
        -0.96402E+01
         0.32058E+01
        -0.47450E+01
         0.10953E+01
        -0.64929E+01
        -0.10757E+02
        -0.78151E+01
        -0.16141E+02
        -0.95047E+01
        -0.44106E+01
        -0.58015E+01
        -0.12480E+02
        -0.35937E+01
        -0.21926E+02
        -0.23474E+02
        -0.71127E+01
        -0.26636E+01
        -0.62851E+01
        -0.13297E+02
        -0.86740E+01
        -0.19590E+01
        -0.80858E+01
        -0.19298E+02
        -0.18199E+02
         0.60307E+00
         0.54905E+01
         0.44762E+01
        -0.18563E+01
        -0.14421E+02
        -0.17330E+02
        -0.15994E+02
        -0.36256E+01
        -0.69969E+01
         0.94937E+00
         0.67291E-01
        -0.15820E+01
        -0.83957E+01
        -0.40821E+01
         0.93729E+00
        -0.64700E+01
        -0.43974E+01
        -0.16045E+02
         0.42852E-01
        -0.88559E+01
        -0.11239E+02
        -0.17220E+02
        -0.42516E+01
         0.16614E+00
         0.69315E+01
         0.10864E+02
         0.12590E+02
         0.59509E+01
        -0.59515E+00
        -0.66030E+00
         0.38130E+01
        -0.60970E+00
        -0.40711E+00
         0.37536E+01
         0.17132E+01
         0.11619E+01
         0.15423E+00
         0.27729E+01
        -0.39941E+01
        -0.32260E+01
        -0.61619E+01
        -0.72871E+01
        -0.69127E+01
        -0.57551E+01
        -0.99337E+01
        -0.15937E+01
        -0.15022E+02
        -0.21950E+02
        -0.16593E+01
        -0.12503E+00
        -0.14452E+02
        -0.12600E+02
        -0.17844E+02
        -0.11981E+02
        -0.16262E+02
        -0.66789E+01
        -0.19315E+02
        -0.17478E+01
         0.94145E-01
        -0.68086E+01
        -0.20387E+01
        -0.28900E+01
         0.32117E+01
         0.24240E+01
        -0.65968E+01
        -0.24959E+01
        -0.15480E+01
        -0.10320E+02
        -0.13122E+02
        -0.65913E+01
        -0.36814E+01
        -0.13526E+02
        -0.65839E+01
        -0.73564E+01
        -0.38228E+01
        -0.80634E+01
        -0.16361E+02
        -0.23727E+02
        -0.24662E+01
        -0.24819E+01
        -0.57800E+01
        -0.66473E+01
        -0.73815E+01
        -0.39687E+01
        -0.66394E+01
        -0.31331E+01
        -0.44010E+01
        -0.83117E+01
        -0.11583E+02
        -0.72960E+01
        -0.78514E+01
        -0.18321E+01
        -0.51423E+01
        -0.13152E+02
         0.60698E+01
        -0.20934E+01
         0.28305E+01
        -0.62211E+01
        -0.84644E+01
        -0.13480E+02
        -0.44074E+01
        -0.34773E+01
         0.30396E+01
         0.76570E+01
         0.81888E+01
         0.21353E+01
        -0.82448E+01
        -0.16370E+02
        -0.77088E+01
        -0.29606E+01
        -0.45950E+01
        -0.84025E+01
        -0.12187E+02
         0.39445E+01
        -0.94930E+01
        -0.15412E+02
        -0.17422E+02
        -0.18991E+02
        -0.22251E+02
        -0.10060E+02
        -0.16830E+00
         0.11716E+02
         0.51492E+01
        -0.49122E+01
        -0.17228E+02
        -0.25783E+02
        -0.25994E+01
        -0.55363E+01
        -0.91476E+01
         0.34087E+01
        -0.16025E+02
        -0.11933E+02
        -0.18165E+02
        -0.18487E+02
        -0.27752E+02
        -0.90433E+01
        -0.10714E+01
        -0.66108E+00
        -0.41532E+01
         0.22516E+01
         0.47529E+01
        -0.33949E+01
        -0.99862E+01
        -0.18191E+02
        -0.13575E+02
        -0.27104E+02
        -0.28488E+02
        -0.15566E+02
        -0.16159E+02
        -0.22161E+02
        -0.67040E+01
        -0.62080E+01
        -0.12226E+02
        -0.15912E+02
        -0.16734E+02
        -0.18980E+02
        -0.90836E+01
        -0.12682E+02
        -0.15560E+02
        -0.19983E+02
        -0.23778E+02
        -0.18598E+02
        -0.18249E+02
        -0.12260E+02
        -0.17712E+02
        -0.10842E+02
        -0.18891E+02
        -0.81059E+01
        -0.10192E+02
        -0.86258E+01
        -0.77860E+01
        -0.14598E+02
        -0.71847E+01
        -0.85977E+01
        -0.52715E+01
        -0.77872E+01
        -0.10598E+02
        -0.16802E+02
        -0.23198E+02
        -0.13609E+02
        -0.73709E+01
        -0.10505E+02
        -0.85710E+01
        -0.85597E+01
        -0.94598E+01
        -0.17541E+02
        -0.18380E+02
        -0.16767E+02
        -0.13663E+02
        -0.17571E+02
        -0.18415E+02
         0.10508E+01
        -0.69203E+01
        -0.11414E+02
        -0.14985E+02
        -0.11244E+02
        -0.12476E+02
        -0.73195E+01
        -0.55141E+01
         0.73794E+01
        -0.77024E+01
        -0.26766E+01
        -0.62756E+01
        -0.15415E+02
        -0.65118E+01
         0.10350E+01
        -0.79492E+01
        -0.41691E+01
        -0.11281E+02
        -0.18585E+02
        -0.26719E+02
        -0.18479E+02
        -0.22589E+02
        -0.12622E+02
        -0.76508E+01
        -0.18191E+02
        -0.23291E+01
        -0.96078E+01
        -0.86966E+01
        -0.90339E+01
        -0.20569E+02
        -0.10595E+02
        -0.32712E+01
        -0.20960E+02
        -0.22956E+02
        -0.72890E+01
        -0.88113E+01
        -0.14371E+02
        -0.82726E+01
        -0.12132E+02
        -0.18557E+02
        -0.23141E+02
        -0.21026E+02
        -0.19262E+02
        -0.74924E+01
        -0.41937E+01
        -0.61558E+01
        -0.87107E+01
        -0.15404E+02
        -0.13989E+02
        -0.12005E+02
        -0.32118E+01
        -0.62171E+01
        -0.48194E+01
        -0.13738E+02
        -0.32892E+01
        -0.91845E+01
        -0.47849E+01
         0.27222E+01
         0.14727E+01
        -0.51366E+01
        -0.22257E+02
        -0.19842E+02
        -0.23025E+02
        -0.24156E+02
        -0.30110E+02
        -0.18796E+02
        -0.82581E+01
        -0.79229E+01
        -0.11216E+02
        -0.11366E+02
        -0.12832E+02
        -0.12490E+02
        -0.75049E+01
        -0.13289E+01
        -0.71621E+01
        -0.10034E+02
        -0.33559E+01
        -0.14846E+01
         0.45120E+01
        -0.49124E+01
        -0.89886E+01
        -0.12313E+02
        -0.10589E+02
        -0.12840E+02
        -0.56528E+01
        -0.10545E+01
         0.67894E+01
        -0.40050E+01
        -0.12409E+01
        -0.74592E+01
        -0.16197E+02
         0.17438E+01
         0.34676E+01
        -0.72900E+01
        -0.59590E+01
        -0.10420E+02
        -0.17154E+02
        -0.26371E+02
        -0.13180E+02
        -0.19066E+02
        -0.97625E+01
        -0.62460E+01
        -0.14550E+02
        -0.26600E+01
         0.36136E+01
         0.17851E+01
        -0.55442E+01
        -0.18479E+02
        -0.69937E+01
        -0.14335E+01
        -0.20537E+02
        -0.27335E+02
        -0.12073E+02
        -0.12333E+02
        -0.16443E+02
        -0.15129E+01
        -0.11642E+02
        -0.22453E+02
        -0.28939E+02
        -0.25900E+02
        -0.22099E+02
        -0.95728E+01
        -0.74744E+01
        -0.66657E+01
        -0.43279E+01
        -0.97280E+01
        -0.16335E+02
        -0.20754E+02
        -0.12781E+02
        -0.14221E+02
        -0.15986E+02
        -0.17063E+02
        -0.11762E+02
        -0.97690E+01
        -0.14148E+01
        -0.90910E+00
        -0.95988E+01
        -0.54984E+01
        -0.23271E+02
        -0.22719E+02
        -0.28877E+02
        -0.33429E+02
        -0.34699E+02
        -0.18814E+02
        -0.49857E+01
         0.25265E+01
        -0.43609E+01
        -0.10435E+02
        -0.10412E+02
        -0.59782E+01
        -0.64453E+01
        -0.65902E+01
        -0.75939E+01
        -0.91873E+01
        -0.95500E+01
        -0.38360E+01
         0.35462E+01
        -0.10673E+02
        -0.16245E+02
        -0.18226E+02
        -0.10619E+02
        -0.19216E+02
        -0.54465E+01
        -0.94417E+00
         0.19961E+02
        -0.89254E+00
         0.39156E+01
        -0.64794E+01
        -0.13669E+02
         0.17167E+01
        -0.27280E+01
         0.53574E+01
         0.14915E+02
         0.13488E+01
        -0.49485E+01
        -0.10293E+02
        -0.75034E+01
        -0.10672E+02
        -0.12256E+02
        -0.46166E+01
        -0.62003E+01
        -0.87623E+01
        -0.35639E+01
         0.10164E+01
         0.48194E+01
        -0.81296E+01
        -0.15729E+02
        -0.16951E+02
        -0.19750E+02
        -0.24169E+02
        -0.94205E+00
        -0.68843E+01
        -0.13429E+02
        -0.16627E+02
        -0.17782E+02
        -0.14996E+02
        -0.17891E+02
        -0.18085E+02
        -0.17098E+02
        -0.18274E+02
        -0.18612E+02
        -0.11821E+02
        -0.16090E+02
        -0.17329E+02
        -0.11129E+02
        -0.87418E+01
        -0.19263E+01
        -0.14494E+02
        -0.19750E+01
        -0.60220E+01
         0.43960E+01
         0.28868E+01
        -0.56097E-01
        -0.55472E+01
        -0.97638E+01
        -0.50450E+00
        -0.15660E+02
        -0.14364E+02
        -0.16507E+02
        -0.13525E+02
        -0.13254E+02
        -0.99691E+01
        -0.12856E+02
        -0.81952E+01
        -0.66406E+01
        -0.53045E+01
        -0.71541E+00
         0.28325E+01
         0.10535E+01
         0.15901E+01
         0.61111E+01
         0.94167E+01
        -0.10656E+01
        -0.85561E+00
        -0.28724E+02
        -0.28591E+02
        -0.32077E+02
        -0.41687E+02
        -0.18877E+02
        -0.30853E+02
        -0.18591E+02
        -0.21315E+02
        -0.18129E+02
        -0.27081E+02
        -0.79058E+01
        -0.17116E+02
        -0.19282E+02
        -0.15109E+02
        -0.18551E+02
        -0.23833E+02
        -0.17404E+02
        -0.32340E+02
        -0.18525E+02
        -0.23881E+02
        -0.21327E+02
        -0.23332E+02
        -0.21656E+02
        -0.14326E+02
        -0.27571E+02
        -0.19822E+02
        -0.20745E+02
        -0.81356E+01
         0.15821E+01
        -0.17911E+02
        -0.28972E+02
        -0.22230E+02
        -0.36284E+02
        -0.36525E+02
        -0.48202E+01
        -0.14607E+02
        -0.19276E+02
        -0.28613E+02
        -0.19011E+02
        -0.94378E+01
        -0.73707E+01
        -0.19696E+02
        -0.27126E+02
        -0.22598E+02
        -0.20660E+02
        -0.15131E+02
        -0.17267E+02
        -0.16781E+02
        -0.13366E+02
        -0.15780E+02
        -0.12286E+02
        -0.26705E+02
        -0.47452E+00
        -0.70473E+01
         0.74716E+01
         0.11961E+02
         0.66791E+01
        -0.65494E+01
        -0.75980E+01
         0.40202E+01
        -0.10402E+02
         0.26864E+01
         0.12464E+02
         0.10948E+02
         0.10446E+02
         0.71604E+01
        -0.12126E+02
        -0.93474E+01
        -0.26679E+01
        -0.42236E+01
        -0.11170E+02
        -0.21449E+02
        -0.18384E+02
        -0.14838E+02
        -0.14910E+02
        -0.10482E+02
        -0.22985E+02
        -0.14001E+02
        -0.78711E+01
        -0.16688E+02
        -0.25962E+02
        -0.29967E+02
        -0.18031E+02
        -0.23549E+02
        -0.11395E+02
        -0.87658E+01
         0.45939E+01
        -0.12151E+02
        -0.88280E+01
        -0.14286E+02
        -0.12942E+02
        -0.11668E+02
        -0.18057E+02
        -0.68308E+01
        -0.26055E+01
        -0.16838E+02
        -0.13858E+02
        -0.26007E+02
        -0.27252E+02
        -0.31120E+02
        -0.17656E+02
        -0.44667E+01
        -0.19960E+02
        -0.56567E+01
        -0.10488E+02
        -0.52590E+00
         0.39779E+01
        -0.17682E+02
        -0.26740E+02
        -0.13831E+02
        -0.38503E+02
        -0.36102E+02
        -0.11653E+02
        -0.17467E+02
        -0.16120E+02
        -0.19957E+02
        -0.99900E+01
        -0.48551E+01
        -0.40397E+01
        -0.13069E+02
        -0.23201E+02
        -0.14405E+02
        -0.13999E+02
        -0.11798E+02
        -0.14569E+02
        -0.18757E+02
        -0.21256E+02
        -0.19371E+02
        -0.85032E+01
        -0.19003E+02
        -0.33026E+01
        -0.34890E+01
         0.37186E+00
         0.47735E+01
         0.76496E+01
        -0.46977E+01
        -0.23654E+02
        -0.85572E+01
        -0.13164E+02
         0.51605E+00
         0.12142E+02
         0.10946E+02
         0.80643E+01
        -0.24648E+01
        -0.72865E+01
        -0.46741E+01
        -0.37541E+01
         0.16679E+01
        -0.36576E+01
        -0.91935E+01
        -0.45976E+01
        -0.11637E+02
        -0.18049E+02
        -0.88558E+01
        -0.12202E+02
        -0.86780E+00
        -0.20031E+02
        -0.10475E+02
        -0.19955E+02
        -0.37964E+02
        -0.24289E+02
        -0.37026E+02
        -0.83242E+01
        -0.18285E+02
        -0.26274E+02
        -0.34629E+02
        -0.59788E+01
        -0.14581E+02
        -0.13142E+02
        -0.13011E+02
        -0.15108E+02
        -0.31431E+02
        -0.34929E+02
        -0.37609E+02
        -0.30284E+02
        -0.39492E+02
        -0.28317E+02
        -0.26045E+02
        -0.17100E+02
        -0.13524E+02
        -0.41739E+02
        -0.14865E+02
        -0.22078E+02
        -0.16811E+02
        -0.55236E+01
        -0.21429E+02
        -0.40504E+02
        -0.19284E+02
        -0.50991E+02
        -0.41647E+02
        -0.86017E+01
        -0.10005E+02
        -0.10361E+02
        -0.25760E+02
        -0.25744E+02
        -0.19252E+02
        -0.14686E+02
        -0.17661E+02
        -0.15512E+02
        -0.12130E+02
        -0.11595E+02
        -0.82900E+01
        -0.17972E+02
        -0.32718E+02
        -0.34309E+02
        -0.25393E+02
        -0.12993E+02
        -0.27947E+02
        -0.77280E+01
        -0.21459E+02
        -0.14072E+02
        -0.20589E+02
        -0.16693E+02
        -0.10839E+02
        -0.87649E+01
         0.68412E+01
        -0.94198E+01
         0.31918E+01
         0.79061E+01
         0.91410E+01
         0.63596E+01
         0.19400E+01
         0.80117E+01
         0.11793E+02
         0.56213E+01
         0.40455E+01
        -0.94891E+00
        -0.73960E+01
        -0.11935E+02
        -0.17308E+02
        -0.24438E+02
        -0.16204E+02
        -0.21745E+02
        -0.20498E+02
         0.42578E+01
         0.95238E+01
        -0.22536E+00
        -0.20803E+02
        -0.77849E+01
        -0.23405E+02
         0.88995E+01
         0.36541E+01
        -0.51172E+01
        -0.11081E+02
         0.71146E+01
        -0.65208E+01
        -0.42605E+01
         0.30550E+01
        -0.64136E+01
        -0.23173E+02
        -0.14608E+02
        -0.27136E+02
        -0.20207E+02
        -0.19986E+02
        -0.23814E+02
        -0.16152E+02
        -0.23092E+02
        -0.14445E+02
        -0.19750E+02
        -0.13319E+02
        -0.47311E+01
        -0.96982E-01
         0.73406E+01
        -0.70873E+01
        -0.27975E+02
        -0.13204E+02
        -0.36543E+02
        -0.28944E+02
        -0.45536E-01
        -0.85708E-01
        -0.58201E+00
        -0.13608E+02
        -0.75350E+01
        -0.29048E+01
        -0.66457E+01
        -0.10579E+02
        -0.10875E+02
        -0.17299E+02
        -0.11721E+02
        -0.66817E+01
        -0.11129E+02
        -0.22984E+02
        -0.24782E+02
        -0.17584E+02
        -0.80830E+01
        -0.20180E+02
        -0.97181E+01
        -0.74742E+01
        -0.24018E+02
        -0.28984E+02
        -0.22218E+02
        -0.11828E+02
        -0.68185E+01
         0.23220E+01
        -0.54284E+01
         0.83122E+01
         0.60688E+01
         0.32114E+01
        -0.11118E+02
        -0.84261E+01
        -0.19973E+02
        -0.16043E+02
        -0.34913E+01
        -0.32736E+01
        -0.11757E+02
        -0.19029E+02
        -0.20630E+02
        -0.17830E+02
        -0.16008E+02
        -0.65735E+01
        -0.10980E+02
        -0.47566E+01
         0.58054E+01
        -0.16164E+02
        -0.30673E+02
        -0.27486E+02
        -0.27849E+02
        -0.31762E+02
        -0.53799E+01
         0.11542E+02
         0.20171E+02
         0.16751E+02
         0.34830E+01
        -0.39178E+01
        -0.18152E+02
         0.89113E+01
         0.40639E+01
        -0.27638E+02
         0.19890E+01
        -0.13766E+02
        -0.26125E+02
        -0.24469E+02
        -0.27791E+02
        -0.31540E+02
        -0.30543E+02
        -0.24497E+02
         0.13816E+01
        -0.40039E+02
         0.10133E+02
         0.90745E+01
         0.11227E+01
        -0.15192E+02
        -0.51973E+02
        -0.48620E+02
        -0.47849E+02
        -0.36617E+02
        -0.19384E+02
        -0.27580E+02
        -0.26971E+02
        -0.39123E+00
        -0.96964E+00
        -0.45909E+01
        -0.94896E+01
        -0.16341E+02
        -0.27693E+02
        -0.37901E+02
        -0.40664E+02
        -0.30122E+02
        -0.41897E+02
        -0.50520E+02
        -0.44444E+02
        -0.33641E+02
        -0.16563E+02
        -0.26949E+02
        -0.16270E+02
        -0.18080E+02
        -0.18623E+02
        -0.18048E+02
        -0.11556E+02
         0.64444E+01
         0.17456E+02
         0.21481E+02
         0.10621E+02
         0.60084E+01
        -0.42360E+00
        -0.39252E+00
        -0.79284E+01
        -0.21832E+02
        -0.38521E+02
        -0.34038E+02
        -0.26133E+02
        -0.23665E+02
        -0.21943E+02
        -0.37561E+02
        -0.45749E+02
        -0.33592E+02
        -0.13075E+02
         0.93791E+01
         0.35306E+01
        -0.49743E+01
        -0.25536E+02
        -0.18981E+02
        -0.10267E+02
        -0.21035E+02
         0.97653E+01
         0.51593E+01
        -0.17732E+02
        -0.25109E+02
        -0.14450E+02
        -0.28430E+02
        -0.16603E+02
        -0.19212E+02
        -0.12583E+02
        -0.24831E+02
        -0.29126E+02
         0.22796E+02
         0.35324E+01
        -0.88964E+01
         0.20812E+02
         0.11697E+02
         0.17899E+02
         0.14589E+02
         0.22410E+02
         0.24731E+02
        -0.18378E+02
         0.38802E+02
        -0.27679E+02
        -0.18614E+02
        -0.78439E+01
         0.17046E+01
         0.24969E+02
         0.40601E+02
         0.42119E+00
        -0.85348E+01
         0.12617E+02
         0.13558E+01
        -0.72362E+01
        -0.37667E+02
        -0.34361E+02
        -0.28048E+02
        -0.25110E+02
        -0.18328E+02
         0.12117E+01
         0.27431E+02
         0.32773E+02
         0.29716E+02
         0.33841E+02
         0.28864E+02
         0.20191E+02
         0.18806E+02
         0.24213E+02
         0.10804E+02
         0.11600E+02
         0.18610E+02
         0.10703E+02
         0.70042E+01
         0.20308E+01
        -0.61932E+01
        -0.17435E+02
        -0.20341E+02
        -0.25159E+02
        -0.27045E+02
        -0.27736E+02
        -0.34359E+02
        -0.26387E+02
        -0.14887E+02
         0.13365E+01
         0.13273E+02
         0.15807E+02
         0.21515E+02
         0.23658E+02
         0.26277E+02
         0.41010E+02
         0.46753E+02
         0.44695E+02
         0.40570E+02
         0.34530E+02
         0.29912E+02
  
SCALARS        characteristic_distance  double 1
LOOKUP_TABLE default
         0.00000E+00
         0.00000E+00
         0.00000E+00
         0.00000E+00
         0.00000E+00
         0.00000E+00
         0.00000E+00
         0.00000E+00
         0.00000E+00
         0.00000E+00
         0.00000E+00
         0.00000E+00
         0.00000E+00
         0.00000E+00
         0.00000E+00
         0.00000E+00
         0.00000E+00
         0.00000E+00
         0.00000E+00
         0.00000E+00
         0.00000E+00
         0.00000E+00
         0.00000E+00
         0.00000E+00
         0.00000E+00
         0.00000E+00
         0.00000E+00
         0.00000E+00
         0.00000E+00
         0.00000E+00
         0.00000E+00
         0.00000E+00
         0.00000E+00
         0.00000E+00
         0.00000E+00
         0.00000E+00
         0.00000E+00
         0.00000E+00
         0.00000E+00
         0.00000E+00
         0.00000E+00
         0.00000E+00
         0.00000E+00
         0.00000E+00
         0.00000E+00
         0.00000E+00
         0.00000E+00
         0.00000E+00
         0.00000E+00
         0.00000E+00
         0.00000E+00
         0.00000E+00
         0.00000E+00
         0.00000E+00
         0.00000E+00
         0.00000E+00
         0.00000E+00
         0.00000E+00
         0.00000E+00
         0.00000E+00
         0.00000E+00
         0.00000E+00
         0.00000E+00
         0.00000E+00
         0.00000E+00
         0.00000E+00
         0.00000E+00
         0.00000E+00
         0.00000E+00
         0.00000E+00
         0.00000E+00
         0.00000E+00
         0.00000E+00
         0.00000E+00
         0.00000E+00
         0.00000E+00
         0.00000E+00
         0.00000E+00
         0.00000E+00
         0.00000E+00
         0.00000E+00
         0.00000E+00
         0.00000E+00
         0.00000E+00
         0.00000E+00
         0.00000E+00
         0.00000E+00
         0.00000E+00
         0.00000E+00
         0.00000E+00
         0.00000E+00
         0.00000E+00
         0.00000E+00
         0.00000E+00
         0.00000E+00
         0.00000E+00
         0.00000E+00
         0.00000E+00
         0.00000E+00
         0.00000E+00
         0.00000E+00
         0.00000E+00
         0.00000E+00
         0.00000E+00
         0.00000E+00
         0.00000E+00
         0.00000E+00
         0.00000E+00
         0.00000E+00
         0.00000E+00
         0.00000E+00
         0.00000E+00
         0.00000E+00
         0.00000E+00
         0.00000E+00
         0.00000E+00
         0.00000E+00
         0.00000E+00
         0.00000E+00
         0.00000E+00
         0.00000E+00
         0.00000E+00
         0.00000E+00
         0.00000E+00
         0.00000E+00
         0.00000E+00
         0.00000E+00
         0.00000E+00
         0.00000E+00
         0.00000E+00
         0.00000E+00
         0.00000E+00
         0.00000E+00
         0.00000E+00
         0.00000E+00
         0.00000E+00
         0.00000E+00
         0.00000E+00
         0.00000E+00
         0.00000E+00
         0.00000E+00
         0.00000E+00
         0.00000E+00
         0.00000E+00
         0.00000E+00
         0.00000E+00
         0.00000E+00
         0.00000E+00
         0.00000E+00
         0.00000E+00
         0.00000E+00
         0.00000E+00
         0.00000E+00
         0.00000E+00
         0.00000E+00
         0.00000E+00
         0.00000E+00
         0.00000E+00
         0.00000E+00
         0.00000E+00
         0.00000E+00
         0.00000E+00
         0.00000E+00
         0.00000E+00
         0.00000E+00
         0.00000E+00
         0.00000E+00
         0.00000E+00
         0.00000E+00
         0.00000E+00
         0.00000E+00
         0.00000E+00
         0.00000E+00
         0.00000E+00
         0.00000E+00
         0.00000E+00
         0.00000E+00
         0.00000E+00
         0.00000E+00
         0.00000E+00
         0.00000E+00
         0.00000E+00
         0.00000E+00
         0.00000E+00
         0.00000E+00
         0.00000E+00
         0.00000E+00
         0.00000E+00
         0.00000E+00
         0.00000E+00
         0.00000E+00
         0.00000E+00
         0.00000E+00
         0.00000E+00
         0.00000E+00
         0.00000E+00
         0.00000E+00
         0.00000E+00
         0.00000E+00
         0.00000E+00
         0.00000E+00
         0.00000E+00
         0.00000E+00
         0.00000E+00
         0.00000E+00
         0.00000E+00
         0.00000E+00
         0.00000E+00
         0.00000E+00
         0.00000E+00
         0.00000E+00
         0.00000E+00
         0.00000E+00
         0.00000E+00
         0.00000E+00
         0.00000E+00
         0.00000E+00
         0.00000E+00
         0.00000E+00
         0.00000E+00
         0.00000E+00
         0.00000E+00
         0.00000E+00
         0.00000E+00
         0.00000E+00
         0.00000E+00
         0.00000E+00
         0.00000E+00
         0.00000E+00
         0.00000E+00
         0.00000E+00
         0.00000E+00
         0.00000E+00
         0.00000E+00
         0.00000E+00
         0.00000E+00
         0.00000E+00
         0.00000E+00
         0.00000E+00
         0.00000E+00
         0.00000E+00
         0.00000E+00
         0.00000E+00
         0.00000E+00
         0.00000E+00
         0.00000E+00
         0.00000E+00
         0.00000E+00
         0.00000E+00
         0.00000E+00
         0.00000E+00
         0.00000E+00
         0.00000E+00
         0.00000E+00
         0.00000E+00
         0.00000E+00
         0.00000E+00
         0.00000E+00
         0.00000E+00
         0.00000E+00
         0.00000E+00
         0.00000E+00
         0.00000E+00
         0.00000E+00
         0.00000E+00
         0.00000E+00
         0.00000E+00
         0.00000E+00
         0.00000E+00
         0.00000E+00
         0.00000E+00
         0.00000E+00
         0.00000E+00
         0.00000E+00
         0.00000E+00
         0.00000E+00
         0.00000E+00
         0.00000E+00
         0.00000E+00
         0.00000E+00
         0.00000E+00
         0.00000E+00
         0.00000E+00
         0.00000E+00
         0.00000E+00
         0.00000E+00
         0.00000E+00
         0.00000E+00
         0.00000E+00
         0.00000E+00
         0.00000E+00
         0.00000E+00
         0.00000E+00
         0.00000E+00
         0.00000E+00
         0.00000E+00
         0.00000E+00
         0.00000E+00
         0.00000E+00
         0.00000E+00
         0.00000E+00
         0.00000E+00
         0.00000E+00
         0.00000E+00
         0.00000E+00
         0.00000E+00
         0.00000E+00
         0.00000E+00
         0.00000E+00
         0.00000E+00
         0.00000E+00
         0.00000E+00
         0.00000E+00
         0.00000E+00
         0.00000E+00
         0.00000E+00
         0.00000E+00
         0.00000E+00
         0.00000E+00
         0.00000E+00
         0.00000E+00
         0.00000E+00
         0.00000E+00
         0.00000E+00
         0.00000E+00
         0.00000E+00
         0.00000E+00
         0.00000E+00
         0.00000E+00
         0.00000E+00
         0.00000E+00
         0.00000E+00
         0.00000E+00
         0.00000E+00
         0.00000E+00
         0.00000E+00
         0.00000E+00
         0.00000E+00
         0.00000E+00
         0.00000E+00
         0.00000E+00
         0.00000E+00
         0.00000E+00
         0.00000E+00
         0.00000E+00
         0.00000E+00
         0.00000E+00
         0.00000E+00
         0.00000E+00
         0.00000E+00
         0.00000E+00
         0.00000E+00
         0.00000E+00
         0.00000E+00
         0.00000E+00
         0.00000E+00
         0.00000E+00
         0.00000E+00
         0.00000E+00
         0.00000E+00
         0.00000E+00
         0.00000E+00
         0.00000E+00
         0.00000E+00
         0.00000E+00
         0.00000E+00
         0.00000E+00
         0.00000E+00
         0.00000E+00
         0.00000E+00
         0.00000E+00
         0.00000E+00
         0.00000E+00
         0.00000E+00
         0.00000E+00
         0.00000E+00
         0.00000E+00
         0.00000E+00
         0.00000E+00
         0.00000E+00
         0.00000E+00
         0.00000E+00
         0.00000E+00
         0.00000E+00
         0.00000E+00
         0.00000E+00
         0.00000E+00
         0.00000E+00
         0.00000E+00
         0.00000E+00
         0.00000E+00
         0.00000E+00
         0.00000E+00
         0.00000E+00
         0.00000E+00
         0.00000E+00
         0.00000E+00
         0.00000E+00
         0.00000E+00
         0.00000E+00
         0.00000E+00
         0.00000E+00
         0.00000E+00
         0.00000E+00
         0.00000E+00
         0.00000E+00
         0.00000E+00
         0.00000E+00
         0.00000E+00
         0.00000E+00
         0.00000E+00
         0.00000E+00
         0.00000E+00
         0.00000E+00
         0.00000E+00
         0.00000E+00
         0.00000E+00
         0.00000E+00
         0.00000E+00
         0.00000E+00
         0.00000E+00
         0.00000E+00
         0.00000E+00
         0.00000E+00
         0.00000E+00
         0.00000E+00
         0.00000E+00
         0.00000E+00
         0.00000E+00
         0.00000E+00
         0.00000E+00
         0.00000E+00
         0.00000E+00
         0.00000E+00
         0.00000E+00
         0.00000E+00
         0.00000E+00
         0.00000E+00
         0.00000E+00
         0.00000E+00
         0.00000E+00
         0.00000E+00
         0.00000E+00
         0.00000E+00
         0.00000E+00
         0.00000E+00
         0.00000E+00
         0.00000E+00
         0.00000E+00
         0.00000E+00
         0.00000E+00
         0.00000E+00
         0.00000E+00
         0.00000E+00
         0.00000E+00
         0.00000E+00
         0.00000E+00
         0.00000E+00
         0.00000E+00
         0.00000E+00
         0.00000E+00
         0.00000E+00
         0.00000E+00
         0.00000E+00
         0.00000E+00
         0.00000E+00
         0.00000E+00
         0.00000E+00
         0.00000E+00
         0.00000E+00
         0.00000E+00
         0.00000E+00
         0.00000E+00
         0.00000E+00
         0.00000E+00
         0.00000E+00
         0.00000E+00
         0.00000E+00
         0.00000E+00
         0.00000E+00
         0.00000E+00
         0.00000E+00
         0.00000E+00
         0.00000E+00
         0.00000E+00
         0.00000E+00
         0.00000E+00
         0.00000E+00
         0.00000E+00
         0.00000E+00
         0.00000E+00
         0.00000E+00
         0.00000E+00
         0.00000E+00
         0.00000E+00
         0.00000E+00
         0.00000E+00
         0.00000E+00
         0.00000E+00
         0.00000E+00
         0.00000E+00
         0.00000E+00
         0.00000E+00
         0.00000E+00
         0.00000E+00
         0.00000E+00
         0.00000E+00
         0.00000E+00
         0.00000E+00
         0.00000E+00
         0.00000E+00
         0.00000E+00
         0.00000E+00
         0.00000E+00
         0.00000E+00
         0.00000E+00
         0.00000E+00
         0.00000E+00
         0.00000E+00
         0.00000E+00
         0.00000E+00
         0.00000E+00
         0.00000E+00
         0.00000E+00
         0.00000E+00
         0.00000E+00
         0.00000E+00
         0.00000E+00
         0.00000E+00
         0.00000E+00
         0.00000E+00
         0.00000E+00
         0.00000E+00
         0.00000E+00
         0.00000E+00
         0.00000E+00
         0.00000E+00
         0.00000E+00
         0.00000E+00
         0.00000E+00
         0.00000E+00
         0.00000E+00
         0.00000E+00
         0.00000E+00
         0.00000E+00
         0.00000E+00
         0.00000E+00
         0.00000E+00
         0.00000E+00
         0.00000E+00
         0.00000E+00
         0.00000E+00
         0.00000E+00
         0.00000E+00
         0.00000E+00
         0.00000E+00
         0.00000E+00
         0.00000E+00
         0.00000E+00
         0.00000E+00
         0.00000E+00
         0.00000E+00
         0.00000E+00
         0.00000E+00
         0.00000E+00
         0.00000E+00
         0.00000E+00
         0.00000E+00
         0.00000E+00
         0.00000E+00
         0.00000E+00
         0.00000E+00
         0.00000E+00
         0.00000E+00
         0.00000E+00
         0.00000E+00
         0.00000E+00
         0.00000E+00
         0.00000E+00
         0.00000E+00
         0.00000E+00
         0.00000E+00
         0.00000E+00
         0.00000E+00
         0.00000E+00
         0.00000E+00
         0.00000E+00
         0.00000E+00
         0.00000E+00
         0.00000E+00
         0.00000E+00
         0.00000E+00
         0.00000E+00
         0.00000E+00
         0.00000E+00
         0.00000E+00
         0.00000E+00
         0.00000E+00
         0.00000E+00
         0.00000E+00
         0.00000E+00
         0.00000E+00
         0.00000E+00
         0.00000E+00
         0.00000E+00
         0.00000E+00
         0.00000E+00
         0.00000E+00
         0.00000E+00
         0.00000E+00
         0.00000E+00
         0.00000E+00
         0.00000E+00
         0.00000E+00
         0.00000E+00
         0.00000E+00
         0.00000E+00
         0.00000E+00
         0.00000E+00
         0.00000E+00
         0.00000E+00
         0.00000E+00
         0.00000E+00
         0.00000E+00
         0.00000E+00
         0.00000E+00
         0.00000E+00
         0.00000E+00
         0.00000E+00
         0.00000E+00
         0.00000E+00
         0.00000E+00
         0.00000E+00
         0.00000E+00
         0.00000E+00
         0.00000E+00
         0.00000E+00
         0.00000E+00
         0.00000E+00
         0.00000E+00
         0.00000E+00
         0.00000E+00
         0.00000E+00
         0.00000E+00
         0.00000E+00
         0.00000E+00
         0.00000E+00
         0.00000E+00
         0.00000E+00
         0.00000E+00
         0.00000E+00
         0.00000E+00
         0.00000E+00
         0.00000E+00
         0.00000E+00
         0.00000E+00
         0.00000E+00
         0.00000E+00
         0.00000E+00
         0.00000E+00
         0.00000E+00
         0.00000E+00
         0.00000E+00
         0.00000E+00
         0.00000E+00
         0.00000E+00
         0.00000E+00
         0.00000E+00
         0.00000E+00
         0.00000E+00
         0.00000E+00
         0.00000E+00
         0.00000E+00
         0.00000E+00
         0.00000E+00
         0.00000E+00
         0.00000E+00
         0.00000E+00
         0.00000E+00
         0.00000E+00
         0.00000E+00
         0.00000E+00
         0.00000E+00
         0.00000E+00
         0.00000E+00
         0.00000E+00
         0.00000E+00
         0.00000E+00
         0.00000E+00
         0.00000E+00
         0.00000E+00
         0.00000E+00
         0.00000E+00
         0.00000E+00
         0.00000E+00
         0.00000E+00
         0.00000E+00
         0.00000E+00
         0.00000E+00
         0.00000E+00
         0.00000E+00
         0.00000E+00
         0.00000E+00
         0.00000E+00
         0.00000E+00
         0.00000E+00
         0.00000E+00
         0.00000E+00
         0.00000E+00
         0.00000E+00
         0.00000E+00
         0.00000E+00
         0.00000E+00
         0.00000E+00
         0.00000E+00
         0.00000E+00
         0.00000E+00
         0.00000E+00
         0.00000E+00
         0.00000E+00
         0.00000E+00
         0.00000E+00
         0.00000E+00
         0.00000E+00
         0.00000E+00
         0.00000E+00
         0.00000E+00
         0.00000E+00
         0.00000E+00
         0.00000E+00
         0.00000E+00
         0.00000E+00
         0.00000E+00
         0.00000E+00
         0.00000E+00
         0.00000E+00
         0.00000E+00
         0.00000E+00
         0.00000E+00
         0.00000E+00
         0.00000E+00
         0.00000E+00
         0.00000E+00
         0.00000E+00
         0.00000E+00
         0.00000E+00
         0.00000E+00
         0.00000E+00
         0.00000E+00
         0.00000E+00
         0.00000E+00
         0.00000E+00
         0.00000E+00
         0.00000E+00
         0.00000E+00
         0.00000E+00
         0.00000E+00
         0.00000E+00
         0.00000E+00
         0.00000E+00
         0.00000E+00
         0.00000E+00
         0.00000E+00
         0.00000E+00
         0.00000E+00
         0.00000E+00
         0.00000E+00
         0.00000E+00
         0.00000E+00
         0.00000E+00
         0.00000E+00
         0.00000E+00
         0.00000E+00
         0.00000E+00
         0.00000E+00
         0.00000E+00
         0.00000E+00
         0.00000E+00
         0.00000E+00
         0.00000E+00
         0.00000E+00
         0.00000E+00
         0.00000E+00
         0.00000E+00
         0.00000E+00
         0.00000E+00
         0.00000E+00
         0.00000E+00
         0.00000E+00
         0.00000E+00
         0.00000E+00
         0.00000E+00
         0.00000E+00
         0.00000E+00
         0.00000E+00
         0.00000E+00
         0.00000E+00
         0.00000E+00
         0.00000E+00
         0.00000E+00
         0.00000E+00
         0.00000E+00
         0.00000E+00
         0.00000E+00
         0.00000E+00
         0.00000E+00
         0.00000E+00
         0.00000E+00
         0.00000E+00
         0.00000E+00
         0.00000E+00
         0.00000E+00
         0.00000E+00
         0.00000E+00
         0.00000E+00
         0.00000E+00
         0.00000E+00
         0.00000E+00
         0.00000E+00
         0.00000E+00
         0.00000E+00
         0.00000E+00
         0.00000E+00
         0.00000E+00
         0.00000E+00
         0.00000E+00
         0.00000E+00
         0.00000E+00
         0.00000E+00
         0.00000E+00
         0.00000E+00
         0.00000E+00
         0.00000E+00
         0.00000E+00
         0.00000E+00
         0.00000E+00
         0.00000E+00
         0.00000E+00
         0.00000E+00
         0.00000E+00
         0.00000E+00
         0.00000E+00
         0.00000E+00
         0.00000E+00
         0.00000E+00
         0.00000E+00
         0.00000E+00
         0.00000E+00
         0.00000E+00
         0.00000E+00
         0.00000E+00
         0.00000E+00
         0.00000E+00
         0.00000E+00
         0.00000E+00
         0.00000E+00
         0.00000E+00
         0.00000E+00
         0.00000E+00
         0.00000E+00
         0.00000E+00
         0.00000E+00
         0.00000E+00
         0.00000E+00
         0.00000E+00
         0.00000E+00
         0.00000E+00
         0.00000E+00
         0.00000E+00
         0.00000E+00
         0.00000E+00
         0.00000E+00
         0.00000E+00
         0.00000E+00
         0.00000E+00
         0.00000E+00
         0.00000E+00
         0.00000E+00
         0.00000E+00
         0.00000E+00
         0.00000E+00
         0.00000E+00
         0.00000E+00
         0.00000E+00
         0.00000E+00
         0.00000E+00
         0.00000E+00
         0.00000E+00
         0.00000E+00
         0.00000E+00
         0.00000E+00
         0.00000E+00
         0.00000E+00
         0.00000E+00
         0.00000E+00
         0.00000E+00
         0.00000E+00
         0.00000E+00
         0.00000E+00
         0.00000E+00
         0.00000E+00
         0.00000E+00
         0.00000E+00
         0.00000E+00
         0.00000E+00
         0.00000E+00
         0.00000E+00
         0.00000E+00
         0.00000E+00
         0.00000E+00
         0.00000E+00
         0.00000E+00
         0.00000E+00
         0.00000E+00
         0.00000E+00
         0.00000E+00
         0.00000E+00
         0.00000E+00
         0.00000E+00
         0.00000E+00
         0.00000E+00
         0.00000E+00
         0.00000E+00
         0.00000E+00
         0.00000E+00
         0.00000E+00
         0.00000E+00
         0.00000E+00
         0.00000E+00
         0.00000E+00
         0.00000E+00
         0.00000E+00
         0.00000E+00
         0.00000E+00
         0.00000E+00
         0.00000E+00
         0.00000E+00
         0.00000E+00
         0.00000E+00
         0.00000E+00
         0.00000E+00
         0.00000E+00
         0.00000E+00
         0.00000E+00
         0.00000E+00
         0.00000E+00
         0.00000E+00
         0.00000E+00
         0.00000E+00
         0.00000E+00
         0.00000E+00
         0.00000E+00
         0.00000E+00
         0.00000E+00
         0.00000E+00
         0.00000E+00
         0.00000E+00
         0.00000E+00
         0.00000E+00
         0.00000E+00
         0.00000E+00
         0.00000E+00
         0.00000E+00
         0.00000E+00
         0.00000E+00
         0.00000E+00
         0.00000E+00
         0.00000E+00
         0.00000E+00
         0.00000E+00
         0.00000E+00
         0.00000E+00
         0.00000E+00
         0.00000E+00
         0.00000E+00
         0.00000E+00
         0.00000E+00
         0.00000E+00
         0.00000E+00
         0.00000E+00
         0.00000E+00
         0.00000E+00
         0.00000E+00
         0.00000E+00
         0.00000E+00
         0.00000E+00
         0.00000E+00
         0.00000E+00
         0.00000E+00
         0.00000E+00
         0.00000E+00
         0.00000E+00
         0.00000E+00
         0.00000E+00
         0.00000E+00
         0.00000E+00
         0.00000E+00
         0.00000E+00
         0.00000E+00
         0.00000E+00
         0.00000E+00
         0.00000E+00
         0.00000E+00
         0.00000E+00
         0.00000E+00
         0.00000E+00
         0.00000E+00
         0.00000E+00
         0.00000E+00
         0.00000E+00
         0.00000E+00
         0.00000E+00
         0.00000E+00
         0.00000E+00
         0.00000E+00
         0.00000E+00
         0.00000E+00
         0.00000E+00
         0.00000E+00
         0.00000E+00
         0.00000E+00
         0.00000E+00
         0.00000E+00
         0.00000E+00
         0.00000E+00
         0.00000E+00
         0.00000E+00
         0.00000E+00
         0.00000E+00
         0.00000E+00
         0.00000E+00
         0.00000E+00
         0.00000E+00
         0.00000E+00
         0.00000E+00
         0.00000E+00
         0.00000E+00
         0.00000E+00
         0.00000E+00
         0.00000E+00
         0.00000E+00
         0.00000E+00
         0.00000E+00
         0.00000E+00
         0.00000E+00
         0.00000E+00
         0.00000E+00
         0.00000E+00
         0.00000E+00
         0.00000E+00
         0.00000E+00
         0.00000E+00
         0.00000E+00
         0.00000E+00
         0.00000E+00
         0.00000E+00
         0.00000E+00
         0.00000E+00
         0.00000E+00
         0.00000E+00
         0.00000E+00
         0.00000E+00
         0.00000E+00
         0.00000E+00
         0.00000E+00
         0.00000E+00
         0.00000E+00
         0.00000E+00
         0.00000E+00
         0.00000E+00
         0.00000E+00
         0.00000E+00
         0.00000E+00
         0.00000E+00
         0.00000E+00
         0.00000E+00
         0.00000E+00
         0.00000E+00
         0.00000E+00
         0.00000E+00
         0.00000E+00
         0.00000E+00
         0.00000E+00
         0.00000E+00
         0.00000E+00
         0.00000E+00
         0.00000E+00
         0.00000E+00
         0.00000E+00
         0.00000E+00
         0.00000E+00
         0.00000E+00
         0.00000E+00
         0.00000E+00
         0.00000E+00
         0.00000E+00
         0.00000E+00
         0.00000E+00
         0.00000E+00
         0.00000E+00
         0.00000E+00
         0.00000E+00
         0.00000E+00
         0.00000E+00
         0.00000E+00
         0.00000E+00
         0.00000E+00
         0.00000E+00
         0.00000E+00
         0.00000E+00
         0.00000E+00
         0.00000E+00
         0.00000E+00
         0.00000E+00
         0.00000E+00
         0.00000E+00
         0.00000E+00
         0.00000E+00
         0.00000E+00
         0.00000E+00
         0.00000E+00
         0.00000E+00
         0.00000E+00
         0.00000E+00
         0.00000E+00
         0.00000E+00
         0.00000E+00
         0.00000E+00
         0.00000E+00
         0.00000E+00
         0.00000E+00
         0.00000E+00
         0.00000E+00
         0.00000E+00
         0.00000E+00
         0.00000E+00
         0.00000E+00
         0.00000E+00
         0.00000E+00
         0.00000E+00
         0.00000E+00
         0.00000E+00
         0.00000E+00
         0.00000E+00
         0.00000E+00
         0.00000E+00
         0.00000E+00
         0.00000E+00
         0.00000E+00
         0.00000E+00
         0.00000E+00
         0.00000E+00
         0.00000E+00
         0.00000E+00
         0.00000E+00
         0.00000E+00
         0.00000E+00
         0.00000E+00
         0.00000E+00
         0.00000E+00
         0.00000E+00
         0.00000E+00
         0.00000E+00
         0.00000E+00
         0.00000E+00
         0.00000E+00
         0.00000E+00
         0.00000E+00
         0.00000E+00
         0.00000E+00
         0.00000E+00
         0.00000E+00
         0.00000E+00
         0.00000E+00
         0.00000E+00
         0.00000E+00
         0.00000E+00
         0.00000E+00
         0.00000E+00
         0.00000E+00
         0.00000E+00
         0.00000E+00
         0.00000E+00
         0.00000E+00
         0.00000E+00
         0.00000E+00
         0.00000E+00
         0.00000E+00
         0.00000E+00
         0.00000E+00
         0.00000E+00
         0.00000E+00
         0.00000E+00
         0.00000E+00
         0.00000E+00
         0.00000E+00
         0.00000E+00
         0.00000E+00
         0.00000E+00
         0.00000E+00
         0.00000E+00
         0.00000E+00
         0.00000E+00
         0.00000E+00
         0.00000E+00
         0.00000E+00
         0.00000E+00
         0.00000E+00
         0.00000E+00
         0.00000E+00
         0.00000E+00
         0.00000E+00
         0.00000E+00
         0.00000E+00
         0.00000E+00
         0.00000E+00
         0.00000E+00
         0.00000E+00
         0.00000E+00
         0.00000E+00
         0.00000E+00
         0.00000E+00
         0.00000E+00
         0.00000E+00
         0.00000E+00
         0.00000E+00
         0.00000E+00
         0.00000E+00
         0.00000E+00
         0.00000E+00
         0.00000E+00
         0.00000E+00
         0.00000E+00
         0.00000E+00
         0.00000E+00
         0.00000E+00
         0.00000E+00
         0.00000E+00
         0.00000E+00
         0.00000E+00
         0.00000E+00
         0.00000E+00
         0.00000E+00
         0.00000E+00
         0.00000E+00
         0.00000E+00
         0.00000E+00
         0.00000E+00
         0.00000E+00
         0.00000E+00
         0.00000E+00
         0.00000E+00
         0.00000E+00
         0.00000E+00
         0.00000E+00
         0.00000E+00
         0.00000E+00
         0.00000E+00
         0.00000E+00
         0.00000E+00
         0.00000E+00
         0.00000E+00
         0.00000E+00
         0.00000E+00
         0.00000E+00
         0.00000E+00
         0.00000E+00
         0.00000E+00
         0.00000E+00
         0.00000E+00
         0.00000E+00
         0.00000E+00
         0.00000E+00
         0.00000E+00
         0.00000E+00
         0.00000E+00
         0.00000E+00
         0.00000E+00
         0.00000E+00
         0.00000E+00
         0.00000E+00
         0.00000E+00
         0.00000E+00
         0.00000E+00
         0.00000E+00
         0.00000E+00
         0.00000E+00
         0.00000E+00
         0.00000E+00
         0.00000E+00
         0.00000E+00
         0.00000E+00
         0.00000E+00
         0.00000E+00
         0.00000E+00
         0.00000E+00
         0.00000E+00
         0.00000E+00
         0.00000E+00
         0.00000E+00
         0.00000E+00
         0.00000E+00
         0.00000E+00
         0.00000E+00
         0.00000E+00
         0.00000E+00
         0.00000E+00
         0.00000E+00
         0.00000E+00
         0.00000E+00
         0.00000E+00
         0.00000E+00
         0.00000E+00
         0.00000E+00
         0.00000E+00
         0.00000E+00
         0.00000E+00
         0.00000E+00
         0.00000E+00
         0.00000E+00
         0.00000E+00
         0.00000E+00
         0.00000E+00
         0.00000E+00
         0.00000E+00
         0.00000E+00
         0.00000E+00
         0.00000E+00
         0.00000E+00
         0.00000E+00
         0.00000E+00
         0.00000E+00
         0.00000E+00
         0.00000E+00
         0.00000E+00
         0.00000E+00
         0.00000E+00
         0.00000E+00
         0.00000E+00
         0.00000E+00
         0.00000E+00
         0.00000E+00
         0.00000E+00
         0.00000E+00
         0.00000E+00
         0.00000E+00
         0.00000E+00
         0.00000E+00
         0.00000E+00
         0.00000E+00
         0.00000E+00
         0.00000E+00
         0.00000E+00
         0.00000E+00
         0.00000E+00
         0.00000E+00
         0.00000E+00
         0.00000E+00
         0.00000E+00
         0.00000E+00
         0.00000E+00
         0.00000E+00
         0.00000E+00
         0.00000E+00
         0.00000E+00
         0.00000E+00
         0.00000E+00
         0.00000E+00
         0.00000E+00
         0.00000E+00
         0.00000E+00
         0.00000E+00
         0.00000E+00
         0.00000E+00
         0.00000E+00
         0.00000E+00
         0.00000E+00
         0.00000E+00
         0.00000E+00
         0.00000E+00
         0.00000E+00
         0.00000E+00
         0.00000E+00
         0.00000E+00
         0.00000E+00
         0.00000E+00
         0.00000E+00
         0.00000E+00
         0.00000E+00
         0.00000E+00
         0.00000E+00
         0.00000E+00
         0.00000E+00
         0.00000E+00
         0.00000E+00
         0.00000E+00
         0.00000E+00
         0.00000E+00
         0.00000E+00
         0.00000E+00
         0.00000E+00
         0.00000E+00
         0.00000E+00
         0.00000E+00
         0.00000E+00
         0.00000E+00
         0.00000E+00
         0.00000E+00
         0.00000E+00
         0.00000E+00
         0.00000E+00
         0.00000E+00
         0.00000E+00
         0.00000E+00
         0.00000E+00
         0.00000E+00
         0.00000E+00
         0.00000E+00
         0.00000E+00
         0.00000E+00
         0.00000E+00
         0.00000E+00
         0.00000E+00
         0.00000E+00
         0.00000E+00
         0.00000E+00
         0.00000E+00
         0.00000E+00
         0.00000E+00
         0.00000E+00
         0.00000E+00
         0.00000E+00
         0.00000E+00
         0.00000E+00
         0.00000E+00
         0.00000E+00
         0.00000E+00
         0.00000E+00
         0.00000E+00
         0.00000E+00
         0.00000E+00
         0.00000E+00
         0.00000E+00
         0.00000E+00
         0.00000E+00
         0.00000E+00
         0.00000E+00
         0.00000E+00
         0.00000E+00
         0.00000E+00
         0.00000E+00
         0.00000E+00
         0.00000E+00
         0.00000E+00
         0.00000E+00
         0.00000E+00
         0.00000E+00
         0.00000E+00
         0.00000E+00
         0.00000E+00
         0.00000E+00
         0.00000E+00
         0.00000E+00
         0.00000E+00
         0.00000E+00
         0.00000E+00
         0.00000E+00
         0.00000E+00
         0.00000E+00
         0.00000E+00
         0.00000E+00
         0.00000E+00
         0.00000E+00
         0.00000E+00
         0.00000E+00
         0.00000E+00
         0.00000E+00
         0.00000E+00
         0.00000E+00
         0.00000E+00
         0.00000E+00
         0.00000E+00
         0.00000E+00
         0.00000E+00
         0.00000E+00
         0.00000E+00
         0.00000E+00
         0.00000E+00
         0.00000E+00
         0.00000E+00
         0.00000E+00
         0.00000E+00
         0.00000E+00
         0.00000E+00
         0.00000E+00
         0.00000E+00
         0.00000E+00
         0.00000E+00
         0.00000E+00
         0.00000E+00
         0.00000E+00
         0.00000E+00
         0.00000E+00
         0.00000E+00
         0.00000E+00
         0.00000E+00
         0.00000E+00
         0.00000E+00
         0.00000E+00
         0.00000E+00
         0.00000E+00
         0.00000E+00
         0.00000E+00
         0.00000E+00
         0.00000E+00
         0.00000E+00
         0.00000E+00
         0.00000E+00
         0.00000E+00
         0.00000E+00
         0.00000E+00
         0.00000E+00
         0.00000E+00
         0.00000E+00
         0.00000E+00
         0.00000E+00
         0.00000E+00
         0.00000E+00
         0.00000E+00
         0.00000E+00
         0.00000E+00
         0.00000E+00
         0.00000E+00
         0.00000E+00
         0.00000E+00
         0.00000E+00
         0.00000E+00
         0.00000E+00
         0.00000E+00
         0.00000E+00
         0.00000E+00
         0.00000E+00
         0.00000E+00
         0.00000E+00
         0.00000E+00
         0.00000E+00
         0.00000E+00
         0.00000E+00
         0.00000E+00
         0.00000E+00
         0.00000E+00
         0.00000E+00
         0.00000E+00
         0.00000E+00
         0.00000E+00
         0.00000E+00
         0.00000E+00
         0.00000E+00
         0.00000E+00
         0.00000E+00
         0.00000E+00
         0.00000E+00
         0.00000E+00
         0.00000E+00
         0.00000E+00
         0.00000E+00
         0.00000E+00
         0.00000E+00
         0.00000E+00
         0.00000E+00
         0.00000E+00
         0.00000E+00
         0.00000E+00
         0.00000E+00
         0.00000E+00
         0.00000E+00
         0.00000E+00
         0.00000E+00
         0.00000E+00
         0.00000E+00
         0.00000E+00
         0.00000E+00
         0.00000E+00
         0.00000E+00
         0.00000E+00
         0.00000E+00
         0.00000E+00
         0.00000E+00
         0.00000E+00
         0.00000E+00
         0.00000E+00
         0.00000E+00
         0.00000E+00
         0.00000E+00
         0.00000E+00
         0.00000E+00
         0.00000E+00
         0.00000E+00
         0.00000E+00
         0.00000E+00
         0.00000E+00
         0.00000E+00
         0.00000E+00
         0.00000E+00
         0.00000E+00
         0.00000E+00
         0.00000E+00
         0.00000E+00
         0.00000E+00
         0.00000E+00
         0.00000E+00
         0.00000E+00
         0.00000E+00
         0.00000E+00
         0.00000E+00
         0.00000E+00
         0.00000E+00
         0.00000E+00
         0.00000E+00
         0.00000E+00
         0.00000E+00
         0.00000E+00
         0.00000E+00
         0.00000E+00
         0.00000E+00
         0.00000E+00
         0.00000E+00
         0.00000E+00
         0.00000E+00
         0.00000E+00
         0.00000E+00
         0.00000E+00
         0.00000E+00
         0.00000E+00
         0.00000E+00
         0.00000E+00
         0.00000E+00
         0.00000E+00
         0.00000E+00
         0.00000E+00
         0.00000E+00
         0.00000E+00
         0.00000E+00
         0.00000E+00
         0.00000E+00
         0.00000E+00
         0.00000E+00
         0.00000E+00
         0.00000E+00
         0.00000E+00
         0.00000E+00
         0.00000E+00
         0.00000E+00
         0.00000E+00
         0.00000E+00
         0.00000E+00
         0.00000E+00
         0.00000E+00
         0.00000E+00
         0.00000E+00
         0.00000E+00
         0.00000E+00
         0.00000E+00
         0.00000E+00
         0.00000E+00
         0.00000E+00
         0.00000E+00
         0.00000E+00
         0.00000E+00
         0.00000E+00
         0.00000E+00
         0.00000E+00
         0.00000E+00
         0.00000E+00
         0.00000E+00
         0.00000E+00
         0.00000E+00
         0.00000E+00
         0.00000E+00
         0.00000E+00
         0.00000E+00
         0.00000E+00
         0.00000E+00
         0.00000E+00
         0.00000E+00
         0.00000E+00
         0.00000E+00
         0.00000E+00
         0.00000E+00
         0.00000E+00
         0.00000E+00
         0.00000E+00
         0.00000E+00
         0.00000E+00
         0.00000E+00
         0.00000E+00
         0.00000E+00
         0.00000E+00
         0.00000E+00
         0.00000E+00
         0.00000E+00
         0.00000E+00
         0.00000E+00
         0.00000E+00
         0.00000E+00
         0.00000E+00
         0.00000E+00
         0.00000E+00
         0.00000E+00
         0.00000E+00
         0.00000E+00
         0.00000E+00
         0.00000E+00
         0.00000E+00
         0.00000E+00
         0.00000E+00
         0.00000E+00
         0.00000E+00
         0.00000E+00
         0.00000E+00
         0.00000E+00
         0.00000E+00
         0.00000E+00
         0.00000E+00
         0.00000E+00
         0.00000E+00
         0.00000E+00
         0.00000E+00
         0.00000E+00
         0.00000E+00
         0.00000E+00
         0.00000E+00
         0.00000E+00
         0.00000E+00
         0.00000E+00
         0.00000E+00
         0.00000E+00
         0.00000E+00
         0.00000E+00
         0.00000E+00
         0.00000E+00
         0.00000E+00
         0.00000E+00
         0.00000E+00
         0.00000E+00
         0.00000E+00
         0.00000E+00
         0.00000E+00
         0.00000E+00
         0.00000E+00
         0.00000E+00
         0.00000E+00
         0.00000E+00
         0.00000E+00
         0.00000E+00
         0.00000E+00
         0.00000E+00
         0.00000E+00
         0.00000E+00
         0.00000E+00
         0.00000E+00
         0.00000E+00
         0.00000E+00
         0.00000E+00
         0.00000E+00
         0.00000E+00
         0.00000E+00
         0.00000E+00
         0.00000E+00
         0.00000E+00
         0.00000E+00
         0.00000E+00
         0.00000E+00
         0.00000E+00
         0.00000E+00
         0.00000E+00
         0.00000E+00
         0.00000E+00
         0.00000E+00
         0.00000E+00
         0.00000E+00
         0.00000E+00
         0.00000E+00
         0.00000E+00
         0.00000E+00
         0.00000E+00
         0.00000E+00
         0.00000E+00
         0.00000E+00
         0.00000E+00
         0.00000E+00
         0.00000E+00
         0.00000E+00
         0.00000E+00
         0.00000E+00
         0.00000E+00
         0.00000E+00
         0.00000E+00
         0.00000E+00
         0.00000E+00
         0.00000E+00
         0.00000E+00
         0.00000E+00
         0.00000E+00
         0.00000E+00
         0.00000E+00
         0.00000E+00
         0.00000E+00
         0.00000E+00
         0.00000E+00
         0.00000E+00
         0.00000E+00
         0.00000E+00
         0.00000E+00
         0.00000E+00
         0.00000E+00
         0.00000E+00
         0.00000E+00
         0.00000E+00
         0.00000E+00
         0.00000E+00
         0.00000E+00
         0.00000E+00
         0.00000E+00
         0.00000E+00
         0.00000E+00
         0.00000E+00
         0.00000E+00
         0.00000E+00
         0.00000E+00
         0.00000E+00
         0.00000E+00
         0.00000E+00
         0.00000E+00
         0.00000E+00
         0.00000E+00
         0.00000E+00
         0.00000E+00
         0.00000E+00
         0.00000E+00
         0.00000E+00
         0.00000E+00
         0.00000E+00
         0.00000E+00
         0.00000E+00
         0.00000E+00
         0.00000E+00
         0.00000E+00
         0.00000E+00
         0.00000E+00
         0.00000E+00
         0.00000E+00
         0.00000E+00
         0.00000E+00
         0.00000E+00
         0.00000E+00
         0.00000E+00
         0.00000E+00
         0.00000E+00
         0.00000E+00
         0.00000E+00
         0.00000E+00
         0.00000E+00
         0.00000E+00
         0.00000E+00
         0.00000E+00
         0.00000E+00
         0.00000E+00
         0.00000E+00
         0.00000E+00
         0.00000E+00
         0.00000E+00
         0.00000E+00
         0.00000E+00
         0.00000E+00
         0.00000E+00
         0.00000E+00
         0.00000E+00
         0.00000E+00
         0.00000E+00
         0.00000E+00
         0.00000E+00
         0.00000E+00
         0.00000E+00
         0.00000E+00
         0.00000E+00
         0.00000E+00
         0.00000E+00
         0.00000E+00
         0.00000E+00
         0.00000E+00
         0.00000E+00
         0.00000E+00
         0.00000E+00
         0.00000E+00
         0.00000E+00
         0.00000E+00
         0.00000E+00
         0.00000E+00
         0.00000E+00
         0.00000E+00
         0.00000E+00
         0.00000E+00
         0.00000E+00
         0.00000E+00
         0.00000E+00
         0.00000E+00
         0.00000E+00
         0.00000E+00
         0.00000E+00
         0.00000E+00
         0.00000E+00
         0.00000E+00
         0.00000E+00
         0.00000E+00
         0.00000E+00
         0.00000E+00
         0.00000E+00
         0.00000E+00
         0.00000E+00
         0.00000E+00
         0.00000E+00
         0.00000E+00
         0.00000E+00
         0.00000E+00
         0.00000E+00
         0.00000E+00
         0.00000E+00
         0.00000E+00
         0.00000E+00
         0.00000E+00
         0.00000E+00
         0.00000E+00
         0.00000E+00
         0.00000E+00
         0.00000E+00
         0.00000E+00
         0.00000E+00
         0.00000E+00
         0.00000E+00
         0.00000E+00
         0.00000E+00
         0.00000E+00
         0.00000E+00
         0.00000E+00
         0.00000E+00
         0.00000E+00
         0.00000E+00
         0.00000E+00
         0.00000E+00
  
SCALARS                   max_wave_vel  double 1
LOOKUP_TABLE default
         0.62441E+04
         0.62441E+04
         0.62441E+04
         0.62441E+04
         0.62441E+04
         0.62441E+04
         0.62441E+04
         0.62441E+04
         0.62441E+04
         0.62441E+04
         0.62441E+04
         0.62440E+04
         0.62441E+04
         0.62441E+04
         0.62441E+04
         0.62441E+04
         0.62440E+04
         0.62441E+04
         0.60362E+04
         0.62441E+04
         0.62441E+04
         0.62441E+04
         0.62441E+04
         0.62441E+04
         0.62441E+04
         0.62441E+04
         0.62441E+04
         0.62441E+04
         0.62441E+04
         0.62441E+04
         0.62441E+04
         0.62441E+04
         0.62441E+04
         0.62441E+04
         0.61095E+04
         0.61790E+04
         0.62441E+04
         0.62441E+04
         0.62441E+04
         0.62441E+04
         0.62441E+04
         0.62441E+04
         0.62441E+04
         0.62441E+04
         0.62441E+04
         0.62441E+04
         0.62441E+04
         0.62441E+04
         0.62441E+04
         0.62441E+04
         0.62441E+04
         0.62441E+04
         0.62441E+04
         0.62441E+04
         0.62441E+04
         0.62441E+04
         0.62441E+04
         0.62441E+04
         0.62441E+04
         0.62441E+04
         0.62441E+04
         0.62441E+04
         0.62441E+04
         0.62441E+04
         0.62441E+04
         0.62441E+04
         0.62441E+04
         0.62441E+04
         0.62441E+04
         0.62441E+04
         0.62441E+04
         0.62441E+04
         0.62441E+04
         0.62441E+04
         0.62441E+04
         0.62441E+04
         0.62441E+04
         0.62441E+04
         0.62441E+04
         0.62441E+04
         0.62441E+04
         0.62441E+04
         0.62441E+04
         0.62441E+04
         0.62441E+04
         0.62441E+04
         0.62441E+04
         0.62441E+04
         0.62441E+04
         0.62441E+04
         0.60689E+04
         0.62441E+04
         0.62441E+04
         0.62441E+04
         0.62441E+04
         0.62441E+04
         0.62441E+04
         0.62441E+04
         0.62441E+04
         0.62441E+04
         0.62137E+04
         0.62441E+04
         0.62441E+04
         0.62441E+04
         0.62086E+04
         0.62441E+04
         0.62441E+04
         0.62441E+04
         0.61577E+04
         0.62441E+04
         0.60458E+04
         0.62441E+04
         0.60769E+04
         0.62441E+04
         0.62441E+04
         0.61926E+04
         0.62441E+04
         0.61720E+04
         0.62372E+04
         0.62441E+04
         0.59631E+04
         0.61939E+04
         0.59889E+04
         0.62161E+04
         0.62441E+04
         0.62441E+04
         0.62441E+04
         0.60440E+04
         0.62441E+04
         0.62441E+04
         0.61263E+04
         0.62441E+04
         0.59604E+04
         0.62441E+04
         0.62441E+04
         0.62441E+04
         0.62441E+04
         0.62441E+04
         0.58311E+04
         0.62262E+04
         0.62441E+04
         0.60451E+04
         0.61215E+04
         0.62441E+04
         0.61628E+04
         0.62441E+04
         0.62441E+04
         0.62441E+04
         0.62441E+04
         0.62441E+04
         0.57137E+04
         0.62441E+04
         0.60874E+04
         0.59386E+04
         0.62154E+04
         0.62441E+04
         0.62441E+04
         0.62013E+04
         0.62185E+04
         0.62441E+04
         0.59584E+04
         0.56598E+04
         0.62441E+04
         0.62441E+04
         0.62441E+04
         0.62441E+04
         0.62441E+04
         0.62401E+04
         0.58324E+04
         0.62441E+04
         0.62374E+04
         0.62441E+04
         0.62441E+04
         0.62441E+04
         0.62441E+04
         0.62441E+04
         0.62441E+04
         0.62441E+04
         0.56180E+04
         0.62441E+04
         0.62441E+04
         0.62441E+04
         0.62441E+04
         0.56180E+04
         0.62441E+04
         0.62441E+04
         0.62441E+04
         0.62103E+04
         0.62441E+04
         0.59511E+04
         0.62441E+04
         0.60000E+04
         0.59372E+04
         0.62441E+04
         0.59093E+04
         0.56180E+04
         0.59413E+04
         0.60520E+04
         0.61992E+04
         0.59233E+04
         0.60328E+04
         0.59285E+04
         0.62441E+04
         0.62441E+04
         0.62441E+04
         0.62234E+04
         0.59416E+04
         0.56958E+04
         0.61041E+04
         0.56180E+04
         0.60369E+04
         0.59419E+04
         0.58849E+04
         0.59502E+04
         0.57182E+04
         0.60699E+04
         0.59639E+04
         0.62441E+04
         0.61627E+04
         0.60416E+04
         0.58542E+04
         0.62441E+04
         0.60669E+04
         0.61226E+04
         0.62441E+04
         0.56420E+04
         0.56298E+04
         0.60271E+04
         0.60301E+04
         0.56180E+04
         0.59295E+04
         0.57038E+04
         0.58112E+04
         0.58941E+04
         0.62441E+04
         0.62441E+04
         0.62441E+04
         0.62441E+04
         0.62441E+04
         0.60931E+04
         0.62441E+04
         0.62441E+04
         0.62441E+04
         0.62441E+04
         0.62441E+04
         0.62441E+04
         0.61767E+04
         0.62441E+04
         0.62441E+04
         0.62441E+04
         0.62441E+04
         0.62441E+04
         0.62441E+04
         0.62441E+04
         0.62441E+04
         0.62441E+04
         0.62441E+04
         0.62441E+04
         0.62441E+04
         0.62441E+04
         0.62441E+04
         0.62441E+04
         0.62441E+04
         0.62441E+04
         0.62441E+04
         0.62441E+04
         0.62441E+04
         0.62441E+04
         0.62441E+04
         0.62441E+04
         0.59864E+04
         0.62441E+04
         0.58317E+04
         0.56180E+04
         0.62127E+04
         0.59056E+04
         0.59193E+04
         0.62441E+04
         0.62441E+04
         0.57611E+04
         0.60015E+04
         0.62441E+04
         0.62441E+04
         0.61328E+04
         0.62441E+04
         0.59148E+04
         0.60324E+04
         0.58759E+04
         0.57062E+04
         0.56180E+04
         0.57117E+04
         0.59460E+04
         0.59385E+04
         0.57171E+04
         0.62028E+04
         0.56180E+04
         0.62441E+04
         0.60983E+04
         0.57479E+04
         0.60318E+04
         0.58135E+04
         0.60678E+04
         0.60933E+04
         0.62332E+04
         0.58051E+04
         0.59633E+04
         0.58997E+04
         0.59168E+04
         0.60684E+04
         0.61075E+04
         0.62078E+04
         0.57601E+04
         0.62441E+04
         0.62441E+04
         0.60866E+04
         0.62441E+04
         0.59775E+04
         0.60781E+04
         0.62441E+04
         0.62441E+04
         0.62441E+04
         0.62441E+04
         0.62441E+04
         0.61718E+04
         0.58955E+04
         0.62441E+04
         0.62441E+04
         0.62441E+04
         0.62441E+04
         0.62441E+04
         0.62441E+04
         0.60942E+04
         0.61350E+04
         0.61382E+04
         0.59278E+04
         0.60215E+04
         0.62441E+04
         0.62441E+04
         0.62441E+04
         0.61980E+04
         0.62163E+04
         0.62430E+04
         0.62441E+04
         0.58430E+04
         0.62441E+04
         0.62441E+04
         0.56789E+04
         0.56180E+04
         0.57572E+04
         0.62441E+04
         0.59883E+04
         0.59263E+04
         0.57323E+04
         0.56393E+04
         0.61812E+04
         0.62441E+04
         0.56395E+04
         0.59928E+04
         0.59936E+04
         0.59860E+04
         0.62441E+04
         0.62441E+04
         0.62441E+04
         0.56180E+04
         0.58763E+04
         0.59609E+04
         0.61655E+04
         0.56180E+04
         0.56180E+04
         0.62441E+04
         0.58370E+04
         0.60477E+04
         0.60795E+04
         0.57933E+04
         0.59539E+04
         0.57080E+04
         0.60890E+04
         0.62441E+04
         0.60138E+04
         0.59326E+04
         0.57433E+04
         0.62441E+04
         0.60066E+04
         0.59440E+04
         0.59580E+04
         0.59635E+04
         0.62441E+04
         0.56180E+04
         0.59670E+04
         0.59504E+04
         0.62441E+04
         0.60636E+04
         0.56318E+04
         0.58435E+04
         0.56180E+04
         0.56549E+04
         0.61434E+04
         0.61206E+04
         0.62441E+04
         0.62398E+04
         0.60789E+04
         0.60721E+04
         0.58647E+04
         0.62440E+04
         0.62414E+04
         0.62441E+04
         0.61692E+04
         0.62200E+04
         0.61576E+04
         0.60690E+04
         0.61267E+04
         0.59649E+04
         0.58616E+04
         0.58759E+04
         0.62441E+04
         0.60792E+04
         0.62441E+04
         0.59146E+04
         0.60003E+04
         0.60023E+04
         0.62441E+04
         0.59692E+04
         0.62441E+04
         0.62441E+04
         0.56180E+04
         0.59336E+04
         0.61121E+04
         0.62441E+04
         0.62441E+04
         0.62441E+04
         0.61412E+04
         0.62441E+04
         0.62441E+04
         0.61569E+04
         0.61636E+04
         0.62441E+04
         0.62441E+04
         0.60301E+04
         0.61984E+04
         0.62397E+04
         0.59460E+04
         0.57450E+04
         0.56924E+04
         0.58177E+04
         0.56969E+04
         0.60160E+04
         0.60139E+04
         0.62441E+04
         0.61206E+04
         0.60027E+04
         0.59557E+04
         0.59273E+04
         0.62177E+04
         0.56513E+04
         0.59430E+04
         0.57149E+04
         0.62441E+04
         0.62441E+04
         0.60717E+04
         0.61698E+04
         0.58274E+04
         0.61962E+04
         0.62441E+04
         0.62354E+04
         0.60796E+04
         0.57368E+04
         0.57499E+04
         0.61019E+04
         0.62441E+04
         0.61327E+04
         0.60287E+04
         0.56180E+04
         0.58409E+04
         0.59847E+04
         0.62441E+04
         0.62441E+04
         0.62441E+04
         0.62441E+04
         0.62157E+04
         0.56443E+04
         0.58233E+04
         0.62441E+04
         0.62441E+04
         0.62441E+04
         0.62441E+04
         0.60941E+04
         0.62441E+04
         0.62441E+04
         0.61366E+04
         0.59007E+04
         0.60759E+04
         0.60993E+04
         0.62441E+04
         0.61395E+04
         0.62441E+04
         0.62441E+04
         0.62441E+04
         0.62441E+04
         0.62218E+04
         0.60842E+04
         0.60850E+04
         0.61443E+04
         0.58263E+04
         0.58613E+04
         0.59109E+04
         0.58021E+04
         0.59555E+04
         0.61183E+04
         0.62113E+04
         0.59268E+04
         0.61511E+04
         0.60753E+04
         0.59683E+04
         0.62441E+04
         0.61398E+04
         0.60248E+04
         0.62441E+04
         0.62441E+04
         0.61226E+04
         0.59318E+04
         0.59426E+04
         0.57819E+04
         0.58619E+04
         0.59394E+04
         0.61319E+04
         0.56180E+04
         0.57230E+04
         0.56180E+04
         0.60605E+04
         0.60011E+04
         0.62441E+04
         0.56584E+04
         0.57895E+04
         0.59642E+04
         0.60809E+04
         0.59165E+04
         0.58715E+04
         0.60533E+04
         0.59745E+04
         0.56180E+04
         0.56180E+04
         0.62441E+04
         0.61057E+04
         0.60903E+04
         0.61224E+04
         0.59509E+04
         0.59668E+04
         0.61088E+04
         0.61118E+04
         0.57301E+04
         0.62441E+04
         0.60987E+04
         0.61777E+04
         0.62441E+04
         0.57654E+04
         0.62441E+04
         0.57894E+04
         0.58708E+04
         0.59800E+04
         0.57980E+04
         0.58434E+04
         0.59177E+04
         0.60093E+04
         0.60505E+04
         0.62441E+04
         0.62441E+04
         0.62007E+04
         0.62441E+04
         0.59287E+04
         0.59688E+04
         0.62267E+04
         0.61171E+04
         0.61500E+04
         0.62288E+04
         0.59838E+04
         0.60636E+04
         0.60810E+04
         0.62441E+04
         0.61227E+04
         0.61099E+04
         0.62441E+04
         0.61740E+04
         0.60235E+04
         0.58557E+04
         0.60209E+04
         0.59495E+04
         0.60574E+04
         0.56479E+04
         0.62441E+04
         0.58550E+04
         0.62441E+04
         0.62441E+04
         0.59803E+04
         0.59113E+04
         0.62159E+04
         0.59865E+04
         0.58986E+04
         0.61135E+04
         0.58693E+04
         0.62441E+04
         0.58879E+04
         0.60638E+04
         0.56991E+04
         0.56617E+04
         0.56180E+04
         0.56375E+04
         0.56180E+04
         0.61725E+04
         0.62441E+04
         0.61595E+04
         0.60002E+04
         0.62441E+04
         0.62441E+04
         0.62441E+04
         0.60904E+04
         0.62441E+04
         0.58211E+04
         0.59027E+04
         0.56180E+04
         0.56180E+04
         0.56180E+04
         0.58447E+04
         0.57323E+04
         0.62441E+04
         0.60589E+04
         0.58165E+04
         0.56180E+04
         0.56801E+04
         0.56180E+04
         0.57567E+04
         0.59914E+04
         0.61187E+04
         0.61443E+04
         0.62441E+04
         0.58954E+04
         0.59964E+04
         0.60452E+04
         0.59062E+04
         0.59579E+04
         0.58654E+04
         0.60082E+04
         0.62441E+04
         0.59445E+04
         0.58891E+04
         0.59286E+04
         0.59338E+04
         0.61181E+04
         0.61951E+04
         0.61933E+04
         0.61915E+04
         0.59770E+04
         0.58819E+04
         0.59434E+04
         0.56888E+04
         0.59916E+04
         0.60482E+04
         0.60939E+04
         0.61049E+04
         0.57120E+04
         0.57867E+04
         0.59148E+04
         0.58033E+04
         0.56959E+04
         0.57288E+04
         0.57781E+04
         0.56218E+04
         0.57024E+04
         0.62441E+04
         0.62441E+04
         0.62441E+04
         0.61357E+04
         0.62307E+04
         0.59393E+04
         0.59304E+04
         0.58257E+04
         0.59683E+04
         0.59324E+04
         0.58790E+04
         0.57734E+04
         0.58547E+04
         0.58100E+04
         0.57125E+04
         0.56285E+04
         0.59028E+04
         0.56180E+04
         0.58591E+04
         0.58251E+04
         0.58772E+04
         0.56180E+04
         0.60073E+04
         0.57313E+04
         0.57971E+04
         0.58973E+04
         0.62441E+04
         0.62441E+04
         0.57816E+04
         0.57443E+04
         0.56180E+04
         0.57965E+04
         0.57203E+04
         0.56180E+04
         0.57459E+04
         0.61637E+04
         0.60734E+04
         0.60424E+04
         0.59991E+04
         0.58166E+04
         0.60390E+04
         0.59846E+04
         0.60277E+04
         0.62047E+04
         0.60654E+04
         0.59050E+04
         0.62441E+04
         0.60627E+04
         0.58340E+04
         0.62441E+04
         0.61522E+04
         0.61930E+04
         0.62114E+04
         0.60162E+04
         0.61227E+04
         0.60559E+04
         0.60993E+04
         0.60946E+04
         0.59625E+04
         0.60758E+04
         0.61054E+04
         0.62250E+04
         0.60936E+04
         0.60006E+04
         0.60681E+04
         0.61227E+04
         0.59953E+04
         0.61984E+04
         0.59199E+04
         0.57008E+04
         0.56440E+04
         0.59856E+04
         0.58761E+04
         0.56831E+04
         0.58110E+04
         0.58891E+04
         0.58851E+04
         0.59721E+04
         0.59849E+04
         0.59297E+04
         0.58390E+04
         0.58644E+04
         0.60215E+04
         0.59919E+04
         0.59229E+04
         0.58259E+04
         0.60586E+04
         0.58816E+04
         0.60718E+04
         0.62441E+04
         0.62441E+04
         0.57868E+04
         0.62415E+04
         0.58080E+04
         0.59904E+04
         0.56412E+04
         0.59103E+04
         0.58369E+04
         0.58234E+04
         0.60119E+04
         0.60199E+04
         0.56652E+04
         0.56180E+04
         0.56348E+04
         0.58001E+04
         0.58920E+04
         0.57913E+04
         0.59000E+04
         0.58001E+04
         0.58358E+04
         0.57714E+04
         0.58335E+04
         0.58964E+04
         0.61889E+04
         0.61028E+04
         0.61065E+04
         0.61601E+04
         0.60959E+04
         0.60374E+04
         0.61055E+04
         0.59505E+04
         0.61848E+04
         0.59122E+04
         0.59078E+04
         0.57471E+04
         0.61153E+04
         0.59588E+04
         0.60189E+04
         0.61859E+04
         0.60752E+04
         0.61648E+04
         0.61777E+04
         0.62197E+04
         0.59767E+04
         0.60104E+04
         0.58701E+04
         0.60640E+04
         0.59642E+04
         0.59817E+04
         0.61164E+04
         0.60499E+04
         0.61597E+04
         0.61576E+04
         0.61018E+04
         0.59562E+04
         0.60119E+04
         0.60229E+04
         0.59483E+04
         0.59428E+04
         0.60132E+04
         0.60925E+04
         0.60604E+04
         0.61257E+04
         0.59852E+04
         0.59712E+04
         0.59358E+04
         0.60023E+04
         0.60444E+04
         0.60357E+04
         0.60378E+04
         0.60781E+04
         0.59190E+04
         0.60023E+04
         0.58816E+04
         0.59580E+04
         0.61698E+04
         0.61040E+04
         0.61401E+04
         0.58819E+04
         0.59899E+04
         0.59931E+04
         0.61652E+04
         0.61014E+04
         0.61029E+04
         0.61587E+04
         0.56180E+04
         0.56180E+04
         0.57488E+04
         0.59870E+04
         0.58486E+04
         0.57871E+04
         0.57458E+04
         0.61570E+04
         0.62441E+04
         0.59973E+04
         0.61987E+04
         0.58088E+04
         0.56240E+04
         0.56180E+04
         0.56846E+04
         0.58587E+04
         0.62182E+04
         0.62064E+04
         0.61036E+04
         0.61915E+04
         0.60289E+04
         0.61040E+04
         0.61897E+04
         0.60525E+04
         0.62238E+04
         0.60783E+04
         0.60882E+04
         0.59841E+04
         0.61324E+04
         0.61190E+04
         0.61670E+04
         0.62441E+04
         0.62441E+04
         0.61970E+04
         0.60863E+04
         0.60181E+04
         0.61120E+04
         0.60626E+04
         0.61446E+04
         0.61164E+04
         0.60667E+04
         0.61132E+04
         0.60213E+04
         0.60111E+04
         0.61471E+04
         0.60443E+04
         0.62146E+04
         0.59286E+04
         0.61531E+04
         0.62164E+04
         0.58749E+04
         0.61600E+04
         0.62441E+04
         0.60432E+04
         0.60701E+04
         0.61634E+04
         0.60835E+04
         0.60939E+04
         0.59971E+04
         0.60556E+04
         0.59886E+04
         0.60094E+04
         0.59506E+04
         0.59685E+04
         0.59022E+04
         0.60050E+04
         0.60294E+04
         0.60549E+04
         0.58510E+04
         0.59848E+04
         0.57914E+04
         0.56180E+04
         0.61621E+04
         0.59971E+04
         0.61847E+04
         0.59259E+04
         0.59803E+04
         0.59557E+04
         0.57774E+04
         0.56536E+04
         0.57292E+04
         0.59653E+04
         0.58714E+04
         0.58086E+04
         0.59272E+04
         0.61137E+04
         0.62441E+04
         0.60919E+04
         0.57762E+04
         0.56282E+04
         0.58227E+04
         0.59400E+04
         0.59201E+04
         0.58634E+04
         0.61525E+04
         0.61681E+04
         0.62441E+04
         0.62441E+04
         0.62188E+04
         0.62441E+04
         0.62441E+04
         0.61840E+04
         0.60829E+04
         0.62175E+04
         0.61888E+04
         0.60276E+04
         0.61032E+04
         0.62441E+04
         0.62441E+04
         0.62441E+04
         0.62128E+04
         0.61737E+04
         0.62441E+04
         0.60515E+04
         0.62441E+04
         0.62441E+04
         0.62441E+04
         0.60386E+04
         0.60639E+04
         0.61338E+04
         0.61237E+04
         0.60702E+04
         0.62441E+04
         0.60992E+04
         0.62441E+04
         0.62352E+04
         0.62410E+04
         0.62441E+04
         0.60368E+04
         0.62441E+04
         0.62441E+04
         0.61469E+04
         0.61501E+04
         0.62441E+04
         0.62441E+04
         0.62441E+04
         0.62441E+04
         0.62441E+04
         0.62441E+04
         0.62041E+04
         0.61565E+04
         0.61568E+04
         0.62441E+04
         0.62441E+04
         0.62441E+04
         0.62441E+04
         0.58855E+04
         0.58063E+04
         0.62441E+04
         0.62208E+04
         0.62441E+04
         0.59818E+04
         0.59891E+04
         0.56180E+04
         0.62169E+04
         0.58233E+04
         0.57956E+04
         0.58900E+04
         0.60191E+04
         0.60211E+04
         0.59876E+04
         0.60528E+04
         0.60718E+04
         0.62288E+04
         0.61882E+04
         0.59697E+04
         0.59677E+04
         0.60999E+04
         0.62031E+04
         0.62441E+04
         0.62165E+04
         0.60032E+04
         0.60987E+04
         0.61723E+04
         0.62441E+04
         0.61364E+04
         0.62441E+04
         0.62441E+04
         0.60742E+04
         0.60064E+04
         0.58452E+04
         0.58606E+04
         0.60226E+04
         0.59161E+04
         0.60181E+04
         0.62158E+04
         0.60040E+04
         0.59437E+04
         0.58947E+04
         0.60671E+04
         0.60198E+04
         0.58671E+04
         0.61107E+04
         0.61533E+04
         0.61180E+04
         0.60667E+04
         0.57886E+04
         0.61386E+04
         0.60234E+04
         0.59036E+04
         0.62441E+04
         0.58631E+04
         0.62016E+04
         0.61892E+04
         0.61896E+04
         0.61410E+04
         0.61996E+04
         0.62441E+04
         0.60334E+04
         0.60839E+04
         0.58765E+04
         0.58894E+04
         0.59120E+04
         0.60696E+04
         0.61587E+04
         0.61780E+04
         0.61949E+04
         0.60892E+04
         0.60980E+04
         0.61307E+04
         0.60890E+04
         0.61160E+04
         0.60867E+04
         0.61690E+04
         0.56180E+04
         0.57485E+04
         0.59640E+04
         0.60476E+04
         0.59571E+04
         0.58953E+04
         0.58339E+04
         0.58392E+04
         0.59139E+04
         0.58890E+04
         0.58830E+04
         0.60600E+04
         0.60913E+04
         0.61681E+04
         0.61929E+04
         0.60885E+04
         0.60907E+04
         0.60349E+04
         0.60167E+04
         0.59003E+04
         0.59788E+04
         0.59087E+04
         0.61131E+04
         0.59429E+04
         0.59034E+04
         0.58782E+04
         0.60153E+04
         0.58924E+04
         0.59951E+04
         0.62240E+04
         0.61654E+04
         0.61678E+04
         0.59130E+04
         0.60014E+04
         0.59893E+04
         0.60553E+04
         0.59126E+04
         0.59031E+04
         0.59237E+04
         0.60500E+04
         0.59091E+04
         0.61948E+04
         0.60862E+04
         0.61481E+04
         0.61892E+04
         0.60791E+04
         0.61641E+04
         0.61125E+04
         0.60637E+04
         0.61068E+04
         0.59781E+04
         0.60146E+04
         0.60564E+04
         0.57075E+04
         0.59818E+04
         0.58996E+04
         0.59961E+04
         0.60172E+04
         0.61296E+04
         0.62018E+04
         0.61746E+04
         0.60685E+04
         0.60051E+04
         0.58952E+04
         0.58742E+04
         0.58257E+04
         0.58735E+04
         0.61469E+04
         0.61691E+04
         0.59356E+04
         0.60621E+04
         0.60846E+04
         0.61117E+04
         0.62227E+04
         0.61578E+04
         0.61455E+04
         0.60257E+04
         0.61191E+04
         0.61995E+04
         0.60211E+04
         0.60901E+04
         0.60542E+04
         0.59826E+04
         0.60193E+04
         0.60051E+04
         0.60776E+04
         0.61110E+04
         0.59297E+04
         0.59220E+04
         0.60783E+04
         0.61563E+04
         0.60770E+04
         0.60633E+04
         0.60328E+04
         0.61106E+04
         0.61047E+04
         0.60262E+04
         0.60018E+04
         0.59588E+04
         0.59437E+04
         0.61346E+04
         0.59110E+04
         0.57530E+04
         0.61676E+04
         0.61187E+04
         0.60013E+04
         0.60472E+04
         0.61087E+04
         0.61756E+04
         0.61836E+04
         0.59784E+04
         0.61816E+04
         0.61267E+04
         0.61931E+04
         0.59454E+04
         0.59590E+04
         0.60062E+04
         0.60512E+04
         0.60403E+04
         0.61510E+04
         0.61922E+04
         0.60638E+04
         0.61540E+04
         0.61967E+04
         0.61764E+04
         0.61804E+04
         0.61687E+04
         0.62053E+04
         0.61589E+04
         0.61112E+04
         0.61374E+04
         0.61460E+04
         0.60126E+04
         0.61622E+04
         0.60864E+04
         0.60883E+04
         0.61134E+04
         0.61971E+04
         0.60978E+04
         0.60360E+04
         0.60712E+04
         0.60940E+04
         0.59475E+04
         0.58823E+04
         0.58954E+04
         0.59399E+04
         0.61264E+04
         0.60759E+04
         0.60978E+04
         0.61328E+04
         0.61337E+04
         0.61308E+04
         0.60907E+04
         0.61823E+04
         0.60559E+04
         0.61850E+04
         0.60037E+04
         0.59470E+04
         0.59043E+04
         0.59729E+04
         0.59716E+04
         0.60266E+04
         0.61156E+04
         0.61931E+04
         0.62107E+04
         0.61000E+04
         0.59758E+04
         0.59787E+04
         0.58862E+04
         0.59614E+04
         0.59952E+04
         0.60134E+04
         0.60803E+04
         0.60263E+04
         0.60079E+04
         0.59721E+04
         0.58994E+04
         0.59127E+04
         0.58865E+04
         0.59095E+04
         0.58794E+04
         0.59893E+04
         0.61760E+04
         0.61766E+04
         0.61399E+04
         0.61835E+04
         0.61413E+04
         0.61934E+04
         0.62031E+04
         0.62206E+04
         0.61851E+04
         0.62441E+04
         0.62334E+04
         0.61907E+04
         0.61477E+04
         0.62343E+04
         0.61523E+04
         0.61996E+04
         0.61372E+04
         0.62291E+04
         0.61657E+04
         0.61706E+04
         0.62015E+04
         0.62327E+04
         0.61156E+04
         0.62005E+04
         0.62354E+04
         0.62271E+04
         0.62080E+04
         0.62437E+04
         0.60515E+04
         0.61819E+04
         0.62286E+04
         0.61870E+04
         0.62299E+04
         0.62394E+04
         0.60088E+04
         0.60463E+04
         0.61291E+04
         0.61885E+04
         0.61601E+04
         0.60278E+04
         0.59637E+04
         0.59610E+04
         0.61261E+04
         0.61195E+04
         0.61684E+04
         0.61041E+04
         0.61258E+04
         0.61451E+04
         0.61747E+04
         0.62154E+04
         0.61740E+04
         0.62004E+04
         0.60347E+04
         0.59252E+04
         0.59971E+04
         0.59382E+04
         0.60422E+04
         0.60968E+04
         0.61208E+04
         0.61067E+04
         0.61562E+04
         0.61199E+04
         0.61952E+04
         0.59422E+04
         0.59306E+04
         0.60799E+04
         0.59937E+04
         0.60295E+04
         0.60574E+04
         0.61194E+04
         0.60661E+04
         0.60247E+04
         0.60064E+04
         0.61602E+04
         0.60941E+04
         0.61050E+04
         0.61582E+04
         0.61780E+04
         0.60677E+04
         0.60739E+04
         0.60781E+04
         0.61419E+04
         0.61417E+04
         0.61699E+04
         0.61791E+04
         0.60914E+04
         0.60750E+04
         0.61198E+04
         0.62113E+04
         0.61299E+04
         0.61399E+04
         0.61670E+04
         0.60839E+04
         0.61842E+04
         0.60624E+04
         0.61607E+04
         0.61672E+04
         0.60708E+04
         0.60664E+04
         0.60940E+04
         0.61311E+04
         0.61853E+04
         0.61817E+04
         0.62202E+04
         0.62329E+04
         0.62235E+04
         0.60226E+04
         0.60855E+04
         0.62012E+04
         0.62334E+04
         0.61729E+04
         0.62081E+04
         0.60088E+04
         0.60858E+04
         0.61091E+04
         0.61010E+04
         0.61348E+04
         0.59841E+04
         0.59383E+04
         0.59263E+04
         0.60349E+04
         0.61946E+04
         0.62157E+04
         0.62047E+04
         0.61982E+04
         0.61492E+04
         0.61765E+04
         0.62261E+04
         0.62427E+04
         0.62079E+04
         0.58878E+04
         0.59373E+04
         0.60752E+04
         0.60653E+04
         0.60824E+04
         0.60787E+04
         0.59887E+04
         0.59049E+04
         0.59428E+04
         0.58717E+04
         0.62441E+04
         0.62003E+04
         0.62354E+04
         0.61869E+04
         0.60408E+04
         0.60845E+04
         0.61546E+04
         0.60947E+04
         0.61078E+04
         0.60142E+04
         0.60896E+04
         0.61267E+04
         0.61252E+04
         0.62004E+04
         0.61752E+04
         0.61542E+04
         0.62308E+04
         0.62367E+04
         0.62307E+04
         0.61884E+04
         0.62084E+04
         0.61816E+04
         0.61930E+04
         0.62109E+04
         0.60886E+04
         0.61728E+04
         0.61682E+04
         0.61616E+04
         0.61624E+04
         0.61876E+04
         0.61831E+04
         0.61950E+04
         0.61363E+04
         0.61665E+04
         0.61507E+04
         0.60716E+04
         0.61958E+04
         0.61117E+04
         0.61797E+04
         0.61795E+04
         0.61008E+04
         0.62036E+04
         0.61546E+04
         0.60777E+04
         0.62069E+04
         0.61116E+04
         0.62116E+04
         0.61978E+04
         0.61868E+04
         0.61832E+04
         0.61553E+04
         0.62346E+04
         0.62182E+04
         0.62174E+04
         0.61303E+04
         0.60710E+04
         0.60935E+04
         0.62239E+04
         0.61535E+04
         0.61913E+04
         0.61903E+04
         0.62156E+04
         0.62088E+04
         0.61585E+04
         0.61523E+04
         0.61454E+04
         0.61039E+04
         0.61767E+04
         0.60160E+04
         0.59295E+04
         0.61352E+04
         0.61536E+04
         0.60068E+04
         0.59822E+04
         0.61037E+04
         0.60376E+04
         0.58939E+04
         0.58861E+04
         0.60675E+04
         0.62274E+04
         0.61864E+04
         0.62078E+04
         0.62007E+04
         0.60519E+04
         0.60217E+04
         0.60724E+04
         0.60773E+04
         0.61174E+04
         0.60731E+04
         0.60615E+04
         0.59760E+04
         0.59472E+04
         0.59015E+04
         0.58914E+04
         0.59847E+04
         0.59609E+04
         0.60280E+04
         0.58839E+04
         0.60080E+04
         0.60660E+04
         0.60676E+04
         0.60163E+04
         0.59443E+04
         0.61356E+04
         0.60299E+04
         0.61375E+04
         0.61639E+04
         0.60094E+04
         0.61046E+04
         0.59892E+04
         0.58847E+04
         0.60023E+04
         0.59909E+04
         0.58908E+04
         0.60206E+04
         0.59994E+04
         0.60220E+04
         0.60435E+04
         0.59509E+04
         0.59878E+04
         0.59674E+04
         0.58905E+04
         0.59225E+04
         0.58882E+04
         0.59552E+04
         0.59412E+04
         0.60769E+04
         0.59628E+04
         0.59737E+04
         0.60074E+04
         0.60418E+04
         0.60940E+04
         0.60549E+04
         0.60795E+04
         0.60958E+04
         0.60604E+04
         0.59718E+04
         0.59981E+04
         0.59759E+04
         0.59953E+04
         0.59796E+04
         0.60319E+04
         0.61370E+04
         0.60728E+04
         0.60272E+04
         0.59911E+04
         0.59700E+04
         0.59486E+04
         0.60007E+04
         0.60047E+04
         0.61755E+04
         0.61269E+04
         0.59610E+04
         0.58940E+04
         0.60154E+04
         0.61697E+04
         0.61067E+04
         0.61257E+04
         0.59964E+04
         0.58887E+04
         0.60008E+04
         0.60908E+04
         0.60266E+04
         0.60432E+04
         0.60987E+04
         0.60529E+04
         0.60433E+04
         0.60019E+04
         0.60618E+04
         0.60293E+04
         0.59091E+04
         0.59092E+04
         0.60365E+04
         0.59270E+04
         0.60177E+04
         0.59166E+04
         0.59530E+04
         0.59160E+04
         0.59421E+04
         0.59371E+04
         0.59383E+04
         0.59227E+04
         0.59526E+04
         0.59320E+04
         0.59306E+04
         0.59770E+04
         0.59948E+04
         0.59183E+04
         0.59074E+04
         0.59696E+04
         0.59248E+04
         0.60467E+04
         0.59551E+04
         0.61677E+04
         0.59390E+04
         0.59052E+04
         0.59503E+04
         0.59807E+04
         0.59902E+04
         0.60455E+04
         0.61022E+04
         0.60173E+04
         0.59627E+04
         0.60222E+04
         0.59201E+04
         0.59065E+04
         0.60329E+04
         0.60120E+04
         0.58969E+04
         0.60764E+04
         0.60931E+04
         0.61327E+04
         0.61275E+04
         0.61065E+04
         0.60399E+04
         0.60144E+04
         0.60944E+04
         0.60173E+04
         0.60042E+04
         0.60184E+04
         0.59642E+04
         0.59195E+04
         0.59066E+04
         0.58986E+04
         0.59209E+04
         0.58902E+04
         0.58992E+04
         0.58908E+04
         0.59009E+04
         0.59004E+04
         0.59075E+04
         0.58949E+04
         0.59626E+04
         0.60119E+04
         0.60329E+04
         0.59737E+04
         0.59768E+04
         0.58884E+04
         0.60890E+04
         0.61637E+04
         0.61617E+04
         0.59775E+04
         0.59770E+04
         0.59840E+04
         0.59888E+04
         0.59391E+04
         0.59561E+04
         0.59658E+04
         0.58879E+04
         0.59348E+04
         0.62046E+04
         0.60801E+04
         0.60853E+04
         0.60996E+04
         0.60990E+04
         0.60186E+04
         0.61480E+04
         0.60771E+04
         0.61091E+04
         0.60471E+04
         0.61722E+04
         0.60726E+04
         0.59925E+04
         0.60228E+04
         0.61544E+04
         0.61285E+04
         0.60450E+04
         0.62357E+04
         0.60382E+04
         0.60867E+04
         0.59345E+04
         0.60901E+04
         0.59439E+04
         0.59732E+04
         0.60338E+04
         0.60697E+04
         0.60589E+04
         0.60643E+04
         0.61432E+04
         0.60596E+04
         0.60578E+04
         0.61410E+04
         0.60285E+04
         0.60388E+04
         0.60170E+04
         0.59853E+04
         0.60021E+04
         0.61770E+04
         0.60854E+04
         0.61083E+04
         0.60939E+04
         0.60846E+04
         0.60305E+04
         0.60070E+04
         0.61671E+04
         0.61295E+04
         0.61045E+04
         0.60933E+04
         0.60550E+04
         0.61145E+04
         0.61857E+04
         0.60941E+04
         0.60623E+04
         0.58535E+04
         0.59800E+04
         0.59467E+04
         0.59261E+04
         0.58915E+04
         0.60825E+04
         0.61409E+04
         0.60049E+04
         0.60336E+04
         0.60528E+04
         0.60248E+04
         0.59430E+04
         0.60358E+04
         0.62208E+04
         0.62214E+04
         0.60049E+04
         0.60593E+04
         0.59906E+04
         0.61326E+04
         0.61986E+04
         0.60816E+04
         0.61700E+04
         0.62315E+04
         0.60832E+04
         0.59679E+04
         0.60576E+04
         0.59759E+04
         0.59998E+04
         0.61516E+04
         0.60613E+04
         0.61876E+04
         0.59830E+04
         0.59566E+04
         0.59820E+04
         0.59704E+04
         0.59343E+04
         0.59176E+04
         0.58935E+04
         0.58453E+04
         0.59655E+04
         0.59760E+04
         0.59313E+04
         0.60693E+04
         0.59019E+04
         0.59348E+04
         0.60011E+04
         0.59826E+04
         0.61034E+04
         0.61892E+04
         0.59491E+04
         0.62109E+04
         0.58927E+04
         0.60691E+04
         0.61080E+04
         0.60318E+04
         0.59820E+04
         0.60080E+04
         0.60565E+04
         0.61677E+04
         0.59444E+04
         0.59116E+04
         0.58920E+04
         0.61015E+04
         0.60413E+04
         0.59669E+04
         0.59377E+04
         0.59543E+04
         0.60915E+04
         0.61165E+04
         0.59977E+04
         0.59659E+04
         0.59411E+04
         0.59860E+04
         0.61370E+04
         0.61416E+04
         0.61433E+04
         0.61552E+04
         0.59406E+04
         0.60383E+04
         0.59018E+04
         0.59279E+04
         0.59165E+04
         0.59372E+04
         0.60625E+04
         0.60130E+04
         0.59976E+04
         0.59629E+04
         0.59595E+04
         0.59450E+04
         0.59180E+04
         0.58930E+04
         0.60864E+04
         0.60069E+04
         0.57364E+04
         0.60181E+04
         0.58963E+04
         0.60216E+04
         0.59440E+04
         0.59353E+04
         0.59506E+04
         0.60618E+04
         0.61503E+04
         0.61775E+04
         0.61658E+04
         0.60741E+04
         0.60099E+04
         0.61920E+04
         0.60135E+04
         0.61208E+04
         0.60366E+04
         0.59588E+04
         0.59692E+04
         0.59024E+04
         0.59310E+04
         0.59005E+04
         0.59386E+04
         0.59083E+04
         0.60423E+04
         0.61304E+04
         0.58984E+04
         0.62360E+04
         0.59403E+04
         0.59566E+04
         0.60747E+04
         0.60863E+04
         0.61408E+04
         0.62390E+04
         0.58996E+04
         0.62238E+04
         0.60837E+04
         0.60274E+04
         0.58957E+04
         0.60192E+04
         0.62221E+04
         0.61079E+04
         0.62222E+04
         0.61826E+04
         0.58974E+04
         0.58887E+04
         0.59277E+04
         0.60653E+04
         0.59952E+04
         0.58942E+04
         0.58964E+04
         0.59262E+04
         0.59747E+04
         0.60765E+04
         0.59487E+04
         0.58968E+04
         0.59487E+04
         0.60470E+04
         0.61229E+04
         0.60818E+04
         0.60836E+04
         0.61012E+04
         0.58907E+04
         0.59177E+04
         0.59074E+04
         0.59257E+04
         0.58905E+04
         0.59399E+04
         0.59847E+04
         0.59558E+04
         0.59557E+04
         0.58865E+04
         0.59059E+04
         0.59149E+04
         0.59253E+04
         0.59456E+04
         0.59870E+04
         0.61593E+04
         0.60355E+04
         0.58941E+04
         0.59522E+04
         0.59248E+04
         0.59998E+04
         0.61457E+04
         0.60198E+04
         0.61381E+04
         0.61254E+04
         0.60993E+04
         0.58878E+04
         0.59420E+04
         0.58875E+04
         0.59132E+04
         0.58871E+04
         0.58863E+04
         0.59834E+04
         0.59660E+04
         0.59851E+04
         0.61790E+04
         0.60154E+04
         0.59750E+04
         0.59770E+04
         0.61202E+04
         0.59655E+04
         0.59950E+04
         0.60119E+04
         0.58841E+04
         0.60037E+04
         0.59522E+04
         0.60123E+04
         0.59515E+04
         0.60507E+04
         0.60558E+04
         0.60927E+04
         0.59865E+04
         0.60982E+04
         0.59654E+04
         0.59223E+04
         0.59565E+04
         0.59266E+04
         0.59237E+04
         0.58927E+04
         0.58901E+04
         0.58946E+04
         0.59145E+04
         0.59634E+04
         0.59563E+04
         0.59336E+04
         0.59077E+04
         0.59049E+04
         0.59202E+04
         0.59230E+04
         0.59902E+04
         0.59237E+04
         0.59171E+04
         0.59108E+04
         0.58917E+04
         0.58994E+04
         0.59199E+04
         0.56180E+04
         0.59003E+04
         0.59497E+04
         0.59263E+04
         0.59492E+04
         0.59841E+04
         0.59406E+04
         0.59520E+04
         0.59399E+04
         0.59403E+04
         0.59420E+04
         0.59010E+04
         0.59009E+04
         0.59202E+04
         0.59288E+04
         0.59832E+04
         0.60389E+04
         0.61007E+04
         0.60283E+04
         0.59115E+04
         0.58987E+04
         0.58919E+04
         0.59175E+04
         0.59946E+04
         0.60141E+04
         0.59914E+04
         0.59845E+04
         0.59855E+04
  
SCALARS                      eps_shear  double 1
LOOKUP_TABLE default
         0.00000E+00
         0.00000E+00
         0.00000E+00
         0.00000E+00
         0.00000E+00
         0.00000E+00
         0.00000E+00
         0.00000E+00
         0.00000E+00
         0.00000E+00
         0.00000E+00
         0.00000E+00
         0.00000E+00
         0.00000E+00
         0.00000E+00
         0.00000E+00
         0.00000E+00
         0.00000E+00
         0.00000E+00
         0.00000E+00
         0.00000E+00
         0.00000E+00
         0.00000E+00
         0.00000E+00
         0.00000E+00
         0.00000E+00
         0.00000E+00
         0.00000E+00
         0.00000E+00
         0.00000E+00
         0.00000E+00
         0.00000E+00
         0.00000E+00
         0.00000E+00
         0.00000E+00
         0.00000E+00
         0.00000E+00
         0.00000E+00
         0.00000E+00
         0.00000E+00
         0.00000E+00
         0.00000E+00
         0.00000E+00
         0.00000E+00
         0.00000E+00
         0.00000E+00
         0.00000E+00
         0.00000E+00
         0.00000E+00
         0.00000E+00
         0.00000E+00
         0.00000E+00
         0.00000E+00
         0.00000E+00
         0.00000E+00
         0.00000E+00
         0.00000E+00
         0.00000E+00
         0.00000E+00
         0.00000E+00
         0.00000E+00
         0.00000E+00
         0.00000E+00
         0.00000E+00
         0.00000E+00
         0.00000E+00
         0.00000E+00
         0.00000E+00
         0.00000E+00
         0.00000E+00
         0.00000E+00
         0.00000E+00
         0.00000E+00
         0.00000E+00
         0.00000E+00
         0.00000E+00
         0.00000E+00
         0.00000E+00
         0.00000E+00
         0.00000E+00
         0.00000E+00
         0.00000E+00
         0.00000E+00
         0.00000E+00
         0.00000E+00
         0.00000E+00
         0.00000E+00
         0.00000E+00
         0.00000E+00
         0.00000E+00
         0.00000E+00
         0.00000E+00
         0.00000E+00
         0.00000E+00
         0.00000E+00
         0.00000E+00
         0.00000E+00
         0.00000E+00
         0.00000E+00
         0.00000E+00
         0.00000E+00
         0.00000E+00
         0.00000E+00
         0.00000E+00
         0.00000E+00
         0.00000E+00
         0.00000E+00
         0.00000E+00
         0.00000E+00
         0.00000E+00
         0.00000E+00
         0.00000E+00
         0.00000E+00
         0.00000E+00
         0.00000E+00
         0.00000E+00
         0.00000E+00
         0.00000E+00
         0.00000E+00
         0.00000E+00
         0.00000E+00
         0.00000E+00
         0.00000E+00
         0.00000E+00
         0.00000E+00
         0.00000E+00
         0.00000E+00
         0.00000E+00
         0.00000E+00
         0.00000E+00
         0.00000E+00
         0.00000E+00
         0.00000E+00
         0.00000E+00
         0.00000E+00
         0.00000E+00
         0.00000E+00
         0.00000E+00
         0.00000E+00
         0.00000E+00
         0.00000E+00
         0.00000E+00
         0.00000E+00
         0.00000E+00
         0.00000E+00
         0.00000E+00
         0.00000E+00
         0.00000E+00
         0.00000E+00
         0.00000E+00
         0.00000E+00
         0.00000E+00
         0.00000E+00
         0.00000E+00
         0.00000E+00
         0.00000E+00
         0.00000E+00
         0.00000E+00
         0.00000E+00
         0.00000E+00
         0.00000E+00
         0.00000E+00
         0.00000E+00
         0.00000E+00
         0.00000E+00
         0.00000E+00
         0.00000E+00
         0.00000E+00
         0.00000E+00
         0.00000E+00
         0.00000E+00
         0.00000E+00
         0.00000E+00
         0.00000E+00
         0.00000E+00
         0.00000E+00
         0.00000E+00
         0.00000E+00
         0.00000E+00
         0.00000E+00
         0.00000E+00
         0.00000E+00
         0.00000E+00
         0.00000E+00
         0.00000E+00
         0.00000E+00
         0.00000E+00
         0.00000E+00
         0.00000E+00
         0.00000E+00
         0.00000E+00
         0.00000E+00
         0.00000E+00
         0.00000E+00
         0.00000E+00
         0.00000E+00
         0.00000E+00
         0.00000E+00
         0.00000E+00
         0.00000E+00
         0.00000E+00
         0.00000E+00
         0.00000E+00
         0.00000E+00
         0.00000E+00
         0.00000E+00
         0.00000E+00
         0.00000E+00
         0.00000E+00
         0.00000E+00
         0.00000E+00
         0.00000E+00
         0.00000E+00
         0.00000E+00
         0.00000E+00
         0.00000E+00
         0.00000E+00
         0.00000E+00
         0.00000E+00
         0.00000E+00
         0.00000E+00
         0.00000E+00
         0.00000E+00
         0.00000E+00
         0.00000E+00
         0.00000E+00
         0.00000E+00
         0.00000E+00
         0.00000E+00
         0.00000E+00
         0.00000E+00
         0.00000E+00
         0.00000E+00
         0.00000E+00
         0.00000E+00
         0.00000E+00
         0.00000E+00
         0.00000E+00
         0.00000E+00
         0.00000E+00
         0.00000E+00
         0.00000E+00
         0.00000E+00
         0.00000E+00
         0.00000E+00
         0.00000E+00
         0.00000E+00
         0.00000E+00
         0.00000E+00
         0.00000E+00
         0.00000E+00
         0.00000E+00
         0.00000E+00
         0.00000E+00
         0.00000E+00
         0.00000E+00
         0.00000E+00
         0.00000E+00
         0.00000E+00
         0.00000E+00
         0.00000E+00
         0.00000E+00
         0.00000E+00
         0.00000E+00
         0.00000E+00
         0.00000E+00
         0.00000E+00
         0.00000E+00
         0.00000E+00
         0.00000E+00
         0.00000E+00
         0.00000E+00
         0.00000E+00
         0.00000E+00
         0.00000E+00
         0.00000E+00
         0.00000E+00
         0.00000E+00
         0.00000E+00
         0.00000E+00
         0.00000E+00
         0.00000E+00
         0.00000E+00
         0.00000E+00
         0.00000E+00
         0.00000E+00
         0.00000E+00
         0.00000E+00
         0.00000E+00
         0.00000E+00
         0.00000E+00
         0.00000E+00
         0.00000E+00
         0.00000E+00
         0.00000E+00
         0.00000E+00
         0.00000E+00
         0.00000E+00
         0.00000E+00
         0.00000E+00
         0.00000E+00
         0.00000E+00
         0.00000E+00
         0.00000E+00
         0.00000E+00
         0.00000E+00
         0.00000E+00
         0.00000E+00
         0.00000E+00
         0.00000E+00
         0.00000E+00
         0.00000E+00
         0.00000E+00
         0.00000E+00
         0.00000E+00
         0.00000E+00
         0.00000E+00
         0.00000E+00
         0.00000E+00
         0.00000E+00
         0.00000E+00
         0.00000E+00
         0.00000E+00
         0.00000E+00
         0.00000E+00
         0.00000E+00
         0.00000E+00
         0.00000E+00
         0.00000E+00
         0.00000E+00
         0.00000E+00
         0.00000E+00
         0.00000E+00
         0.00000E+00
         0.00000E+00
         0.00000E+00
         0.00000E+00
         0.00000E+00
         0.00000E+00
         0.00000E+00
         0.00000E+00
         0.00000E+00
         0.00000E+00
         0.00000E+00
         0.00000E+00
         0.00000E+00
         0.00000E+00
         0.00000E+00
         0.00000E+00
         0.00000E+00
         0.00000E+00
         0.00000E+00
         0.00000E+00
         0.00000E+00
         0.00000E+00
         0.00000E+00
         0.00000E+00
         0.00000E+00
         0.00000E+00
         0.00000E+00
         0.00000E+00
         0.00000E+00
         0.00000E+00
         0.00000E+00
         0.00000E+00
         0.00000E+00
         0.00000E+00
         0.00000E+00
         0.00000E+00
         0.00000E+00
         0.00000E+00
         0.00000E+00
         0.00000E+00
         0.00000E+00
         0.00000E+00
         0.00000E+00
         0.00000E+00
         0.00000E+00
         0.00000E+00
         0.00000E+00
         0.00000E+00
         0.00000E+00
         0.00000E+00
         0.00000E+00
         0.00000E+00
         0.00000E+00
         0.00000E+00
         0.00000E+00
         0.00000E+00
         0.00000E+00
         0.00000E+00
         0.00000E+00
         0.00000E+00
         0.00000E+00
         0.00000E+00
         0.00000E+00
         0.00000E+00
         0.00000E+00
         0.00000E+00
         0.00000E+00
         0.00000E+00
         0.00000E+00
         0.00000E+00
         0.00000E+00
         0.00000E+00
         0.00000E+00
         0.00000E+00
         0.00000E+00
         0.00000E+00
         0.00000E+00
         0.00000E+00
         0.00000E+00
         0.00000E+00
         0.00000E+00
         0.00000E+00
         0.00000E+00
         0.00000E+00
         0.00000E+00
         0.00000E+00
         0.00000E+00
         0.00000E+00
         0.00000E+00
         0.00000E+00
         0.00000E+00
         0.00000E+00
         0.00000E+00
         0.00000E+00
         0.00000E+00
         0.00000E+00
         0.00000E+00
         0.00000E+00
         0.00000E+00
         0.00000E+00
         0.00000E+00
         0.00000E+00
         0.00000E+00
         0.00000E+00
         0.00000E+00
         0.00000E+00
         0.00000E+00
         0.00000E+00
         0.00000E+00
         0.00000E+00
         0.00000E+00
         0.00000E+00
         0.00000E+00
         0.00000E+00
         0.00000E+00
         0.00000E+00
         0.00000E+00
         0.00000E+00
         0.00000E+00
         0.00000E+00
         0.00000E+00
         0.00000E+00
         0.00000E+00
         0.00000E+00
         0.00000E+00
         0.00000E+00
         0.00000E+00
         0.00000E+00
         0.00000E+00
         0.00000E+00
         0.00000E+00
         0.00000E+00
         0.00000E+00
         0.00000E+00
         0.00000E+00
         0.00000E+00
         0.00000E+00
         0.00000E+00
         0.00000E+00
         0.00000E+00
         0.00000E+00
         0.00000E+00
         0.00000E+00
         0.00000E+00
         0.00000E+00
         0.00000E+00
         0.00000E+00
         0.00000E+00
         0.00000E+00
         0.00000E+00
         0.00000E+00
         0.00000E+00
         0.00000E+00
         0.00000E+00
         0.00000E+00
         0.00000E+00
         0.00000E+00
         0.00000E+00
         0.00000E+00
         0.00000E+00
         0.00000E+00
         0.00000E+00
         0.00000E+00
         0.00000E+00
         0.00000E+00
         0.00000E+00
         0.00000E+00
         0.00000E+00
         0.00000E+00
         0.00000E+00
         0.00000E+00
         0.00000E+00
         0.00000E+00
         0.00000E+00
         0.00000E+00
         0.00000E+00
         0.00000E+00
         0.00000E+00
         0.00000E+00
         0.00000E+00
         0.00000E+00
         0.00000E+00
         0.00000E+00
         0.00000E+00
         0.00000E+00
         0.00000E+00
         0.00000E+00
         0.00000E+00
         0.00000E+00
         0.00000E+00
         0.00000E+00
         0.00000E+00
         0.00000E+00
         0.00000E+00
         0.00000E+00
         0.00000E+00
         0.00000E+00
         0.00000E+00
         0.00000E+00
         0.00000E+00
         0.00000E+00
         0.00000E+00
         0.00000E+00
         0.00000E+00
         0.00000E+00
         0.00000E+00
         0.00000E+00
         0.00000E+00
         0.00000E+00
         0.00000E+00
         0.00000E+00
         0.00000E+00
         0.00000E+00
         0.00000E+00
         0.00000E+00
         0.00000E+00
         0.00000E+00
         0.00000E+00
         0.00000E+00
         0.00000E+00
         0.00000E+00
         0.00000E+00
         0.00000E+00
         0.00000E+00
         0.00000E+00
         0.00000E+00
         0.00000E+00
         0.00000E+00
         0.00000E+00
         0.00000E+00
         0.00000E+00
         0.00000E+00
         0.00000E+00
         0.00000E+00
         0.00000E+00
         0.00000E+00
         0.00000E+00
         0.00000E+00
         0.00000E+00
         0.00000E+00
         0.00000E+00
         0.00000E+00
         0.00000E+00
         0.00000E+00
         0.00000E+00
         0.00000E+00
         0.00000E+00
         0.00000E+00
         0.00000E+00
         0.00000E+00
         0.00000E+00
         0.00000E+00
         0.00000E+00
         0.00000E+00
         0.00000E+00
         0.00000E+00
         0.00000E+00
         0.00000E+00
         0.00000E+00
         0.00000E+00
         0.00000E+00
         0.00000E+00
         0.00000E+00
         0.00000E+00
         0.00000E+00
         0.00000E+00
         0.00000E+00
         0.00000E+00
         0.00000E+00
         0.00000E+00
         0.00000E+00
         0.00000E+00
         0.00000E+00
         0.00000E+00
         0.00000E+00
         0.00000E+00
         0.00000E+00
         0.00000E+00
         0.00000E+00
         0.00000E+00
         0.00000E+00
         0.00000E+00
         0.00000E+00
         0.00000E+00
         0.00000E+00
         0.00000E+00
         0.00000E+00
         0.00000E+00
         0.00000E+00
         0.00000E+00
         0.00000E+00
         0.00000E+00
         0.00000E+00
         0.00000E+00
         0.00000E+00
         0.00000E+00
         0.00000E+00
         0.00000E+00
         0.00000E+00
         0.00000E+00
         0.00000E+00
         0.00000E+00
         0.00000E+00
         0.00000E+00
         0.00000E+00
         0.00000E+00
         0.00000E+00
         0.00000E+00
         0.00000E+00
         0.00000E+00
         0.00000E+00
         0.00000E+00
         0.00000E+00
         0.00000E+00
         0.00000E+00
         0.00000E+00
         0.00000E+00
         0.00000E+00
         0.00000E+00
         0.00000E+00
         0.00000E+00
         0.00000E+00
         0.00000E+00
         0.00000E+00
         0.00000E+00
         0.00000E+00
         0.00000E+00
         0.00000E+00
         0.00000E+00
         0.00000E+00
         0.00000E+00
         0.00000E+00
         0.00000E+00
         0.00000E+00
         0.00000E+00
         0.00000E+00
         0.00000E+00
         0.00000E+00
         0.00000E+00
         0.00000E+00
         0.00000E+00
         0.00000E+00
         0.00000E+00
         0.00000E+00
         0.00000E+00
         0.00000E+00
         0.00000E+00
         0.00000E+00
         0.00000E+00
         0.00000E+00
         0.00000E+00
         0.00000E+00
         0.00000E+00
         0.00000E+00
         0.00000E+00
         0.00000E+00
         0.00000E+00
         0.00000E+00
         0.00000E+00
         0.00000E+00
         0.00000E+00
         0.00000E+00
         0.00000E+00
         0.00000E+00
         0.00000E+00
         0.00000E+00
         0.00000E+00
         0.00000E+00
         0.00000E+00
         0.00000E+00
         0.00000E+00
         0.00000E+00
         0.00000E+00
         0.00000E+00
         0.00000E+00
         0.00000E+00
         0.00000E+00
         0.00000E+00
         0.00000E+00
         0.00000E+00
         0.00000E+00
         0.00000E+00
         0.00000E+00
         0.00000E+00
         0.00000E+00
         0.00000E+00
         0.00000E+00
         0.00000E+00
         0.00000E+00
         0.00000E+00
         0.00000E+00
         0.00000E+00
         0.00000E+00
         0.00000E+00
         0.00000E+00
         0.00000E+00
         0.00000E+00
         0.00000E+00
         0.00000E+00
         0.00000E+00
         0.00000E+00
         0.00000E+00
         0.00000E+00
         0.00000E+00
         0.00000E+00
         0.00000E+00
         0.00000E+00
         0.00000E+00
         0.00000E+00
         0.00000E+00
         0.00000E+00
         0.00000E+00
         0.00000E+00
         0.00000E+00
         0.00000E+00
         0.00000E+00
         0.00000E+00
         0.00000E+00
         0.00000E+00
         0.00000E+00
         0.00000E+00
         0.00000E+00
         0.00000E+00
         0.00000E+00
         0.00000E+00
         0.00000E+00
         0.00000E+00
         0.00000E+00
         0.00000E+00
         0.00000E+00
         0.00000E+00
         0.00000E+00
         0.00000E+00
         0.00000E+00
         0.00000E+00
         0.00000E+00
         0.00000E+00
         0.00000E+00
         0.00000E+00
         0.00000E+00
         0.00000E+00
         0.00000E+00
         0.00000E+00
         0.00000E+00
         0.00000E+00
         0.00000E+00
         0.00000E+00
         0.00000E+00
         0.00000E+00
         0.00000E+00
         0.00000E+00
         0.00000E+00
         0.00000E+00
         0.00000E+00
         0.00000E+00
         0.00000E+00
         0.00000E+00
         0.00000E+00
         0.00000E+00
         0.00000E+00
         0.00000E+00
         0.00000E+00
         0.00000E+00
         0.00000E+00
         0.00000E+00
         0.00000E+00
         0.00000E+00
         0.00000E+00
         0.00000E+00
         0.00000E+00
         0.00000E+00
         0.00000E+00
         0.00000E+00
         0.00000E+00
         0.00000E+00
         0.00000E+00
         0.00000E+00
         0.00000E+00
         0.00000E+00
         0.00000E+00
         0.00000E+00
         0.00000E+00
         0.00000E+00
         0.00000E+00
         0.00000E+00
         0.00000E+00
         0.00000E+00
         0.00000E+00
         0.00000E+00
         0.00000E+00
         0.00000E+00
         0.00000E+00
         0.00000E+00
         0.00000E+00
         0.00000E+00
         0.00000E+00
         0.00000E+00
         0.00000E+00
         0.00000E+00
         0.00000E+00
         0.00000E+00
         0.00000E+00
         0.00000E+00
         0.00000E+00
         0.00000E+00
         0.00000E+00
         0.00000E+00
         0.00000E+00
         0.00000E+00
         0.00000E+00
         0.00000E+00
         0.00000E+00
         0.00000E+00
         0.00000E+00
         0.00000E+00
         0.00000E+00
         0.00000E+00
         0.00000E+00
         0.00000E+00
         0.00000E+00
         0.00000E+00
         0.00000E+00
         0.00000E+00
         0.00000E+00
         0.00000E+00
         0.00000E+00
         0.00000E+00
         0.00000E+00
         0.00000E+00
         0.00000E+00
         0.00000E+00
         0.00000E+00
         0.00000E+00
         0.00000E+00
         0.00000E+00
         0.00000E+00
         0.00000E+00
         0.00000E+00
         0.00000E+00
         0.00000E+00
         0.00000E+00
         0.00000E+00
         0.00000E+00
         0.00000E+00
         0.00000E+00
         0.00000E+00
         0.00000E+00
         0.00000E+00
         0.00000E+00
         0.00000E+00
         0.00000E+00
         0.00000E+00
         0.00000E+00
         0.00000E+00
         0.00000E+00
         0.00000E+00
         0.00000E+00
         0.00000E+00
         0.00000E+00
         0.00000E+00
         0.00000E+00
         0.00000E+00
         0.00000E+00
         0.00000E+00
         0.00000E+00
         0.00000E+00
         0.00000E+00
         0.00000E+00
         0.00000E+00
         0.00000E+00
         0.00000E+00
         0.00000E+00
         0.00000E+00
         0.00000E+00
         0.00000E+00
         0.00000E+00
         0.00000E+00
         0.00000E+00
         0.00000E+00
         0.00000E+00
         0.00000E+00
         0.00000E+00
         0.00000E+00
         0.00000E+00
         0.00000E+00
         0.00000E+00
         0.00000E+00
         0.00000E+00
         0.00000E+00
         0.00000E+00
         0.00000E+00
         0.00000E+00
         0.00000E+00
         0.00000E+00
         0.00000E+00
         0.00000E+00
         0.00000E+00
         0.00000E+00
         0.00000E+00
         0.00000E+00
         0.00000E+00
         0.00000E+00
         0.00000E+00
         0.00000E+00
         0.00000E+00
         0.00000E+00
         0.00000E+00
         0.00000E+00
         0.00000E+00
         0.00000E+00
         0.00000E+00
         0.00000E+00
         0.00000E+00
         0.00000E+00
         0.00000E+00
         0.00000E+00
         0.00000E+00
         0.00000E+00
         0.00000E+00
         0.00000E+00
         0.00000E+00
         0.00000E+00
         0.00000E+00
         0.00000E+00
         0.00000E+00
         0.00000E+00
         0.00000E+00
         0.00000E+00
         0.00000E+00
         0.00000E+00
         0.00000E+00
         0.00000E+00
         0.00000E+00
         0.00000E+00
         0.00000E+00
         0.00000E+00
         0.00000E+00
         0.00000E+00
         0.00000E+00
         0.00000E+00
         0.00000E+00
         0.00000E+00
         0.00000E+00
         0.00000E+00
         0.00000E+00
         0.00000E+00
         0.00000E+00
         0.00000E+00
         0.00000E+00
         0.00000E+00
         0.00000E+00
         0.00000E+00
         0.00000E+00
         0.00000E+00
         0.00000E+00
         0.00000E+00
         0.00000E+00
         0.00000E+00
         0.00000E+00
         0.00000E+00
         0.00000E+00
         0.00000E+00
         0.00000E+00
         0.00000E+00
         0.00000E+00
         0.00000E+00
         0.00000E+00
         0.00000E+00
         0.00000E+00
         0.00000E+00
         0.00000E+00
         0.00000E+00
         0.00000E+00
         0.00000E+00
         0.00000E+00
         0.00000E+00
         0.00000E+00
         0.00000E+00
         0.00000E+00
         0.00000E+00
         0.00000E+00
         0.00000E+00
         0.00000E+00
         0.00000E+00
         0.00000E+00
         0.00000E+00
         0.00000E+00
         0.00000E+00
         0.00000E+00
         0.00000E+00
         0.00000E+00
         0.00000E+00
         0.00000E+00
         0.00000E+00
         0.00000E+00
         0.00000E+00
         0.00000E+00
         0.00000E+00
         0.00000E+00
         0.00000E+00
         0.00000E+00
         0.00000E+00
         0.00000E+00
         0.00000E+00
         0.00000E+00
         0.00000E+00
         0.00000E+00
         0.00000E+00
         0.00000E+00
         0.00000E+00
         0.00000E+00
         0.00000E+00
         0.00000E+00
         0.00000E+00
         0.00000E+00
         0.00000E+00
         0.00000E+00
         0.00000E+00
         0.00000E+00
         0.00000E+00
         0.00000E+00
         0.00000E+00
         0.00000E+00
         0.00000E+00
         0.00000E+00
         0.00000E+00
         0.00000E+00
         0.00000E+00
         0.00000E+00
         0.00000E+00
         0.00000E+00
         0.00000E+00
         0.00000E+00
         0.00000E+00
         0.00000E+00
         0.00000E+00
         0.00000E+00
         0.00000E+00
         0.00000E+00
         0.00000E+00
         0.00000E+00
         0.00000E+00
         0.00000E+00
         0.00000E+00
         0.00000E+00
         0.00000E+00
         0.00000E+00
         0.00000E+00
         0.00000E+00
         0.00000E+00
         0.00000E+00
         0.00000E+00
         0.00000E+00
         0.00000E+00
         0.00000E+00
         0.00000E+00
         0.00000E+00
         0.00000E+00
         0.00000E+00
         0.00000E+00
         0.00000E+00
         0.00000E+00
         0.00000E+00
         0.00000E+00
         0.00000E+00
         0.00000E+00
         0.00000E+00
         0.00000E+00
         0.00000E+00
         0.00000E+00
         0.00000E+00
         0.00000E+00
         0.00000E+00
         0.00000E+00
         0.00000E+00
         0.00000E+00
         0.00000E+00
         0.00000E+00
         0.00000E+00
         0.00000E+00
         0.00000E+00
         0.00000E+00
         0.00000E+00
         0.00000E+00
         0.00000E+00
         0.00000E+00
         0.00000E+00
         0.00000E+00
         0.00000E+00
         0.00000E+00
         0.00000E+00
         0.00000E+00
         0.00000E+00
         0.00000E+00
         0.00000E+00
         0.00000E+00
         0.00000E+00
         0.00000E+00
         0.00000E+00
         0.00000E+00
         0.00000E+00
         0.00000E+00
         0.00000E+00
         0.00000E+00
         0.00000E+00
         0.00000E+00
         0.00000E+00
         0.00000E+00
         0.00000E+00
         0.00000E+00
         0.00000E+00
         0.00000E+00
         0.00000E+00
         0.00000E+00
         0.00000E+00
         0.00000E+00
         0.00000E+00
         0.00000E+00
         0.00000E+00
         0.00000E+00
         0.00000E+00
         0.00000E+00
         0.00000E+00
         0.00000E+00
         0.00000E+00
         0.00000E+00
         0.00000E+00
         0.00000E+00
         0.00000E+00
         0.00000E+00
         0.00000E+00
         0.00000E+00
         0.00000E+00
         0.00000E+00
         0.00000E+00
         0.00000E+00
         0.00000E+00
         0.00000E+00
         0.00000E+00
         0.00000E+00
         0.00000E+00
         0.00000E+00
         0.00000E+00
         0.00000E+00
         0.00000E+00
         0.00000E+00
         0.00000E+00
         0.00000E+00
         0.00000E+00
         0.00000E+00
         0.00000E+00
         0.00000E+00
         0.00000E+00
         0.00000E+00
         0.00000E+00
         0.00000E+00
         0.00000E+00
         0.00000E+00
         0.00000E+00
         0.00000E+00
         0.00000E+00
         0.00000E+00
         0.00000E+00
         0.00000E+00
         0.00000E+00
         0.00000E+00
         0.00000E+00
         0.00000E+00
         0.00000E+00
         0.00000E+00
         0.00000E+00
         0.00000E+00
         0.00000E+00
         0.00000E+00
         0.00000E+00
         0.00000E+00
         0.00000E+00
         0.00000E+00
         0.00000E+00
         0.00000E+00
         0.00000E+00
         0.00000E+00
         0.00000E+00
         0.00000E+00
         0.00000E+00
         0.00000E+00
         0.00000E+00
         0.00000E+00
         0.00000E+00
         0.00000E+00
         0.00000E+00
         0.00000E+00
         0.00000E+00
         0.00000E+00
         0.00000E+00
         0.00000E+00
         0.00000E+00
         0.00000E+00
         0.00000E+00
         0.00000E+00
         0.00000E+00
         0.00000E+00
         0.00000E+00
         0.00000E+00
         0.00000E+00
         0.00000E+00
         0.00000E+00
         0.00000E+00
         0.00000E+00
         0.00000E+00
         0.00000E+00
         0.00000E+00
         0.00000E+00
         0.00000E+00
         0.00000E+00
         0.00000E+00
         0.00000E+00
         0.00000E+00
         0.00000E+00
         0.00000E+00
         0.00000E+00
         0.00000E+00
         0.00000E+00
         0.00000E+00
         0.00000E+00
         0.00000E+00
         0.00000E+00
         0.00000E+00
         0.00000E+00
         0.00000E+00
         0.00000E+00
         0.00000E+00
         0.00000E+00
         0.00000E+00
         0.00000E+00
         0.00000E+00
         0.00000E+00
         0.00000E+00
         0.00000E+00
         0.00000E+00
         0.00000E+00
         0.00000E+00
         0.00000E+00
         0.00000E+00
         0.00000E+00
         0.00000E+00
         0.00000E+00
         0.00000E+00
         0.00000E+00
         0.00000E+00
         0.00000E+00
         0.00000E+00
         0.00000E+00
         0.00000E+00
         0.00000E+00
         0.00000E+00
         0.00000E+00
         0.00000E+00
         0.00000E+00
         0.00000E+00
         0.00000E+00
         0.00000E+00
         0.00000E+00
         0.00000E+00
         0.00000E+00
         0.00000E+00
         0.00000E+00
         0.00000E+00
         0.00000E+00
         0.00000E+00
         0.00000E+00
         0.00000E+00
         0.00000E+00
         0.00000E+00
         0.00000E+00
         0.00000E+00
         0.00000E+00
         0.00000E+00
         0.00000E+00
         0.00000E+00
         0.00000E+00
         0.00000E+00
         0.00000E+00
         0.00000E+00
         0.00000E+00
         0.00000E+00
         0.00000E+00
         0.00000E+00
         0.00000E+00
         0.00000E+00
         0.00000E+00
         0.00000E+00
         0.00000E+00
         0.00000E+00
         0.00000E+00
         0.00000E+00
         0.00000E+00
         0.00000E+00
         0.00000E+00
         0.00000E+00
         0.00000E+00
         0.00000E+00
         0.00000E+00
         0.00000E+00
         0.00000E+00
         0.00000E+00
         0.00000E+00
         0.00000E+00
         0.00000E+00
         0.00000E+00
         0.00000E+00
         0.00000E+00
         0.00000E+00
         0.00000E+00
         0.00000E+00
         0.00000E+00
         0.00000E+00
         0.00000E+00
         0.00000E+00
         0.00000E+00
         0.00000E+00
         0.00000E+00
         0.00000E+00
         0.00000E+00
         0.00000E+00
         0.00000E+00
         0.00000E+00
         0.00000E+00
         0.00000E+00
         0.00000E+00
         0.00000E+00
         0.00000E+00
         0.00000E+00
         0.00000E+00
         0.00000E+00
         0.00000E+00
         0.00000E+00
         0.00000E+00
         0.00000E+00
         0.00000E+00
         0.00000E+00
         0.00000E+00
         0.00000E+00
         0.00000E+00
         0.00000E+00
         0.00000E+00
         0.00000E+00
         0.00000E+00
         0.00000E+00
         0.00000E+00
         0.00000E+00
         0.00000E+00
         0.00000E+00
         0.00000E+00
         0.00000E+00
         0.00000E+00
         0.00000E+00
         0.00000E+00
         0.00000E+00
         0.00000E+00
         0.00000E+00
         0.00000E+00
         0.00000E+00
         0.00000E+00
         0.00000E+00
         0.00000E+00
         0.00000E+00
         0.00000E+00
         0.00000E+00
         0.00000E+00
         0.00000E+00
         0.00000E+00
         0.00000E+00
         0.00000E+00
         0.00000E+00
         0.00000E+00
         0.00000E+00
         0.00000E+00
         0.00000E+00
         0.00000E+00
         0.00000E+00
         0.00000E+00
         0.00000E+00
         0.00000E+00
         0.00000E+00
         0.00000E+00
         0.00000E+00
         0.00000E+00
         0.00000E+00
         0.00000E+00
         0.00000E+00
         0.00000E+00
         0.00000E+00
         0.00000E+00
         0.00000E+00
         0.00000E+00
         0.00000E+00
         0.00000E+00
         0.00000E+00
         0.00000E+00
         0.00000E+00
         0.00000E+00
         0.00000E+00
         0.00000E+00
         0.00000E+00
         0.00000E+00
         0.00000E+00
         0.00000E+00
         0.00000E+00
         0.00000E+00
         0.00000E+00
         0.00000E+00
         0.00000E+00
         0.00000E+00
         0.00000E+00
         0.00000E+00
         0.00000E+00
         0.00000E+00
         0.00000E+00
         0.00000E+00
         0.00000E+00
         0.00000E+00
         0.00000E+00
         0.00000E+00
         0.00000E+00
         0.00000E+00
         0.00000E+00
         0.00000E+00
         0.00000E+00
         0.00000E+00
         0.00000E+00
         0.00000E+00
         0.00000E+00
         0.00000E+00
         0.00000E+00
         0.00000E+00
         0.00000E+00
         0.00000E+00
         0.00000E+00
         0.00000E+00
         0.00000E+00
         0.00000E+00
         0.00000E+00
         0.00000E+00
         0.00000E+00
         0.00000E+00
         0.00000E+00
         0.00000E+00
         0.00000E+00
         0.00000E+00
         0.00000E+00
         0.00000E+00
         0.00000E+00
         0.00000E+00
         0.00000E+00
         0.00000E+00
         0.00000E+00
         0.00000E+00
         0.00000E+00
         0.00000E+00
         0.00000E+00
         0.00000E+00
         0.00000E+00
         0.00000E+00
         0.00000E+00
         0.00000E+00
         0.00000E+00
         0.00000E+00
         0.00000E+00
         0.00000E+00
         0.00000E+00
         0.00000E+00
         0.00000E+00
         0.00000E+00
         0.00000E+00
         0.00000E+00
         0.00000E+00
         0.00000E+00
         0.00000E+00
         0.00000E+00
         0.00000E+00
         0.00000E+00
         0.00000E+00
         0.00000E+00
         0.00000E+00
         0.00000E+00
         0.00000E+00
         0.00000E+00
         0.00000E+00
         0.00000E+00
         0.00000E+00
         0.00000E+00
         0.00000E+00
         0.00000E+00
         0.00000E+00
         0.00000E+00
         0.00000E+00
         0.00000E+00
         0.00000E+00
         0.00000E+00
         0.00000E+00
         0.00000E+00
         0.00000E+00
         0.00000E+00
         0.00000E+00
         0.00000E+00
         0.00000E+00
         0.00000E+00
         0.00000E+00
         0.00000E+00
         0.00000E+00
         0.00000E+00
         0.00000E+00
         0.00000E+00
         0.00000E+00
         0.00000E+00
         0.00000E+00
         0.00000E+00
         0.00000E+00
         0.00000E+00
         0.00000E+00
         0.00000E+00
         0.00000E+00
         0.00000E+00
         0.00000E+00
         0.00000E+00
         0.00000E+00
         0.00000E+00
         0.00000E+00
         0.00000E+00
         0.00000E+00
         0.00000E+00
         0.00000E+00
         0.00000E+00
         0.00000E+00
         0.00000E+00
         0.00000E+00
         0.00000E+00
         0.00000E+00
         0.00000E+00
         0.00000E+00
         0.00000E+00
         0.00000E+00
         0.00000E+00
         0.00000E+00
         0.00000E+00
         0.00000E+00
         0.00000E+00
         0.00000E+00
         0.00000E+00
         0.00000E+00
         0.00000E+00
         0.00000E+00
         0.00000E+00
         0.00000E+00
         0.00000E+00
         0.00000E+00
         0.00000E+00
         0.00000E+00
         0.00000E+00
         0.00000E+00
         0.00000E+00
         0.00000E+00
         0.00000E+00
         0.00000E+00
         0.00000E+00
         0.00000E+00
         0.00000E+00
         0.00000E+00
         0.00000E+00
         0.00000E+00
         0.00000E+00
         0.00000E+00
         0.00000E+00
         0.00000E+00
         0.00000E+00
         0.00000E+00
         0.00000E+00
         0.00000E+00
         0.00000E+00
         0.00000E+00
         0.00000E+00
         0.00000E+00
         0.00000E+00
         0.00000E+00
         0.00000E+00
         0.00000E+00
         0.00000E+00
         0.00000E+00
         0.00000E+00
         0.00000E+00
         0.00000E+00
         0.00000E+00
         0.00000E+00
         0.00000E+00
         0.00000E+00
         0.00000E+00
         0.00000E+00
         0.00000E+00
         0.00000E+00
         0.00000E+00
         0.00000E+00
         0.00000E+00
         0.00000E+00
         0.00000E+00
         0.00000E+00
         0.00000E+00
         0.00000E+00
         0.00000E+00
         0.00000E+00
         0.00000E+00
         0.00000E+00
         0.00000E+00
         0.00000E+00
         0.00000E+00
         0.00000E+00
         0.00000E+00
         0.00000E+00
         0.00000E+00
         0.00000E+00
         0.00000E+00
         0.00000E+00
         0.00000E+00
         0.00000E+00
         0.00000E+00
         0.00000E+00
         0.00000E+00
         0.00000E+00
         0.00000E+00
         0.00000E+00
         0.00000E+00
         0.00000E+00
         0.00000E+00
         0.00000E+00
         0.00000E+00
         0.00000E+00
         0.00000E+00
         0.00000E+00
         0.00000E+00
         0.00000E+00
         0.00000E+00
         0.00000E+00
         0.00000E+00
         0.00000E+00
         0.00000E+00
         0.00000E+00
         0.00000E+00
         0.00000E+00
         0.00000E+00
         0.00000E+00
         0.00000E+00
         0.00000E+00
         0.00000E+00
         0.00000E+00
         0.00000E+00
         0.00000E+00
         0.00000E+00
         0.00000E+00
         0.00000E+00
         0.00000E+00
         0.00000E+00
         0.00000E+00
         0.00000E+00
         0.00000E+00
         0.00000E+00
         0.00000E+00
         0.00000E+00
         0.00000E+00
         0.00000E+00
         0.00000E+00
         0.00000E+00
         0.00000E+00
         0.00000E+00
         0.00000E+00
         0.00000E+00
         0.00000E+00
         0.00000E+00
         0.00000E+00
         0.00000E+00
         0.00000E+00
         0.00000E+00
         0.00000E+00
         0.00000E+00
         0.00000E+00
         0.00000E+00
         0.00000E+00
         0.00000E+00
         0.00000E+00
         0.00000E+00
         0.00000E+00
         0.00000E+00
         0.00000E+00
         0.00000E+00
         0.00000E+00
         0.00000E+00
         0.00000E+00
         0.00000E+00
         0.00000E+00
         0.00000E+00
         0.00000E+00
         0.00000E+00
         0.00000E+00
         0.00000E+00
         0.00000E+00
         0.00000E+00
         0.00000E+00
         0.00000E+00
         0.00000E+00
         0.00000E+00
         0.00000E+00
         0.00000E+00
         0.00000E+00
         0.00000E+00
         0.00000E+00
         0.00000E+00
         0.00000E+00
         0.00000E+00
         0.00000E+00
         0.00000E+00
         0.00000E+00
         0.00000E+00
         0.00000E+00
         0.00000E+00
         0.00000E+00
         0.00000E+00
         0.00000E+00
         0.00000E+00
         0.00000E+00
         0.00000E+00
         0.00000E+00
         0.00000E+00
         0.00000E+00
         0.00000E+00
         0.00000E+00
         0.00000E+00
         0.00000E+00
         0.00000E+00
         0.00000E+00
         0.00000E+00
         0.00000E+00
         0.00000E+00
         0.00000E+00
         0.00000E+00
         0.00000E+00
         0.00000E+00
         0.00000E+00
         0.00000E+00
         0.00000E+00
         0.00000E+00
         0.00000E+00
         0.00000E+00
         0.00000E+00
         0.00000E+00
         0.00000E+00
         0.00000E+00
         0.00000E+00
         0.00000E+00
         0.00000E+00
         0.00000E+00
         0.00000E+00
         0.00000E+00
         0.00000E+00
         0.00000E+00
         0.00000E+00
         0.00000E+00
         0.00000E+00
         0.00000E+00
         0.00000E+00
         0.00000E+00
         0.00000E+00
         0.00000E+00
         0.00000E+00
         0.00000E+00
         0.00000E+00
         0.00000E+00
         0.00000E+00
         0.00000E+00
         0.00000E+00
         0.00000E+00
         0.00000E+00
         0.00000E+00
         0.00000E+00
         0.00000E+00
         0.00000E+00
         0.00000E+00
         0.00000E+00
         0.00000E+00
         0.00000E+00
         0.00000E+00
         0.00000E+00
         0.00000E+00
         0.00000E+00
         0.00000E+00
         0.00000E+00
         0.00000E+00
         0.00000E+00
         0.00000E+00
         0.00000E+00
         0.00000E+00
         0.00000E+00
         0.00000E+00
         0.00000E+00
         0.00000E+00
         0.00000E+00
         0.00000E+00
         0.00000E+00
         0.00000E+00
         0.00000E+00
         0.00000E+00
         0.00000E+00
         0.00000E+00
         0.00000E+00
         0.00000E+00
         0.00000E+00
         0.00000E+00
         0.00000E+00
         0.00000E+00
         0.00000E+00
         0.00000E+00
         0.00000E+00
         0.00000E+00
         0.00000E+00
         0.00000E+00
         0.00000E+00
         0.00000E+00
         0.00000E+00
         0.00000E+00
         0.00000E+00
         0.00000E+00
         0.00000E+00
         0.00000E+00
         0.00000E+00
         0.00000E+00
         0.00000E+00
         0.00000E+00
         0.00000E+00
         0.00000E+00
         0.00000E+00
         0.00000E+00
         0.00000E+00
         0.00000E+00
         0.00000E+00
         0.00000E+00
         0.00000E+00
         0.00000E+00
         0.00000E+00
         0.00000E+00
         0.00000E+00
         0.00000E+00
         0.00000E+00
         0.00000E+00
         0.00000E+00
         0.00000E+00
         0.00000E+00
         0.00000E+00
         0.00000E+00
         0.00000E+00
         0.00000E+00
         0.00000E+00
         0.00000E+00
         0.00000E+00
         0.00000E+00
         0.00000E+00
         0.00000E+00
         0.00000E+00
         0.00000E+00
         0.00000E+00
         0.00000E+00
         0.00000E+00
         0.00000E+00
         0.00000E+00
         0.00000E+00
         0.00000E+00
         0.00000E+00
         0.00000E+00
         0.00000E+00
         0.00000E+00
         0.00000E+00
         0.00000E+00
         0.00000E+00
         0.00000E+00
         0.00000E+00
         0.00000E+00
         0.00000E+00
         0.00000E+00
         0.00000E+00
         0.00000E+00
         0.00000E+00
         0.00000E+00
         0.00000E+00
         0.00000E+00
         0.00000E+00
         0.00000E+00
         0.00000E+00
         0.00000E+00
         0.00000E+00
         0.00000E+00
         0.00000E+00
         0.00000E+00
         0.00000E+00
         0.00000E+00
         0.00000E+00
         0.00000E+00
         0.00000E+00
         0.00000E+00
         0.00000E+00
         0.00000E+00
         0.00000E+00
         0.00000E+00
         0.00000E+00
         0.00000E+00
         0.00000E+00
         0.00000E+00
         0.00000E+00
         0.00000E+00
         0.00000E+00
         0.00000E+00
  
SCALARS                        eps_vol  double 1
LOOKUP_TABLE default
         0.00000E+00
         0.00000E+00
         0.00000E+00
         0.00000E+00
         0.00000E+00
         0.00000E+00
         0.00000E+00
         0.00000E+00
         0.00000E+00
         0.00000E+00
         0.00000E+00
         0.00000E+00
         0.00000E+00
         0.00000E+00
         0.00000E+00
         0.00000E+00
         0.00000E+00
         0.00000E+00
         0.00000E+00
         0.00000E+00
         0.00000E+00
         0.00000E+00
         0.00000E+00
         0.00000E+00
         0.00000E+00
         0.00000E+00
         0.00000E+00
         0.00000E+00
         0.00000E+00
         0.00000E+00
         0.00000E+00
         0.00000E+00
         0.00000E+00
         0.00000E+00
         0.00000E+00
         0.00000E+00
         0.00000E+00
         0.00000E+00
         0.00000E+00
         0.00000E+00
         0.00000E+00
         0.00000E+00
         0.00000E+00
         0.00000E+00
         0.00000E+00
         0.00000E+00
         0.00000E+00
         0.00000E+00
         0.00000E+00
         0.00000E+00
         0.00000E+00
         0.00000E+00
         0.00000E+00
         0.00000E+00
         0.00000E+00
         0.00000E+00
         0.00000E+00
         0.00000E+00
         0.00000E+00
         0.00000E+00
         0.00000E+00
         0.00000E+00
         0.00000E+00
         0.00000E+00
         0.00000E+00
         0.00000E+00
         0.00000E+00
         0.00000E+00
         0.00000E+00
         0.00000E+00
         0.00000E+00
         0.00000E+00
         0.00000E+00
         0.00000E+00
         0.00000E+00
         0.00000E+00
         0.00000E+00
         0.00000E+00
         0.00000E+00
         0.00000E+00
         0.00000E+00
         0.00000E+00
         0.00000E+00
         0.00000E+00
         0.00000E+00
         0.00000E+00
         0.00000E+00
         0.00000E+00
         0.00000E+00
         0.00000E+00
         0.00000E+00
         0.00000E+00
         0.00000E+00
         0.00000E+00
         0.00000E+00
         0.00000E+00
         0.00000E+00
         0.00000E+00
         0.00000E+00
         0.00000E+00
         0.00000E+00
         0.00000E+00
         0.00000E+00
         0.00000E+00
         0.00000E+00
         0.00000E+00
         0.00000E+00
         0.00000E+00
         0.00000E+00
         0.00000E+00
         0.00000E+00
         0.00000E+00
         0.00000E+00
         0.00000E+00
         0.00000E+00
         0.00000E+00
         0.00000E+00
         0.00000E+00
         0.00000E+00
         0.00000E+00
         0.00000E+00
         0.00000E+00
         0.00000E+00
         0.00000E+00
         0.00000E+00
         0.00000E+00
         0.00000E+00
         0.00000E+00
         0.00000E+00
         0.00000E+00
         0.00000E+00
         0.00000E+00
         0.00000E+00
         0.00000E+00
         0.00000E+00
         0.00000E+00
         0.00000E+00
         0.00000E+00
         0.00000E+00
         0.00000E+00
         0.00000E+00
         0.00000E+00
         0.00000E+00
         0.00000E+00
         0.00000E+00
         0.00000E+00
         0.00000E+00
         0.00000E+00
         0.00000E+00
         0.00000E+00
         0.00000E+00
         0.00000E+00
         0.00000E+00
         0.00000E+00
         0.00000E+00
         0.00000E+00
         0.00000E+00
         0.00000E+00
         0.00000E+00
         0.00000E+00
         0.00000E+00
         0.00000E+00
         0.00000E+00
         0.00000E+00
         0.00000E+00
         0.00000E+00
         0.00000E+00
         0.00000E+00
         0.00000E+00
         0.00000E+00
         0.00000E+00
         0.00000E+00
         0.00000E+00
         0.00000E+00
         0.00000E+00
         0.00000E+00
         0.00000E+00
         0.00000E+00
         0.00000E+00
         0.00000E+00
         0.00000E+00
         0.00000E+00
         0.00000E+00
         0.00000E+00
         0.00000E+00
         0.00000E+00
         0.00000E+00
         0.00000E+00
         0.00000E+00
         0.00000E+00
         0.00000E+00
         0.00000E+00
         0.00000E+00
         0.00000E+00
         0.00000E+00
         0.00000E+00
         0.00000E+00
         0.00000E+00
         0.00000E+00
         0.00000E+00
         0.00000E+00
         0.00000E+00
         0.00000E+00
         0.00000E+00
         0.00000E+00
         0.00000E+00
         0.00000E+00
         0.00000E+00
         0.00000E+00
         0.00000E+00
         0.00000E+00
         0.00000E+00
         0.00000E+00
         0.00000E+00
         0.00000E+00
         0.00000E+00
         0.00000E+00
         0.00000E+00
         0.00000E+00
         0.00000E+00
         0.00000E+00
         0.00000E+00
         0.00000E+00
         0.00000E+00
         0.00000E+00
         0.00000E+00
         0.00000E+00
         0.00000E+00
         0.00000E+00
         0.00000E+00
         0.00000E+00
         0.00000E+00
         0.00000E+00
         0.00000E+00
         0.00000E+00
         0.00000E+00
         0.00000E+00
         0.00000E+00
         0.00000E+00
         0.00000E+00
         0.00000E+00
         0.00000E+00
         0.00000E+00
         0.00000E+00
         0.00000E+00
         0.00000E+00
         0.00000E+00
         0.00000E+00
         0.00000E+00
         0.00000E+00
         0.00000E+00
         0.00000E+00
         0.00000E+00
         0.00000E+00
         0.00000E+00
         0.00000E+00
         0.00000E+00
         0.00000E+00
         0.00000E+00
         0.00000E+00
         0.00000E+00
         0.00000E+00
         0.00000E+00
         0.00000E+00
         0.00000E+00
         0.00000E+00
         0.00000E+00
         0.00000E+00
         0.00000E+00
         0.00000E+00
         0.00000E+00
         0.00000E+00
         0.00000E+00
         0.00000E+00
         0.00000E+00
         0.00000E+00
         0.00000E+00
         0.00000E+00
         0.00000E+00
         0.00000E+00
         0.00000E+00
         0.00000E+00
         0.00000E+00
         0.00000E+00
         0.00000E+00
         0.00000E+00
         0.00000E+00
         0.00000E+00
         0.00000E+00
         0.00000E+00
         0.00000E+00
         0.00000E+00
         0.00000E+00
         0.00000E+00
         0.00000E+00
         0.00000E+00
         0.00000E+00
         0.00000E+00
         0.00000E+00
         0.00000E+00
         0.00000E+00
         0.00000E+00
         0.00000E+00
         0.00000E+00
         0.00000E+00
         0.00000E+00
         0.00000E+00
         0.00000E+00
         0.00000E+00
         0.00000E+00
         0.00000E+00
         0.00000E+00
         0.00000E+00
         0.00000E+00
         0.00000E+00
         0.00000E+00
         0.00000E+00
         0.00000E+00
         0.00000E+00
         0.00000E+00
         0.00000E+00
         0.00000E+00
         0.00000E+00
         0.00000E+00
         0.00000E+00
         0.00000E+00
         0.00000E+00
         0.00000E+00
         0.00000E+00
         0.00000E+00
         0.00000E+00
         0.00000E+00
         0.00000E+00
         0.00000E+00
         0.00000E+00
         0.00000E+00
         0.00000E+00
         0.00000E+00
         0.00000E+00
         0.00000E+00
         0.00000E+00
         0.00000E+00
         0.00000E+00
         0.00000E+00
         0.00000E+00
         0.00000E+00
         0.00000E+00
         0.00000E+00
         0.00000E+00
         0.00000E+00
         0.00000E+00
         0.00000E+00
         0.00000E+00
         0.00000E+00
         0.00000E+00
         0.00000E+00
         0.00000E+00
         0.00000E+00
         0.00000E+00
         0.00000E+00
         0.00000E+00
         0.00000E+00
         0.00000E+00
         0.00000E+00
         0.00000E+00
         0.00000E+00
         0.00000E+00
         0.00000E+00
         0.00000E+00
         0.00000E+00
         0.00000E+00
         0.00000E+00
         0.00000E+00
         0.00000E+00
         0.00000E+00
         0.00000E+00
         0.00000E+00
         0.00000E+00
         0.00000E+00
         0.00000E+00
         0.00000E+00
         0.00000E+00
         0.00000E+00
         0.00000E+00
         0.00000E+00
         0.00000E+00
         0.00000E+00
         0.00000E+00
         0.00000E+00
         0.00000E+00
         0.00000E+00
         0.00000E+00
         0.00000E+00
         0.00000E+00
         0.00000E+00
         0.00000E+00
         0.00000E+00
         0.00000E+00
         0.00000E+00
         0.00000E+00
         0.00000E+00
         0.00000E+00
         0.00000E+00
         0.00000E+00
         0.00000E+00
         0.00000E+00
         0.00000E+00
         0.00000E+00
         0.00000E+00
         0.00000E+00
         0.00000E+00
         0.00000E+00
         0.00000E+00
         0.00000E+00
         0.00000E+00
         0.00000E+00
         0.00000E+00
         0.00000E+00
         0.00000E+00
         0.00000E+00
         0.00000E+00
         0.00000E+00
         0.00000E+00
         0.00000E+00
         0.00000E+00
         0.00000E+00
         0.00000E+00
         0.00000E+00
         0.00000E+00
         0.00000E+00
         0.00000E+00
         0.00000E+00
         0.00000E+00
         0.00000E+00
         0.00000E+00
         0.00000E+00
         0.00000E+00
         0.00000E+00
         0.00000E+00
         0.00000E+00
         0.00000E+00
         0.00000E+00
         0.00000E+00
         0.00000E+00
         0.00000E+00
         0.00000E+00
         0.00000E+00
         0.00000E+00
         0.00000E+00
         0.00000E+00
         0.00000E+00
         0.00000E+00
         0.00000E+00
         0.00000E+00
         0.00000E+00
         0.00000E+00
         0.00000E+00
         0.00000E+00
         0.00000E+00
         0.00000E+00
         0.00000E+00
         0.00000E+00
         0.00000E+00
         0.00000E+00
         0.00000E+00
         0.00000E+00
         0.00000E+00
         0.00000E+00
         0.00000E+00
         0.00000E+00
         0.00000E+00
         0.00000E+00
         0.00000E+00
         0.00000E+00
         0.00000E+00
         0.00000E+00
         0.00000E+00
         0.00000E+00
         0.00000E+00
         0.00000E+00
         0.00000E+00
         0.00000E+00
         0.00000E+00
         0.00000E+00
         0.00000E+00
         0.00000E+00
         0.00000E+00
         0.00000E+00
         0.00000E+00
         0.00000E+00
         0.00000E+00
         0.00000E+00
         0.00000E+00
         0.00000E+00
         0.00000E+00
         0.00000E+00
         0.00000E+00
         0.00000E+00
         0.00000E+00
         0.00000E+00
         0.00000E+00
         0.00000E+00
         0.00000E+00
         0.00000E+00
         0.00000E+00
         0.00000E+00
         0.00000E+00
         0.00000E+00
         0.00000E+00
         0.00000E+00
         0.00000E+00
         0.00000E+00
         0.00000E+00
         0.00000E+00
         0.00000E+00
         0.00000E+00
         0.00000E+00
         0.00000E+00
         0.00000E+00
         0.00000E+00
         0.00000E+00
         0.00000E+00
         0.00000E+00
         0.00000E+00
         0.00000E+00
         0.00000E+00
         0.00000E+00
         0.00000E+00
         0.00000E+00
         0.00000E+00
         0.00000E+00
         0.00000E+00
         0.00000E+00
         0.00000E+00
         0.00000E+00
         0.00000E+00
         0.00000E+00
         0.00000E+00
         0.00000E+00
         0.00000E+00
         0.00000E+00
         0.00000E+00
         0.00000E+00
         0.00000E+00
         0.00000E+00
         0.00000E+00
         0.00000E+00
         0.00000E+00
         0.00000E+00
         0.00000E+00
         0.00000E+00
         0.00000E+00
         0.00000E+00
         0.00000E+00
         0.00000E+00
         0.00000E+00
         0.00000E+00
         0.00000E+00
         0.00000E+00
         0.00000E+00
         0.00000E+00
         0.00000E+00
         0.00000E+00
         0.00000E+00
         0.00000E+00
         0.00000E+00
         0.00000E+00
         0.00000E+00
         0.00000E+00
         0.00000E+00
         0.00000E+00
         0.00000E+00
         0.00000E+00
         0.00000E+00
         0.00000E+00
         0.00000E+00
         0.00000E+00
         0.00000E+00
         0.00000E+00
         0.00000E+00
         0.00000E+00
         0.00000E+00
         0.00000E+00
         0.00000E+00
         0.00000E+00
         0.00000E+00
         0.00000E+00
         0.00000E+00
         0.00000E+00
         0.00000E+00
         0.00000E+00
         0.00000E+00
         0.00000E+00
         0.00000E+00
         0.00000E+00
         0.00000E+00
         0.00000E+00
         0.00000E+00
         0.00000E+00
         0.00000E+00
         0.00000E+00
         0.00000E+00
         0.00000E+00
         0.00000E+00
         0.00000E+00
         0.00000E+00
         0.00000E+00
         0.00000E+00
         0.00000E+00
         0.00000E+00
         0.00000E+00
         0.00000E+00
         0.00000E+00
         0.00000E+00
         0.00000E+00
         0.00000E+00
         0.00000E+00
         0.00000E+00
         0.00000E+00
         0.00000E+00
         0.00000E+00
         0.00000E+00
         0.00000E+00
         0.00000E+00
         0.00000E+00
         0.00000E+00
         0.00000E+00
         0.00000E+00
         0.00000E+00
         0.00000E+00
         0.00000E+00
         0.00000E+00
         0.00000E+00
         0.00000E+00
         0.00000E+00
         0.00000E+00
         0.00000E+00
         0.00000E+00
         0.00000E+00
         0.00000E+00
         0.00000E+00
         0.00000E+00
         0.00000E+00
         0.00000E+00
         0.00000E+00
         0.00000E+00
         0.00000E+00
         0.00000E+00
         0.00000E+00
         0.00000E+00
         0.00000E+00
         0.00000E+00
         0.00000E+00
         0.00000E+00
         0.00000E+00
         0.00000E+00
         0.00000E+00
         0.00000E+00
         0.00000E+00
         0.00000E+00
         0.00000E+00
         0.00000E+00
         0.00000E+00
         0.00000E+00
         0.00000E+00
         0.00000E+00
         0.00000E+00
         0.00000E+00
         0.00000E+00
         0.00000E+00
         0.00000E+00
         0.00000E+00
         0.00000E+00
         0.00000E+00
         0.00000E+00
         0.00000E+00
         0.00000E+00
         0.00000E+00
         0.00000E+00
         0.00000E+00
         0.00000E+00
         0.00000E+00
         0.00000E+00
         0.00000E+00
         0.00000E+00
         0.00000E+00
         0.00000E+00
         0.00000E+00
         0.00000E+00
         0.00000E+00
         0.00000E+00
         0.00000E+00
         0.00000E+00
         0.00000E+00
         0.00000E+00
         0.00000E+00
         0.00000E+00
         0.00000E+00
         0.00000E+00
         0.00000E+00
         0.00000E+00
         0.00000E+00
         0.00000E+00
         0.00000E+00
         0.00000E+00
         0.00000E+00
         0.00000E+00
         0.00000E+00
         0.00000E+00
         0.00000E+00
         0.00000E+00
         0.00000E+00
         0.00000E+00
         0.00000E+00
         0.00000E+00
         0.00000E+00
         0.00000E+00
         0.00000E+00
         0.00000E+00
         0.00000E+00
         0.00000E+00
         0.00000E+00
         0.00000E+00
         0.00000E+00
         0.00000E+00
         0.00000E+00
         0.00000E+00
         0.00000E+00
         0.00000E+00
         0.00000E+00
         0.00000E+00
         0.00000E+00
         0.00000E+00
         0.00000E+00
         0.00000E+00
         0.00000E+00
         0.00000E+00
         0.00000E+00
         0.00000E+00
         0.00000E+00
         0.00000E+00
         0.00000E+00
         0.00000E+00
         0.00000E+00
         0.00000E+00
         0.00000E+00
         0.00000E+00
         0.00000E+00
         0.00000E+00
         0.00000E+00
         0.00000E+00
         0.00000E+00
         0.00000E+00
         0.00000E+00
         0.00000E+00
         0.00000E+00
         0.00000E+00
         0.00000E+00
         0.00000E+00
         0.00000E+00
         0.00000E+00
         0.00000E+00
         0.00000E+00
         0.00000E+00
         0.00000E+00
         0.00000E+00
         0.00000E+00
         0.00000E+00
         0.00000E+00
         0.00000E+00
         0.00000E+00
         0.00000E+00
         0.00000E+00
         0.00000E+00
         0.00000E+00
         0.00000E+00
         0.00000E+00
         0.00000E+00
         0.00000E+00
         0.00000E+00
         0.00000E+00
         0.00000E+00
         0.00000E+00
         0.00000E+00
         0.00000E+00
         0.00000E+00
         0.00000E+00
         0.00000E+00
         0.00000E+00
         0.00000E+00
         0.00000E+00
         0.00000E+00
         0.00000E+00
         0.00000E+00
         0.00000E+00
         0.00000E+00
         0.00000E+00
         0.00000E+00
         0.00000E+00
         0.00000E+00
         0.00000E+00
         0.00000E+00
         0.00000E+00
         0.00000E+00
         0.00000E+00
         0.00000E+00
         0.00000E+00
         0.00000E+00
         0.00000E+00
         0.00000E+00
         0.00000E+00
         0.00000E+00
         0.00000E+00
         0.00000E+00
         0.00000E+00
         0.00000E+00
         0.00000E+00
         0.00000E+00
         0.00000E+00
         0.00000E+00
         0.00000E+00
         0.00000E+00
         0.00000E+00
         0.00000E+00
         0.00000E+00
         0.00000E+00
         0.00000E+00
         0.00000E+00
         0.00000E+00
         0.00000E+00
         0.00000E+00
         0.00000E+00
         0.00000E+00
         0.00000E+00
         0.00000E+00
         0.00000E+00
         0.00000E+00
         0.00000E+00
         0.00000E+00
         0.00000E+00
         0.00000E+00
         0.00000E+00
         0.00000E+00
         0.00000E+00
         0.00000E+00
         0.00000E+00
         0.00000E+00
         0.00000E+00
         0.00000E+00
         0.00000E+00
         0.00000E+00
         0.00000E+00
         0.00000E+00
         0.00000E+00
         0.00000E+00
         0.00000E+00
         0.00000E+00
         0.00000E+00
         0.00000E+00
         0.00000E+00
         0.00000E+00
         0.00000E+00
         0.00000E+00
         0.00000E+00
         0.00000E+00
         0.00000E+00
         0.00000E+00
         0.00000E+00
         0.00000E+00
         0.00000E+00
         0.00000E+00
         0.00000E+00
         0.00000E+00
         0.00000E+00
         0.00000E+00
         0.00000E+00
         0.00000E+00
         0.00000E+00
         0.00000E+00
         0.00000E+00
         0.00000E+00
         0.00000E+00
         0.00000E+00
         0.00000E+00
         0.00000E+00
         0.00000E+00
         0.00000E+00
         0.00000E+00
         0.00000E+00
         0.00000E+00
         0.00000E+00
         0.00000E+00
         0.00000E+00
         0.00000E+00
         0.00000E+00
         0.00000E+00
         0.00000E+00
         0.00000E+00
         0.00000E+00
         0.00000E+00
         0.00000E+00
         0.00000E+00
         0.00000E+00
         0.00000E+00
         0.00000E+00
         0.00000E+00
         0.00000E+00
         0.00000E+00
         0.00000E+00
         0.00000E+00
         0.00000E+00
         0.00000E+00
         0.00000E+00
         0.00000E+00
         0.00000E+00
         0.00000E+00
         0.00000E+00
         0.00000E+00
         0.00000E+00
         0.00000E+00
         0.00000E+00
         0.00000E+00
         0.00000E+00
         0.00000E+00
         0.00000E+00
         0.00000E+00
         0.00000E+00
         0.00000E+00
         0.00000E+00
         0.00000E+00
         0.00000E+00
         0.00000E+00
         0.00000E+00
         0.00000E+00
         0.00000E+00
         0.00000E+00
         0.00000E+00
         0.00000E+00
         0.00000E+00
         0.00000E+00
         0.00000E+00
         0.00000E+00
         0.00000E+00
         0.00000E+00
         0.00000E+00
         0.00000E+00
         0.00000E+00
         0.00000E+00
         0.00000E+00
         0.00000E+00
         0.00000E+00
         0.00000E+00
         0.00000E+00
         0.00000E+00
         0.00000E+00
         0.00000E+00
         0.00000E+00
         0.00000E+00
         0.00000E+00
         0.00000E+00
         0.00000E+00
         0.00000E+00
         0.00000E+00
         0.00000E+00
         0.00000E+00
         0.00000E+00
         0.00000E+00
         0.00000E+00
         0.00000E+00
         0.00000E+00
         0.00000E+00
         0.00000E+00
         0.00000E+00
         0.00000E+00
         0.00000E+00
         0.00000E+00
         0.00000E+00
         0.00000E+00
         0.00000E+00
         0.00000E+00
         0.00000E+00
         0.00000E+00
         0.00000E+00
         0.00000E+00
         0.00000E+00
         0.00000E+00
         0.00000E+00
         0.00000E+00
         0.00000E+00
         0.00000E+00
         0.00000E+00
         0.00000E+00
         0.00000E+00
         0.00000E+00
         0.00000E+00
         0.00000E+00
         0.00000E+00
         0.00000E+00
         0.00000E+00
         0.00000E+00
         0.00000E+00
         0.00000E+00
         0.00000E+00
         0.00000E+00
         0.00000E+00
         0.00000E+00
         0.00000E+00
         0.00000E+00
         0.00000E+00
         0.00000E+00
         0.00000E+00
         0.00000E+00
         0.00000E+00
         0.00000E+00
         0.00000E+00
         0.00000E+00
         0.00000E+00
         0.00000E+00
         0.00000E+00
         0.00000E+00
         0.00000E+00
         0.00000E+00
         0.00000E+00
         0.00000E+00
         0.00000E+00
         0.00000E+00
         0.00000E+00
         0.00000E+00
         0.00000E+00
         0.00000E+00
         0.00000E+00
         0.00000E+00
         0.00000E+00
         0.00000E+00
         0.00000E+00
         0.00000E+00
         0.00000E+00
         0.00000E+00
         0.00000E+00
         0.00000E+00
         0.00000E+00
         0.00000E+00
         0.00000E+00
         0.00000E+00
         0.00000E+00
         0.00000E+00
         0.00000E+00
         0.00000E+00
         0.00000E+00
         0.00000E+00
         0.00000E+00
         0.00000E+00
         0.00000E+00
         0.00000E+00
         0.00000E+00
         0.00000E+00
         0.00000E+00
         0.00000E+00
         0.00000E+00
         0.00000E+00
         0.00000E+00
         0.00000E+00
         0.00000E+00
         0.00000E+00
         0.00000E+00
         0.00000E+00
         0.00000E+00
         0.00000E+00
         0.00000E+00
         0.00000E+00
         0.00000E+00
         0.00000E+00
         0.00000E+00
         0.00000E+00
         0.00000E+00
         0.00000E+00
         0.00000E+00
         0.00000E+00
         0.00000E+00
         0.00000E+00
         0.00000E+00
         0.00000E+00
         0.00000E+00
         0.00000E+00
         0.00000E+00
         0.00000E+00
         0.00000E+00
         0.00000E+00
         0.00000E+00
         0.00000E+00
         0.00000E+00
         0.00000E+00
         0.00000E+00
         0.00000E+00
         0.00000E+00
         0.00000E+00
         0.00000E+00
         0.00000E+00
         0.00000E+00
         0.00000E+00
         0.00000E+00
         0.00000E+00
         0.00000E+00
         0.00000E+00
         0.00000E+00
         0.00000E+00
         0.00000E+00
         0.00000E+00
         0.00000E+00
         0.00000E+00
         0.00000E+00
         0.00000E+00
         0.00000E+00
         0.00000E+00
         0.00000E+00
         0.00000E+00
         0.00000E+00
         0.00000E+00
         0.00000E+00
         0.00000E+00
         0.00000E+00
         0.00000E+00
         0.00000E+00
         0.00000E+00
         0.00000E+00
         0.00000E+00
         0.00000E+00
         0.00000E+00
         0.00000E+00
         0.00000E+00
         0.00000E+00
         0.00000E+00
         0.00000E+00
         0.00000E+00
         0.00000E+00
         0.00000E+00
         0.00000E+00
         0.00000E+00
         0.00000E+00
         0.00000E+00
         0.00000E+00
         0.00000E+00
         0.00000E+00
         0.00000E+00
         0.00000E+00
         0.00000E+00
         0.00000E+00
         0.00000E+00
         0.00000E+00
         0.00000E+00
         0.00000E+00
         0.00000E+00
         0.00000E+00
         0.00000E+00
         0.00000E+00
         0.00000E+00
         0.00000E+00
         0.00000E+00
         0.00000E+00
         0.00000E+00
         0.00000E+00
         0.00000E+00
         0.00000E+00
         0.00000E+00
         0.00000E+00
         0.00000E+00
         0.00000E+00
         0.00000E+00
         0.00000E+00
         0.00000E+00
         0.00000E+00
         0.00000E+00
         0.00000E+00
         0.00000E+00
         0.00000E+00
         0.00000E+00
         0.00000E+00
         0.00000E+00
         0.00000E+00
         0.00000E+00
         0.00000E+00
         0.00000E+00
         0.00000E+00
         0.00000E+00
         0.00000E+00
         0.00000E+00
         0.00000E+00
         0.00000E+00
         0.00000E+00
         0.00000E+00
         0.00000E+00
         0.00000E+00
         0.00000E+00
         0.00000E+00
         0.00000E+00
         0.00000E+00
         0.00000E+00
         0.00000E+00
         0.00000E+00
         0.00000E+00
         0.00000E+00
         0.00000E+00
         0.00000E+00
         0.00000E+00
         0.00000E+00
         0.00000E+00
         0.00000E+00
         0.00000E+00
         0.00000E+00
         0.00000E+00
         0.00000E+00
         0.00000E+00
         0.00000E+00
         0.00000E+00
         0.00000E+00
         0.00000E+00
         0.00000E+00
         0.00000E+00
         0.00000E+00
         0.00000E+00
         0.00000E+00
         0.00000E+00
         0.00000E+00
         0.00000E+00
         0.00000E+00
         0.00000E+00
         0.00000E+00
         0.00000E+00
         0.00000E+00
         0.00000E+00
         0.00000E+00
         0.00000E+00
         0.00000E+00
         0.00000E+00
         0.00000E+00
         0.00000E+00
         0.00000E+00
         0.00000E+00
         0.00000E+00
         0.00000E+00
         0.00000E+00
         0.00000E+00
         0.00000E+00
         0.00000E+00
         0.00000E+00
         0.00000E+00
         0.00000E+00
         0.00000E+00
         0.00000E+00
         0.00000E+00
         0.00000E+00
         0.00000E+00
         0.00000E+00
         0.00000E+00
         0.00000E+00
         0.00000E+00
         0.00000E+00
         0.00000E+00
         0.00000E+00
         0.00000E+00
         0.00000E+00
         0.00000E+00
         0.00000E+00
         0.00000E+00
         0.00000E+00
         0.00000E+00
         0.00000E+00
         0.00000E+00
         0.00000E+00
         0.00000E+00
         0.00000E+00
         0.00000E+00
         0.00000E+00
         0.00000E+00
         0.00000E+00
         0.00000E+00
         0.00000E+00
         0.00000E+00
         0.00000E+00
         0.00000E+00
         0.00000E+00
         0.00000E+00
         0.00000E+00
         0.00000E+00
         0.00000E+00
         0.00000E+00
         0.00000E+00
         0.00000E+00
         0.00000E+00
         0.00000E+00
         0.00000E+00
         0.00000E+00
         0.00000E+00
         0.00000E+00
         0.00000E+00
         0.00000E+00
         0.00000E+00
         0.00000E+00
         0.00000E+00
         0.00000E+00
         0.00000E+00
         0.00000E+00
         0.00000E+00
         0.00000E+00
         0.00000E+00
         0.00000E+00
         0.00000E+00
         0.00000E+00
         0.00000E+00
         0.00000E+00
         0.00000E+00
         0.00000E+00
         0.00000E+00
         0.00000E+00
         0.00000E+00
         0.00000E+00
         0.00000E+00
         0.00000E+00
         0.00000E+00
         0.00000E+00
         0.00000E+00
         0.00000E+00
         0.00000E+00
         0.00000E+00
         0.00000E+00
         0.00000E+00
         0.00000E+00
         0.00000E+00
         0.00000E+00
         0.00000E+00
         0.00000E+00
         0.00000E+00
         0.00000E+00
         0.00000E+00
         0.00000E+00
         0.00000E+00
         0.00000E+00
         0.00000E+00
         0.00000E+00
         0.00000E+00
         0.00000E+00
         0.00000E+00
         0.00000E+00
         0.00000E+00
         0.00000E+00
         0.00000E+00
         0.00000E+00
         0.00000E+00
         0.00000E+00
         0.00000E+00
         0.00000E+00
         0.00000E+00
         0.00000E+00
         0.00000E+00
         0.00000E+00
         0.00000E+00
         0.00000E+00
         0.00000E+00
         0.00000E+00
         0.00000E+00
         0.00000E+00
         0.00000E+00
         0.00000E+00
         0.00000E+00
         0.00000E+00
         0.00000E+00
         0.00000E+00
         0.00000E+00
         0.00000E+00
         0.00000E+00
         0.00000E+00
         0.00000E+00
         0.00000E+00
         0.00000E+00
         0.00000E+00
         0.00000E+00
         0.00000E+00
         0.00000E+00
         0.00000E+00
         0.00000E+00
         0.00000E+00
         0.00000E+00
         0.00000E+00
         0.00000E+00
         0.00000E+00
         0.00000E+00
         0.00000E+00
         0.00000E+00
         0.00000E+00
         0.00000E+00
         0.00000E+00
         0.00000E+00
         0.00000E+00
         0.00000E+00
         0.00000E+00
         0.00000E+00
         0.00000E+00
         0.00000E+00
         0.00000E+00
         0.00000E+00
         0.00000E+00
         0.00000E+00
         0.00000E+00
         0.00000E+00
         0.00000E+00
         0.00000E+00
         0.00000E+00
         0.00000E+00
         0.00000E+00
         0.00000E+00
         0.00000E+00
         0.00000E+00
         0.00000E+00
         0.00000E+00
         0.00000E+00
         0.00000E+00
         0.00000E+00
         0.00000E+00
         0.00000E+00
         0.00000E+00
         0.00000E+00
         0.00000E+00
         0.00000E+00
         0.00000E+00
         0.00000E+00
         0.00000E+00
         0.00000E+00
         0.00000E+00
         0.00000E+00
         0.00000E+00
         0.00000E+00
         0.00000E+00
         0.00000E+00
         0.00000E+00
         0.00000E+00
         0.00000E+00
         0.00000E+00
         0.00000E+00
         0.00000E+00
         0.00000E+00
         0.00000E+00
         0.00000E+00
         0.00000E+00
         0.00000E+00
         0.00000E+00
         0.00000E+00
         0.00000E+00
         0.00000E+00
         0.00000E+00
         0.00000E+00
         0.00000E+00
         0.00000E+00
         0.00000E+00
         0.00000E+00
         0.00000E+00
         0.00000E+00
         0.00000E+00
         0.00000E+00
         0.00000E+00
         0.00000E+00
         0.00000E+00
         0.00000E+00
         0.00000E+00
         0.00000E+00
         0.00000E+00
         0.00000E+00
         0.00000E+00
         0.00000E+00
         0.00000E+00
         0.00000E+00
         0.00000E+00
         0.00000E+00
         0.00000E+00
         0.00000E+00
         0.00000E+00
         0.00000E+00
         0.00000E+00
         0.00000E+00
         0.00000E+00
         0.00000E+00
         0.00000E+00
         0.00000E+00
         0.00000E+00
         0.00000E+00
         0.00000E+00
         0.00000E+00
         0.00000E+00
         0.00000E+00
         0.00000E+00
         0.00000E+00
         0.00000E+00
         0.00000E+00
         0.00000E+00
         0.00000E+00
         0.00000E+00
         0.00000E+00
         0.00000E+00
         0.00000E+00
         0.00000E+00
         0.00000E+00
         0.00000E+00
         0.00000E+00
         0.00000E+00
         0.00000E+00
         0.00000E+00
         0.00000E+00
         0.00000E+00
         0.00000E+00
         0.00000E+00
         0.00000E+00
         0.00000E+00
         0.00000E+00
         0.00000E+00
         0.00000E+00
         0.00000E+00
         0.00000E+00
         0.00000E+00
         0.00000E+00
         0.00000E+00
         0.00000E+00
         0.00000E+00
         0.00000E+00
         0.00000E+00
         0.00000E+00
         0.00000E+00
         0.00000E+00
         0.00000E+00
         0.00000E+00
         0.00000E+00
         0.00000E+00
         0.00000E+00
         0.00000E+00
         0.00000E+00
         0.00000E+00
         0.00000E+00
         0.00000E+00
         0.00000E+00
         0.00000E+00
         0.00000E+00
         0.00000E+00
         0.00000E+00
         0.00000E+00
         0.00000E+00
         0.00000E+00
         0.00000E+00
         0.00000E+00
         0.00000E+00
         0.00000E+00
         0.00000E+00
         0.00000E+00
         0.00000E+00
         0.00000E+00
         0.00000E+00
         0.00000E+00
         0.00000E+00
         0.00000E+00
         0.00000E+00
         0.00000E+00
         0.00000E+00
         0.00000E+00
         0.00000E+00
         0.00000E+00
         0.00000E+00
         0.00000E+00
         0.00000E+00
         0.00000E+00
         0.00000E+00
         0.00000E+00
         0.00000E+00
         0.00000E+00
         0.00000E+00
         0.00000E+00
         0.00000E+00
         0.00000E+00
         0.00000E+00
         0.00000E+00
         0.00000E+00
         0.00000E+00
         0.00000E+00
         0.00000E+00
         0.00000E+00
         0.00000E+00
         0.00000E+00
         0.00000E+00
         0.00000E+00
         0.00000E+00
         0.00000E+00
         0.00000E+00
         0.00000E+00
         0.00000E+00
         0.00000E+00
         0.00000E+00
         0.00000E+00
         0.00000E+00
         0.00000E+00
         0.00000E+00
         0.00000E+00
         0.00000E+00
         0.00000E+00
         0.00000E+00
         0.00000E+00
         0.00000E+00
         0.00000E+00
         0.00000E+00
         0.00000E+00
         0.00000E+00
         0.00000E+00
         0.00000E+00
         0.00000E+00
         0.00000E+00
         0.00000E+00
         0.00000E+00
         0.00000E+00
         0.00000E+00
         0.00000E+00
         0.00000E+00
         0.00000E+00
         0.00000E+00
         0.00000E+00
         0.00000E+00
         0.00000E+00
         0.00000E+00
         0.00000E+00
         0.00000E+00
         0.00000E+00
         0.00000E+00
         0.00000E+00
         0.00000E+00
         0.00000E+00
         0.00000E+00
         0.00000E+00
         0.00000E+00
         0.00000E+00
         0.00000E+00
         0.00000E+00
         0.00000E+00
         0.00000E+00
         0.00000E+00
         0.00000E+00
         0.00000E+00
         0.00000E+00
         0.00000E+00
         0.00000E+00
         0.00000E+00
         0.00000E+00
         0.00000E+00
         0.00000E+00
         0.00000E+00
         0.00000E+00
         0.00000E+00
         0.00000E+00
         0.00000E+00
         0.00000E+00
         0.00000E+00
         0.00000E+00
         0.00000E+00
         0.00000E+00
         0.00000E+00
         0.00000E+00
         0.00000E+00
         0.00000E+00
         0.00000E+00
         0.00000E+00
         0.00000E+00
         0.00000E+00
         0.00000E+00
         0.00000E+00
         0.00000E+00
         0.00000E+00
         0.00000E+00
         0.00000E+00
         0.00000E+00
         0.00000E+00
         0.00000E+00
         0.00000E+00
         0.00000E+00
         0.00000E+00
         0.00000E+00
         0.00000E+00
         0.00000E+00
         0.00000E+00
         0.00000E+00
         0.00000E+00
         0.00000E+00
         0.00000E+00
         0.00000E+00
         0.00000E+00
         0.00000E+00
         0.00000E+00
         0.00000E+00
         0.00000E+00
         0.00000E+00
         0.00000E+00
         0.00000E+00
         0.00000E+00
         0.00000E+00
         0.00000E+00
         0.00000E+00
         0.00000E+00
         0.00000E+00
         0.00000E+00
         0.00000E+00
         0.00000E+00
         0.00000E+00
         0.00000E+00
         0.00000E+00
         0.00000E+00
         0.00000E+00
         0.00000E+00
         0.00000E+00
         0.00000E+00
         0.00000E+00
         0.00000E+00
         0.00000E+00
         0.00000E+00
         0.00000E+00
         0.00000E+00
         0.00000E+00
         0.00000E+00
         0.00000E+00
         0.00000E+00
         0.00000E+00
         0.00000E+00
         0.00000E+00
         0.00000E+00
         0.00000E+00
         0.00000E+00
         0.00000E+00
         0.00000E+00
         0.00000E+00
         0.00000E+00
         0.00000E+00
         0.00000E+00
         0.00000E+00
         0.00000E+00
         0.00000E+00
         0.00000E+00
         0.00000E+00
         0.00000E+00
         0.00000E+00
         0.00000E+00
         0.00000E+00
         0.00000E+00
         0.00000E+00
         0.00000E+00
         0.00000E+00
         0.00000E+00
         0.00000E+00
         0.00000E+00
         0.00000E+00
         0.00000E+00
         0.00000E+00
         0.00000E+00
         0.00000E+00
         0.00000E+00
         0.00000E+00
         0.00000E+00
         0.00000E+00
         0.00000E+00
         0.00000E+00
         0.00000E+00
         0.00000E+00
         0.00000E+00
         0.00000E+00
         0.00000E+00
         0.00000E+00
         0.00000E+00
         0.00000E+00
         0.00000E+00
         0.00000E+00
         0.00000E+00
         0.00000E+00
         0.00000E+00
         0.00000E+00
         0.00000E+00
         0.00000E+00
         0.00000E+00
         0.00000E+00
         0.00000E+00
         0.00000E+00
         0.00000E+00
         0.00000E+00
         0.00000E+00
         0.00000E+00
         0.00000E+00
         0.00000E+00
         0.00000E+00
         0.00000E+00
         0.00000E+00
         0.00000E+00
         0.00000E+00
         0.00000E+00
         0.00000E+00
         0.00000E+00
         0.00000E+00
         0.00000E+00
         0.00000E+00
         0.00000E+00
         0.00000E+00
         0.00000E+00
         0.00000E+00
         0.00000E+00
         0.00000E+00
         0.00000E+00
         0.00000E+00
         0.00000E+00
         0.00000E+00
         0.00000E+00
         0.00000E+00
         0.00000E+00
         0.00000E+00
         0.00000E+00
         0.00000E+00
         0.00000E+00
         0.00000E+00
         0.00000E+00
         0.00000E+00
         0.00000E+00
         0.00000E+00
         0.00000E+00
         0.00000E+00
         0.00000E+00
         0.00000E+00
         0.00000E+00
         0.00000E+00
         0.00000E+00
         0.00000E+00
         0.00000E+00
         0.00000E+00
         0.00000E+00
         0.00000E+00
         0.00000E+00
         0.00000E+00
         0.00000E+00
         0.00000E+00
         0.00000E+00
         0.00000E+00
         0.00000E+00
         0.00000E+00
         0.00000E+00
         0.00000E+00
         0.00000E+00
         0.00000E+00
         0.00000E+00
         0.00000E+00
         0.00000E+00
         0.00000E+00
         0.00000E+00
         0.00000E+00
         0.00000E+00
         0.00000E+00
         0.00000E+00
         0.00000E+00
         0.00000E+00
         0.00000E+00
         0.00000E+00
         0.00000E+00
         0.00000E+00
         0.00000E+00
         0.00000E+00
         0.00000E+00
         0.00000E+00
         0.00000E+00
         0.00000E+00
         0.00000E+00
         0.00000E+00
         0.00000E+00
         0.00000E+00
         0.00000E+00
         0.00000E+00
         0.00000E+00
         0.00000E+00
         0.00000E+00
         0.00000E+00
         0.00000E+00
         0.00000E+00
         0.00000E+00
         0.00000E+00
         0.00000E+00
         0.00000E+00
         0.00000E+00
         0.00000E+00
         0.00000E+00
         0.00000E+00
         0.00000E+00
         0.00000E+00
         0.00000E+00
         0.00000E+00
         0.00000E+00
         0.00000E+00
         0.00000E+00
         0.00000E+00
         0.00000E+00
         0.00000E+00
         0.00000E+00
         0.00000E+00
         0.00000E+00
         0.00000E+00
         0.00000E+00
         0.00000E+00
         0.00000E+00
         0.00000E+00
         0.00000E+00
         0.00000E+00
         0.00000E+00
         0.00000E+00
         0.00000E+00
         0.00000E+00
         0.00000E+00
         0.00000E+00
         0.00000E+00
         0.00000E+00
         0.00000E+00
         0.00000E+00
         0.00000E+00
         0.00000E+00
         0.00000E+00
         0.00000E+00
         0.00000E+00
         0.00000E+00
         0.00000E+00
         0.00000E+00
         0.00000E+00
         0.00000E+00
         0.00000E+00
         0.00000E+00
         0.00000E+00
         0.00000E+00
         0.00000E+00
         0.00000E+00
         0.00000E+00
         0.00000E+00
         0.00000E+00
         0.00000E+00
         0.00000E+00
         0.00000E+00
         0.00000E+00
         0.00000E+00
         0.00000E+00
         0.00000E+00
         0.00000E+00
         0.00000E+00
         0.00000E+00
         0.00000E+00
         0.00000E+00
         0.00000E+00
         0.00000E+00
         0.00000E+00
         0.00000E+00
         0.00000E+00
  
SCALARS                            eps  double 1
LOOKUP_TABLE default
         0.18610E+01
         0.14823E+01
         0.14267E+01
         0.17468E+01
         0.20546E+01
         0.16090E+01
         0.15473E+01
         0.19431E+01
         0.11788E+01
         0.12644E+01
         0.14452E+01
         0.15629E+01
         0.13909E+01
         0.16874E+01
         0.15195E+01
         0.17621E+01
         0.20994E+01
         0.19383E+01
         0.38344E+01
         0.23676E+01
         0.13121E+01
         0.10897E+01
         0.11326E+01
         0.15074E+01
         0.13175E+01
         0.13874E+01
         0.14807E+01
         0.12277E+01
         0.16277E+01
         0.15210E+01
         0.18184E+01
         0.20343E+01
         0.20240E+01
         0.19595E+01
         0.32588E+01
         0.28854E+01
         0.16055E+01
         0.17232E+01
         0.16763E+01
         0.19953E+01
         0.12654E+01
         0.13790E+01
         0.14894E+01
         0.16668E+01
         0.11500E+01
         0.13898E+01
         0.13922E+01
         0.15381E+01
         0.19328E+01
         0.23595E+01
         0.14113E+01
         0.14899E+01
         0.16150E+01
         0.18830E+01
         0.15908E+01
         0.18119E+01
         0.13969E+01
         0.16351E+01
         0.15700E+01
         0.19028E+01
         0.16069E+01
         0.13077E+01
         0.18079E+01
         0.14564E+01
         0.17020E+01
         0.19381E+01
         0.15388E+01
         0.17105E+01
         0.10733E+01
         0.11392E+01
         0.13472E+01
         0.13877E+01
         0.11833E+01
         0.14604E+01
         0.13281E+01
         0.16477E+01
         0.12960E+01
         0.15656E+01
         0.11362E+01
         0.13989E+01
         0.10474E+01
         0.11932E+01
         0.13430E+01
         0.14447E+01
         0.13409E+01
         0.16303E+01
         0.11226E+01
         0.13741E+01
         0.10534E+01
         0.13119E+01
         0.10196E+01
         0.11423E+01
         0.13679E+01
         0.14189E+01
         0.12776E+01
         0.15830E+01
         0.12996E+01
         0.15567E+01
         0.12053E+01
         0.14147E+01
         0.11329E+01
         0.12396E+01
         0.13654E+01
         0.14982E+01
         0.10351E+01
         0.10642E+01
         0.13254E+01
         0.12964E+01
         0.10453E+01
         0.12607E+01
         0.10818E+01
         0.12802E+01
         0.10072E+01
         0.12432E+01
         0.98418E+00
         0.12658E+01
         0.10898E+01
         0.14087E+01
         0.10861E+01
         0.14058E+01
         0.10761E+01
         0.14335E+01
         0.10143E+01
         0.14373E+01
         0.97562E+00
         0.15707E+01
         0.10851E+01
         0.14758E+01
         0.11102E+01
         0.14579E+01
         0.10932E+01
         0.13887E+01
         0.10407E+01
         0.13494E+01
         0.10051E+01
         0.12818E+01
         0.10491E+01
         0.12743E+01
         0.98210E+00
         0.12464E+01
         0.10546E+01
         0.13895E+01
         0.10904E+01
         0.13808E+01
         0.10749E+01
         0.13348E+01
         0.10894E+01
         0.13023E+01
         0.10691E+01
         0.13361E+01
         0.10461E+01
         0.13557E+01
         0.11048E+01
         0.13461E+01
         0.10882E+01
         0.13821E+01
         0.17498E+01
         0.13867E+01
         0.13002E+01
         0.16299E+01
         0.10204E+01
         0.11098E+01
         0.12797E+01
         0.15652E+01
         0.19300E+01
         0.17800E+01
         0.11715E+01
         0.92713E+00
         0.99427E+00
         0.13283E+01
         0.10532E+01
         0.17003E+01
         0.18675E+01
         0.18916E+01
         0.14750E+01
         0.15705E+01
         0.11105E+01
         0.11986E+01
         0.10246E+01
         0.12888E+01
         0.17772E+01
         0.13135E+01
         0.14644E+01
         0.14379E+01
         0.12509E+01
         0.14851E+01
         0.14778E+01
         0.11859E+01
         0.15665E+01
         0.13825E+01
         0.89211E+00
         0.99319E+00
         0.10503E+01
         0.11444E+01
         0.11166E+01
         0.98377E+00
         0.88452E+00
         0.10204E+01
         0.11535E+01
         0.99726E+00
         0.90430E+00
         0.82879E+00
         0.98066E+00
         0.11238E+01
         0.11430E+01
         0.10383E+01
         0.94847E+00
         0.10758E+01
         0.73168E+00
         0.75050E+00
         0.74792E+00
         0.79058E+00
         0.72904E+00
         0.71240E+00
         0.79946E+00
         0.80911E+00
         0.78389E+00
         0.73582E+00
         0.72257E+00
         0.78975E+00
         0.82752E+00
         0.82265E+00
         0.75708E+00
         0.73492E+00
         0.76981E+00
         0.68324E+00
         0.74806E+00
         0.79591E+00
         0.79993E+00
         0.80950E+00
         0.76602E+00
         0.75957E+00
         0.82103E+00
         0.78045E+00
         0.15941E+01
         0.12640E+01
         0.11776E+01
         0.14756E+01
         0.92054E+00
         0.99700E+00
         0.11741E+01
         0.14333E+01
         0.17121E+01
         0.16094E+01
         0.10706E+01
         0.86173E+00
         0.90981E+00
         0.12051E+01
         0.95300E+00
         0.15473E+01
         0.16729E+01
         0.16914E+01
         0.13422E+01
         0.14156E+01
         0.10058E+01
         0.10652E+01
         0.93769E+00
         0.11842E+01
         0.16149E+01
         0.11980E+01
         0.13169E+01
         0.12953E+01
         0.11164E+01
         0.13364E+01
         0.13352E+01
         0.10699E+01
         0.14055E+01
         0.12361E+01
         0.81229E+00
         0.90332E+00
         0.95780E+00
         0.10132E+01
         0.98466E+00
         0.86844E+00
         0.77513E+00
         0.90115E+00
         0.10191E+01
         0.91160E+00
         0.82686E+00
         0.76273E+00
         0.88373E+00
         0.10087E+01
         0.10256E+01
         0.92888E+00
         0.85158E+00
         0.96228E+00
         0.66638E+00
         0.66993E+00
         0.68452E+00
         0.71535E+00
         0.68327E+00
         0.65917E+00
         0.71801E+00
         0.73464E+00
         0.71204E+00
         0.69576E+00
         0.71912E+00
         0.72269E+00
         0.74789E+00
         0.73802E+00
         0.68655E+00
         0.68745E+00
         0.72267E+00
         0.62589E+00
         0.66776E+00
         0.70763E+00
         0.70752E+00
         0.72398E+00
         0.68080E+00
         0.70002E+00
         0.72879E+00
         0.70526E+00
         0.13757E+01
         0.11115E+01
         0.10451E+01
         0.12982E+01
         0.85387E+00
         0.91908E+00
         0.10388E+01
         0.12458E+01
         0.14458E+01
         0.13950E+01
         0.95575E+00
         0.80691E+00
         0.84557E+00
         0.10644E+01
         0.86373E+00
         0.13340E+01
         0.14353E+01
         0.14656E+01
         0.11634E+01
         0.12416E+01
         0.90354E+00
         0.94504E+00
         0.85962E+00
         0.10324E+01
         0.14120E+01
         0.10441E+01
         0.11620E+01
         0.11313E+01
         0.96932E+00
         0.11716E+01
         0.11750E+01
         0.94944E+00
         0.12262E+01
         0.10827E+01
         0.77027E+00
         0.83337E+00
         0.88126E+00
         0.90505E+00
         0.88175E+00
         0.78777E+00
         0.73197E+00
         0.81385E+00
         0.91023E+00
         0.83952E+00
         0.77089E+00
         0.73399E+00
         0.82400E+00
         0.92330E+00
         0.92544E+00
         0.84324E+00
         0.79518E+00
         0.88491E+00
         0.69862E+00
         0.68101E+00
         0.70935E+00
         0.71967E+00
         0.69854E+00
         0.68022E+00
         0.71394E+00
         0.72431E+00
         0.71762E+00
         0.73579E+00
         0.74975E+00
         0.74009E+00
         0.73160E+00
         0.73204E+00
         0.69616E+00
         0.71505E+00
         0.72887E+00
         0.65592E+00
         0.69635E+00
         0.72207E+00
         0.72167E+00
         0.73090E+00
         0.69500E+00
         0.71323E+00
         0.73490E+00
         0.71567E+00
         0.11440E+01
         0.94452E+00
         0.89478E+00
         0.10903E+01
         0.77202E+00
         0.81679E+00
         0.88417E+00
         0.10344E+01
         0.11811E+01
         0.11485E+01
         0.82796E+00
         0.75190E+00
         0.76862E+00
         0.91274E+00
         0.78384E+00
         0.11112E+01
         0.11801E+01
         0.12134E+01
         0.98172E+00
         0.10571E+01
         0.79145E+00
         0.82916E+00
         0.76257E+00
         0.87242E+00
         0.11596E+01
         0.88985E+00
         0.99322E+00
         0.95700E+00
         0.83559E+00
         0.99340E+00
         0.99885E+00
         0.82380E+00
         0.10339E+01
         0.91986E+00
         0.72284E+00
         0.75630E+00
         0.78798E+00
         0.80673E+00
         0.78656E+00
         0.72528E+00
         0.70932E+00
         0.74526E+00
         0.80437E+00
         0.75725E+00
         0.71922E+00
         0.70763E+00
         0.75051E+00
         0.81761E+00
         0.81742E+00
         0.75882E+00
         0.73611E+00
         0.79061E+00
         0.73075E+00
         0.71431E+00
         0.73631E+00
         0.71959E+00
         0.72569E+00
         0.74260E+00
         0.74527E+00
         0.73745E+00
         0.74005E+00
         0.77654E+00
         0.81199E+00
         0.77156E+00
         0.74024E+00
         0.72782E+00
         0.72101E+00
         0.73422E+00
         0.74643E+00
         0.71163E+00
         0.74048E+00
         0.74182E+00
         0.72629E+00
         0.72649E+00
         0.72281E+00
         0.73450E+00
         0.73223E+00
         0.73063E+00
         0.91467E+00
         0.79031E+00
         0.76262E+00
         0.88810E+00
         0.70817E+00
         0.72638E+00
         0.75547E+00
         0.82635E+00
         0.94012E+00
         0.90661E+00
         0.73031E+00
         0.72595E+00
         0.72530E+00
         0.76483E+00
         0.73339E+00
         0.89086E+00
         0.93745E+00
         0.96673E+00
         0.80674E+00
         0.85079E+00
         0.71353E+00
         0.73354E+00
         0.70837E+00
         0.74639E+00
         0.90579E+00
         0.75425E+00
         0.81022E+00
         0.78371E+00
         0.71160E+00
         0.79922E+00
         0.82602E+00
         0.72405E+00
         0.84987E+00
         0.77419E+00
         0.69578E+00
         0.70302E+00
         0.72140E+00
         0.72807E+00
         0.71557E+00
         0.68906E+00
         0.70363E+00
         0.69683E+00
         0.72228E+00
         0.70985E+00
         0.69778E+00
         0.70915E+00
         0.70667E+00
         0.72676E+00
         0.72202E+00
         0.69672E+00
         0.69782E+00
         0.71539E+00
         0.75140E+00
         0.74307E+00
         0.75131E+00
         0.72535E+00
         0.76371E+00
         0.79833E+00
         0.76624E+00
         0.73615E+00
         0.75453E+00
         0.79997E+00
         0.84387E+00
         0.78621E+00
         0.74007E+00
         0.72892E+00
         0.75279E+00
         0.77126E+00
         0.77611E+00
         0.76147E+00
         0.77209E+00
         0.75952E+00
         0.72975E+00
         0.72634E+00
         0.74187E+00
         0.74617E+00
         0.74081E+00
         0.74534E+00
         0.69791E+00
         0.63523E+00
         0.61747E+00
         0.68352E+00
         0.63001E+00
         0.63080E+00
         0.63556E+00
         0.65871E+00
         0.71490E+00
         0.68881E+00
         0.64227E+00
         0.67311E+00
         0.66120E+00
         0.64371E+00
         0.66397E+00
         0.69273E+00
         0.71756E+00
         0.73605E+00
         0.65471E+00
         0.66562E+00
         0.63021E+00
         0.62846E+00
         0.64265E+00
         0.63112E+00
         0.67384E+00
         0.62538E+00
         0.64789E+00
         0.62255E+00
         0.60136E+00
         0.63040E+00
         0.65331E+00
         0.61400E+00
         0.66497E+00
         0.62803E+00
         0.64785E+00
         0.63334E+00
         0.64345E+00
         0.64844E+00
         0.64036E+00
         0.64300E+00
         0.68106E+00
         0.64555E+00
         0.63318E+00
         0.65234E+00
         0.65852E+00
         0.68334E+00
         0.64410E+00
         0.63112E+00
         0.62691E+00
         0.62552E+00
         0.64819E+00
         0.63460E+00
         0.75932E+00
         0.75082E+00
         0.75141E+00
         0.73209E+00
         0.76752E+00
         0.79063E+00
         0.74831E+00
         0.72235E+00
         0.73867E+00
         0.78554E+00
         0.81658E+00
         0.76564E+00
         0.72188E+00
         0.71389E+00
         0.74058E+00
         0.76179E+00
         0.77789E+00
         0.79475E+00
         0.78595E+00
         0.75825E+00
         0.72393E+00
         0.71903E+00
         0.74082E+00
         0.74181E+00
         0.73182E+00
         0.73814E+00
         0.51004E+00
         0.49142E+00
         0.48971E+00
         0.49564E+00
         0.55969E+00
         0.53998E+00
         0.51452E+00
         0.50386E+00
         0.52674E+00
         0.50851E+00
         0.53739E+00
         0.60323E+00
         0.58727E+00
         0.51735E+00
         0.58033E+00
         0.51239E+00
         0.52452E+00
         0.52583E+00
         0.50362E+00
         0.49732E+00
         0.54164E+00
         0.52618E+00
         0.56288E+00
         0.51452E+00
         0.49402E+00
         0.50680E+00
         0.49975E+00
         0.49000E+00
         0.50239E+00
         0.48350E+00
         0.49482E+00
         0.50913E+00
         0.49524E+00
         0.49495E+00
         0.60343E+00
         0.56893E+00
         0.56548E+00
         0.55477E+00
         0.55269E+00
         0.58181E+00
         0.63362E+00
         0.57158E+00
         0.53449E+00
         0.58366E+00
         0.60541E+00
         0.64515E+00
         0.57682E+00
         0.53720E+00
         0.53422E+00
         0.55950E+00
         0.60287E+00
         0.56172E+00
         0.74261E+00
         0.74316E+00
         0.74699E+00
         0.73283E+00
         0.75611E+00
         0.76550E+00
         0.72458E+00
         0.69329E+00
         0.71014E+00
         0.76414E+00
         0.77944E+00
         0.74153E+00
         0.69384E+00
         0.68623E+00
         0.71738E+00
         0.74428E+00
         0.76280E+00
         0.79137E+00
         0.77715E+00
         0.74255E+00
         0.71110E+00
         0.70625E+00
         0.73170E+00
         0.73640E+00
         0.72438E+00
         0.72542E+00
         0.37142E+00
         0.39309E+00
         0.39557E+00
         0.36210E+00
         0.47654E+00
         0.44895E+00
         0.42721E+00
         0.38801E+00
         0.37363E+00
         0.37424E+00
         0.45140E+00
         0.52825E+00
         0.51322E+00
         0.41694E+00
         0.50057E+00
         0.37901E+00
         0.37453E+00
         0.36651E+00
         0.39191E+00
         0.37101E+00
         0.45913E+00
         0.44016E+00
         0.49179E+00
         0.42858E+00
         0.36661E+00
         0.42050E+00
         0.38897E+00
         0.39166E+00
         0.42292E+00
         0.37626E+00
         0.38616E+00
         0.42759E+00
         0.37442E+00
         0.39055E+00
         0.52839E+00
         0.49409E+00
         0.48933E+00
         0.47109E+00
         0.47210E+00
         0.50871E+00
         0.55775E+00
         0.50055E+00
         0.45478E+00
         0.50572E+00
         0.52855E+00
         0.56656E+00
         0.49950E+00
         0.45413E+00
         0.44654E+00
         0.47418E+00
         0.51913E+00
         0.47297E+00
         0.67613E+00
         0.66446E+00
         0.68343E+00
         0.67266E+00
         0.69212E+00
         0.68554E+00
         0.65883E+00
         0.63656E+00
         0.64705E+00
         0.66860E+00
         0.68615E+00
         0.66869E+00
         0.62631E+00
         0.62046E+00
         0.64356E+00
         0.66521E+00
         0.69077E+00
         0.72205E+00
         0.70614E+00
         0.67203E+00
         0.64162E+00
         0.63247E+00
         0.65309E+00
         0.65181E+00
         0.65071E+00
         0.64104E+00
         0.26945E+00
         0.32163E+00
         0.32902E+00
         0.27038E+00
         0.41023E+00
         0.37703E+00
         0.35584E+00
         0.30199E+00
         0.25233E+00
         0.27157E+00
         0.38025E+00
         0.45224E+00
         0.44045E+00
         0.34148E+00
         0.42500E+00
         0.27684E+00
         0.26306E+00
         0.25078E+00
         0.31714E+00
         0.29066E+00
         0.40243E+00
         0.38015E+00
         0.43087E+00
         0.36340E+00
         0.27442E+00
         0.35076E+00
         0.31049E+00
         0.31924E+00
         0.35410E+00
         0.30241E+00
         0.30834E+00
         0.36384E+00
         0.28666E+00
         0.30836E+00
         0.46305E+00
         0.43190E+00
         0.42239E+00
         0.40312E+00
         0.40597E+00
         0.43493E+00
         0.47430E+00
         0.42662E+00
         0.38947E+00
         0.44065E+00
         0.46175E+00
         0.49623E+00
         0.43528E+00
         0.38837E+00
         0.37664E+00
         0.40461E+00
         0.44771E+00
         0.39924E+00
         0.59013E+00
         0.57403E+00
         0.60609E+00
         0.60600E+00
         0.61240E+00
         0.60581E+00
         0.59370E+00
         0.56695E+00
         0.55896E+00
         0.56609E+00
         0.57827E+00
         0.56018E+00
         0.55267E+00
         0.55179E+00
         0.57784E+00
         0.59503E+00
         0.61193E+00
         0.63552E+00
         0.61974E+00
         0.59275E+00
         0.57093E+00
         0.56035E+00
         0.57651E+00
         0.57390E+00
         0.56569E+00
         0.55709E+00
         0.21182E+00
         0.26297E+00
         0.27187E+00
         0.21909E+00
         0.33253E+00
         0.30297E+00
         0.28559E+00
         0.23851E+00
         0.18320E+00
         0.20882E+00
         0.30577E+00
         0.36068E+00
         0.35146E+00
         0.27481E+00
         0.34059E+00
         0.22099E+00
         0.19753E+00
         0.19015E+00
         0.25771E+00
         0.23468E+00
         0.32875E+00
         0.31263E+00
         0.34766E+00
         0.29682E+00
         0.21311E+00
         0.28824E+00
         0.24996E+00
         0.25626E+00
         0.28574E+00
         0.24443E+00
         0.25562E+00
         0.29692E+00
         0.23598E+00
         0.25042E+00
         0.37409E+00
         0.35075E+00
         0.34047E+00
         0.32670E+00
         0.33057E+00
         0.35013E+00
         0.37765E+00
         0.34112E+00
         0.31724E+00
         0.35289E+00
         0.36721E+00
         0.39317E+00
         0.34874E+00
         0.31634E+00
         0.30451E+00
         0.32324E+00
         0.35281E+00
         0.31688E+00
         0.47439E+00
         0.45414E+00
         0.49338E+00
         0.49347E+00
         0.49285E+00
         0.48443E+00
         0.48512E+00
         0.46801E+00
         0.46512E+00
         0.46501E+00
         0.46826E+00
         0.46500E+00
         0.45259E+00
         0.45049E+00
         0.46468E+00
         0.47419E+00
         0.48981E+00
         0.50644E+00
         0.49557E+00
         0.47867E+00
         0.46175E+00
         0.44946E+00
         0.45517E+00
         0.45301E+00
         0.45045E+00
         0.44287E+00
         0.17006E+00
         0.20946E+00
         0.22009E+00
         0.17981E+00
         0.26435E+00
         0.24286E+00
         0.22309E+00
         0.18991E+00
         0.14537E+00
         0.16948E+00
         0.23644E+00
         0.27370E+00
         0.26832E+00
         0.21635E+00
         0.26180E+00
         0.17682E+00
         0.15839E+00
         0.15288E+00
         0.20724E+00
         0.19262E+00
         0.25807E+00
         0.25101E+00
         0.26780E+00
         0.23597E+00
         0.17587E+00
         0.22810E+00
         0.20173E+00
         0.20760E+00
         0.22735E+00
         0.20010E+00
         0.20477E+00
         0.23484E+00
         0.18986E+00
         0.20232E+00
         0.29263E+00
         0.27495E+00
         0.26347E+00
         0.25751E+00
         0.26134E+00
         0.27236E+00
         0.28988E+00
         0.26717E+00
         0.25417E+00
         0.27244E+00
         0.28234E+00
         0.30244E+00
         0.27346E+00
         0.25535E+00
         0.24674E+00
         0.25622E+00
         0.27665E+00
         0.25150E+00
         0.36166E+00
         0.34749E+00
         0.38257E+00
         0.38287E+00
         0.37462E+00
         0.36757E+00
         0.37078E+00
         0.36476E+00
         0.36317E+00
         0.36179E+00
         0.35820E+00
         0.35990E+00
         0.35321E+00
         0.35706E+00
         0.36017E+00
         0.36770E+00
         0.37609E+00
         0.38863E+00
         0.37713E+00
         0.36964E+00
         0.36238E+00
         0.34986E+00
         0.34999E+00
         0.34316E+00
         0.34675E+00
         0.34339E+00
         0.14546E+00
         0.16608E+00
         0.17102E+00
         0.15007E+00
         0.19390E+00
         0.18229E+00
         0.17220E+00
         0.15300E+00
         0.12762E+00
         0.14082E+00
         0.17810E+00
         0.20138E+00
         0.19825E+00
         0.16464E+00
         0.19338E+00
         0.14613E+00
         0.13593E+00
         0.13379E+00
         0.16087E+00
         0.15193E+00
         0.19025E+00
         0.18551E+00
         0.19710E+00
         0.17903E+00
         0.14465E+00
         0.17514E+00
         0.15650E+00
         0.16201E+00
         0.17458E+00
         0.15749E+00
         0.16326E+00
         0.17786E+00
         0.15693E+00
         0.16077E+00
         0.21013E+00
         0.20118E+00
         0.19390E+00
         0.19086E+00
         0.19607E+00
         0.20470E+00
         0.21938E+00
         0.20046E+00
         0.18946E+00
         0.19984E+00
         0.20466E+00
         0.21683E+00
         0.19879E+00
         0.18905E+00
         0.18287E+00
         0.19108E+00
         0.20177E+00
         0.18717E+00
         0.25470E+00
         0.24710E+00
         0.27587E+00
         0.27627E+00
         0.27274E+00
         0.27309E+00
         0.27337E+00
         0.26795E+00
         0.27682E+00
         0.28260E+00
         0.29229E+00
         0.27953E+00
         0.25919E+00
         0.25802E+00
         0.26580E+00
         0.26804E+00
         0.27452E+00
         0.27913E+00
         0.27406E+00
         0.26562E+00
         0.25864E+00
         0.25032E+00
         0.24871E+00
         0.24312E+00
         0.24560E+00
         0.24441E+00
         0.10880E+00
         0.11920E+00
         0.12453E+00
         0.11002E+00
         0.14448E+00
         0.13386E+00
         0.12424E+00
         0.11333E+00
         0.10128E+00
         0.10866E+00
         0.12885E+00
         0.14696E+00
         0.14257E+00
         0.11935E+00
         0.13765E+00
         0.10740E+00
         0.10507E+00
         0.10119E+00
         0.11778E+00
         0.11217E+00
         0.14052E+00
         0.13461E+00
         0.14721E+00
         0.13303E+00
         0.11210E+00
         0.12743E+00
         0.11584E+00
         0.12002E+00
         0.12566E+00
         0.11613E+00
         0.11749E+00
         0.12708E+00
         0.11389E+00
         0.11863E+00
         0.15763E+00
         0.14571E+00
         0.13738E+00
         0.13410E+00
         0.13851E+00
         0.14580E+00
         0.15822E+00
         0.14375E+00
         0.13580E+00
         0.14714E+00
         0.14671E+00
         0.15669E+00
         0.14414E+00
         0.14054E+00
         0.13821E+00
         0.14447E+00
         0.15299E+00
         0.13881E+00
         0.19820E+00
         0.19230E+00
         0.20599E+00
         0.20075E+00
         0.19842E+00
         0.20199E+00
         0.20437E+00
         0.20559E+00
         0.20995E+00
         0.21839E+00
         0.21764E+00
         0.21553E+00
         0.19655E+00
         0.19815E+00
         0.20213E+00
         0.20215E+00
         0.20391E+00
         0.21074E+00
         0.20426E+00
         0.20756E+00
         0.20065E+00
         0.19630E+00
         0.19578E+00
         0.19319E+00
         0.19046E+00
         0.18772E+00
         0.76398E-01
         0.83639E-01
         0.87081E-01
         0.76996E-01
         0.10034E+00
         0.90923E-01
         0.86438E-01
         0.80689E-01
         0.71403E-01
         0.78474E-01
         0.88400E-01
         0.96317E-01
         0.94688E-01
         0.82710E-01
         0.93424E-01
         0.72765E-01
         0.74006E-01
         0.70891E-01
         0.78708E-01
         0.76470E-01
         0.89708E-01
         0.88376E-01
         0.93145E-01
         0.87633E-01
         0.78075E-01
         0.84566E-01
         0.78845E-01
         0.81962E-01
         0.87393E-01
         0.79653E-01
         0.79889E-01
         0.86653E-01
         0.78568E-01
         0.81836E-01
         0.10947E+00
         0.10163E+00
         0.92145E-01
         0.92242E-01
         0.95767E-01
         0.10090E+00
         0.11071E+00
         0.99569E-01
         0.92155E-01
         0.98046E-01
         0.10080E+00
         0.11133E+00
         0.10176E+00
         0.98566E-01
         0.94982E-01
         0.99014E-01
         0.10236E+00
         0.93592E-01
         0.13433E+00
         0.12939E+00
         0.13938E+00
         0.13425E+00
         0.12987E+00
         0.12921E+00
         0.13525E+00
         0.13355E+00
         0.14077E+00
         0.14935E+00
         0.15261E+00
         0.14652E+00
         0.13116E+00
         0.12886E+00
         0.12847E+00
         0.13205E+00
         0.14096E+00
         0.14588E+00
         0.14862E+00
         0.14613E+00
         0.13568E+00
         0.12752E+00
         0.12548E+00
         0.12274E+00
         0.12351E+00
         0.12503E+00
         0.48198E-01
         0.53077E-01
         0.54065E-01
         0.47493E-01
         0.64137E-01
         0.58263E-01
         0.56473E-01
         0.50493E-01
         0.43190E-01
         0.49375E-01
         0.59673E-01
         0.66548E-01
         0.65328E-01
         0.54381E-01
         0.61789E-01
         0.45314E-01
         0.47359E-01
         0.44242E-01
         0.52820E-01
         0.50437E-01
         0.62102E-01
         0.59494E-01
         0.64997E-01
         0.59837E-01
         0.50034E-01
         0.54930E-01
         0.52695E-01
         0.53742E-01
         0.57070E-01
         0.51783E-01
         0.47505E-01
         0.54145E-01
         0.47867E-01
         0.52231E-01
         0.73493E-01
         0.65459E-01
         0.60945E-01
         0.60974E-01
         0.63909E-01
         0.71097E-01
         0.81741E-01
         0.68783E-01
         0.61361E-01
         0.68486E-01
         0.68620E-01
         0.75928E-01
         0.67966E-01
         0.63635E-01
         0.63232E-01
         0.67672E-01
         0.71852E-01
         0.63297E-01
         0.10187E+00
         0.99053E-01
         0.10568E+00
         0.10102E+00
         0.97463E-01
         0.95210E-01
         0.93199E-01
         0.95351E-01
         0.10736E+00
         0.12796E+00
         0.14179E+00
         0.11913E+00
         0.94929E-01
         0.89105E-01
         0.90388E-01
         0.95899E-01
         0.10531E+00
         0.11468E+00
         0.11436E+00
         0.11008E+00
         0.10058E+00
         0.95489E-01
         0.95830E-01
         0.94616E-01
         0.98069E-01
         0.94824E-01
         0.23883E-01
         0.27856E-01
         0.30926E-01
         0.25560E-01
         0.38119E-01
         0.32605E-01
         0.30156E-01
         0.23199E-01
         0.20017E-01
         0.21758E-01
         0.31653E-01
         0.39724E-01
         0.38376E-01
         0.26104E-01
         0.37767E-01
         0.22885E-01
         0.21043E-01
         0.23510E-01
         0.25368E-01
         0.22042E-01
         0.33854E-01
         0.31924E-01
         0.36996E-01
         0.32740E-01
         0.20630E-01
         0.30251E-01
         0.22959E-01
         0.23026E-01
         0.25635E-01
         0.22230E-01
         0.26558E-01
         0.30819E-01
         0.26214E-01
         0.28046E-01
         0.43102E-01
         0.39176E-01
         0.35244E-01
         0.35747E-01
         0.34590E-01
         0.36338E-01
         0.45389E-01
         0.35810E-01
         0.32580E-01
         0.39675E-01
         0.38388E-01
         0.42117E-01
         0.37716E-01
         0.37817E-01
         0.36451E-01
         0.39352E-01
         0.42352E-01
         0.35742E-01
         0.63230E-01
         0.56179E-01
         0.66472E-01
         0.62494E-01
         0.59464E-01
         0.58890E-01
         0.60343E-01
         0.68335E-01
         0.77140E-01
         0.91268E-01
         0.99748E-01
         0.79486E-01
         0.63893E-01
         0.60071E-01
         0.55379E-01
         0.57220E-01
         0.63142E-01
         0.68600E-01
         0.68087E-01
         0.70093E-01
         0.62331E-01
         0.57142E-01
         0.58266E-01
         0.59286E-01
         0.54519E-01
         0.52188E-01
         0.12453E-01
         0.13693E-01
         0.15279E-01
         0.11904E-01
         0.23213E-01
         0.18495E-01
         0.15899E-01
         0.11554E-01
         0.10370E-01
         0.14360E-01
         0.17320E-01
         0.21864E-01
         0.21053E-01
         0.14155E-01
         0.18807E-01
         0.11353E-01
         0.12920E-01
         0.14461E-01
         0.11947E-01
         0.11107E-01
         0.16735E-01
         0.14889E-01
         0.20796E-01
         0.19788E-01
         0.12724E-01
         0.15911E-01
         0.12773E-01
         0.14012E-01
         0.16498E-01
         0.13334E-01
         0.14127E-01
         0.16387E-01
         0.14411E-01
         0.15038E-01
         0.29018E-01
         0.23208E-01
         0.18897E-01
         0.19129E-01
         0.21157E-01
         0.24566E-01
         0.30937E-01
         0.22537E-01
         0.16531E-01
         0.23330E-01
         0.23571E-01
         0.29605E-01
         0.25864E-01
         0.24506E-01
         0.22074E-01
         0.23200E-01
         0.26104E-01
         0.21332E-01
         0.48827E-01
         0.45049E-01
         0.51730E-01
         0.49950E-01
         0.46718E-01
         0.43312E-01
         0.45626E-01
         0.43344E-01
         0.51414E-01
         0.67282E-01
         0.77898E-01
         0.61981E-01
         0.41321E-01
         0.37797E-01
         0.40736E-01
         0.44997E-01
         0.53837E-01
         0.58669E-01
         0.58579E-01
         0.58626E-01
         0.49838E-01
         0.45626E-01
         0.49311E-01
         0.46379E-01
         0.44000E-01
         0.40604E-01
         0.62898E-02
         0.47424E-02
         0.60698E-02
         0.43763E-02
         0.90141E-02
         0.69679E-02
         0.69014E-02
         0.52944E-02
         0.67091E-02
         0.68149E-02
         0.59766E-02
         0.74757E-02
         0.82590E-02
         0.57979E-02
         0.63119E-02
         0.70848E-02
         0.66652E-02
         0.94490E-02
         0.54255E-02
         0.44913E-02
         0.61074E-02
         0.64438E-02
         0.63974E-02
         0.10796E-01
         0.51583E-02
         0.77626E-02
         0.70279E-02
         0.55075E-02
         0.53597E-02
         0.44714E-02
         0.83793E-02
         0.58850E-02
         0.93050E-02
         0.62772E-02
         0.11281E-01
         0.90803E-02
         0.64831E-02
         0.74885E-02
         0.73797E-02
         0.94871E-02
         0.14468E-01
         0.80851E-02
         0.63125E-02
         0.99450E-02
         0.91811E-02
         0.12595E-01
         0.10316E-01
         0.11861E-01
         0.94524E-02
         0.95921E-02
         0.10231E-01
         0.82060E-02
         0.18749E-01
         0.18031E-01
         0.23260E-01
         0.22808E-01
         0.18721E-01
         0.19021E-01
         0.22674E-01
         0.27682E-01
         0.36788E-01
         0.51958E-01
         0.60243E-01
         0.48384E-01
         0.26579E-01
         0.18312E-01
         0.16711E-01
         0.20356E-01
         0.27932E-01
         0.33038E-01
         0.32646E-01
         0.32277E-01
         0.24597E-01
         0.21420E-01
         0.21343E-01
         0.20716E-01
         0.22641E-01
         0.19381E-01
         0.60240E-02
         0.42506E-02
         0.35438E-02
         0.39824E-02
         0.62718E-02
         0.60730E-02
         0.44489E-02
         0.51659E-02
         0.91382E-02
         0.85304E-02
         0.37245E-02
         0.42350E-02
         0.58492E-02
         0.41473E-02
         0.31695E-02
         0.52595E-02
         0.86396E-02
         0.77202E-02
         0.35498E-02
         0.45201E-02
         0.29997E-02
         0.33044E-02
         0.51303E-02
         0.10619E-01
         0.94325E-02
         0.76035E-02
         0.69920E-02
         0.74837E-02
         0.77658E-02
         0.64689E-02
         0.79305E-02
         0.40666E-02
         0.85129E-02
         0.49602E-02
         0.71761E-02
         0.46534E-02
         0.40822E-02
         0.41919E-02
         0.50886E-02
         0.88744E-02
         0.13153E-01
         0.77476E-02
         0.47576E-02
         0.49960E-02
         0.64807E-02
         0.10337E-01
         0.56458E-02
         0.63026E-02
         0.49431E-02
         0.55977E-02
         0.78794E-02
         0.69744E-02
         0.20323E-01
         0.17990E-01
         0.20072E-01
         0.19184E-01
         0.14969E-01
         0.10932E-01
         0.16734E-01
         0.15435E-01
         0.26606E-01
         0.41066E-01
         0.53230E-01
         0.36178E-01
         0.15950E-01
         0.89870E-02
         0.10497E-01
         0.12598E-01
         0.24070E-01
         0.29364E-01
         0.27571E-01
         0.36087E-01
         0.28444E-01
         0.27505E-01
         0.26572E-01
         0.22333E-01
         0.19425E-01
         0.16284E-01
         0.19700E-02
         0.13065E-02
         0.13648E-02
         0.53591E-03
         0.29253E-02
         0.17344E-02
         0.18096E-02
         0.20833E-02
         0.39264E-02
         0.30981E-02
         0.16832E-02
         0.25241E-02
         0.31054E-02
         0.27802E-02
         0.18447E-02
         0.29849E-02
         0.35926E-02
         0.40787E-02
         0.36438E-02
         0.18555E-02
         0.13694E-02
         0.13266E-02
         0.18432E-02
         0.77502E-02
         0.30035E-02
         0.45247E-02
         0.49416E-02
         0.38240E-02
         0.32361E-02
         0.20988E-02
         0.50985E-02
         0.22899E-02
         0.64433E-02
         0.19290E-02
         0.49735E-02
         0.32676E-02
         0.19869E-02
         0.20875E-02
         0.36964E-02
         0.62345E-02
         0.12093E-01
         0.55497E-02
         0.22464E-02
         0.57314E-02
         0.58692E-02
         0.98147E-02
         0.51954E-02
         0.64639E-02
         0.44131E-02
         0.32351E-02
         0.26565E-02
         0.15224E-02
         0.20851E-01
         0.13220E-01
         0.24719E-01
         0.22001E-01
         0.15219E-01
         0.14298E-01
         0.16058E-01
         0.19954E-01
         0.31379E-01
         0.47236E-01
         0.54669E-01
         0.42330E-01
         0.24217E-01
         0.13590E-01
         0.11405E-01
         0.13893E-01
         0.27087E-01
         0.34141E-01
         0.32813E-01
         0.32917E-01
         0.22309E-01
         0.20717E-01
         0.19248E-01
         0.18377E-01
         0.12637E-01
         0.10304E-01
         0.22788E-02
         0.86054E-03
         0.15036E-03
         0.28604E-03
         0.13311E-02
         0.13060E-02
         0.21414E-02
         0.26786E-02
         0.58073E-02
         0.31877E-02
         0.25505E-02
         0.13436E-02
         0.21194E-02
         0.23578E-02
         0.13950E-02
         0.22937E-02
         0.31642E-02
         0.33589E-02
         0.25058E-02
         0.75407E-03
         0.13969E-02
         0.46068E-03
         0.18159E-02
         0.75219E-02
         0.17382E-02
         0.46124E-02
         0.37774E-02
         0.26261E-02
         0.25464E-02
         0.14322E-02
         0.46967E-02
         0.11678E-02
         0.61774E-02
         0.18949E-02
         0.15668E-02
         0.14671E-02
         0.12274E-02
         0.98276E-03
         0.17776E-02
         0.26396E-02
         0.84896E-02
         0.23056E-02
         0.10682E-02
         0.38636E-02
         0.17840E-02
         0.29953E-02
         0.16537E-02
         0.37956E-02
         0.19370E-02
         0.11080E-02
         0.19739E-02
         0.15344E-02
         0.13103E-01
         0.10187E-01
         0.13613E-01
         0.13464E-01
         0.10804E-01
         0.11446E-01
         0.15698E-01
         0.11057E-01
         0.22744E-01
         0.40764E-01
         0.57115E-01
         0.37665E-01
         0.12896E-01
         0.65953E-02
         0.84859E-02
         0.86085E-02
         0.18047E-01
         0.22271E-01
         0.25886E-01
         0.31793E-01
         0.21871E-01
         0.17024E-01
         0.15095E-01
         0.14918E-01
         0.11396E-01
         0.90714E-02
         0.45996E-02
         0.12515E-02
         0.00000E+00
         0.79296E-03
         0.00000E+00
         0.00000E+00
         0.17790E-02
         0.37442E-02
         0.42861E-02
         0.18550E-02
         0.15003E-02
         0.73046E-03
         0.19324E-02
         0.38143E-02
         0.16124E-03
         0.38370E-02
         0.31637E-02
         0.60340E-02
         0.19835E-02
         0.59364E-03
         0.00000E+00
         0.62512E-03
         0.53243E-03
         0.65427E-02
         0.99887E-03
         0.36888E-02
         0.50139E-02
         0.43417E-02
         0.44246E-02
         0.13079E-02
         0.40332E-02
         0.35625E-03
         0.49984E-02
         0.44175E-03
         0.81857E-04
         0.11547E-03
         0.18723E-03
         0.12262E-02
         0.36339E-02
         0.84203E-02
         0.20017E-01
         0.68580E-02
         0.20553E-02
         0.33839E-02
         0.22027E-02
         0.58711E-02
         0.19557E-02
         0.41915E-02
         0.30385E-02
         0.16989E-02
         0.16059E-02
         0.21157E-03
         0.12755E-01
         0.11382E-01
         0.13605E-01
         0.12883E-01
         0.11018E-01
         0.13491E-01
         0.15095E-01
         0.19499E-01
         0.37451E-01
         0.69198E-01
         0.10052E+00
         0.72024E-01
         0.33689E-01
         0.13645E-01
         0.76917E-02
         0.10857E-01
         0.20928E-01
         0.28691E-01
         0.32589E-01
         0.32473E-01
         0.20403E-01
         0.16015E-01
         0.17694E-01
         0.16869E-01
         0.10914E-01
         0.79758E-02
         0.19441E-01
         0.22102E-01
         0.14847E-01
         0.14667E-01
         0.18771E-01
         0.11171E-01
         0.24753E-01
         0.21988E-01
         0.19104E-01
         0.23621E-01
         0.27455E-01
         0.43134E-01
         0.33339E-01
         0.26005E-01
         0.44591E-01
         0.15041E-01
         0.19434E-01
         0.16435E-01
         0.21310E-01
         0.17908E-01
         0.29724E-01
         0.28679E-01
         0.31861E-01
         0.26619E-01
         0.23359E-01
         0.21318E-01
         0.24029E-01
         0.23439E-01
         0.33367E-01
         0.17137E-01
         0.16424E-01
         0.18259E-01
         0.14629E-01
         0.10108E-01
         0.32191E-01
         0.24255E-01
         0.23480E-01
         0.38474E-01
         0.41056E-01
         0.68049E-01
         0.10817E+00
         0.63247E-01
         0.32105E-01
         0.35519E-01
         0.33679E-01
         0.44230E-01
         0.27393E-01
         0.14599E-01
         0.13770E-01
         0.16131E-01
         0.21993E-01
         0.13425E-01
         0.82447E-01
         0.69672E-01
         0.82163E-01
         0.76063E-01
         0.71049E-01
         0.82326E-01
         0.10268E+00
         0.12382E+00
         0.17343E+00
         0.24007E+00
         0.29054E+00
         0.23910E+00
         0.14902E+00
         0.96291E-01
         0.78235E-01
         0.78794E-01
         0.90954E-01
         0.10795E+00
         0.12198E+00
         0.11441E+00
         0.83365E-01
         0.73494E-01
         0.75818E-01
         0.77920E-01
         0.68152E-01
         0.61769E-01
  
SCALARS                            dam  double 1
LOOKUP_TABLE default
         0.00000E+00
         0.00000E+00
         0.00000E+00
         0.00000E+00
         0.00000E+00
         0.00000E+00
         0.00000E+00
         0.00000E+00
         0.00000E+00
         0.00000E+00
         0.00000E+00
         0.00000E+00
         0.00000E+00
         0.00000E+00
         0.00000E+00
         0.00000E+00
         0.00000E+00
         0.00000E+00
         0.00000E+00
         0.00000E+00
         0.00000E+00
         0.00000E+00
         0.00000E+00
         0.00000E+00
         0.00000E+00
         0.00000E+00
         0.00000E+00
         0.00000E+00
         0.00000E+00
         0.00000E+00
         0.00000E+00
         0.00000E+00
         0.00000E+00
         0.00000E+00
         0.00000E+00
         0.00000E+00
         0.00000E+00
         0.00000E+00
         0.00000E+00
         0.00000E+00
         0.00000E+00
         0.00000E+00
         0.00000E+00
         0.00000E+00
         0.00000E+00
         0.00000E+00
         0.00000E+00
         0.00000E+00
         0.00000E+00
         0.00000E+00
         0.00000E+00
         0.00000E+00
         0.00000E+00
         0.00000E+00
         0.00000E+00
         0.00000E+00
         0.00000E+00
         0.00000E+00
         0.00000E+00
         0.00000E+00
         0.00000E+00
         0.00000E+00
         0.00000E+00
         0.00000E+00
         0.00000E+00
         0.00000E+00
         0.00000E+00
         0.00000E+00
         0.00000E+00
         0.00000E+00
         0.00000E+00
         0.00000E+00
         0.00000E+00
         0.00000E+00
         0.00000E+00
         0.00000E+00
         0.00000E+00
         0.00000E+00
         0.00000E+00
         0.00000E+00
         0.00000E+00
         0.00000E+00
         0.00000E+00
         0.00000E+00
         0.00000E+00
         0.00000E+00
         0.00000E+00
         0.00000E+00
         0.00000E+00
         0.00000E+00
         0.00000E+00
         0.00000E+00
         0.00000E+00
         0.00000E+00
         0.00000E+00
         0.00000E+00
         0.00000E+00
         0.00000E+00
         0.00000E+00
         0.00000E+00
         0.00000E+00
         0.00000E+00
         0.00000E+00
         0.00000E+00
         0.00000E+00
         0.00000E+00
         0.00000E+00
         0.00000E+00
         0.00000E+00
         0.00000E+00
         0.00000E+00
         0.00000E+00
         0.00000E+00
         0.00000E+00
         0.00000E+00
         0.00000E+00
         0.00000E+00
         0.00000E+00
         0.00000E+00
         0.00000E+00
         0.00000E+00
         0.00000E+00
         0.00000E+00
         0.00000E+00
         0.00000E+00
         0.00000E+00
         0.00000E+00
         0.00000E+00
         0.00000E+00
         0.00000E+00
         0.00000E+00
         0.00000E+00
         0.00000E+00
         0.00000E+00
         0.00000E+00
         0.00000E+00
         0.00000E+00
         0.00000E+00
         0.00000E+00
         0.00000E+00
         0.00000E+00
         0.00000E+00
         0.00000E+00
         0.00000E+00
         0.00000E+00
         0.00000E+00
         0.00000E+00
         0.00000E+00
         0.00000E+00
         0.00000E+00
         0.00000E+00
         0.00000E+00
         0.00000E+00
         0.00000E+00
         0.00000E+00
         0.00000E+00
         0.00000E+00
         0.00000E+00
         0.00000E+00
         0.00000E+00
         0.00000E+00
         0.00000E+00
         0.00000E+00
         0.00000E+00
         0.00000E+00
         0.00000E+00
         0.00000E+00
         0.00000E+00
         0.00000E+00
         0.00000E+00
         0.00000E+00
         0.00000E+00
         0.00000E+00
         0.00000E+00
         0.00000E+00
         0.00000E+00
         0.00000E+00
         0.00000E+00
         0.00000E+00
         0.00000E+00
         0.00000E+00
         0.00000E+00
         0.00000E+00
         0.00000E+00
         0.00000E+00
         0.00000E+00
         0.00000E+00
         0.00000E+00
         0.00000E+00
         0.00000E+00
         0.00000E+00
         0.00000E+00
         0.00000E+00
         0.00000E+00
         0.00000E+00
         0.00000E+00
         0.00000E+00
         0.00000E+00
         0.00000E+00
         0.00000E+00
         0.00000E+00
         0.00000E+00
         0.00000E+00
         0.00000E+00
         0.00000E+00
         0.00000E+00
         0.00000E+00
         0.00000E+00
         0.00000E+00
         0.00000E+00
         0.00000E+00
         0.00000E+00
         0.00000E+00
         0.00000E+00
         0.00000E+00
         0.00000E+00
         0.00000E+00
         0.00000E+00
         0.00000E+00
         0.00000E+00
         0.00000E+00
         0.00000E+00
         0.00000E+00
         0.00000E+00
         0.00000E+00
         0.00000E+00
         0.00000E+00
         0.00000E+00
         0.00000E+00
         0.00000E+00
         0.00000E+00
         0.00000E+00
         0.00000E+00
         0.00000E+00
         0.00000E+00
         0.00000E+00
         0.00000E+00
         0.00000E+00
         0.00000E+00
         0.00000E+00
         0.00000E+00
         0.00000E+00
         0.00000E+00
         0.00000E+00
         0.00000E+00
         0.00000E+00
         0.00000E+00
         0.00000E+00
         0.00000E+00
         0.00000E+00
         0.00000E+00
         0.00000E+00
         0.00000E+00
         0.00000E+00
         0.00000E+00
         0.00000E+00
         0.00000E+00
         0.00000E+00
         0.00000E+00
         0.00000E+00
         0.00000E+00
         0.00000E+00
         0.00000E+00
         0.00000E+00
         0.00000E+00
         0.00000E+00
         0.00000E+00
         0.00000E+00
         0.00000E+00
         0.00000E+00
         0.00000E+00
         0.00000E+00
         0.00000E+00
         0.00000E+00
         0.00000E+00
         0.00000E+00
         0.00000E+00
         0.00000E+00
         0.00000E+00
         0.00000E+00
         0.00000E+00
         0.00000E+00
         0.00000E+00
         0.00000E+00
         0.00000E+00
         0.00000E+00
         0.00000E+00
         0.00000E+00
         0.00000E+00
         0.00000E+00
         0.00000E+00
         0.00000E+00
         0.00000E+00
         0.00000E+00
         0.00000E+00
         0.00000E+00
         0.00000E+00
         0.00000E+00
         0.00000E+00
         0.00000E+00
         0.00000E+00
         0.00000E+00
         0.00000E+00
         0.00000E+00
         0.00000E+00
         0.00000E+00
         0.00000E+00
         0.00000E+00
         0.00000E+00
         0.00000E+00
         0.00000E+00
         0.00000E+00
         0.00000E+00
         0.00000E+00
         0.00000E+00
         0.00000E+00
         0.00000E+00
         0.00000E+00
         0.00000E+00
         0.00000E+00
         0.00000E+00
         0.00000E+00
         0.00000E+00
         0.00000E+00
         0.00000E+00
         0.00000E+00
         0.00000E+00
         0.00000E+00
         0.00000E+00
         0.00000E+00
         0.00000E+00
         0.00000E+00
         0.00000E+00
         0.00000E+00
         0.00000E+00
         0.00000E+00
         0.00000E+00
         0.00000E+00
         0.00000E+00
         0.00000E+00
         0.00000E+00
         0.00000E+00
         0.00000E+00
         0.00000E+00
         0.00000E+00
         0.00000E+00
         0.00000E+00
         0.00000E+00
         0.00000E+00
         0.00000E+00
         0.00000E+00
         0.00000E+00
         0.00000E+00
         0.00000E+00
         0.00000E+00
         0.00000E+00
         0.00000E+00
         0.00000E+00
         0.00000E+00
         0.00000E+00
         0.00000E+00
         0.00000E+00
         0.00000E+00
         0.00000E+00
         0.00000E+00
         0.00000E+00
         0.00000E+00
         0.00000E+00
         0.00000E+00
         0.00000E+00
         0.00000E+00
         0.00000E+00
         0.00000E+00
         0.00000E+00
         0.00000E+00
         0.00000E+00
         0.00000E+00
         0.00000E+00
         0.00000E+00
         0.00000E+00
         0.00000E+00
         0.00000E+00
         0.00000E+00
         0.00000E+00
         0.00000E+00
         0.00000E+00
         0.00000E+00
         0.00000E+00
         0.00000E+00
         0.00000E+00
         0.00000E+00
         0.00000E+00
         0.00000E+00
         0.00000E+00
         0.00000E+00
         0.00000E+00
         0.00000E+00
         0.00000E+00
         0.00000E+00
         0.00000E+00
         0.00000E+00
         0.00000E+00
         0.00000E+00
         0.00000E+00
         0.00000E+00
         0.00000E+00
         0.00000E+00
         0.00000E+00
         0.00000E+00
         0.00000E+00
         0.00000E+00
         0.00000E+00
         0.00000E+00
         0.00000E+00
         0.00000E+00
         0.00000E+00
         0.00000E+00
         0.00000E+00
         0.00000E+00
         0.00000E+00
         0.00000E+00
         0.00000E+00
         0.00000E+00
         0.00000E+00
         0.00000E+00
         0.00000E+00
         0.00000E+00
         0.00000E+00
         0.00000E+00
         0.00000E+00
         0.00000E+00
         0.00000E+00
         0.00000E+00
         0.00000E+00
         0.00000E+00
         0.00000E+00
         0.00000E+00
         0.00000E+00
         0.00000E+00
         0.00000E+00
         0.00000E+00
         0.00000E+00
         0.00000E+00
         0.00000E+00
         0.00000E+00
         0.00000E+00
         0.00000E+00
         0.00000E+00
         0.00000E+00
         0.00000E+00
         0.00000E+00
         0.00000E+00
         0.00000E+00
         0.00000E+00
         0.00000E+00
         0.00000E+00
         0.00000E+00
         0.00000E+00
         0.00000E+00
         0.00000E+00
         0.00000E+00
         0.00000E+00
         0.00000E+00
         0.00000E+00
         0.00000E+00
         0.00000E+00
         0.00000E+00
         0.00000E+00
         0.00000E+00
         0.00000E+00
         0.00000E+00
         0.00000E+00
         0.00000E+00
         0.00000E+00
         0.00000E+00
         0.00000E+00
         0.00000E+00
         0.00000E+00
         0.00000E+00
         0.00000E+00
         0.00000E+00
         0.00000E+00
         0.00000E+00
         0.00000E+00
         0.00000E+00
         0.00000E+00
         0.00000E+00
         0.00000E+00
         0.00000E+00
         0.00000E+00
         0.00000E+00
         0.00000E+00
         0.00000E+00
         0.00000E+00
         0.00000E+00
         0.00000E+00
         0.00000E+00
         0.00000E+00
         0.00000E+00
         0.00000E+00
         0.00000E+00
         0.00000E+00
         0.00000E+00
         0.00000E+00
         0.00000E+00
         0.00000E+00
         0.00000E+00
         0.00000E+00
         0.00000E+00
         0.00000E+00
         0.00000E+00
         0.00000E+00
         0.00000E+00
         0.00000E+00
         0.00000E+00
         0.00000E+00
         0.00000E+00
         0.00000E+00
         0.00000E+00
         0.00000E+00
         0.00000E+00
         0.00000E+00
         0.00000E+00
         0.00000E+00
         0.00000E+00
         0.00000E+00
         0.00000E+00
         0.00000E+00
         0.00000E+00
         0.00000E+00
         0.00000E+00
         0.00000E+00
         0.00000E+00
         0.00000E+00
         0.00000E+00
         0.00000E+00
         0.00000E+00
         0.00000E+00
         0.00000E+00
         0.00000E+00
         0.00000E+00
         0.00000E+00
         0.00000E+00
         0.00000E+00
         0.00000E+00
         0.00000E+00
         0.00000E+00
         0.00000E+00
         0.00000E+00
         0.00000E+00
         0.00000E+00
         0.00000E+00
         0.00000E+00
         0.00000E+00
         0.00000E+00
         0.00000E+00
         0.00000E+00
         0.00000E+00
         0.00000E+00
         0.00000E+00
         0.00000E+00
         0.00000E+00
         0.00000E+00
         0.00000E+00
         0.00000E+00
         0.00000E+00
         0.00000E+00
         0.00000E+00
         0.00000E+00
         0.00000E+00
         0.00000E+00
         0.00000E+00
         0.00000E+00
         0.00000E+00
         0.00000E+00
         0.00000E+00
         0.00000E+00
         0.00000E+00
         0.00000E+00
         0.00000E+00
         0.00000E+00
         0.00000E+00
         0.00000E+00
         0.00000E+00
         0.00000E+00
         0.00000E+00
         0.00000E+00
         0.00000E+00
         0.00000E+00
         0.00000E+00
         0.00000E+00
         0.00000E+00
         0.00000E+00
         0.00000E+00
         0.00000E+00
         0.00000E+00
         0.00000E+00
         0.00000E+00
         0.00000E+00
         0.00000E+00
         0.00000E+00
         0.00000E+00
         0.00000E+00
         0.00000E+00
         0.00000E+00
         0.00000E+00
         0.00000E+00
         0.00000E+00
         0.00000E+00
         0.00000E+00
         0.00000E+00
         0.00000E+00
         0.00000E+00
         0.00000E+00
         0.00000E+00
         0.00000E+00
         0.00000E+00
         0.00000E+00
         0.00000E+00
         0.00000E+00
         0.00000E+00
         0.00000E+00
         0.00000E+00
         0.00000E+00
         0.00000E+00
         0.00000E+00
         0.00000E+00
         0.00000E+00
         0.00000E+00
         0.00000E+00
         0.00000E+00
         0.00000E+00
         0.00000E+00
         0.00000E+00
         0.00000E+00
         0.00000E+00
         0.00000E+00
         0.00000E+00
         0.00000E+00
         0.00000E+00
         0.00000E+00
         0.00000E+00
         0.00000E+00
         0.00000E+00
         0.00000E+00
         0.00000E+00
         0.00000E+00
         0.00000E+00
         0.00000E+00
         0.00000E+00
         0.00000E+00
         0.00000E+00
         0.00000E+00
         0.00000E+00
         0.00000E+00
         0.00000E+00
         0.00000E+00
         0.00000E+00
         0.00000E+00
         0.00000E+00
         0.00000E+00
         0.00000E+00
         0.00000E+00
         0.00000E+00
         0.00000E+00
         0.00000E+00
         0.00000E+00
         0.00000E+00
         0.00000E+00
         0.00000E+00
         0.00000E+00
         0.00000E+00
         0.00000E+00
         0.00000E+00
         0.00000E+00
         0.00000E+00
         0.00000E+00
         0.00000E+00
         0.00000E+00
         0.00000E+00
         0.00000E+00
         0.00000E+00
         0.00000E+00
         0.00000E+00
         0.00000E+00
         0.00000E+00
         0.00000E+00
         0.00000E+00
         0.00000E+00
         0.00000E+00
         0.00000E+00
         0.00000E+00
         0.00000E+00
         0.00000E+00
         0.00000E+00
         0.00000E+00
         0.00000E+00
         0.00000E+00
         0.00000E+00
         0.00000E+00
         0.00000E+00
         0.00000E+00
         0.00000E+00
         0.00000E+00
         0.00000E+00
         0.00000E+00
         0.00000E+00
         0.00000E+00
         0.00000E+00
         0.00000E+00
         0.00000E+00
         0.00000E+00
         0.00000E+00
         0.00000E+00
         0.00000E+00
         0.00000E+00
         0.00000E+00
         0.00000E+00
         0.00000E+00
         0.00000E+00
         0.00000E+00
         0.00000E+00
         0.00000E+00
         0.00000E+00
         0.00000E+00
         0.00000E+00
         0.00000E+00
         0.00000E+00
         0.00000E+00
         0.00000E+00
         0.00000E+00
         0.00000E+00
         0.00000E+00
         0.00000E+00
         0.00000E+00
         0.00000E+00
         0.00000E+00
         0.00000E+00
         0.00000E+00
         0.00000E+00
         0.00000E+00
         0.00000E+00
         0.00000E+00
         0.00000E+00
         0.00000E+00
         0.00000E+00
         0.00000E+00
         0.00000E+00
         0.00000E+00
         0.00000E+00
         0.00000E+00
         0.00000E+00
         0.00000E+00
         0.00000E+00
         0.00000E+00
         0.00000E+00
         0.00000E+00
         0.00000E+00
         0.00000E+00
         0.00000E+00
         0.00000E+00
         0.00000E+00
         0.00000E+00
         0.00000E+00
         0.00000E+00
         0.00000E+00
         0.00000E+00
         0.00000E+00
         0.00000E+00
         0.00000E+00
         0.00000E+00
         0.00000E+00
         0.00000E+00
         0.00000E+00
         0.00000E+00
         0.00000E+00
         0.00000E+00
         0.00000E+00
         0.00000E+00
         0.00000E+00
         0.00000E+00
         0.00000E+00
         0.00000E+00
         0.00000E+00
         0.00000E+00
         0.00000E+00
         0.00000E+00
         0.00000E+00
         0.00000E+00
         0.00000E+00
         0.00000E+00
         0.00000E+00
         0.00000E+00
         0.00000E+00
         0.00000E+00
         0.00000E+00
         0.00000E+00
         0.00000E+00
         0.00000E+00
         0.00000E+00
         0.00000E+00
         0.00000E+00
         0.00000E+00
         0.00000E+00
         0.00000E+00
         0.00000E+00
         0.00000E+00
         0.00000E+00
         0.00000E+00
         0.00000E+00
         0.00000E+00
         0.00000E+00
         0.00000E+00
         0.00000E+00
         0.00000E+00
         0.00000E+00
         0.00000E+00
         0.00000E+00
         0.00000E+00
         0.00000E+00
         0.00000E+00
         0.00000E+00
         0.00000E+00
         0.00000E+00
         0.00000E+00
         0.00000E+00
         0.00000E+00
         0.00000E+00
         0.00000E+00
         0.00000E+00
         0.00000E+00
         0.00000E+00
         0.00000E+00
         0.00000E+00
         0.00000E+00
         0.00000E+00
         0.00000E+00
         0.00000E+00
         0.00000E+00
         0.00000E+00
         0.00000E+00
         0.00000E+00
         0.00000E+00
         0.00000E+00
         0.00000E+00
         0.00000E+00
         0.00000E+00
         0.00000E+00
         0.00000E+00
         0.00000E+00
         0.00000E+00
         0.00000E+00
         0.00000E+00
         0.00000E+00
         0.00000E+00
         0.00000E+00
         0.00000E+00
         0.00000E+00
         0.00000E+00
         0.00000E+00
         0.00000E+00
         0.00000E+00
         0.00000E+00
         0.00000E+00
         0.00000E+00
         0.00000E+00
         0.00000E+00
         0.00000E+00
         0.00000E+00
         0.00000E+00
         0.00000E+00
         0.00000E+00
         0.00000E+00
         0.00000E+00
         0.00000E+00
         0.00000E+00
         0.00000E+00
         0.00000E+00
         0.00000E+00
         0.00000E+00
         0.00000E+00
         0.00000E+00
         0.00000E+00
         0.00000E+00
         0.00000E+00
         0.00000E+00
         0.00000E+00
         0.00000E+00
         0.00000E+00
         0.00000E+00
         0.00000E+00
         0.00000E+00
         0.00000E+00
         0.00000E+00
         0.00000E+00
         0.00000E+00
         0.00000E+00
         0.00000E+00
         0.00000E+00
         0.00000E+00
         0.00000E+00
         0.00000E+00
         0.00000E+00
         0.00000E+00
         0.00000E+00
         0.00000E+00
         0.00000E+00
         0.00000E+00
         0.00000E+00
         0.00000E+00
         0.00000E+00
         0.00000E+00
         0.00000E+00
         0.00000E+00
         0.00000E+00
         0.00000E+00
         0.00000E+00
         0.00000E+00
         0.00000E+00
         0.00000E+00
         0.00000E+00
         0.00000E+00
         0.00000E+00
         0.00000E+00
         0.00000E+00
         0.00000E+00
         0.00000E+00
         0.00000E+00
         0.00000E+00
         0.00000E+00
         0.00000E+00
         0.00000E+00
         0.00000E+00
         0.00000E+00
         0.00000E+00
         0.00000E+00
         0.00000E+00
         0.00000E+00
         0.00000E+00
         0.00000E+00
         0.00000E+00
         0.00000E+00
         0.00000E+00
         0.00000E+00
         0.00000E+00
         0.00000E+00
         0.00000E+00
         0.00000E+00
         0.00000E+00
         0.00000E+00
         0.00000E+00
         0.00000E+00
         0.00000E+00
         0.00000E+00
         0.00000E+00
         0.00000E+00
         0.00000E+00
         0.00000E+00
         0.00000E+00
         0.00000E+00
         0.00000E+00
         0.00000E+00
         0.00000E+00
         0.00000E+00
         0.00000E+00
         0.00000E+00
         0.00000E+00
         0.00000E+00
         0.00000E+00
         0.00000E+00
         0.00000E+00
         0.00000E+00
         0.00000E+00
         0.00000E+00
         0.00000E+00
         0.00000E+00
         0.00000E+00
         0.00000E+00
         0.00000E+00
         0.00000E+00
         0.00000E+00
         0.00000E+00
         0.00000E+00
         0.00000E+00
         0.00000E+00
         0.00000E+00
         0.00000E+00
         0.00000E+00
         0.00000E+00
         0.00000E+00
         0.00000E+00
         0.00000E+00
         0.00000E+00
         0.00000E+00
         0.00000E+00
         0.00000E+00
         0.00000E+00
         0.00000E+00
         0.00000E+00
         0.00000E+00
         0.00000E+00
         0.00000E+00
         0.00000E+00
         0.00000E+00
         0.00000E+00
         0.00000E+00
         0.00000E+00
         0.00000E+00
         0.00000E+00
         0.00000E+00
         0.00000E+00
         0.00000E+00
         0.00000E+00
         0.00000E+00
         0.00000E+00
         0.00000E+00
         0.00000E+00
         0.00000E+00
         0.00000E+00
         0.00000E+00
         0.00000E+00
         0.00000E+00
         0.00000E+00
         0.00000E+00
         0.00000E+00
         0.00000E+00
         0.00000E+00
         0.00000E+00
         0.00000E+00
         0.00000E+00
         0.00000E+00
         0.00000E+00
         0.00000E+00
         0.00000E+00
         0.00000E+00
         0.00000E+00
         0.00000E+00
         0.00000E+00
         0.00000E+00
         0.00000E+00
         0.00000E+00
         0.00000E+00
         0.00000E+00
         0.00000E+00
         0.00000E+00
         0.00000E+00
         0.00000E+00
         0.00000E+00
         0.00000E+00
         0.00000E+00
         0.00000E+00
         0.00000E+00
         0.00000E+00
         0.00000E+00
         0.00000E+00
         0.00000E+00
         0.00000E+00
         0.00000E+00
         0.00000E+00
         0.00000E+00
         0.00000E+00
         0.00000E+00
         0.00000E+00
         0.00000E+00
         0.00000E+00
         0.00000E+00
         0.00000E+00
         0.00000E+00
         0.00000E+00
         0.00000E+00
         0.00000E+00
         0.00000E+00
         0.00000E+00
         0.00000E+00
         0.00000E+00
         0.00000E+00
         0.00000E+00
         0.00000E+00
         0.00000E+00
         0.00000E+00
         0.00000E+00
         0.00000E+00
         0.00000E+00
         0.00000E+00
         0.00000E+00
         0.00000E+00
         0.00000E+00
         0.00000E+00
         0.00000E+00
         0.00000E+00
         0.00000E+00
         0.00000E+00
         0.00000E+00
         0.00000E+00
         0.00000E+00
         0.00000E+00
         0.00000E+00
         0.00000E+00
         0.00000E+00
         0.00000E+00
         0.00000E+00
         0.00000E+00
         0.00000E+00
         0.00000E+00
         0.00000E+00
         0.00000E+00
         0.00000E+00
         0.00000E+00
         0.00000E+00
         0.00000E+00
         0.00000E+00
         0.00000E+00
         0.00000E+00
         0.00000E+00
         0.00000E+00
         0.00000E+00
         0.00000E+00
         0.00000E+00
         0.00000E+00
         0.00000E+00
         0.00000E+00
         0.00000E+00
         0.00000E+00
         0.00000E+00
         0.00000E+00
         0.00000E+00
         0.00000E+00
         0.00000E+00
         0.00000E+00
         0.00000E+00
         0.00000E+00
         0.00000E+00
         0.00000E+00
         0.00000E+00
         0.00000E+00
         0.00000E+00
         0.00000E+00
         0.00000E+00
         0.00000E+00
         0.00000E+00
         0.00000E+00
         0.00000E+00
         0.00000E+00
         0.00000E+00
         0.00000E+00
         0.00000E+00
         0.00000E+00
         0.00000E+00
         0.00000E+00
         0.00000E+00
         0.00000E+00
         0.00000E+00
         0.00000E+00
         0.00000E+00
         0.00000E+00
         0.00000E+00
         0.00000E+00
         0.00000E+00
         0.00000E+00
         0.00000E+00
         0.00000E+00
         0.00000E+00
         0.00000E+00
         0.00000E+00
         0.00000E+00
         0.00000E+00
         0.00000E+00
         0.00000E+00
         0.00000E+00
         0.00000E+00
         0.00000E+00
         0.00000E+00
         0.00000E+00
         0.00000E+00
         0.00000E+00
         0.00000E+00
         0.00000E+00
         0.00000E+00
         0.00000E+00
         0.00000E+00
         0.00000E+00
         0.00000E+00
         0.00000E+00
         0.00000E+00
         0.00000E+00
         0.00000E+00
         0.00000E+00
         0.00000E+00
         0.00000E+00
         0.00000E+00
         0.00000E+00
         0.00000E+00
         0.00000E+00
         0.00000E+00
         0.00000E+00
         0.00000E+00
         0.00000E+00
         0.00000E+00
         0.00000E+00
         0.00000E+00
         0.00000E+00
         0.00000E+00
         0.00000E+00
         0.00000E+00
         0.00000E+00
         0.00000E+00
         0.00000E+00
         0.00000E+00
         0.00000E+00
         0.00000E+00
         0.00000E+00
         0.00000E+00
         0.00000E+00
         0.00000E+00
         0.00000E+00
         0.00000E+00
         0.00000E+00
         0.00000E+00
         0.00000E+00
         0.00000E+00
         0.00000E+00
         0.00000E+00
         0.00000E+00
         0.00000E+00
         0.00000E+00
         0.00000E+00
         0.00000E+00
         0.00000E+00
         0.00000E+00
         0.00000E+00
         0.00000E+00
         0.00000E+00
         0.00000E+00
         0.00000E+00
         0.00000E+00
         0.00000E+00
         0.00000E+00
         0.00000E+00
         0.00000E+00
         0.00000E+00
         0.00000E+00
         0.00000E+00
         0.00000E+00
         0.00000E+00
         0.00000E+00
         0.00000E+00
         0.00000E+00
         0.00000E+00
         0.00000E+00
         0.00000E+00
         0.00000E+00
         0.00000E+00
         0.00000E+00
         0.00000E+00
         0.00000E+00
         0.00000E+00
         0.00000E+00
         0.00000E+00
         0.00000E+00
         0.00000E+00
         0.00000E+00
         0.00000E+00
         0.00000E+00
         0.00000E+00
         0.00000E+00
         0.00000E+00
         0.00000E+00
         0.00000E+00
         0.00000E+00
         0.00000E+00
         0.00000E+00
         0.00000E+00
         0.00000E+00
         0.00000E+00
         0.00000E+00
         0.00000E+00
         0.00000E+00
         0.00000E+00
         0.00000E+00
         0.00000E+00
         0.00000E+00
         0.00000E+00
         0.00000E+00
         0.00000E+00
         0.00000E+00
         0.00000E+00
         0.00000E+00
         0.00000E+00
         0.00000E+00
         0.00000E+00
         0.00000E+00
         0.00000E+00
         0.00000E+00
         0.00000E+00
         0.00000E+00
         0.00000E+00
         0.00000E+00
         0.00000E+00
         0.00000E+00
         0.00000E+00
         0.00000E+00
         0.00000E+00
         0.00000E+00
         0.00000E+00
         0.00000E+00
         0.00000E+00
         0.00000E+00
         0.00000E+00
         0.00000E+00
         0.00000E+00
         0.00000E+00
         0.00000E+00
         0.00000E+00
         0.00000E+00
         0.00000E+00
         0.00000E+00
         0.00000E+00
         0.00000E+00
         0.00000E+00
         0.00000E+00
         0.00000E+00
         0.00000E+00
         0.00000E+00
         0.00000E+00
         0.00000E+00
         0.00000E+00
         0.00000E+00
         0.00000E+00
         0.00000E+00
         0.00000E+00
         0.00000E+00
         0.00000E+00
         0.00000E+00
         0.00000E+00
         0.00000E+00
         0.00000E+00
         0.00000E+00
         0.00000E+00
         0.00000E+00
         0.00000E+00
         0.00000E+00
         0.00000E+00
         0.00000E+00
         0.00000E+00
         0.00000E+00
         0.00000E+00
         0.00000E+00
         0.00000E+00
         0.00000E+00
         0.00000E+00
         0.00000E+00
         0.00000E+00
         0.00000E+00
         0.00000E+00
         0.00000E+00
         0.00000E+00
         0.00000E+00
         0.00000E+00
         0.00000E+00
         0.00000E+00
         0.00000E+00
         0.00000E+00
         0.00000E+00
         0.00000E+00
         0.00000E+00
         0.00000E+00
         0.00000E+00
         0.00000E+00
         0.00000E+00
         0.00000E+00
         0.00000E+00
         0.00000E+00
         0.00000E+00
         0.00000E+00
         0.00000E+00
         0.00000E+00
         0.00000E+00
         0.00000E+00
         0.00000E+00
         0.00000E+00
         0.00000E+00
         0.00000E+00
         0.00000E+00
         0.00000E+00
         0.00000E+00
         0.00000E+00
         0.00000E+00
         0.00000E+00
         0.00000E+00
         0.00000E+00
         0.00000E+00
         0.00000E+00
         0.00000E+00
         0.00000E+00
         0.00000E+00
         0.00000E+00
         0.00000E+00
         0.00000E+00
         0.00000E+00
         0.00000E+00
         0.00000E+00
         0.00000E+00
         0.00000E+00
         0.00000E+00
         0.00000E+00
         0.00000E+00
         0.00000E+00
         0.00000E+00
         0.00000E+00
         0.00000E+00
         0.00000E+00
         0.00000E+00
         0.00000E+00
         0.00000E+00
         0.00000E+00
         0.00000E+00
         0.00000E+00
         0.00000E+00
         0.00000E+00
         0.00000E+00
         0.00000E+00
         0.00000E+00
         0.00000E+00
         0.00000E+00
         0.00000E+00
         0.00000E+00
         0.00000E+00
         0.00000E+00
         0.00000E+00
         0.00000E+00
         0.00000E+00
         0.00000E+00
         0.00000E+00
         0.00000E+00
         0.00000E+00
         0.00000E+00
         0.00000E+00
         0.00000E+00
         0.00000E+00
         0.00000E+00
         0.00000E+00
         0.00000E+00
         0.00000E+00
         0.00000E+00
         0.00000E+00
         0.00000E+00
         0.00000E+00
         0.00000E+00
         0.00000E+00
         0.00000E+00
         0.00000E+00
         0.00000E+00
         0.00000E+00
         0.00000E+00
         0.00000E+00
         0.00000E+00
         0.00000E+00
         0.00000E+00
         0.00000E+00
         0.00000E+00
         0.00000E+00
         0.00000E+00
         0.00000E+00
         0.00000E+00
         0.00000E+00
         0.00000E+00
         0.00000E+00
         0.00000E+00
         0.00000E+00
         0.00000E+00
         0.00000E+00
         0.00000E+00
         0.00000E+00
         0.00000E+00
         0.00000E+00
         0.00000E+00
         0.00000E+00
         0.00000E+00
         0.00000E+00
         0.00000E+00
         0.00000E+00
         0.00000E+00
         0.00000E+00
         0.00000E+00
         0.00000E+00
         0.00000E+00
         0.00000E+00
         0.00000E+00
         0.00000E+00
         0.00000E+00
         0.00000E+00
         0.00000E+00
         0.00000E+00
         0.00000E+00
         0.00000E+00
         0.00000E+00
         0.00000E+00
         0.00000E+00
         0.00000E+00
         0.00000E+00
         0.00000E+00
         0.00000E+00
         0.00000E+00
         0.00000E+00
         0.00000E+00
         0.00000E+00
         0.00000E+00
         0.00000E+00
         0.00000E+00
         0.00000E+00
         0.00000E+00
         0.00000E+00
         0.00000E+00
         0.00000E+00
         0.00000E+00
         0.00000E+00
         0.00000E+00
         0.00000E+00
         0.00000E+00
         0.00000E+00
         0.00000E+00
         0.00000E+00
         0.00000E+00
         0.00000E+00
         0.00000E+00
         0.00000E+00
         0.00000E+00
         0.00000E+00
         0.00000E+00
         0.00000E+00
         0.00000E+00
         0.00000E+00
         0.00000E+00
         0.00000E+00
         0.00000E+00
         0.00000E+00
         0.00000E+00
         0.00000E+00
         0.00000E+00
         0.00000E+00
         0.00000E+00
         0.00000E+00
         0.00000E+00
         0.00000E+00
         0.00000E+00
         0.00000E+00
         0.00000E+00
         0.00000E+00
         0.00000E+00
         0.00000E+00
         0.00000E+00
         0.00000E+00
         0.00000E+00
         0.00000E+00
         0.00000E+00
         0.00000E+00
         0.00000E+00
         0.00000E+00
         0.00000E+00
         0.00000E+00
         0.00000E+00
         0.00000E+00
         0.00000E+00
         0.00000E+00
         0.00000E+00
         0.00000E+00
         0.00000E+00
         0.00000E+00
         0.00000E+00
         0.00000E+00
         0.00000E+00
         0.00000E+00
         0.00000E+00
         0.00000E+00
         0.00000E+00
         0.00000E+00
         0.00000E+00
         0.00000E+00
         0.00000E+00
         0.00000E+00
         0.00000E+00
         0.00000E+00
         0.00000E+00
         0.00000E+00
         0.00000E+00
         0.00000E+00
         0.00000E+00
         0.00000E+00
         0.00000E+00
         0.00000E+00
         0.00000E+00
         0.00000E+00
         0.00000E+00
         0.00000E+00
         0.00000E+00
         0.00000E+00
         0.00000E+00
         0.00000E+00
         0.00000E+00
         0.00000E+00
         0.00000E+00
         0.00000E+00
         0.00000E+00
         0.00000E+00
         0.00000E+00
         0.00000E+00
         0.00000E+00
         0.00000E+00
         0.00000E+00
         0.00000E+00
         0.00000E+00
         0.00000E+00
         0.00000E+00
         0.00000E+00
         0.00000E+00
         0.00000E+00
         0.00000E+00
         0.00000E+00
         0.00000E+00
         0.00000E+00
         0.00000E+00
         0.00000E+00
         0.00000E+00
         0.00000E+00
         0.00000E+00
         0.00000E+00
         0.00000E+00
         0.00000E+00
         0.00000E+00
         0.00000E+00
         0.00000E+00
         0.00000E+00
         0.00000E+00
         0.00000E+00
         0.00000E+00
         0.00000E+00
         0.00000E+00
         0.00000E+00
         0.00000E+00
         0.00000E+00
         0.00000E+00
         0.00000E+00
         0.00000E+00
         0.00000E+00
         0.00000E+00
         0.00000E+00
         0.00000E+00
         0.00000E+00
         0.00000E+00
         0.00000E+00
         0.00000E+00
         0.00000E+00
         0.00000E+00
         0.00000E+00
         0.00000E+00
         0.00000E+00
         0.00000E+00
         0.00000E+00
         0.00000E+00
         0.00000E+00
         0.00000E+00
         0.00000E+00
         0.00000E+00
         0.00000E+00
         0.00000E+00
         0.00000E+00
         0.00000E+00
         0.00000E+00
         0.00000E+00
         0.00000E+00
         0.00000E+00
         0.00000E+00
         0.00000E+00
         0.00000E+00
         0.00000E+00
         0.00000E+00
         0.00000E+00
         0.00000E+00
         0.00000E+00
         0.00000E+00
         0.00000E+00
         0.00000E+00
         0.00000E+00
         0.00000E+00
         0.00000E+00
         0.00000E+00
         0.00000E+00
         0.00000E+00
         0.00000E+00
         0.00000E+00
         0.00000E+00
         0.00000E+00
         0.00000E+00
         0.00000E+00
         0.00000E+00
         0.00000E+00
         0.00000E+00
         0.00000E+00
         0.00000E+00
         0.00000E+00
         0.00000E+00
         0.00000E+00
         0.00000E+00
         0.00000E+00
         0.00000E+00
         0.00000E+00
         0.00000E+00
         0.00000E+00
         0.00000E+00
         0.00000E+00
         0.00000E+00
         0.00000E+00
         0.00000E+00
         0.00000E+00
         0.00000E+00
         0.00000E+00
         0.00000E+00
         0.00000E+00
         0.00000E+00
         0.00000E+00
         0.00000E+00
         0.00000E+00
         0.00000E+00
         0.00000E+00
         0.00000E+00
         0.00000E+00
         0.00000E+00
         0.00000E+00
         0.00000E+00
         0.00000E+00
         0.00000E+00
         0.00000E+00
         0.00000E+00
         0.00000E+00
         0.00000E+00
         0.00000E+00
         0.00000E+00
         0.00000E+00
         0.00000E+00
         0.00000E+00
         0.00000E+00
         0.00000E+00
         0.00000E+00
         0.00000E+00
         0.00000E+00
         0.00000E+00
         0.00000E+00
         0.00000E+00
         0.00000E+00
         0.00000E+00
         0.00000E+00
         0.00000E+00
         0.00000E+00
         0.00000E+00
         0.00000E+00
         0.00000E+00
         0.00000E+00
         0.00000E+00
         0.00000E+00
         0.00000E+00
         0.00000E+00
         0.00000E+00
         0.00000E+00
         0.00000E+00
         0.00000E+00
         0.00000E+00
         0.00000E+00
         0.00000E+00
         0.00000E+00
         0.00000E+00
         0.00000E+00
         0.00000E+00
         0.00000E+00
         0.00000E+00
         0.00000E+00
         0.00000E+00
         0.00000E+00
         0.00000E+00
         0.00000E+00
         0.00000E+00
         0.00000E+00
         0.00000E+00
         0.00000E+00
         0.00000E+00
         0.00000E+00
         0.00000E+00
         0.00000E+00
         0.00000E+00
         0.00000E+00
         0.00000E+00
         0.00000E+00
         0.00000E+00
         0.00000E+00
         0.00000E+00
         0.00000E+00
         0.00000E+00
         0.00000E+00
         0.00000E+00
         0.00000E+00
         0.00000E+00
         0.00000E+00
         0.00000E+00
         0.00000E+00
         0.00000E+00
         0.00000E+00
         0.00000E+00
         0.00000E+00
         0.00000E+00
         0.00000E+00
         0.00000E+00
         0.00000E+00
         0.00000E+00
         0.00000E+00
         0.00000E+00
         0.00000E+00
         0.00000E+00
         0.00000E+00
         0.00000E+00
         0.00000E+00
         0.00000E+00
         0.00000E+00
         0.00000E+00
         0.00000E+00
         0.00000E+00
         0.00000E+00
         0.00000E+00
         0.00000E+00
         0.00000E+00
         0.00000E+00
         0.00000E+00
         0.00000E+00
         0.00000E+00
         0.00000E+00
         0.00000E+00
         0.00000E+00
         0.00000E+00
         0.00000E+00
         0.00000E+00
         0.00000E+00
         0.00000E+00
         0.00000E+00
         0.00000E+00
         0.00000E+00
         0.00000E+00
         0.00000E+00
         0.00000E+00
         0.00000E+00
         0.00000E+00
         0.00000E+00
         0.00000E+00
         0.00000E+00
         0.00000E+00
         0.00000E+00
         0.00000E+00
         0.00000E+00
         0.00000E+00
         0.00000E+00
         0.00000E+00
         0.00000E+00
         0.00000E+00
         0.00000E+00
         0.00000E+00
         0.00000E+00
         0.00000E+00
         0.00000E+00
         0.00000E+00
         0.00000E+00
         0.00000E+00
         0.00000E+00
         0.00000E+00
         0.00000E+00
         0.00000E+00
         0.00000E+00
         0.00000E+00
         0.00000E+00
         0.00000E+00
         0.00000E+00
         0.00000E+00
         0.00000E+00
         0.00000E+00
         0.00000E+00
         0.00000E+00
         0.00000E+00
         0.00000E+00
         0.00000E+00
         0.00000E+00
         0.00000E+00
         0.00000E+00
         0.00000E+00
         0.00000E+00
         0.00000E+00
         0.00000E+00
         0.00000E+00
         0.00000E+00
         0.00000E+00
         0.00000E+00
         0.00000E+00
         0.00000E+00
         0.00000E+00
         0.00000E+00
         0.00000E+00
         0.00000E+00
         0.00000E+00
         0.00000E+00
         0.00000E+00
         0.00000E+00
         0.00000E+00
         0.00000E+00
         0.00000E+00
         0.00000E+00
         0.00000E+00
         0.00000E+00
         0.00000E+00
         0.00000E+00
         0.00000E+00
         0.00000E+00
         0.00000E+00
         0.00000E+00
         0.00000E+00
         0.00000E+00
         0.00000E+00
         0.00000E+00
         0.00000E+00
         0.00000E+00
         0.00000E+00
         0.00000E+00
         0.00000E+00
         0.00000E+00
         0.00000E+00
         0.00000E+00
         0.00000E+00
         0.00000E+00
         0.00000E+00
         0.00000E+00
         0.00000E+00
         0.00000E+00
         0.00000E+00
         0.00000E+00
         0.00000E+00
         0.00000E+00
         0.00000E+00
         0.00000E+00
         0.00000E+00
         0.00000E+00
         0.00000E+00
         0.00000E+00
         0.00000E+00
         0.00000E+00
         0.00000E+00
         0.00000E+00
  
SCALARS           initial_coordinate_x  double 1
LOOKUP_TABLE default
         0.10378E-02
         0.17452E-02
         0.23177E-02
         0.16698E-02
         0.10379E-02
         0.17453E-02
         0.23178E-02
         0.16700E-02
         0.30377E-02
         0.27791E-02
         0.30377E-02
         0.27788E-02
         0.12850E-02
         0.65139E-03
         0.12851E-02
         0.65164E-03
         0.12757E-03
        -0.12822E-03
         0.12783E-03
        -0.12804E-03
         0.94500E-03
         0.11327E-02
         0.17490E-02
         0.94533E-03
         0.11330E-02
         0.17494E-02
         0.40588E-03
         0.39779E-03
         0.40594E-03
         0.39781E-03
        -0.76303E-03
        -0.86604E-03
         0.46119E-03
        -0.76268E-03
        -0.86593E-03
         0.46164E-03
        -0.18300E-02
        -0.18440E-02
        -0.18297E-02
        -0.18441E-02
        -0.27238E-02
        -0.28028E-02
        -0.27238E-02
        -0.28031E-02
        -0.25365E-02
        -0.19287E-02
        -0.25363E-02
        -0.19283E-02
        -0.99363E-03
        -0.99377E-03
        -0.14380E-02
        -0.14377E-02
        -0.31574E-03
        -0.31594E-03
        -0.11068E-02
        -0.11071E-02
        -0.18845E-02
        -0.18713E-02
        -0.18846E-02
        -0.18714E-02
        -0.15871E-03
        -0.94089E-03
        -0.15844E-03
        -0.94029E-03
         0.78856E-03
         0.78922E-03
         0.17211E-02
         0.17211E-02
         0.32050E-02
         0.28046E-02
         0.32047E-02
         0.28047E-02
         0.23059E-02
         0.23060E-02
        -0.40614E-03
        -0.40627E-03
        -0.12092E-02
        -0.12092E-02
        -0.19448E-02
        -0.19448E-02
        -0.25029E-02
        -0.26371E-02
        -0.25029E-02
        -0.26372E-02
        -0.27671E-02
        -0.27674E-02
        -0.21123E-02
        -0.21122E-02
        -0.16087E-02
        -0.16087E-02
        -0.11939E-02
        -0.58641E-03
        -0.11937E-02
        -0.58606E-03
         0.20912E-03
         0.20952E-03
         0.10586E-02
         0.10589E-02
         0.18413E-02
         0.18413E-02
         0.24544E-02
         0.26022E-02
         0.24543E-02
         0.26021E-02
         0.37964E-02
         0.39100E-02
         0.37964E-02
         0.39100E-02
         0.34621E-02
         0.34621E-02
         0.29267E-02
         0.29267E-02
         0.22211E-02
         0.22211E-02
         0.13865E-02
         0.13865E-02
         0.47130E-03
         0.47130E-03
        -0.47130E-03
        -0.47130E-03
        -0.13865E-02
        -0.13865E-02
        -0.22211E-02
        -0.22211E-02
        -0.29267E-02
        -0.29267E-02
        -0.34621E-02
        -0.34621E-02
        -0.37964E-02
        -0.37964E-02
        -0.39100E-02
        -0.39100E-02
        -0.37964E-02
        -0.37964E-02
        -0.34621E-02
        -0.34621E-02
        -0.29267E-02
        -0.29267E-02
        -0.22211E-02
        -0.22211E-02
        -0.13865E-02
        -0.13865E-02
        -0.47130E-03
        -0.47130E-03
         0.47130E-03
         0.47130E-03
         0.13865E-02
         0.13865E-02
         0.22211E-02
         0.22211E-02
         0.29267E-02
         0.29267E-02
         0.34621E-02
         0.34621E-02
         0.37964E-02
         0.37964E-02
         0.10376E-02
         0.17450E-02
         0.23175E-02
         0.16696E-02
         0.30377E-02
         0.27795E-02
         0.12849E-02
         0.65115E-03
         0.12731E-03
        -0.12841E-03
         0.94467E-03
         0.11323E-02
         0.17487E-02
         0.40583E-03
         0.39777E-03
        -0.76338E-03
        -0.86615E-03
         0.46074E-03
        -0.18303E-02
        -0.18439E-02
        -0.27238E-02
        -0.28025E-02
        -0.25366E-02
        -0.19292E-02
        -0.99349E-03
        -0.14384E-02
        -0.31554E-03
        -0.11064E-02
        -0.18845E-02
        -0.18712E-02
        -0.15899E-03
        -0.94149E-03
         0.78790E-03
         0.17210E-02
         0.32053E-02
         0.28046E-02
         0.23058E-02
        -0.40600E-03
        -0.12092E-02
        -0.19447E-02
        -0.25028E-02
        -0.26370E-02
        -0.27668E-02
        -0.21125E-02
        -0.16088E-02
        -0.11940E-02
        -0.58676E-03
         0.20871E-03
         0.10583E-02
         0.18413E-02
         0.24545E-02
         0.26022E-02
         0.37964E-02
         0.39100E-02
         0.34621E-02
         0.29267E-02
         0.22211E-02
         0.13865E-02
         0.47130E-03
        -0.47130E-03
        -0.13865E-02
        -0.22211E-02
        -0.29267E-02
        -0.34621E-02
        -0.37964E-02
        -0.39100E-02
        -0.37964E-02
        -0.34621E-02
        -0.29267E-02
        -0.22211E-02
        -0.13865E-02
        -0.47130E-03
         0.47130E-03
         0.13865E-02
         0.22211E-02
         0.29267E-02
         0.34621E-02
         0.37964E-02
         0.10375E-02
         0.17448E-02
         0.23174E-02
         0.16694E-02
         0.30377E-02
         0.27798E-02
         0.12848E-02
         0.65090E-03
         0.12705E-03
        -0.12859E-03
         0.94434E-03
         0.11320E-02
         0.17483E-02
         0.40577E-03
         0.39776E-03
        -0.76374E-03
        -0.86626E-03
         0.46029E-03
        -0.18306E-02
        -0.18438E-02
        -0.27238E-02
        -0.28022E-02
        -0.25368E-02
        -0.19296E-02
        -0.99334E-03
        -0.14387E-02
        -0.31534E-03
        -0.11061E-02
        -0.18844E-02
        -0.18710E-02
        -0.15926E-03
        -0.94209E-03
         0.78724E-03
         0.17210E-02
         0.32056E-02
         0.28046E-02
         0.23057E-02
        -0.40586E-03
        -0.12092E-02
        -0.19447E-02
        -0.25028E-02
        -0.26369E-02
        -0.27665E-02
        -0.21126E-02
        -0.16088E-02
        -0.11941E-02
        -0.58711E-03
         0.20830E-03
         0.10580E-02
         0.18414E-02
         0.24546E-02
         0.26023E-02
         0.37964E-02
         0.39100E-02
         0.34621E-02
         0.29267E-02
         0.22211E-02
         0.13865E-02
         0.47130E-03
        -0.47130E-03
        -0.13865E-02
        -0.22211E-02
        -0.29267E-02
        -0.34621E-02
        -0.37964E-02
        -0.39100E-02
        -0.37964E-02
        -0.34621E-02
        -0.29267E-02
        -0.22211E-02
        -0.13865E-02
        -0.47130E-03
         0.47130E-03
         0.13865E-02
         0.22211E-02
         0.29267E-02
         0.34621E-02
         0.37964E-02
         0.10374E-02
         0.17446E-02
         0.23173E-02
         0.16692E-02
         0.30376E-02
         0.27801E-02
         0.12847E-02
         0.65065E-03
         0.12678E-03
        -0.12878E-03
         0.94401E-03
         0.11316E-02
         0.17479E-02
         0.40572E-03
         0.39774E-03
        -0.76409E-03
        -0.86637E-03
         0.45985E-03
        -0.18309E-02
        -0.18437E-02
        -0.27237E-02
        -0.28020E-02
        -0.25369E-02
        -0.19300E-02
        -0.99320E-03
        -0.14391E-02
        -0.31514E-03
        -0.11057E-02
        -0.18844E-02
        -0.18709E-02
        -0.15954E-03
        -0.94269E-03
         0.78658E-03
         0.17209E-02
         0.32060E-02
         0.28046E-02
         0.23056E-02
        -0.40572E-03
        -0.12092E-02
        -0.19446E-02
        -0.25028E-02
        -0.26368E-02
        -0.27662E-02
        -0.21128E-02
        -0.16088E-02
        -0.11942E-02
        -0.58746E-03
         0.20790E-03
         0.10577E-02
         0.18414E-02
         0.24548E-02
         0.26024E-02
         0.37964E-02
         0.39100E-02
         0.34621E-02
         0.29267E-02
         0.22211E-02
         0.13865E-02
         0.47130E-03
        -0.47130E-03
        -0.13865E-02
        -0.22211E-02
        -0.29267E-02
        -0.34621E-02
        -0.37964E-02
        -0.39100E-02
        -0.37964E-02
        -0.34621E-02
        -0.29267E-02
        -0.22211E-02
        -0.13865E-02
        -0.47130E-03
         0.47130E-03
         0.13865E-02
         0.22211E-02
         0.29267E-02
         0.34621E-02
         0.37964E-02
         0.10373E-02
         0.17445E-02
         0.23172E-02
         0.16689E-02
         0.30376E-02
         0.27805E-02
         0.12846E-02
         0.65041E-03
         0.12652E-03
        -0.12896E-03
         0.94367E-03
         0.11313E-02
         0.17475E-02
         0.40566E-03
         0.39772E-03
        -0.76444E-03
        -0.86648E-03
         0.45940E-03
        -0.18312E-02
        -0.18436E-02
        -0.27237E-02
        -0.28017E-02
        -0.25371E-02
        -0.19305E-02
        -0.99305E-03
        -0.14394E-02
        -0.31494E-03
        -0.11054E-02
        -0.18843E-02
        -0.18708E-02
        -0.15981E-03
        -0.94328E-03
         0.78592E-03
         0.17209E-02
         0.32063E-02
         0.28045E-02
         0.23055E-02
        -0.40558E-03
        -0.12092E-02
        -0.19446E-02
        -0.25027E-02
        -0.26367E-02
        -0.27658E-02
        -0.21129E-02
        -0.16089E-02
        -0.11943E-02
        -0.58781E-03
         0.20749E-03
         0.10574E-02
         0.18415E-02
         0.24549E-02
         0.26025E-02
         0.37964E-02
         0.39100E-02
         0.34621E-02
         0.29267E-02
         0.22211E-02
         0.13865E-02
         0.47130E-03
        -0.47130E-03
        -0.13865E-02
        -0.22211E-02
        -0.29267E-02
        -0.34621E-02
        -0.37964E-02
        -0.39100E-02
        -0.37964E-02
        -0.34621E-02
        -0.29267E-02
        -0.22211E-02
        -0.13865E-02
        -0.47130E-03
         0.47130E-03
         0.13865E-02
         0.22211E-02
         0.29267E-02
         0.34621E-02
         0.37964E-02
         0.10372E-02
         0.17443E-02
         0.23171E-02
         0.16687E-02
         0.30376E-02
         0.27808E-02
         0.12845E-02
         0.65016E-03
         0.12626E-03
        -0.12915E-03
         0.94334E-03
         0.11310E-02
         0.17471E-02
         0.40561E-03
         0.39770E-03
        -0.76480E-03
        -0.86659E-03
         0.45895E-03
        -0.18315E-02
        -0.18435E-02
        -0.27237E-02
        -0.28014E-02
        -0.25372E-02
        -0.19309E-02
        -0.99291E-03
        -0.14398E-02
        -0.31474E-03
        -0.11051E-02
        -0.18843E-02
        -0.18706E-02
        -0.16009E-03
        -0.94388E-03
         0.78526E-03
         0.17208E-02
         0.32066E-02
         0.28045E-02
         0.23053E-02
        -0.40545E-03
        -0.12092E-02
        -0.19446E-02
        -0.25027E-02
        -0.26366E-02
        -0.27655E-02
        -0.21130E-02
        -0.16089E-02
        -0.11944E-02
        -0.58816E-03
         0.20709E-03
         0.10571E-02
         0.18415E-02
         0.24550E-02
         0.26025E-02
         0.37964E-02
         0.39100E-02
         0.34621E-02
         0.29267E-02
         0.22211E-02
         0.13865E-02
         0.47130E-03
        -0.47130E-03
        -0.13865E-02
        -0.22211E-02
        -0.29267E-02
        -0.34621E-02
        -0.37964E-02
        -0.39100E-02
        -0.37964E-02
        -0.34621E-02
        -0.29267E-02
        -0.22211E-02
        -0.13865E-02
        -0.47130E-03
         0.47130E-03
         0.13865E-02
         0.22211E-02
         0.29267E-02
         0.34621E-02
         0.37964E-02
         0.10371E-02
         0.17441E-02
         0.23169E-02
         0.16685E-02
         0.30376E-02
         0.27812E-02
         0.12844E-02
         0.64992E-03
         0.12600E-03
        -0.12933E-03
         0.94301E-03
         0.11306E-02
         0.17467E-02
         0.40556E-03
         0.39769E-03
        -0.76515E-03
        -0.86670E-03
         0.45850E-03
        -0.18318E-02
        -0.18434E-02
        -0.27236E-02
        -0.28011E-02
        -0.25374E-02
        -0.19313E-02
        -0.99277E-03
        -0.14401E-02
        -0.31454E-03
        -0.11047E-02
        -0.18842E-02
        -0.18705E-02
        -0.16036E-03
        -0.94448E-03
         0.78460E-03
         0.17208E-02
         0.32070E-02
         0.28045E-02
         0.23052E-02
        -0.40531E-03
        -0.12092E-02
        -0.19445E-02
        -0.25027E-02
        -0.26366E-02
        -0.27652E-02
        -0.21132E-02
        -0.16090E-02
        -0.11946E-02
        -0.58851E-03
         0.20668E-03
         0.10567E-02
         0.18416E-02
         0.24551E-02
         0.26026E-02
         0.37964E-02
         0.39100E-02
         0.34621E-02
         0.29267E-02
         0.22211E-02
         0.13865E-02
         0.47130E-03
        -0.47130E-03
        -0.13865E-02
        -0.22211E-02
        -0.29267E-02
        -0.34621E-02
        -0.37964E-02
        -0.39100E-02
        -0.37964E-02
        -0.34621E-02
        -0.29267E-02
        -0.22211E-02
        -0.13865E-02
        -0.47130E-03
         0.47130E-03
         0.13865E-02
         0.22211E-02
         0.29267E-02
         0.34621E-02
         0.37964E-02
         0.10370E-02
         0.17439E-02
         0.23168E-02
         0.16683E-02
         0.30375E-02
         0.27815E-02
         0.12843E-02
         0.64967E-03
         0.12573E-03
        -0.12952E-03
         0.94268E-03
         0.11303E-02
         0.17463E-02
         0.40550E-03
         0.39767E-03
        -0.76551E-03
        -0.86680E-03
         0.45806E-03
        -0.18321E-02
        -0.18433E-02
        -0.27236E-02
        -0.28009E-02
        -0.25375E-02
        -0.19317E-02
        -0.99262E-03
        -0.14405E-02
        -0.31434E-03
        -0.11044E-02
        -0.18842E-02
        -0.18704E-02
        -0.16064E-03
        -0.94508E-03
         0.78394E-03
         0.17208E-02
         0.32073E-02
         0.28045E-02
         0.23051E-02
        -0.40517E-03
        -0.12092E-02
        -0.19445E-02
        -0.25026E-02
        -0.26365E-02
        -0.27649E-02
        -0.21133E-02
        -0.16090E-02
        -0.11947E-02
        -0.58886E-03
         0.20627E-03
         0.10564E-02
         0.18416E-02
         0.24553E-02
         0.26027E-02
         0.37964E-02
         0.39100E-02
         0.34621E-02
         0.29267E-02
         0.22211E-02
         0.13865E-02
         0.47130E-03
        -0.47130E-03
        -0.13865E-02
        -0.22211E-02
        -0.29267E-02
        -0.34621E-02
        -0.37964E-02
        -0.39100E-02
        -0.37964E-02
        -0.34621E-02
        -0.29267E-02
        -0.22211E-02
        -0.13865E-02
        -0.47130E-03
         0.47130E-03
         0.13865E-02
         0.22211E-02
         0.29267E-02
         0.34621E-02
         0.37964E-02
         0.10368E-02
         0.17438E-02
         0.23167E-02
         0.16681E-02
         0.30375E-02
         0.27819E-02
         0.12842E-02
         0.64943E-03
         0.12547E-03
        -0.12970E-03
         0.94235E-03
         0.11300E-02
         0.17459E-02
         0.40545E-03
         0.39766E-03
        -0.76586E-03
        -0.86691E-03
         0.45761E-03
        -0.18324E-02
        -0.18432E-02
        -0.27236E-02
        -0.28006E-02
        -0.25377E-02
        -0.19322E-02
        -0.99248E-03
        -0.14408E-02
        -0.31414E-03
        -0.11040E-02
        -0.18841E-02
        -0.18703E-02
        -0.16091E-03
        -0.94568E-03
         0.78328E-03
         0.17207E-02
         0.32076E-02
         0.28044E-02
         0.23050E-02
        -0.40503E-03
        -0.12092E-02
        -0.19445E-02
        -0.25026E-02
        -0.26364E-02
        -0.27646E-02
        -0.21134E-02
        -0.16091E-02
        -0.11948E-02
        -0.58921E-03
         0.20587E-03
         0.10561E-02
         0.18416E-02
         0.24554E-02
         0.26027E-02
         0.37964E-02
         0.39100E-02
         0.34621E-02
         0.29267E-02
         0.22211E-02
         0.13865E-02
         0.47130E-03
        -0.47130E-03
        -0.13865E-02
        -0.22211E-02
        -0.29267E-02
        -0.34621E-02
        -0.37964E-02
        -0.39100E-02
        -0.37964E-02
        -0.34621E-02
        -0.29267E-02
        -0.22211E-02
        -0.13865E-02
        -0.47130E-03
         0.47130E-03
         0.13865E-02
         0.22211E-02
         0.29267E-02
         0.34621E-02
         0.37964E-02
         0.10367E-02
         0.17436E-02
         0.23166E-02
         0.16679E-02
         0.30375E-02
         0.27822E-02
         0.12841E-02
         0.64918E-03
         0.12521E-03
        -0.12989E-03
         0.94202E-03
         0.11296E-02
         0.17455E-02
         0.40539E-03
         0.39764E-03
        -0.76621E-03
        -0.86702E-03
         0.45716E-03
        -0.18326E-02
        -0.18431E-02
        -0.27235E-02
        -0.28003E-02
        -0.25379E-02
        -0.19326E-02
        -0.99233E-03
        -0.14412E-02
        -0.31394E-03
        -0.11037E-02
        -0.18841E-02
        -0.18701E-02
        -0.16119E-03
        -0.94628E-03
         0.78262E-03
         0.17207E-02
         0.32079E-02
         0.28044E-02
         0.23049E-02
        -0.40490E-03
        -0.12093E-02
        -0.19444E-02
        -0.25026E-02
        -0.26363E-02
        -0.27643E-02
        -0.21136E-02
        -0.16091E-02
        -0.11949E-02
        -0.58956E-03
         0.20546E-03
         0.10558E-02
         0.18417E-02
         0.24555E-02
         0.26028E-02
         0.37964E-02
         0.39100E-02
         0.34621E-02
         0.29267E-02
         0.22211E-02
         0.13865E-02
         0.47130E-03
        -0.47130E-03
        -0.13865E-02
        -0.22211E-02
        -0.29267E-02
        -0.34621E-02
        -0.37964E-02
        -0.39100E-02
        -0.37964E-02
        -0.34621E-02
        -0.29267E-02
        -0.22211E-02
        -0.13865E-02
        -0.47130E-03
         0.47130E-03
         0.13865E-02
         0.22211E-02
         0.29267E-02
         0.34621E-02
         0.37964E-02
         0.10366E-02
         0.17434E-02
         0.23164E-02
         0.16677E-02
         0.30375E-02
         0.27825E-02
         0.12840E-02
         0.64894E-03
         0.12495E-03
        -0.13007E-03
         0.94169E-03
         0.11293E-02
         0.17451E-02
         0.40534E-03
         0.39762E-03
        -0.76657E-03
        -0.86713E-03
         0.45671E-03
        -0.18329E-02
        -0.18430E-02
        -0.27235E-02
        -0.28001E-02
        -0.25380E-02
        -0.19330E-02
        -0.99219E-03
        -0.14415E-02
        -0.31374E-03
        -0.11033E-02
        -0.18840E-02
        -0.18700E-02
        -0.16146E-03
        -0.94687E-03
         0.78195E-03
         0.17207E-02
         0.32083E-02
         0.28044E-02
         0.23048E-02
        -0.40476E-03
        -0.12093E-02
        -0.19444E-02
        -0.25026E-02
        -0.26362E-02
        -0.27640E-02
        -0.21137E-02
        -0.16091E-02
        -0.11950E-02
        -0.58991E-03
         0.20505E-03
         0.10555E-02
         0.18417E-02
         0.24556E-02
         0.26029E-02
         0.37964E-02
         0.39100E-02
         0.34621E-02
         0.29267E-02
         0.22211E-02
         0.13865E-02
         0.47130E-03
        -0.47130E-03
        -0.13865E-02
        -0.22211E-02
        -0.29267E-02
        -0.34621E-02
        -0.37964E-02
        -0.39100E-02
        -0.37964E-02
        -0.34621E-02
        -0.29267E-02
        -0.22211E-02
        -0.13865E-02
        -0.47130E-03
         0.47130E-03
         0.13865E-02
         0.22211E-02
         0.29267E-02
         0.34621E-02
         0.37964E-02
         0.10365E-02
         0.17432E-02
         0.23163E-02
         0.16675E-02
         0.30374E-02
         0.27829E-02
         0.12839E-02
         0.64869E-03
         0.12468E-03
        -0.13026E-03
         0.94135E-03
         0.11289E-02
         0.17447E-02
         0.40528E-03
         0.39760E-03
        -0.76692E-03
        -0.86724E-03
         0.45626E-03
        -0.18332E-02
        -0.18430E-02
        -0.27235E-02
        -0.27998E-02
        -0.25382E-02
        -0.19334E-02
        -0.99205E-03
        -0.14419E-02
        -0.31354E-03
        -0.11030E-02
        -0.18840E-02
        -0.18699E-02
        -0.16174E-03
        -0.94747E-03
         0.78129E-03
         0.17206E-02
         0.32086E-02
         0.28044E-02
         0.23047E-02
        -0.40462E-03
        -0.12093E-02
        -0.19444E-02
        -0.25025E-02
        -0.26361E-02
        -0.27637E-02
        -0.21139E-02
        -0.16092E-02
        -0.11951E-02
        -0.59025E-03
         0.20465E-03
         0.10552E-02
         0.18418E-02
         0.24558E-02
         0.26030E-02
         0.37964E-02
         0.39100E-02
         0.34621E-02
         0.29267E-02
         0.22211E-02
         0.13865E-02
         0.47130E-03
        -0.47130E-03
        -0.13865E-02
        -0.22211E-02
        -0.29267E-02
        -0.34621E-02
        -0.37964E-02
        -0.39100E-02
        -0.37964E-02
        -0.34621E-02
        -0.29267E-02
        -0.22211E-02
        -0.13865E-02
        -0.47130E-03
         0.47130E-03
         0.13865E-02
         0.22211E-02
         0.29267E-02
         0.34621E-02
         0.37964E-02
         0.10364E-02
         0.17430E-02
         0.23162E-02
         0.16672E-02
         0.30374E-02
         0.27832E-02
         0.12838E-02
         0.64845E-03
         0.12442E-03
        -0.13044E-03
         0.94102E-03
         0.11286E-02
         0.17443E-02
         0.40523E-03
         0.39759E-03
        -0.76727E-03
        -0.86735E-03
         0.45582E-03
        -0.18335E-02
        -0.18429E-02
        -0.27235E-02
        -0.27995E-02
        -0.25383E-02
        -0.19339E-02
        -0.99190E-03
        -0.14422E-02
        -0.31334E-03
        -0.11026E-02
        -0.18839E-02
        -0.18697E-02
        -0.16201E-03
        -0.94807E-03
         0.78063E-03
         0.17206E-02
         0.32089E-02
         0.28043E-02
         0.23046E-02
        -0.40448E-03
        -0.12093E-02
        -0.19443E-02
        -0.25025E-02
        -0.26360E-02
        -0.27633E-02
        -0.21140E-02
        -0.16092E-02
        -0.11953E-02
        -0.59060E-03
         0.20424E-03
         0.10549E-02
         0.18418E-02
         0.24559E-02
         0.26030E-02
         0.37964E-02
         0.39100E-02
         0.34621E-02
         0.29267E-02
         0.22211E-02
         0.13865E-02
         0.47130E-03
        -0.47130E-03
        -0.13865E-02
        -0.22211E-02
        -0.29267E-02
        -0.34621E-02
        -0.37964E-02
        -0.39100E-02
        -0.37964E-02
        -0.34621E-02
        -0.29267E-02
        -0.22211E-02
        -0.13865E-02
        -0.47130E-03
         0.47130E-03
         0.13865E-02
         0.22211E-02
         0.29267E-02
         0.34621E-02
         0.37964E-02
         0.10363E-02
         0.17429E-02
         0.23161E-02
         0.16670E-02
         0.30374E-02
         0.27836E-02
         0.12837E-02
         0.64820E-03
         0.12416E-03
        -0.13063E-03
         0.94069E-03
         0.11282E-02
         0.17439E-02
         0.40518E-03
         0.39757E-03
        -0.76763E-03
        -0.86746E-03
         0.45537E-03
        -0.18338E-02
        -0.18428E-02
        -0.27234E-02
        -0.27992E-02
        -0.25385E-02
        -0.19343E-02
        -0.99176E-03
        -0.14425E-02
        -0.31314E-03
        -0.11023E-02
        -0.18839E-02
        -0.18696E-02
        -0.16229E-03
        -0.94867E-03
         0.77997E-03
         0.17205E-02
         0.32092E-02
         0.28043E-02
         0.23044E-02
        -0.40434E-03
        -0.12093E-02
        -0.19443E-02
        -0.25025E-02
        -0.26359E-02
        -0.27630E-02
        -0.21141E-02
        -0.16093E-02
        -0.11954E-02
        -0.59095E-03
         0.20384E-03
         0.10546E-02
         0.18419E-02
         0.24560E-02
         0.26031E-02
         0.37964E-02
         0.39100E-02
         0.34621E-02
         0.29267E-02
         0.22211E-02
         0.13865E-02
         0.47130E-03
        -0.47130E-03
        -0.13865E-02
        -0.22211E-02
        -0.29267E-02
        -0.34621E-02
        -0.37964E-02
        -0.39100E-02
        -0.37964E-02
        -0.34621E-02
        -0.29267E-02
        -0.22211E-02
        -0.13865E-02
        -0.47130E-03
         0.47130E-03
         0.13865E-02
         0.22211E-02
         0.29267E-02
         0.34621E-02
         0.37964E-02
         0.10362E-02
         0.17427E-02
         0.23160E-02
         0.16668E-02
         0.30373E-02
         0.27839E-02
         0.12836E-02
         0.64796E-03
         0.12390E-03
        -0.13082E-03
         0.94036E-03
         0.11279E-02
         0.17435E-02
         0.40512E-03
         0.39755E-03
        -0.76798E-03
        -0.86756E-03
         0.45492E-03
        -0.18341E-02
        -0.18427E-02
        -0.27234E-02
        -0.27990E-02
        -0.25386E-02
        -0.19347E-02
        -0.99161E-03
        -0.14429E-02
        -0.31294E-03
        -0.11019E-02
        -0.18838E-02
        -0.18695E-02
        -0.16256E-03
        -0.94927E-03
         0.77931E-03
         0.17205E-02
         0.32096E-02
         0.28043E-02
         0.23043E-02
        -0.40420E-03
        -0.12093E-02
        -0.19443E-02
        -0.25024E-02
        -0.26358E-02
        -0.27627E-02
        -0.21143E-02
        -0.16093E-02
        -0.11955E-02
        -0.59130E-03
         0.20343E-03
         0.10543E-02
         0.18419E-02
         0.24561E-02
         0.26032E-02
         0.37964E-02
         0.39100E-02
         0.34621E-02
         0.29267E-02
         0.22211E-02
         0.13865E-02
         0.47130E-03
        -0.47130E-03
        -0.13865E-02
        -0.22211E-02
        -0.29267E-02
        -0.34621E-02
        -0.37964E-02
        -0.39100E-02
        -0.37964E-02
        -0.34621E-02
        -0.29267E-02
        -0.22211E-02
        -0.13865E-02
        -0.47130E-03
         0.47130E-03
         0.13865E-02
         0.22211E-02
         0.29267E-02
         0.34621E-02
         0.37964E-02
         0.10360E-02
         0.17425E-02
         0.23158E-02
         0.16666E-02
         0.30373E-02
         0.27842E-02
         0.12835E-02
         0.64771E-03
         0.12363E-03
        -0.13100E-03
         0.94003E-03
         0.11276E-02
         0.17432E-02
         0.40507E-03
         0.39754E-03
        -0.76834E-03
        -0.86767E-03
         0.45447E-03
        -0.18344E-02
        -0.18426E-02
        -0.27234E-02
        -0.27987E-02
        -0.25388E-02
        -0.19352E-02
        -0.99147E-03
        -0.14433E-02
        -0.31274E-03
        -0.11016E-02
        -0.18838E-02
        -0.18694E-02
        -0.16284E-03
        -0.94986E-03
         0.77865E-03
         0.17205E-02
         0.32099E-02
         0.28042E-02
         0.23042E-02
        -0.40407E-03
        -0.12093E-02
        -0.19442E-02
        -0.25024E-02
        -0.26358E-02
        -0.27624E-02
        -0.21144E-02
        -0.16094E-02
        -0.11956E-02
        -0.59165E-03
         0.20302E-03
         0.10540E-02
         0.18419E-02
         0.24563E-02
         0.26033E-02
         0.37964E-02
         0.39100E-02
         0.34621E-02
         0.29267E-02
         0.22211E-02
         0.13865E-02
         0.47130E-03
        -0.47130E-03
        -0.13865E-02
        -0.22211E-02
        -0.29267E-02
        -0.34621E-02
        -0.37964E-02
        -0.39100E-02
        -0.37964E-02
        -0.34621E-02
        -0.29267E-02
        -0.22211E-02
        -0.13865E-02
        -0.47130E-03
         0.47130E-03
         0.13865E-02
         0.22211E-02
         0.29267E-02
         0.34621E-02
         0.37964E-02
         0.10359E-02
         0.17423E-02
         0.23157E-02
         0.16664E-02
         0.30373E-02
         0.27846E-02
         0.12834E-02
         0.64747E-03
         0.12337E-03
        -0.13118E-03
         0.93970E-03
         0.11272E-02
         0.17428E-02
         0.40501E-03
         0.39752E-03
        -0.76869E-03
        -0.86778E-03
         0.45402E-03
        -0.18347E-02
        -0.18425E-02
        -0.27234E-02
        -0.27984E-02
        -0.25389E-02
        -0.19356E-02
        -0.99133E-03
        -0.14436E-02
        -0.31254E-03
        -0.11013E-02
        -0.18837E-02
        -0.18692E-02
        -0.16311E-03
        -0.95046E-03
         0.77799E-03
         0.17204E-02
         0.32102E-02
         0.28042E-02
         0.23041E-02
        -0.40393E-03
        -0.12093E-02
        -0.19442E-02
        -0.25024E-02
        -0.26357E-02
        -0.27621E-02
        -0.21146E-02
        -0.16094E-02
        -0.11957E-02
        -0.59200E-03
         0.20262E-03
         0.10536E-02
         0.18420E-02
         0.24564E-02
         0.26033E-02
         0.37964E-02
         0.39100E-02
         0.34621E-02
         0.29267E-02
         0.22211E-02
         0.13865E-02
         0.47130E-03
        -0.47130E-03
        -0.13865E-02
        -0.22211E-02
        -0.29267E-02
        -0.34621E-02
        -0.37964E-02
        -0.39100E-02
        -0.37964E-02
        -0.34621E-02
        -0.29267E-02
        -0.22211E-02
        -0.13865E-02
        -0.47130E-03
         0.47130E-03
         0.13865E-02
         0.22211E-02
         0.29267E-02
         0.34621E-02
         0.37964E-02
         0.10358E-02
         0.17422E-02
         0.23156E-02
         0.16662E-02
         0.30373E-02
         0.27849E-02
         0.12833E-02
         0.64722E-03
         0.12311E-03
        -0.13137E-03
         0.93937E-03
         0.11269E-02
         0.17424E-02
         0.40496E-03
         0.39750E-03
        -0.76904E-03
        -0.86789E-03
         0.45358E-03
        -0.18350E-02
        -0.18424E-02
        -0.27233E-02
        -0.27981E-02
        -0.25391E-02
        -0.19360E-02
        -0.99118E-03
        -0.14440E-02
        -0.31234E-03
        -0.11009E-02
        -0.18836E-02
        -0.18691E-02
        -0.16339E-03
        -0.95106E-03
         0.77733E-03
         0.17204E-02
         0.32105E-02
         0.28042E-02
         0.23040E-02
        -0.40379E-03
        -0.12093E-02
        -0.19441E-02
        -0.25023E-02
        -0.26356E-02
        -0.27618E-02
        -0.21147E-02
        -0.16094E-02
        -0.11958E-02
        -0.59235E-03
         0.20221E-03
         0.10533E-02
         0.18420E-02
         0.24565E-02
         0.26034E-02
         0.37964E-02
         0.39100E-02
         0.34621E-02
         0.29267E-02
         0.22211E-02
         0.13865E-02
         0.47130E-03
        -0.47130E-03
        -0.13865E-02
        -0.22211E-02
        -0.29267E-02
        -0.34621E-02
        -0.37964E-02
        -0.39100E-02
        -0.37964E-02
        -0.34621E-02
        -0.29267E-02
        -0.22211E-02
        -0.13865E-02
        -0.47130E-03
         0.47130E-03
         0.13865E-02
         0.22211E-02
         0.29267E-02
         0.34621E-02
         0.37964E-02
         0.10357E-02
         0.17420E-02
         0.23155E-02
         0.16660E-02
         0.30372E-02
         0.27853E-02
         0.12832E-02
         0.64698E-03
         0.12285E-03
        -0.13155E-03
         0.93903E-03
         0.11266E-02
         0.17420E-02
         0.40490E-03
         0.39749E-03
        -0.76940E-03
        -0.86800E-03
         0.45313E-03
        -0.18353E-02
        -0.18423E-02
        -0.27233E-02
        -0.27979E-02
        -0.25393E-02
        -0.19365E-02
        -0.99104E-03
        -0.14443E-02
        -0.31214E-03
        -0.11006E-02
        -0.18836E-02
        -0.18690E-02
        -0.16366E-03
        -0.95166E-03
         0.77667E-03
         0.17203E-02
         0.32109E-02
         0.28042E-02
         0.23039E-02
        -0.40365E-03
        -0.12093E-02
        -0.19441E-02
        -0.25023E-02
        -0.26355E-02
        -0.27615E-02
        -0.21148E-02
        -0.16095E-02
        -0.11960E-02
        -0.59270E-03
         0.20180E-03
         0.10530E-02
         0.18421E-02
         0.24566E-02
         0.26035E-02
         0.37964E-02
         0.39100E-02
         0.34621E-02
         0.29267E-02
         0.22211E-02
         0.13865E-02
         0.47130E-03
        -0.47130E-03
        -0.13865E-02
        -0.22211E-02
        -0.29267E-02
        -0.34621E-02
        -0.37964E-02
        -0.39100E-02
        -0.37964E-02
        -0.34621E-02
        -0.29267E-02
        -0.22211E-02
        -0.13865E-02
        -0.47130E-03
         0.47130E-03
         0.13865E-02
         0.22211E-02
         0.29267E-02
         0.34621E-02
         0.37964E-02
         0.10356E-02
         0.17418E-02
         0.23153E-02
         0.16657E-02
         0.30372E-02
         0.27856E-02
         0.12830E-02
         0.64673E-03
         0.12259E-03
        -0.13174E-03
         0.93870E-03
         0.11262E-02
         0.17416E-02
         0.40485E-03
         0.39747E-03
        -0.76975E-03
        -0.86811E-03
         0.45268E-03
        -0.18356E-02
        -0.18422E-02
        -0.27233E-02
        -0.27976E-02
        -0.25394E-02
        -0.19369E-02
        -0.99090E-03
        -0.14446E-02
        -0.31194E-03
        -0.11002E-02
        -0.18835E-02
        -0.18689E-02
        -0.16394E-03
        -0.95226E-03
         0.77601E-03
         0.17203E-02
         0.32112E-02
         0.28042E-02
         0.23038E-02
        -0.40352E-03
        -0.12093E-02
        -0.19441E-02
        -0.25023E-02
        -0.26354E-02
        -0.27612E-02
        -0.21150E-02
        -0.16095E-02
        -0.11961E-02
        -0.59305E-03
         0.20140E-03
         0.10527E-02
         0.18421E-02
         0.24568E-02
         0.26036E-02
         0.37964E-02
         0.39100E-02
         0.34621E-02
         0.29267E-02
         0.22211E-02
         0.13865E-02
         0.47130E-03
        -0.47130E-03
        -0.13865E-02
        -0.22211E-02
        -0.29267E-02
        -0.34621E-02
        -0.37964E-02
        -0.39100E-02
        -0.37964E-02
        -0.34621E-02
        -0.29267E-02
        -0.22211E-02
        -0.13865E-02
        -0.47130E-03
         0.47130E-03
         0.13865E-02
         0.22211E-02
         0.29267E-02
         0.34621E-02
         0.37964E-02
         0.10355E-02
         0.17416E-02
         0.23152E-02
         0.16655E-02
         0.30372E-02
         0.27860E-02
         0.12829E-02
         0.64649E-03
         0.12232E-03
        -0.13193E-03
         0.93837E-03
         0.11259E-02
         0.17412E-02
         0.40480E-03
         0.39745E-03
        -0.77011E-03
        -0.86822E-03
         0.45223E-03
        -0.18359E-02
        -0.18421E-02
        -0.27232E-02
        -0.27973E-02
        -0.25396E-02
        -0.19373E-02
        -0.99075E-03
        -0.14450E-02
        -0.31173E-03
        -0.10999E-02
        -0.18835E-02
        -0.18687E-02
        -0.16421E-03
        -0.95285E-03
         0.77535E-03
         0.17202E-02
         0.32115E-02
         0.28041E-02
         0.23037E-02
        -0.40338E-03
        -0.12093E-02
        -0.19440E-02
        -0.25023E-02
        -0.26353E-02
        -0.27609E-02
        -0.21151E-02
        -0.16096E-02
        -0.11962E-02
        -0.59340E-03
         0.20099E-03
         0.10524E-02
         0.18422E-02
         0.24569E-02
         0.26036E-02
         0.37964E-02
         0.39100E-02
         0.34621E-02
         0.29267E-02
         0.22211E-02
         0.13865E-02
         0.47130E-03
        -0.47130E-03
        -0.13865E-02
        -0.22211E-02
        -0.29267E-02
        -0.34621E-02
        -0.37964E-02
        -0.39100E-02
        -0.37964E-02
        -0.34621E-02
        -0.29267E-02
        -0.22211E-02
        -0.13865E-02
        -0.47130E-03
         0.47130E-03
         0.13865E-02
         0.22211E-02
         0.29267E-02
         0.34621E-02
         0.37964E-02
         0.10354E-02
         0.17414E-02
         0.23151E-02
         0.16653E-02
         0.30372E-02
         0.27863E-02
         0.12829E-02
         0.64624E-03
         0.12206E-03
        -0.13211E-03
         0.93804E-03
         0.11255E-02
         0.17408E-02
         0.40474E-03
         0.39744E-03
        -0.77046E-03
        -0.86832E-03
         0.45179E-03
        -0.18362E-02
        -0.18420E-02
        -0.27232E-02
        -0.27970E-02
        -0.25397E-02
        -0.19377E-02
        -0.99061E-03
        -0.14453E-02
        -0.31153E-03
        -0.10995E-02
        -0.18834E-02
        -0.18686E-02
        -0.16449E-03
        -0.95345E-03
         0.77469E-03
         0.17202E-02
         0.32119E-02
         0.28041E-02
         0.23036E-02
        -0.40324E-03
        -0.12093E-02
        -0.19440E-02
        -0.25022E-02
        -0.26352E-02
        -0.27606E-02
        -0.21152E-02
        -0.16096E-02
        -0.11963E-02
        -0.59375E-03
         0.20059E-03
         0.10521E-02
         0.18422E-02
         0.24570E-02
         0.26037E-02
         0.37964E-02
         0.39100E-02
         0.34621E-02
         0.29267E-02
         0.22211E-02
         0.13865E-02
         0.47130E-03
        -0.47130E-03
        -0.13865E-02
        -0.22211E-02
        -0.29267E-02
        -0.34621E-02
        -0.37964E-02
        -0.39100E-02
        -0.37964E-02
        -0.34621E-02
        -0.29267E-02
        -0.22211E-02
        -0.13865E-02
        -0.47130E-03
         0.47130E-03
         0.13865E-02
         0.22211E-02
         0.29267E-02
         0.34621E-02
         0.37964E-02
         0.10352E-02
         0.17413E-02
         0.23150E-02
         0.16651E-02
         0.30371E-02
         0.27866E-02
         0.12827E-02
         0.64600E-03
         0.12180E-03
        -0.13230E-03
         0.93771E-03
         0.11252E-02
         0.17404E-02
         0.40469E-03
         0.39742E-03
        -0.77081E-03
        -0.86843E-03
         0.45134E-03
        -0.18365E-02
        -0.18419E-02
        -0.27232E-02
        -0.27968E-02
        -0.25399E-02
        -0.19382E-02
        -0.99046E-03
        -0.14457E-02
        -0.31133E-03
        -0.10992E-02
        -0.18834E-02
        -0.18685E-02
        -0.16476E-03
        -0.95405E-03
         0.77402E-03
         0.17202E-02
         0.32122E-02
         0.28041E-02
         0.23034E-02
        -0.40310E-03
        -0.12093E-02
        -0.19440E-02
        -0.25022E-02
        -0.26351E-02
        -0.27602E-02
        -0.21154E-02
        -0.16097E-02
        -0.11964E-02
        -0.59409E-03
         0.20018E-03
         0.10518E-02
         0.18422E-02
         0.24571E-02
         0.26038E-02
         0.37964E-02
         0.39100E-02
         0.34621E-02
         0.29267E-02
         0.22211E-02
         0.13865E-02
         0.47130E-03
        -0.47130E-03
        -0.13865E-02
        -0.22211E-02
        -0.29267E-02
        -0.34621E-02
        -0.37964E-02
        -0.39100E-02
        -0.37964E-02
        -0.34621E-02
        -0.29267E-02
        -0.22211E-02
        -0.13865E-02
        -0.47130E-03
         0.47130E-03
         0.13865E-02
         0.22211E-02
         0.29267E-02
         0.34621E-02
         0.37964E-02
         0.10351E-02
         0.17411E-02
         0.23149E-02
         0.16649E-02
         0.30371E-02
         0.27870E-02
         0.12826E-02
         0.64575E-03
         0.12154E-03
        -0.13248E-03
         0.93738E-03
         0.11249E-02
         0.17400E-02
         0.40463E-03
         0.39740E-03
        -0.77117E-03
        -0.86854E-03
         0.45089E-03
        -0.18368E-02
        -0.18418E-02
        -0.27232E-02
        -0.27965E-02
        -0.25400E-02
        -0.19386E-02
        -0.99032E-03
        -0.14460E-02
        -0.31113E-03
        -0.10988E-02
        -0.18833E-02
        -0.18683E-02
        -0.16504E-03
        -0.95465E-03
         0.77336E-03
         0.17201E-02
         0.32125E-02
         0.28041E-02
         0.23033E-02
        -0.40296E-03
        -0.12093E-02
        -0.19439E-02
        -0.25022E-02
        -0.26350E-02
        -0.27599E-02
        -0.21155E-02
        -0.16097E-02
        -0.11965E-02
        -0.59444E-03
         0.19977E-03
         0.10515E-02
         0.18423E-02
         0.24573E-02
         0.26039E-02
         0.37964E-02
         0.39100E-02
         0.34621E-02
         0.29267E-02
         0.22211E-02
         0.13865E-02
         0.47130E-03
        -0.47130E-03
        -0.13865E-02
        -0.22211E-02
        -0.29267E-02
        -0.34621E-02
        -0.37964E-02
        -0.39100E-02
        -0.37964E-02
        -0.34621E-02
        -0.29267E-02
        -0.22211E-02
        -0.13865E-02
        -0.47130E-03
         0.47130E-03
         0.13865E-02
         0.22211E-02
         0.29267E-02
         0.34621E-02
         0.37964E-02
  
SCALARS           initial_coordinate_y  double 1
LOOKUP_TABLE default
         0.67292E-03
         0.12308E-02
         0.59151E-03
        -0.33775E-03
         0.67237E-03
         0.12301E-02
         0.59098E-03
        -0.33851E-03
         0.14882E-03
        -0.67643E-03
         0.14846E-03
        -0.67692E-03
         0.18412E-02
         0.14576E-02
         0.18410E-02
         0.14566E-02
         0.29933E-03
         0.11672E-02
         0.29819E-03
         0.11655E-02
         0.22748E-02
         0.28286E-02
         0.24238E-02
         0.22746E-02
         0.28291E-02
         0.24236E-02
         0.21685E-02
         0.29366E-02
         0.21684E-02
         0.29369E-02
        -0.10033E-02
         0.78969E-04
        -0.70318E-03
        -0.10032E-02
         0.78160E-04
        -0.70391E-03
        -0.71196E-03
         0.82749E-04
        -0.71210E-03
         0.82626E-04
        -0.77865E-03
         0.40713E-04
        -0.77882E-03
         0.40439E-04
        -0.15195E-02
        -0.13230E-02
        -0.15195E-02
        -0.13231E-02
         0.98847E-03
         0.98712E-03
        -0.17325E-02
        -0.17325E-02
         0.20220E-02
         0.20217E-02
         0.18615E-02
         0.18616E-02
         0.17175E-02
         0.90940E-03
         0.17175E-02
         0.90916E-03
        -0.19800E-02
        -0.23489E-02
        -0.19800E-02
        -0.23489E-02
        -0.17074E-02
        -0.17074E-02
        -0.14894E-02
        -0.14892E-02
         0.76036E-03
         0.12477E-02
         0.75936E-03
         0.12473E-02
         0.18665E-02
         0.18664E-02
         0.29038E-02
         0.29049E-02
         0.27207E-02
         0.27212E-02
         0.24642E-02
         0.24645E-02
         0.22359E-02
         0.16503E-02
         0.22359E-02
         0.16503E-02
         0.87493E-03
         0.87466E-03
        -0.21373E-02
        -0.21373E-02
        -0.26931E-02
        -0.26931E-02
        -0.31291E-02
        -0.30382E-02
        -0.31291E-02
        -0.30382E-02
        -0.28748E-02
        -0.28748E-02
        -0.26423E-02
        -0.26420E-02
        -0.23707E-02
        -0.23705E-02
        -0.21445E-02
        -0.15105E-02
        -0.21439E-02
        -0.15106E-02
         0.93572E-03
         0.00000E+00
         0.93572E-03
         0.00000E+00
         0.18171E-02
         0.18171E-02
         0.25928E-02
         0.25928E-02
         0.32179E-02
         0.32179E-02
         0.36559E-02
         0.36559E-02
         0.38815E-02
         0.38815E-02
         0.38815E-02
         0.38815E-02
         0.36559E-02
         0.36559E-02
         0.32179E-02
         0.32179E-02
         0.25928E-02
         0.25928E-02
         0.18171E-02
         0.18171E-02
         0.93572E-03
         0.93572E-03
         0.22152E-17
        -0.47884E-18
        -0.93572E-03
        -0.93572E-03
        -0.18171E-02
        -0.18171E-02
        -0.25928E-02
        -0.25928E-02
        -0.32179E-02
        -0.32179E-02
        -0.36559E-02
        -0.36559E-02
        -0.38815E-02
        -0.38815E-02
        -0.38815E-02
        -0.38815E-02
        -0.36559E-02
        -0.36559E-02
        -0.32179E-02
        -0.32179E-02
        -0.25928E-02
        -0.25928E-02
        -0.18171E-02
        -0.18171E-02
        -0.93572E-03
        -0.93572E-03
         0.67348E-03
         0.12314E-02
         0.59203E-03
        -0.33700E-03
         0.14918E-03
        -0.67594E-03
         0.18414E-02
         0.14586E-02
         0.30048E-03
         0.11690E-02
         0.22749E-02
         0.28282E-02
         0.24239E-02
         0.21685E-02
         0.29364E-02
        -0.10035E-02
         0.79778E-04
        -0.70245E-03
        -0.71182E-03
         0.82873E-04
        -0.77848E-03
         0.40986E-04
        -0.15194E-02
        -0.13228E-02
         0.98983E-03
        -0.17324E-02
         0.20223E-02
         0.18614E-02
         0.17175E-02
         0.90964E-03
        -0.19800E-02
        -0.23489E-02
        -0.17074E-02
        -0.14896E-02
         0.76137E-03
         0.12481E-02
         0.18665E-02
         0.29027E-02
         0.27202E-02
         0.24640E-02
         0.22359E-02
         0.16503E-02
         0.87519E-03
        -0.21373E-02
        -0.26932E-02
        -0.31291E-02
        -0.30382E-02
        -0.28748E-02
        -0.26426E-02
        -0.23709E-02
        -0.21450E-02
        -0.15104E-02
         0.93572E-03
         0.00000E+00
         0.18171E-02
         0.25928E-02
         0.32179E-02
         0.36559E-02
         0.38815E-02
         0.38815E-02
         0.36559E-02
         0.32179E-02
         0.25928E-02
         0.18171E-02
         0.93572E-03
        -0.47884E-18
        -0.93572E-03
        -0.18171E-02
        -0.25928E-02
        -0.32179E-02
        -0.36559E-02
        -0.38815E-02
        -0.38815E-02
        -0.36559E-02
        -0.32179E-02
        -0.25928E-02
        -0.18171E-02
        -0.93572E-03
         0.67403E-03
         0.12321E-02
         0.59255E-03
        -0.33624E-03
         0.14955E-03
        -0.67544E-03
         0.18415E-02
         0.14596E-02
         0.30163E-03
         0.11707E-02
         0.22750E-02
         0.28277E-02
         0.24241E-02
         0.21685E-02
         0.29361E-02
        -0.10036E-02
         0.80588E-04
        -0.70173E-03
        -0.71168E-03
         0.82996E-04
        -0.77831E-03
         0.41259E-04
        -0.15194E-02
        -0.13227E-02
         0.99119E-03
        -0.17324E-02
         0.20226E-02
         0.18613E-02
         0.17175E-02
         0.90988E-03
        -0.19801E-02
        -0.23490E-02
        -0.17074E-02
        -0.14899E-02
         0.76237E-03
         0.12485E-02
         0.18666E-02
         0.29017E-02
         0.27198E-02
         0.24638E-02
         0.22359E-02
         0.16503E-02
         0.87545E-03
        -0.21374E-02
        -0.26932E-02
        -0.31291E-02
        -0.30382E-02
        -0.28748E-02
        -0.26428E-02
        -0.23711E-02
        -0.21456E-02
        -0.15103E-02
         0.93572E-03
         0.00000E+00
         0.18171E-02
         0.25928E-02
         0.32179E-02
         0.36559E-02
         0.38815E-02
         0.38815E-02
         0.36559E-02
         0.32179E-02
         0.25928E-02
         0.18171E-02
         0.93572E-03
         0.39516E-17
        -0.93572E-03
        -0.18171E-02
        -0.25928E-02
        -0.32179E-02
        -0.36559E-02
        -0.38815E-02
        -0.38815E-02
        -0.36559E-02
        -0.32179E-02
        -0.25928E-02
        -0.18171E-02
        -0.93572E-03
         0.67459E-03
         0.12328E-02
         0.59308E-03
        -0.33549E-03
         0.14991E-03
        -0.67495E-03
         0.18417E-02
         0.14606E-02
         0.30278E-03
         0.11725E-02
         0.22752E-02
         0.28273E-02
         0.24242E-02
         0.21686E-02
         0.29359E-02
        -0.10038E-02
         0.81397E-04
        -0.70100E-03
        -0.71154E-03
         0.83120E-04
        -0.77814E-03
         0.41533E-04
        -0.15193E-02
        -0.13227E-02
         0.99254E-03
        -0.17324E-02
         0.20228E-02
         0.18611E-02
         0.17175E-02
         0.91012E-03
        -0.19801E-02
        -0.23490E-02
        -0.17074E-02
        -0.14901E-02
         0.76338E-03
         0.12490E-02
         0.18666E-02
         0.29006E-02
         0.27193E-02
         0.24636E-02
         0.22359E-02
         0.16503E-02
         0.87571E-03
        -0.21374E-02
        -0.26932E-02
        -0.31291E-02
        -0.30382E-02
        -0.28748E-02
        -0.26431E-02
        -0.23713E-02
        -0.21461E-02
        -0.15102E-02
         0.93572E-03
         0.00000E+00
         0.18171E-02
         0.25928E-02
         0.32179E-02
         0.36559E-02
         0.38815E-02
         0.38815E-02
         0.36559E-02
         0.32179E-02
         0.25928E-02
         0.18171E-02
         0.93572E-03
        -0.47884E-18
        -0.93572E-03
        -0.18171E-02
        -0.25928E-02
        -0.32179E-02
        -0.36559E-02
        -0.38815E-02
        -0.38815E-02
        -0.36559E-02
        -0.32179E-02
        -0.25928E-02
        -0.18171E-02
        -0.93572E-03
         0.67514E-03
         0.12334E-02
         0.59360E-03
        -0.33474E-03
         0.15027E-03
        -0.67446E-03
         0.18419E-02
         0.14616E-02
         0.30393E-03
         0.11742E-02
         0.22753E-02
         0.28269E-02
         0.24244E-02
         0.21686E-02
         0.29356E-02
        -0.10039E-02
         0.82206E-04
        -0.70028E-03
        -0.71140E-03
         0.83243E-04
        -0.77797E-03
         0.41806E-04
        -0.15193E-02
        -0.13226E-02
         0.99390E-03
        -0.17323E-02
         0.20231E-02
         0.18610E-02
         0.17175E-02
         0.91036E-03
        -0.19801E-02
        -0.23490E-02
        -0.17074E-02
        -0.14904E-02
         0.76439E-03
         0.12494E-02
         0.18666E-02
         0.28995E-02
         0.27188E-02
         0.24633E-02
         0.22359E-02
         0.16503E-02
         0.87597E-03
        -0.21374E-02
        -0.26932E-02
        -0.31291E-02
        -0.30382E-02
        -0.28748E-02
        -0.26434E-02
        -0.23715E-02
        -0.21467E-02
        -0.15101E-02
         0.93572E-03
         0.00000E+00
         0.18171E-02
         0.25928E-02
         0.32179E-02
         0.36559E-02
         0.38815E-02
         0.38815E-02
         0.36559E-02
         0.32179E-02
         0.25928E-02
         0.18171E-02
         0.93572E-03
        -0.47884E-18
        -0.93572E-03
        -0.18171E-02
        -0.25928E-02
        -0.32179E-02
        -0.36559E-02
        -0.38815E-02
        -0.38815E-02
        -0.36559E-02
        -0.32179E-02
        -0.25928E-02
        -0.18171E-02
        -0.93572E-03
         0.67570E-03
         0.12341E-02
         0.59412E-03
        -0.33398E-03
         0.15064E-03
        -0.67396E-03
         0.18421E-02
         0.14626E-02
         0.30507E-03
         0.11760E-02
         0.22754E-02
         0.28264E-02
         0.24245E-02
         0.21686E-02
         0.29353E-02
        -0.10040E-02
         0.83015E-04
        -0.69955E-03
        -0.71126E-03
         0.83367E-04
        -0.77780E-03
         0.42080E-04
        -0.15192E-02
        -0.13224E-02
         0.99526E-03
        -0.17323E-02
         0.20234E-02
         0.18609E-02
         0.17175E-02
         0.91060E-03
        -0.19801E-02
        -0.23490E-02
        -0.17074E-02
        -0.14906E-02
         0.76539E-03
         0.12498E-02
         0.18667E-02
         0.28984E-02
         0.27184E-02
         0.24631E-02
         0.22359E-02
         0.16503E-02
         0.87623E-03
        -0.21374E-02
        -0.26932E-02
        -0.31291E-02
        -0.30382E-02
        -0.28748E-02
        -0.26436E-02
        -0.23717E-02
        -0.21472E-02
        -0.15100E-02
         0.93572E-03
         0.00000E+00
         0.18171E-02
         0.25928E-02
         0.32179E-02
         0.36559E-02
         0.38815E-02
         0.38815E-02
         0.36559E-02
         0.32179E-02
         0.25928E-02
         0.18171E-02
         0.93572E-03
        -0.47884E-18
        -0.93572E-03
        -0.18171E-02
        -0.25928E-02
        -0.32179E-02
        -0.36559E-02
        -0.38815E-02
        -0.38815E-02
        -0.36559E-02
        -0.32179E-02
        -0.25928E-02
        -0.18171E-02
        -0.93572E-03
         0.67625E-03
         0.12348E-02
         0.59465E-03
        -0.33323E-03
         0.15100E-03
        -0.67347E-03
         0.18423E-02
         0.14636E-02
         0.30622E-03
         0.11777E-02
         0.22755E-02
         0.28260E-02
         0.24247E-02
         0.21687E-02
         0.29351E-02
        -0.10042E-02
         0.83825E-04
        -0.69882E-03
        -0.71112E-03
         0.83490E-04
        -0.77763E-03
         0.42353E-04
        -0.15192E-02
        -0.13223E-02
         0.99661E-03
        -0.17322E-02
         0.20237E-02
         0.18607E-02
         0.17175E-02
         0.91084E-03
        -0.19801E-02
        -0.23491E-02
        -0.17074E-02
        -0.14909E-02
         0.76640E-03
         0.12503E-02
         0.18667E-02
         0.28974E-02
         0.27179E-02
         0.24629E-02
         0.22359E-02
         0.16503E-02
         0.87650E-03
        -0.21374E-02
        -0.26933E-02
        -0.31291E-02
        -0.30382E-02
        -0.28749E-02
        -0.26439E-02
        -0.23719E-02
        -0.21478E-02
        -0.15099E-02
         0.93572E-03
         0.00000E+00
         0.18171E-02
         0.25928E-02
         0.32179E-02
         0.36559E-02
         0.38815E-02
         0.38815E-02
         0.36559E-02
         0.32179E-02
         0.25928E-02
         0.18171E-02
         0.93572E-03
        -0.47884E-18
        -0.93572E-03
        -0.18171E-02
        -0.25928E-02
        -0.32179E-02
        -0.36559E-02
        -0.38815E-02
        -0.38815E-02
        -0.36559E-02
        -0.32179E-02
        -0.25928E-02
        -0.18171E-02
        -0.93572E-03
         0.67680E-03
         0.12354E-02
         0.59517E-03
        -0.33247E-03
         0.15136E-03
        -0.67298E-03
         0.18425E-02
         0.14646E-02
         0.30737E-03
         0.11795E-02
         0.22757E-02
         0.28255E-02
         0.24248E-02
         0.21687E-02
         0.29348E-02
        -0.10043E-02
         0.84634E-04
        -0.69810E-03
        -0.71098E-03
         0.83614E-04
        -0.77746E-03
         0.42626E-04
        -0.15191E-02
        -0.13223E-02
         0.99797E-03
        -0.17322E-02
         0.20240E-02
         0.18606E-02
         0.17175E-02
         0.91108E-03
        -0.19802E-02
        -0.23491E-02
        -0.17074E-02
        -0.14911E-02
         0.76740E-03
         0.12507E-02
         0.18668E-02
         0.28963E-02
         0.27174E-02
         0.24627E-02
         0.22358E-02
         0.16503E-02
         0.87676E-03
        -0.21374E-02
        -0.26933E-02
        -0.31291E-02
        -0.30382E-02
        -0.28749E-02
        -0.26442E-02
        -0.23721E-02
        -0.21483E-02
        -0.15097E-02
         0.93572E-03
         0.00000E+00
         0.18171E-02
         0.25928E-02
         0.32179E-02
         0.36559E-02
         0.38815E-02
         0.38815E-02
         0.36559E-02
         0.32179E-02
         0.25928E-02
         0.18171E-02
         0.93572E-03
        -0.47884E-18
        -0.93572E-03
        -0.18171E-02
        -0.25928E-02
        -0.32179E-02
        -0.36559E-02
        -0.38815E-02
        -0.38815E-02
        -0.36559E-02
        -0.32179E-02
        -0.25928E-02
        -0.18171E-02
        -0.93572E-03
         0.67736E-03
         0.12361E-02
         0.59570E-03
        -0.33172E-03
         0.15173E-03
        -0.67248E-03
         0.18427E-02
         0.14656E-02
         0.30852E-03
         0.11812E-02
         0.22758E-02
         0.28251E-02
         0.24249E-02
         0.21688E-02
         0.29345E-02
        -0.10044E-02
         0.85443E-04
        -0.69737E-03
        -0.71084E-03
         0.83737E-04
        -0.77729E-03
         0.42899E-04
        -0.15191E-02
        -0.13222E-02
         0.99932E-03
        -0.17322E-02
         0.20243E-02
         0.18605E-02
         0.17175E-02
         0.91132E-03
        -0.19802E-02
        -0.23491E-02
        -0.17074E-02
        -0.14914E-02
         0.76841E-03
         0.12511E-02
         0.18668E-02
         0.28952E-02
         0.27170E-02
         0.24624E-02
         0.22358E-02
         0.16503E-02
         0.87702E-03
        -0.21374E-02
        -0.26933E-02
        -0.31291E-02
        -0.30382E-02
        -0.28749E-02
        -0.26444E-02
        -0.23723E-02
        -0.21489E-02
        -0.15096E-02
         0.93572E-03
         0.00000E+00
         0.18171E-02
         0.25928E-02
         0.32179E-02
         0.36559E-02
         0.38815E-02
         0.38815E-02
         0.36559E-02
         0.32179E-02
         0.25928E-02
         0.18171E-02
         0.93572E-03
        -0.47884E-18
        -0.93572E-03
        -0.18171E-02
        -0.25928E-02
        -0.32179E-02
        -0.36559E-02
        -0.38815E-02
        -0.38815E-02
        -0.36559E-02
        -0.32179E-02
        -0.25928E-02
        -0.18171E-02
        -0.93572E-03
         0.67791E-03
         0.12368E-02
         0.59622E-03
        -0.33096E-03
         0.15209E-03
        -0.67199E-03
         0.18429E-02
         0.14666E-02
         0.30967E-03
         0.11830E-02
         0.22759E-02
         0.28247E-02
         0.24251E-02
         0.21688E-02
         0.29343E-02
        -0.10046E-02
         0.86253E-04
        -0.69665E-03
        -0.71070E-03
         0.83861E-04
        -0.77712E-03
         0.43173E-04
        -0.15190E-02
        -0.13220E-02
         0.10007E-02
        -0.17321E-02
         0.20245E-02
         0.18603E-02
         0.17175E-02
         0.91156E-03
        -0.19802E-02
        -0.23491E-02
        -0.17074E-02
        -0.14916E-02
         0.76941E-03
         0.12515E-02
         0.18668E-02
         0.28942E-02
         0.27165E-02
         0.24622E-02
         0.22358E-02
         0.16503E-02
         0.87728E-03
        -0.21374E-02
        -0.26933E-02
        -0.31291E-02
        -0.30382E-02
        -0.28749E-02
        -0.26447E-02
        -0.23725E-02
        -0.21494E-02
        -0.15095E-02
         0.93572E-03
         0.00000E+00
         0.18171E-02
         0.25928E-02
         0.32179E-02
         0.36559E-02
         0.38815E-02
         0.38815E-02
         0.36559E-02
         0.32179E-02
         0.25928E-02
         0.18171E-02
         0.93572E-03
        -0.47884E-18
        -0.93572E-03
        -0.18171E-02
        -0.25928E-02
        -0.32179E-02
        -0.36559E-02
        -0.38815E-02
        -0.38815E-02
        -0.36559E-02
        -0.32179E-02
        -0.25928E-02
        -0.18171E-02
        -0.93572E-03
         0.67847E-03
         0.12374E-02
         0.59674E-03
        -0.33021E-03
         0.15245E-03
        -0.67150E-03
         0.18430E-02
         0.14676E-02
         0.31081E-03
         0.11847E-02
         0.22761E-02
         0.28242E-02
         0.24252E-02
         0.21688E-02
         0.29340E-02
        -0.10047E-02
         0.87062E-04
        -0.69592E-03
        -0.71056E-03
         0.83985E-04
        -0.77695E-03
         0.43446E-04
        -0.15190E-02
        -0.13219E-02
         0.10020E-02
        -0.17321E-02
         0.20248E-02
         0.18602E-02
         0.17175E-02
         0.91180E-03
        -0.19803E-02
        -0.23491E-02
        -0.17073E-02
        -0.14919E-02
         0.77042E-03
         0.12520E-02
         0.18669E-02
         0.28931E-02
         0.27160E-02
         0.24620E-02
         0.22358E-02
         0.16503E-02
         0.87754E-03
        -0.21374E-02
        -0.26933E-02
        -0.31291E-02
        -0.30382E-02
        -0.28749E-02
        -0.26450E-02
        -0.23727E-02
        -0.21500E-02
        -0.15094E-02
         0.93572E-03
         0.00000E+00
         0.18171E-02
         0.25928E-02
         0.32179E-02
         0.36559E-02
         0.38815E-02
         0.38815E-02
         0.36559E-02
         0.32179E-02
         0.25928E-02
         0.18171E-02
         0.93572E-03
         0.39516E-17
        -0.93572E-03
        -0.18171E-02
        -0.25928E-02
        -0.32179E-02
        -0.36559E-02
        -0.38815E-02
        -0.38815E-02
        -0.36559E-02
        -0.32179E-02
        -0.25928E-02
        -0.18171E-02
        -0.93572E-03
         0.67902E-03
         0.12381E-02
         0.59727E-03
        -0.32945E-03
         0.15282E-03
        -0.67100E-03
         0.18432E-02
         0.14686E-02
         0.31196E-03
         0.11865E-02
         0.22762E-02
         0.28238E-02
         0.24254E-02
         0.21688E-02
         0.29337E-02
        -0.10049E-02
         0.87871E-04
        -0.69519E-03
        -0.71042E-03
         0.84108E-04
        -0.77678E-03
         0.43720E-04
        -0.15189E-02
        -0.13219E-02
         0.10034E-02
        -0.17320E-02
         0.20251E-02
         0.18601E-02
         0.17175E-02
         0.91204E-03
        -0.19803E-02
        -0.23492E-02
        -0.17073E-02
        -0.14921E-02
         0.77142E-03
         0.12524E-02
         0.18669E-02
         0.28920E-02
         0.27155E-02
         0.24618E-02
         0.22358E-02
         0.16503E-02
         0.87781E-03
        -0.21374E-02
        -0.26934E-02
        -0.31291E-02
        -0.30382E-02
        -0.28749E-02
        -0.26452E-02
        -0.23729E-02
        -0.21505E-02
        -0.15093E-02
         0.93572E-03
         0.00000E+00
         0.18171E-02
         0.25928E-02
         0.32179E-02
         0.36559E-02
         0.38815E-02
         0.38815E-02
         0.36559E-02
         0.32179E-02
         0.25928E-02
         0.18171E-02
         0.93572E-03
        -0.47884E-18
        -0.93572E-03
        -0.18171E-02
        -0.25928E-02
        -0.32179E-02
        -0.36559E-02
        -0.38815E-02
        -0.38815E-02
        -0.36559E-02
        -0.32179E-02
        -0.25928E-02
        -0.18171E-02
        -0.93572E-03
         0.67958E-03
         0.12387E-02
         0.59779E-03
        -0.32870E-03
         0.15318E-03
        -0.67051E-03
         0.18434E-02
         0.14696E-02
         0.31311E-03
         0.11882E-02
         0.22763E-02
         0.28233E-02
         0.24255E-02
         0.21689E-02
         0.29335E-02
        -0.10050E-02
         0.88681E-04
        -0.69447E-03
        -0.71028E-03
         0.84232E-04
        -0.77661E-03
         0.43993E-04
        -0.15189E-02
        -0.13218E-02
         0.10048E-02
        -0.17320E-02
         0.20254E-02
         0.18599E-02
         0.17175E-02
         0.91228E-03
        -0.19803E-02
        -0.23492E-02
        -0.17073E-02
        -0.14923E-02
         0.77243E-03
         0.12528E-02
         0.18670E-02
         0.28910E-02
         0.27151E-02
         0.24615E-02
         0.22358E-02
         0.16503E-02
         0.87807E-03
        -0.21374E-02
        -0.26934E-02
        -0.31291E-02
        -0.30382E-02
        -0.28749E-02
        -0.26455E-02
        -0.23732E-02
        -0.21511E-02
        -0.15092E-02
         0.93572E-03
         0.00000E+00
         0.18171E-02
         0.25928E-02
         0.32179E-02
         0.36559E-02
         0.38815E-02
         0.38815E-02
         0.36559E-02
         0.32179E-02
         0.25928E-02
         0.18171E-02
         0.93572E-03
         0.22152E-17
        -0.93572E-03
        -0.18171E-02
        -0.25928E-02
        -0.32179E-02
        -0.36559E-02
        -0.38815E-02
        -0.38815E-02
        -0.36559E-02
        -0.32179E-02
        -0.25928E-02
        -0.18171E-02
        -0.93572E-03
         0.68013E-03
         0.12394E-02
         0.59831E-03
        -0.32794E-03
         0.15354E-03
        -0.67002E-03
         0.18436E-02
         0.14706E-02
         0.31426E-03
         0.11900E-02
         0.22765E-02
         0.28229E-02
         0.24257E-02
         0.21689E-02
         0.29332E-02
        -0.10051E-02
         0.89490E-04
        -0.69374E-03
        -0.71013E-03
         0.84355E-04
        -0.77644E-03
         0.44266E-04
        -0.15188E-02
        -0.13216E-02
         0.10061E-02
        -0.17320E-02
         0.20257E-02
         0.18598E-02
         0.17175E-02
         0.91252E-03
        -0.19803E-02
        -0.23492E-02
        -0.17073E-02
        -0.14926E-02
         0.77343E-03
         0.12533E-02
         0.18670E-02
         0.28899E-02
         0.27146E-02
         0.24613E-02
         0.22358E-02
         0.16503E-02
         0.87833E-03
        -0.21374E-02
        -0.26934E-02
        -0.31291E-02
        -0.30382E-02
        -0.28750E-02
        -0.26458E-02
        -0.23734E-02
        -0.21516E-02
        -0.15091E-02
         0.93572E-03
         0.00000E+00
         0.18171E-02
         0.25928E-02
         0.32179E-02
         0.36559E-02
         0.38815E-02
         0.38815E-02
         0.36559E-02
         0.32179E-02
         0.25928E-02
         0.18171E-02
         0.93572E-03
        -0.47884E-18
        -0.93572E-03
        -0.18171E-02
        -0.25928E-02
        -0.32179E-02
        -0.36559E-02
        -0.38815E-02
        -0.38815E-02
        -0.36559E-02
        -0.32179E-02
        -0.25928E-02
        -0.18171E-02
        -0.93572E-03
         0.68068E-03
         0.12401E-02
         0.59884E-03
        -0.32719E-03
         0.15391E-03
        -0.66953E-03
         0.18438E-02
         0.14716E-02
         0.31541E-03
         0.11917E-02
         0.22766E-02
         0.28225E-02
         0.24258E-02
         0.21690E-02
         0.29330E-02
        -0.10053E-02
         0.90299E-04
        -0.69302E-03
        -0.70999E-03
         0.84479E-04
        -0.77627E-03
         0.44540E-04
        -0.15188E-02
        -0.13215E-02
         0.10075E-02
        -0.17319E-02
         0.20260E-02
         0.18597E-02
         0.17175E-02
         0.91276E-03
        -0.19804E-02
        -0.23493E-02
        -0.17073E-02
        -0.14928E-02
         0.77444E-03
         0.12537E-02
         0.18670E-02
         0.28888E-02
         0.27141E-02
         0.24611E-02
         0.22358E-02
         0.16503E-02
         0.87859E-03
        -0.21374E-02
        -0.26934E-02
        -0.31291E-02
        -0.30382E-02
        -0.28750E-02
        -0.26460E-02
        -0.23736E-02
        -0.21521E-02
        -0.15090E-02
         0.93572E-03
         0.00000E+00
         0.18171E-02
         0.25928E-02
         0.32179E-02
         0.36559E-02
         0.38815E-02
         0.38815E-02
         0.36559E-02
         0.32179E-02
         0.25928E-02
         0.18171E-02
         0.93572E-03
         0.22152E-17
        -0.93572E-03
        -0.18171E-02
        -0.25928E-02
        -0.32179E-02
        -0.36559E-02
        -0.38815E-02
        -0.38815E-02
        -0.36559E-02
        -0.32179E-02
        -0.25928E-02
        -0.18171E-02
        -0.93572E-03
         0.68124E-03
         0.12407E-02
         0.59936E-03
        -0.32643E-03
         0.15427E-03
        -0.66903E-03
         0.18440E-02
         0.14727E-02
         0.31656E-03
         0.11935E-02
         0.22767E-02
         0.28220E-02
         0.24260E-02
         0.21690E-02
         0.29327E-02
        -0.10054E-02
         0.91108E-04
        -0.69229E-03
        -0.70985E-03
         0.84602E-04
        -0.77610E-03
         0.44813E-04
        -0.15187E-02
        -0.13215E-02
         0.10088E-02
        -0.17319E-02
         0.20262E-02
         0.18595E-02
         0.17175E-02
         0.91300E-03
        -0.19804E-02
        -0.23493E-02
        -0.17073E-02
        -0.14931E-02
         0.77544E-03
         0.12541E-02
         0.18671E-02
         0.28877E-02
         0.27137E-02
         0.24609E-02
         0.22358E-02
         0.16503E-02
         0.87885E-03
        -0.21374E-02
        -0.26934E-02
        -0.31291E-02
        -0.30382E-02
        -0.28750E-02
        -0.26463E-02
        -0.23738E-02
        -0.21527E-02
        -0.15088E-02
         0.93572E-03
         0.00000E+00
         0.18171E-02
         0.25928E-02
         0.32179E-02
         0.36559E-02
         0.38815E-02
         0.38815E-02
         0.36559E-02
         0.32179E-02
         0.25928E-02
         0.18171E-02
         0.93572E-03
        -0.47884E-18
        -0.93572E-03
        -0.18171E-02
        -0.25928E-02
        -0.32179E-02
        -0.36559E-02
        -0.38815E-02
        -0.38815E-02
        -0.36559E-02
        -0.32179E-02
        -0.25928E-02
        -0.18171E-02
        -0.93572E-03
         0.68179E-03
         0.12414E-02
         0.59988E-03
        -0.32568E-03
         0.15463E-03
        -0.66854E-03
         0.18442E-02
         0.14736E-02
         0.31770E-03
         0.11952E-02
         0.22768E-02
         0.28216E-02
         0.24261E-02
         0.21690E-02
         0.29324E-02
        -0.10056E-02
         0.91918E-04
        -0.69156E-03
        -0.70971E-03
         0.84726E-04
        -0.77593E-03
         0.45086E-04
        -0.15187E-02
        -0.13213E-02
         0.10102E-02
        -0.17318E-02
         0.20265E-02
         0.18594E-02
         0.17175E-02
         0.91324E-03
        -0.19804E-02
        -0.23493E-02
        -0.17073E-02
        -0.14933E-02
         0.77645E-03
         0.12545E-02
         0.18671E-02
         0.28867E-02
         0.27132E-02
         0.24606E-02
         0.22358E-02
         0.16503E-02
         0.87912E-03
        -0.21374E-02
        -0.26935E-02
        -0.31291E-02
        -0.30381E-02
        -0.28750E-02
        -0.26466E-02
        -0.23740E-02
        -0.21533E-02
        -0.15087E-02
         0.93572E-03
         0.00000E+00
         0.18171E-02
         0.25928E-02
         0.32179E-02
         0.36559E-02
         0.38815E-02
         0.38815E-02
         0.36559E-02
         0.32179E-02
         0.25928E-02
         0.18171E-02
         0.93572E-03
        -0.47884E-18
        -0.93572E-03
        -0.18171E-02
        -0.25928E-02
        -0.32179E-02
        -0.36559E-02
        -0.38815E-02
        -0.38815E-02
        -0.36559E-02
        -0.32179E-02
        -0.25928E-02
        -0.18171E-02
        -0.93572E-03
         0.68235E-03
         0.12421E-02
         0.60041E-03
        -0.32493E-03
         0.15500E-03
        -0.66805E-03
         0.18444E-02
         0.14747E-02
         0.31885E-03
         0.11970E-02
         0.22770E-02
         0.28211E-02
         0.24262E-02
         0.21691E-02
         0.29322E-02
        -0.10057E-02
         0.92727E-04
        -0.69084E-03
        -0.70957E-03
         0.84849E-04
        -0.77576E-03
         0.45359E-04
        -0.15186E-02
        -0.13212E-02
         0.10115E-02
        -0.17318E-02
         0.20268E-02
         0.18593E-02
         0.17175E-02
         0.91347E-03
        -0.19804E-02
        -0.23493E-02
        -0.17073E-02
        -0.14936E-02
         0.77745E-03
         0.12550E-02
         0.18671E-02
         0.28856E-02
         0.27127E-02
         0.24604E-02
         0.22358E-02
         0.16503E-02
         0.87938E-03
        -0.21374E-02
        -0.26935E-02
        -0.31291E-02
        -0.30381E-02
        -0.28750E-02
        -0.26468E-02
        -0.23742E-02
        -0.21538E-02
        -0.15086E-02
         0.93572E-03
         0.00000E+00
         0.18171E-02
         0.25928E-02
         0.32179E-02
         0.36559E-02
         0.38815E-02
         0.38815E-02
         0.36559E-02
         0.32179E-02
         0.25928E-02
         0.18171E-02
         0.93572E-03
        -0.47884E-18
        -0.93572E-03
        -0.18171E-02
        -0.25928E-02
        -0.32179E-02
        -0.36559E-02
        -0.38815E-02
        -0.38815E-02
        -0.36559E-02
        -0.32179E-02
        -0.25928E-02
        -0.18171E-02
        -0.93572E-03
         0.68290E-03
         0.12427E-02
         0.60093E-03
        -0.32417E-03
         0.15536E-03
        -0.66755E-03
         0.18445E-02
         0.14757E-02
         0.32000E-03
         0.11987E-02
         0.22771E-02
         0.28207E-02
         0.24264E-02
         0.21691E-02
         0.29319E-02
        -0.10058E-02
         0.93536E-04
        -0.69011E-03
        -0.70943E-03
         0.84973E-04
        -0.77559E-03
         0.45633E-04
        -0.15186E-02
        -0.13212E-02
         0.10129E-02
        -0.17318E-02
         0.20271E-02
         0.18592E-02
         0.17175E-02
         0.91371E-03
        -0.19805E-02
        -0.23493E-02
        -0.17073E-02
        -0.14938E-02
         0.77846E-03
         0.12554E-02
         0.18672E-02
         0.28845E-02
         0.27122E-02
         0.24602E-02
         0.22358E-02
         0.16502E-02
         0.87964E-03
        -0.21374E-02
        -0.26935E-02
        -0.31291E-02
        -0.30381E-02
        -0.28750E-02
        -0.26471E-02
        -0.23744E-02
        -0.21543E-02
        -0.15085E-02
         0.93572E-03
         0.00000E+00
         0.18171E-02
         0.25928E-02
         0.32179E-02
         0.36559E-02
         0.38815E-02
         0.38815E-02
         0.36559E-02
         0.32179E-02
         0.25928E-02
         0.18171E-02
         0.93572E-03
        -0.47884E-18
        -0.93572E-03
        -0.18171E-02
        -0.25928E-02
        -0.32179E-02
        -0.36559E-02
        -0.38815E-02
        -0.38815E-02
        -0.36559E-02
        -0.32179E-02
        -0.25928E-02
        -0.18171E-02
        -0.93572E-03
         0.68346E-03
         0.12434E-02
         0.60145E-03
        -0.32342E-03
         0.15572E-03
        -0.66706E-03
         0.18447E-02
         0.14767E-02
         0.32115E-03
         0.12005E-02
         0.22772E-02
         0.28203E-02
         0.24265E-02
         0.21691E-02
         0.29316E-02
        -0.10060E-02
         0.94345E-04
        -0.68939E-03
        -0.70929E-03
         0.85096E-04
        -0.77542E-03
         0.45906E-04
        -0.15185E-02
        -0.13211E-02
         0.10142E-02
        -0.17317E-02
         0.20274E-02
         0.18590E-02
         0.17175E-02
         0.91395E-03
        -0.19805E-02
        -0.23494E-02
        -0.17073E-02
        -0.14941E-02
         0.77946E-03
         0.12558E-02
         0.18672E-02
         0.28835E-02
         0.27118E-02
         0.24600E-02
         0.22358E-02
         0.16502E-02
         0.87990E-03
        -0.21374E-02
        -0.26935E-02
        -0.31291E-02
        -0.30381E-02
        -0.28750E-02
        -0.26474E-02
        -0.23746E-02
        -0.21549E-02
        -0.15084E-02
         0.93572E-03
         0.00000E+00
         0.18171E-02
         0.25928E-02
         0.32179E-02
         0.36559E-02
         0.38815E-02
         0.38815E-02
         0.36559E-02
         0.32179E-02
         0.25928E-02
         0.18171E-02
         0.93572E-03
         0.22152E-17
        -0.93572E-03
        -0.18171E-02
        -0.25928E-02
        -0.32179E-02
        -0.36559E-02
        -0.38815E-02
        -0.38815E-02
        -0.36559E-02
        -0.32179E-02
        -0.25928E-02
        -0.18171E-02
        -0.93572E-03
         0.68401E-03
         0.12440E-02
         0.60198E-03
        -0.32266E-03
         0.15609E-03
        -0.66657E-03
         0.18449E-02
         0.14777E-02
         0.32230E-03
         0.12022E-02
         0.22774E-02
         0.28198E-02
         0.24267E-02
         0.21692E-02
         0.29314E-02
        -0.10061E-02
         0.95155E-04
        -0.68866E-03
        -0.70915E-03
         0.85220E-04
        -0.77525E-03
         0.46180E-04
        -0.15185E-02
        -0.13210E-02
         0.10156E-02
        -0.17317E-02
         0.20277E-02
         0.18589E-02
         0.17175E-02
         0.91419E-03
        -0.19805E-02
        -0.23494E-02
        -0.17073E-02
        -0.14943E-02
         0.78047E-03
         0.12563E-02
         0.18672E-02
         0.28824E-02
         0.27113E-02
         0.24597E-02
         0.22358E-02
         0.16502E-02
         0.88016E-03
        -0.21374E-02
        -0.26935E-02
        -0.31291E-02
        -0.30381E-02
        -0.28751E-02
        -0.26476E-02
        -0.23748E-02
        -0.21554E-02
        -0.15083E-02
         0.93572E-03
         0.00000E+00
         0.18171E-02
         0.25928E-02
         0.32179E-02
         0.36559E-02
         0.38815E-02
         0.38815E-02
         0.36559E-02
         0.32179E-02
         0.25928E-02
         0.18171E-02
         0.93572E-03
        -0.47884E-18
        -0.93572E-03
        -0.18171E-02
        -0.25928E-02
        -0.32179E-02
        -0.36559E-02
        -0.38815E-02
        -0.38815E-02
        -0.36559E-02
        -0.32179E-02
        -0.25928E-02
        -0.18171E-02
        -0.93572E-03
         0.68457E-03
         0.12447E-02
         0.60250E-03
        -0.32191E-03
         0.15645E-03
        -0.66607E-03
         0.18451E-02
         0.14787E-02
         0.32345E-03
         0.12040E-02
         0.22775E-02
         0.28194E-02
         0.24268E-02
         0.21692E-02
         0.29311E-02
        -0.10062E-02
         0.95964E-04
        -0.68793E-03
        -0.70901E-03
         0.85343E-04
        -0.77507E-03
         0.46453E-04
        -0.15184E-02
        -0.13209E-02
         0.10169E-02
        -0.17316E-02
         0.20280E-02
         0.18588E-02
         0.17175E-02
         0.91443E-03
        -0.19806E-02
        -0.23494E-02
        -0.17073E-02
        -0.14945E-02
         0.78148E-03
         0.12567E-02
         0.18673E-02
         0.28813E-02
         0.27108E-02
         0.24595E-02
         0.22358E-02
         0.16502E-02
         0.88043E-03
        -0.21374E-02
        -0.26936E-02
        -0.31291E-02
        -0.30381E-02
        -0.28751E-02
        -0.26479E-02
        -0.23750E-02
        -0.21560E-02
        -0.15082E-02
         0.93572E-03
         0.00000E+00
         0.18171E-02
         0.25928E-02
         0.32179E-02
         0.36559E-02
         0.38815E-02
         0.38815E-02
         0.36559E-02
         0.32179E-02
         0.25928E-02
         0.18171E-02
         0.93572E-03
        -0.47884E-18
        -0.93572E-03
        -0.18171E-02
        -0.25928E-02
        -0.32179E-02
        -0.36559E-02
        -0.38815E-02
        -0.38815E-02
        -0.36559E-02
        -0.32179E-02
        -0.25928E-02
        -0.18171E-02
        -0.93572E-03
         0.68512E-03
         0.12454E-02
         0.60302E-03
        -0.32115E-03
         0.15681E-03
        -0.66558E-03
         0.18453E-02
         0.14797E-02
         0.32459E-03
         0.12058E-02
         0.22776E-02
         0.28189E-02
         0.24270E-02
         0.21693E-02
         0.29308E-02
        -0.10064E-02
         0.96773E-04
        -0.68721E-03
        -0.70887E-03
         0.85467E-04
        -0.77490E-03
         0.46726E-04
        -0.15184E-02
        -0.13208E-02
         0.10183E-02
        -0.17316E-02
         0.20283E-02
         0.18586E-02
         0.17175E-02
         0.91467E-03
        -0.19806E-02
        -0.23494E-02
        -0.17073E-02
        -0.14948E-02
         0.78248E-03
         0.12571E-02
         0.18673E-02
         0.28802E-02
         0.27103E-02
         0.24593E-02
         0.22358E-02
         0.16502E-02
         0.88069E-03
        -0.21374E-02
        -0.26936E-02
        -0.31291E-02
        -0.30381E-02
        -0.28751E-02
        -0.26482E-02
        -0.23752E-02
        -0.21565E-02
        -0.15081E-02
         0.93572E-03
         0.00000E+00
         0.18171E-02
         0.25928E-02
         0.32179E-02
         0.36559E-02
         0.38815E-02
         0.38815E-02
         0.36559E-02
         0.32179E-02
         0.25928E-02
         0.18171E-02
         0.93572E-03
        -0.47884E-18
        -0.93572E-03
        -0.18171E-02
        -0.25928E-02
        -0.32179E-02
        -0.36559E-02
        -0.38815E-02
        -0.38815E-02
        -0.36559E-02
        -0.32179E-02
        -0.25928E-02
        -0.18171E-02
        -0.93572E-03
         0.68567E-03
         0.12460E-02
         0.60355E-03
        -0.32040E-03
         0.15718E-03
        -0.66509E-03
         0.18455E-02
         0.14807E-02
         0.32574E-03
         0.12075E-02
         0.22777E-02
         0.28185E-02
         0.24271E-02
         0.21693E-02
         0.29306E-02
        -0.10065E-02
         0.97583E-04
        -0.68648E-03
        -0.70873E-03
         0.85591E-04
        -0.77474E-03
         0.47000E-04
        -0.15183E-02
        -0.13207E-02
         0.10197E-02
        -0.17316E-02
         0.20285E-02
         0.18585E-02
         0.17175E-02
         0.91491E-03
        -0.19806E-02
        -0.23495E-02
        -0.17073E-02
        -0.14950E-02
         0.78348E-03
         0.12576E-02
         0.18674E-02
         0.28792E-02
         0.27099E-02
         0.24591E-02
         0.22358E-02
         0.16502E-02
         0.88095E-03
        -0.21374E-02
        -0.26936E-02
        -0.31290E-02
        -0.30381E-02
        -0.28751E-02
        -0.26484E-02
        -0.23754E-02
        -0.21571E-02
        -0.15080E-02
         0.93572E-03
         0.00000E+00
         0.18171E-02
         0.25928E-02
         0.32179E-02
         0.36559E-02
         0.38815E-02
         0.38815E-02
         0.36559E-02
         0.32179E-02
         0.25928E-02
         0.18171E-02
         0.93572E-03
         0.47884E-18
        -0.93572E-03
        -0.18171E-02
        -0.25928E-02
        -0.32179E-02
        -0.36559E-02
        -0.38815E-02
        -0.38815E-02
        -0.36559E-02
        -0.32179E-02
        -0.25928E-02
        -0.18171E-02
        -0.93572E-03
  
SCALARS           initial_coordinate_z  double 1
LOOKUP_TABLE default
        -0.10771E-01
        -0.10771E-01
        -0.10771E-01
        -0.10771E-01
        -0.11750E-01
        -0.11750E-01
        -0.11750E-01
        -0.11750E-01
        -0.10771E-01
        -0.10771E-01
        -0.11750E-01
        -0.11750E-01
        -0.10771E-01
        -0.10771E-01
        -0.11750E-01
        -0.11750E-01
        -0.10771E-01
        -0.10771E-01
        -0.11750E-01
        -0.11750E-01
        -0.10771E-01
        -0.10771E-01
        -0.10771E-01
        -0.11750E-01
        -0.11750E-01
        -0.11750E-01
        -0.10771E-01
        -0.10771E-01
        -0.11750E-01
        -0.11750E-01
        -0.10771E-01
        -0.10771E-01
        -0.10771E-01
        -0.11750E-01
        -0.11750E-01
        -0.11750E-01
        -0.10771E-01
        -0.10771E-01
        -0.11750E-01
        -0.11750E-01
        -0.10771E-01
        -0.10771E-01
        -0.11750E-01
        -0.11750E-01
        -0.10771E-01
        -0.10771E-01
        -0.11750E-01
        -0.11750E-01
        -0.10771E-01
        -0.11750E-01
        -0.10771E-01
        -0.11750E-01
        -0.10771E-01
        -0.11750E-01
        -0.10771E-01
        -0.11750E-01
        -0.10771E-01
        -0.10771E-01
        -0.11750E-01
        -0.11750E-01
        -0.10771E-01
        -0.10771E-01
        -0.11750E-01
        -0.11750E-01
        -0.10771E-01
        -0.11750E-01
        -0.10771E-01
        -0.11750E-01
        -0.10771E-01
        -0.10771E-01
        -0.11750E-01
        -0.11750E-01
        -0.10771E-01
        -0.11750E-01
        -0.10771E-01
        -0.11750E-01
        -0.10771E-01
        -0.11750E-01
        -0.10771E-01
        -0.11750E-01
        -0.10771E-01
        -0.10771E-01
        -0.11750E-01
        -0.11750E-01
        -0.10771E-01
        -0.11750E-01
        -0.10771E-01
        -0.11750E-01
        -0.10771E-01
        -0.11750E-01
        -0.10771E-01
        -0.10771E-01
        -0.11750E-01
        -0.11750E-01
        -0.10771E-01
        -0.11750E-01
        -0.10771E-01
        -0.11750E-01
        -0.10771E-01
        -0.11750E-01
        -0.10771E-01
        -0.10771E-01
        -0.11750E-01
        -0.11750E-01
        -0.10771E-01
        -0.10771E-01
        -0.11750E-01
        -0.11750E-01
        -0.10771E-01
        -0.11750E-01
        -0.10771E-01
        -0.11750E-01
        -0.10771E-01
        -0.11750E-01
        -0.10771E-01
        -0.11750E-01
        -0.10771E-01
        -0.11750E-01
        -0.10771E-01
        -0.11750E-01
        -0.10771E-01
        -0.11750E-01
        -0.10771E-01
        -0.11750E-01
        -0.10771E-01
        -0.11750E-01
        -0.10771E-01
        -0.11750E-01
        -0.10771E-01
        -0.11750E-01
        -0.10771E-01
        -0.11750E-01
        -0.10771E-01
        -0.11750E-01
        -0.10771E-01
        -0.11750E-01
        -0.10771E-01
        -0.11750E-01
        -0.10771E-01
        -0.11750E-01
        -0.10771E-01
        -0.11750E-01
        -0.10771E-01
        -0.11750E-01
        -0.10771E-01
        -0.11750E-01
        -0.10771E-01
        -0.11750E-01
        -0.10771E-01
        -0.11750E-01
        -0.10771E-01
        -0.11750E-01
        -0.10771E-01
        -0.11750E-01
        -0.10771E-01
        -0.11750E-01
        -0.97917E-02
        -0.97917E-02
        -0.97917E-02
        -0.97917E-02
        -0.97917E-02
        -0.97917E-02
        -0.97917E-02
        -0.97917E-02
        -0.97917E-02
        -0.97917E-02
        -0.97917E-02
        -0.97917E-02
        -0.97917E-02
        -0.97917E-02
        -0.97917E-02
        -0.97917E-02
        -0.97917E-02
        -0.97917E-02
        -0.97917E-02
        -0.97917E-02
        -0.97917E-02
        -0.97917E-02
        -0.97917E-02
        -0.97917E-02
        -0.97917E-02
        -0.97917E-02
        -0.97917E-02
        -0.97917E-02
        -0.97917E-02
        -0.97917E-02
        -0.97917E-02
        -0.97917E-02
        -0.97917E-02
        -0.97917E-02
        -0.97917E-02
        -0.97917E-02
        -0.97917E-02
        -0.97917E-02
        -0.97917E-02
        -0.97917E-02
        -0.97917E-02
        -0.97917E-02
        -0.97917E-02
        -0.97917E-02
        -0.97917E-02
        -0.97917E-02
        -0.97917E-02
        -0.97917E-02
        -0.97917E-02
        -0.97917E-02
        -0.97917E-02
        -0.97917E-02
        -0.97917E-02
        -0.97917E-02
        -0.97917E-02
        -0.97917E-02
        -0.97917E-02
        -0.97917E-02
        -0.97917E-02
        -0.97917E-02
        -0.97917E-02
        -0.97917E-02
        -0.97917E-02
        -0.97917E-02
        -0.97917E-02
        -0.97917E-02
        -0.97917E-02
        -0.97917E-02
        -0.97917E-02
        -0.97917E-02
        -0.97917E-02
        -0.97917E-02
        -0.97917E-02
        -0.97917E-02
        -0.97917E-02
        -0.97917E-02
        -0.97917E-02
        -0.97917E-02
        -0.88125E-02
        -0.88125E-02
        -0.88125E-02
        -0.88125E-02
        -0.88125E-02
        -0.88125E-02
        -0.88125E-02
        -0.88125E-02
        -0.88125E-02
        -0.88125E-02
        -0.88125E-02
        -0.88125E-02
        -0.88125E-02
        -0.88125E-02
        -0.88125E-02
        -0.88125E-02
        -0.88125E-02
        -0.88125E-02
        -0.88125E-02
        -0.88125E-02
        -0.88125E-02
        -0.88125E-02
        -0.88125E-02
        -0.88125E-02
        -0.88125E-02
        -0.88125E-02
        -0.88125E-02
        -0.88125E-02
        -0.88125E-02
        -0.88125E-02
        -0.88125E-02
        -0.88125E-02
        -0.88125E-02
        -0.88125E-02
        -0.88125E-02
        -0.88125E-02
        -0.88125E-02
        -0.88125E-02
        -0.88125E-02
        -0.88125E-02
        -0.88125E-02
        -0.88125E-02
        -0.88125E-02
        -0.88125E-02
        -0.88125E-02
        -0.88125E-02
        -0.88125E-02
        -0.88125E-02
        -0.88125E-02
        -0.88125E-02
        -0.88125E-02
        -0.88125E-02
        -0.88125E-02
        -0.88125E-02
        -0.88125E-02
        -0.88125E-02
        -0.88125E-02
        -0.88125E-02
        -0.88125E-02
        -0.88125E-02
        -0.88125E-02
        -0.88125E-02
        -0.88125E-02
        -0.88125E-02
        -0.88125E-02
        -0.88125E-02
        -0.88125E-02
        -0.88125E-02
        -0.88125E-02
        -0.88125E-02
        -0.88125E-02
        -0.88125E-02
        -0.88125E-02
        -0.88125E-02
        -0.88125E-02
        -0.88125E-02
        -0.88125E-02
        -0.88125E-02
        -0.78333E-02
        -0.78333E-02
        -0.78333E-02
        -0.78333E-02
        -0.78333E-02
        -0.78333E-02
        -0.78333E-02
        -0.78333E-02
        -0.78333E-02
        -0.78333E-02
        -0.78333E-02
        -0.78333E-02
        -0.78333E-02
        -0.78333E-02
        -0.78333E-02
        -0.78333E-02
        -0.78333E-02
        -0.78333E-02
        -0.78333E-02
        -0.78333E-02
        -0.78333E-02
        -0.78333E-02
        -0.78333E-02
        -0.78333E-02
        -0.78333E-02
        -0.78333E-02
        -0.78333E-02
        -0.78333E-02
        -0.78333E-02
        -0.78333E-02
        -0.78333E-02
        -0.78333E-02
        -0.78333E-02
        -0.78333E-02
        -0.78333E-02
        -0.78333E-02
        -0.78333E-02
        -0.78333E-02
        -0.78333E-02
        -0.78333E-02
        -0.78333E-02
        -0.78333E-02
        -0.78333E-02
        -0.78333E-02
        -0.78333E-02
        -0.78333E-02
        -0.78333E-02
        -0.78333E-02
        -0.78333E-02
        -0.78333E-02
        -0.78333E-02
        -0.78333E-02
        -0.78333E-02
        -0.78333E-02
        -0.78333E-02
        -0.78333E-02
        -0.78333E-02
        -0.78333E-02
        -0.78333E-02
        -0.78333E-02
        -0.78333E-02
        -0.78333E-02
        -0.78333E-02
        -0.78333E-02
        -0.78333E-02
        -0.78333E-02
        -0.78333E-02
        -0.78333E-02
        -0.78333E-02
        -0.78333E-02
        -0.78333E-02
        -0.78333E-02
        -0.78333E-02
        -0.78333E-02
        -0.78333E-02
        -0.78333E-02
        -0.78333E-02
        -0.78333E-02
        -0.68542E-02
        -0.68542E-02
        -0.68542E-02
        -0.68542E-02
        -0.68542E-02
        -0.68542E-02
        -0.68542E-02
        -0.68542E-02
        -0.68542E-02
        -0.68542E-02
        -0.68542E-02
        -0.68542E-02
        -0.68542E-02
        -0.68542E-02
        -0.68542E-02
        -0.68542E-02
        -0.68542E-02
        -0.68542E-02
        -0.68542E-02
        -0.68542E-02
        -0.68542E-02
        -0.68542E-02
        -0.68542E-02
        -0.68542E-02
        -0.68542E-02
        -0.68542E-02
        -0.68542E-02
        -0.68542E-02
        -0.68542E-02
        -0.68542E-02
        -0.68542E-02
        -0.68542E-02
        -0.68542E-02
        -0.68542E-02
        -0.68542E-02
        -0.68542E-02
        -0.68542E-02
        -0.68542E-02
        -0.68542E-02
        -0.68542E-02
        -0.68542E-02
        -0.68542E-02
        -0.68542E-02
        -0.68542E-02
        -0.68542E-02
        -0.68542E-02
        -0.68542E-02
        -0.68542E-02
        -0.68542E-02
        -0.68542E-02
        -0.68542E-02
        -0.68542E-02
        -0.68542E-02
        -0.68542E-02
        -0.68542E-02
        -0.68542E-02
        -0.68542E-02
        -0.68542E-02
        -0.68542E-02
        -0.68542E-02
        -0.68542E-02
        -0.68542E-02
        -0.68542E-02
        -0.68542E-02
        -0.68542E-02
        -0.68542E-02
        -0.68542E-02
        -0.68542E-02
        -0.68542E-02
        -0.68542E-02
        -0.68542E-02
        -0.68542E-02
        -0.68542E-02
        -0.68542E-02
        -0.68542E-02
        -0.68542E-02
        -0.68542E-02
        -0.68542E-02
        -0.58750E-02
        -0.58750E-02
        -0.58750E-02
        -0.58750E-02
        -0.58750E-02
        -0.58750E-02
        -0.58750E-02
        -0.58750E-02
        -0.58750E-02
        -0.58750E-02
        -0.58750E-02
        -0.58750E-02
        -0.58750E-02
        -0.58750E-02
        -0.58750E-02
        -0.58750E-02
        -0.58750E-02
        -0.58750E-02
        -0.58750E-02
        -0.58750E-02
        -0.58750E-02
        -0.58750E-02
        -0.58750E-02
        -0.58750E-02
        -0.58750E-02
        -0.58750E-02
        -0.58750E-02
        -0.58750E-02
        -0.58750E-02
        -0.58750E-02
        -0.58750E-02
        -0.58750E-02
        -0.58750E-02
        -0.58750E-02
        -0.58750E-02
        -0.58750E-02
        -0.58750E-02
        -0.58750E-02
        -0.58750E-02
        -0.58750E-02
        -0.58750E-02
        -0.58750E-02
        -0.58750E-02
        -0.58750E-02
        -0.58750E-02
        -0.58750E-02
        -0.58750E-02
        -0.58750E-02
        -0.58750E-02
        -0.58750E-02
        -0.58750E-02
        -0.58750E-02
        -0.58750E-02
        -0.58750E-02
        -0.58750E-02
        -0.58750E-02
        -0.58750E-02
        -0.58750E-02
        -0.58750E-02
        -0.58750E-02
        -0.58750E-02
        -0.58750E-02
        -0.58750E-02
        -0.58750E-02
        -0.58750E-02
        -0.58750E-02
        -0.58750E-02
        -0.58750E-02
        -0.58750E-02
        -0.58750E-02
        -0.58750E-02
        -0.58750E-02
        -0.58750E-02
        -0.58750E-02
        -0.58750E-02
        -0.58750E-02
        -0.58750E-02
        -0.58750E-02
        -0.48958E-02
        -0.48958E-02
        -0.48958E-02
        -0.48958E-02
        -0.48958E-02
        -0.48958E-02
        -0.48958E-02
        -0.48958E-02
        -0.48958E-02
        -0.48958E-02
        -0.48958E-02
        -0.48958E-02
        -0.48958E-02
        -0.48958E-02
        -0.48958E-02
        -0.48958E-02
        -0.48958E-02
        -0.48958E-02
        -0.48958E-02
        -0.48958E-02
        -0.48958E-02
        -0.48958E-02
        -0.48958E-02
        -0.48958E-02
        -0.48958E-02
        -0.48958E-02
        -0.48958E-02
        -0.48958E-02
        -0.48958E-02
        -0.48958E-02
        -0.48958E-02
        -0.48958E-02
        -0.48958E-02
        -0.48958E-02
        -0.48958E-02
        -0.48958E-02
        -0.48958E-02
        -0.48958E-02
        -0.48958E-02
        -0.48958E-02
        -0.48958E-02
        -0.48958E-02
        -0.48958E-02
        -0.48958E-02
        -0.48958E-02
        -0.48958E-02
        -0.48958E-02
        -0.48958E-02
        -0.48958E-02
        -0.48958E-02
        -0.48958E-02
        -0.48958E-02
        -0.48958E-02
        -0.48958E-02
        -0.48958E-02
        -0.48958E-02
        -0.48958E-02
        -0.48958E-02
        -0.48958E-02
        -0.48958E-02
        -0.48958E-02
        -0.48958E-02
        -0.48958E-02
        -0.48958E-02
        -0.48958E-02
        -0.48958E-02
        -0.48958E-02
        -0.48958E-02
        -0.48958E-02
        -0.48958E-02
        -0.48958E-02
        -0.48958E-02
        -0.48958E-02
        -0.48958E-02
        -0.48958E-02
        -0.48958E-02
        -0.48958E-02
        -0.48958E-02
        -0.39167E-02
        -0.39167E-02
        -0.39167E-02
        -0.39167E-02
        -0.39167E-02
        -0.39167E-02
        -0.39167E-02
        -0.39167E-02
        -0.39167E-02
        -0.39167E-02
        -0.39167E-02
        -0.39167E-02
        -0.39167E-02
        -0.39167E-02
        -0.39167E-02
        -0.39167E-02
        -0.39167E-02
        -0.39167E-02
        -0.39167E-02
        -0.39167E-02
        -0.39167E-02
        -0.39167E-02
        -0.39167E-02
        -0.39167E-02
        -0.39167E-02
        -0.39167E-02
        -0.39167E-02
        -0.39167E-02
        -0.39167E-02
        -0.39167E-02
        -0.39167E-02
        -0.39167E-02
        -0.39167E-02
        -0.39167E-02
        -0.39167E-02
        -0.39167E-02
        -0.39167E-02
        -0.39167E-02
        -0.39167E-02
        -0.39167E-02
        -0.39167E-02
        -0.39167E-02
        -0.39167E-02
        -0.39167E-02
        -0.39167E-02
        -0.39167E-02
        -0.39167E-02
        -0.39167E-02
        -0.39167E-02
        -0.39167E-02
        -0.39167E-02
        -0.39167E-02
        -0.39167E-02
        -0.39167E-02
        -0.39167E-02
        -0.39167E-02
        -0.39167E-02
        -0.39167E-02
        -0.39167E-02
        -0.39167E-02
        -0.39167E-02
        -0.39167E-02
        -0.39167E-02
        -0.39167E-02
        -0.39167E-02
        -0.39167E-02
        -0.39167E-02
        -0.39167E-02
        -0.39167E-02
        -0.39167E-02
        -0.39167E-02
        -0.39167E-02
        -0.39167E-02
        -0.39167E-02
        -0.39167E-02
        -0.39167E-02
        -0.39167E-02
        -0.39167E-02
        -0.29375E-02
        -0.29375E-02
        -0.29375E-02
        -0.29375E-02
        -0.29375E-02
        -0.29375E-02
        -0.29375E-02
        -0.29375E-02
        -0.29375E-02
        -0.29375E-02
        -0.29375E-02
        -0.29375E-02
        -0.29375E-02
        -0.29375E-02
        -0.29375E-02
        -0.29375E-02
        -0.29375E-02
        -0.29375E-02
        -0.29375E-02
        -0.29375E-02
        -0.29375E-02
        -0.29375E-02
        -0.29375E-02
        -0.29375E-02
        -0.29375E-02
        -0.29375E-02
        -0.29375E-02
        -0.29375E-02
        -0.29375E-02
        -0.29375E-02
        -0.29375E-02
        -0.29375E-02
        -0.29375E-02
        -0.29375E-02
        -0.29375E-02
        -0.29375E-02
        -0.29375E-02
        -0.29375E-02
        -0.29375E-02
        -0.29375E-02
        -0.29375E-02
        -0.29375E-02
        -0.29375E-02
        -0.29375E-02
        -0.29375E-02
        -0.29375E-02
        -0.29375E-02
        -0.29375E-02
        -0.29375E-02
        -0.29375E-02
        -0.29375E-02
        -0.29375E-02
        -0.29375E-02
        -0.29375E-02
        -0.29375E-02
        -0.29375E-02
        -0.29375E-02
        -0.29375E-02
        -0.29375E-02
        -0.29375E-02
        -0.29375E-02
        -0.29375E-02
        -0.29375E-02
        -0.29375E-02
        -0.29375E-02
        -0.29375E-02
        -0.29375E-02
        -0.29375E-02
        -0.29375E-02
        -0.29375E-02
        -0.29375E-02
        -0.29375E-02
        -0.29375E-02
        -0.29375E-02
        -0.29375E-02
        -0.29375E-02
        -0.29375E-02
        -0.29375E-02
        -0.19583E-02
        -0.19583E-02
        -0.19583E-02
        -0.19583E-02
        -0.19583E-02
        -0.19583E-02
        -0.19583E-02
        -0.19583E-02
        -0.19583E-02
        -0.19583E-02
        -0.19583E-02
        -0.19583E-02
        -0.19583E-02
        -0.19583E-02
        -0.19583E-02
        -0.19583E-02
        -0.19583E-02
        -0.19583E-02
        -0.19583E-02
        -0.19583E-02
        -0.19583E-02
        -0.19583E-02
        -0.19583E-02
        -0.19583E-02
        -0.19583E-02
        -0.19583E-02
        -0.19583E-02
        -0.19583E-02
        -0.19583E-02
        -0.19583E-02
        -0.19583E-02
        -0.19583E-02
        -0.19583E-02
        -0.19583E-02
        -0.19583E-02
        -0.19583E-02
        -0.19583E-02
        -0.19583E-02
        -0.19583E-02
        -0.19583E-02
        -0.19583E-02
        -0.19583E-02
        -0.19583E-02
        -0.19583E-02
        -0.19583E-02
        -0.19583E-02
        -0.19583E-02
        -0.19583E-02
        -0.19583E-02
        -0.19583E-02
        -0.19583E-02
        -0.19583E-02
        -0.19583E-02
        -0.19583E-02
        -0.19583E-02
        -0.19583E-02
        -0.19583E-02
        -0.19583E-02
        -0.19583E-02
        -0.19583E-02
        -0.19583E-02
        -0.19583E-02
        -0.19583E-02
        -0.19583E-02
        -0.19583E-02
        -0.19583E-02
        -0.19583E-02
        -0.19583E-02
        -0.19583E-02
        -0.19583E-02
        -0.19583E-02
        -0.19583E-02
        -0.19583E-02
        -0.19583E-02
        -0.19583E-02
        -0.19583E-02
        -0.19583E-02
        -0.19583E-02
        -0.97917E-03
        -0.97917E-03
        -0.97917E-03
        -0.97917E-03
        -0.97917E-03
        -0.97917E-03
        -0.97917E-03
        -0.97917E-03
        -0.97917E-03
        -0.97917E-03
        -0.97917E-03
        -0.97917E-03
        -0.97917E-03
        -0.97917E-03
        -0.97917E-03
        -0.97917E-03
        -0.97917E-03
        -0.97917E-03
        -0.97917E-03
        -0.97917E-03
        -0.97917E-03
        -0.97917E-03
        -0.97917E-03
        -0.97917E-03
        -0.97917E-03
        -0.97917E-03
        -0.97917E-03
        -0.97917E-03
        -0.97917E-03
        -0.97917E-03
        -0.97917E-03
        -0.97917E-03
        -0.97917E-03
        -0.97917E-03
        -0.97917E-03
        -0.97917E-03
        -0.97917E-03
        -0.97917E-03
        -0.97917E-03
        -0.97917E-03
        -0.97917E-03
        -0.97917E-03
        -0.97917E-03
        -0.97917E-03
        -0.97917E-03
        -0.97917E-03
        -0.97917E-03
        -0.97917E-03
        -0.97917E-03
        -0.97917E-03
        -0.97917E-03
        -0.97917E-03
        -0.97917E-03
        -0.97917E-03
        -0.97917E-03
        -0.97917E-03
        -0.97917E-03
        -0.97917E-03
        -0.97917E-03
        -0.97917E-03
        -0.97917E-03
        -0.97917E-03
        -0.97917E-03
        -0.97917E-03
        -0.97917E-03
        -0.97917E-03
        -0.97917E-03
        -0.97917E-03
        -0.97917E-03
        -0.97917E-03
        -0.97917E-03
        -0.97917E-03
        -0.97917E-03
        -0.97917E-03
        -0.97917E-03
        -0.97917E-03
        -0.97917E-03
        -0.97917E-03
         0.38917E-18
         0.44621E-18
         0.34485E-18
         0.23671E-18
         0.26613E-18
         0.16162E-18
         0.53980E-18
         0.50579E-18
         0.36337E-18
         0.48798E-18
         0.60712E-18
         0.67611E-18
         0.60634E-18
         0.60658E-18
         0.70997E-18
         0.20892E-18
         0.35894E-18
         0.21887E-18
         0.27638E-18
         0.38382E-18
         0.29058E-18
         0.40326E-18
         0.18564E-18
         0.19650E-18
         0.48570E-18
         0.12837E-18
         0.60589E-18
         0.60416E-18
         0.60524E-18
         0.49621E-18
         0.61582E-19
         0.32255E-19
         0.73874E-19
         0.78478E-19
         0.34514E-18
         0.42054E-18
         0.51644E-18
         0.72521E-18
         0.72233E-18
         0.70722E-18
         0.69126E-18
         0.61573E-18
         0.51484E-18
         0.91170E-19
         0.30347E-20
        -0.66516E-19
        -0.69988E-19
        -0.68643E-19
        -0.59779E-19
        -0.43507E-19
        -0.29471E-19
         0.53205E-19
         0.86819E-18
         0.00000E+00
         0.86819E-18
         0.86819E-18
         0.00000E+00
         0.00000E+00
         0.00000E+00
         0.17364E-17
         0.17364E-17
         0.17364E-17
         0.43410E-18
         0.43410E-18
         0.43410E-18
         0.00000E+00
         0.00000E+00
         0.00000E+00
         0.00000E+00
         0.00000E+00
         0.21705E-18
        -0.21705E-18
         0.00000E+00
         0.00000E+00
         0.00000E+00
        -0.32557E-18
         0.54262E-19
        -0.40697E-18
         0.97917E-03
         0.97917E-03
         0.97917E-03
         0.97917E-03
         0.97917E-03
         0.97917E-03
         0.97917E-03
         0.97917E-03
         0.97917E-03
         0.97917E-03
         0.97917E-03
         0.97917E-03
         0.97917E-03
         0.97917E-03
         0.97917E-03
         0.97917E-03
         0.97917E-03
         0.97917E-03
         0.97917E-03
         0.97917E-03
         0.97917E-03
         0.97917E-03
         0.97917E-03
         0.97917E-03
         0.97917E-03
         0.97917E-03
         0.97917E-03
         0.97917E-03
         0.97917E-03
         0.97917E-03
         0.97917E-03
         0.97917E-03
         0.97917E-03
         0.97917E-03
         0.97917E-03
         0.97917E-03
         0.97917E-03
         0.97917E-03
         0.97917E-03
         0.97917E-03
         0.97917E-03
         0.97917E-03
         0.97917E-03
         0.97917E-03
         0.97917E-03
         0.97917E-03
         0.97917E-03
         0.97917E-03
         0.97917E-03
         0.97917E-03
         0.97917E-03
         0.97917E-03
         0.97917E-03
         0.97917E-03
         0.97917E-03
         0.97917E-03
         0.97917E-03
         0.97917E-03
         0.97917E-03
         0.97917E-03
         0.97917E-03
         0.97917E-03
         0.97917E-03
         0.97917E-03
         0.97917E-03
         0.97917E-03
         0.97917E-03
         0.97917E-03
         0.97917E-03
         0.97917E-03
         0.97917E-03
         0.97917E-03
         0.97917E-03
         0.97917E-03
         0.97917E-03
         0.97917E-03
         0.97917E-03
         0.97917E-03
         0.19583E-02
         0.19583E-02
         0.19583E-02
         0.19583E-02
         0.19583E-02
         0.19583E-02
         0.19583E-02
         0.19583E-02
         0.19583E-02
         0.19583E-02
         0.19583E-02
         0.19583E-02
         0.19583E-02
         0.19583E-02
         0.19583E-02
         0.19583E-02
         0.19583E-02
         0.19583E-02
         0.19583E-02
         0.19583E-02
         0.19583E-02
         0.19583E-02
         0.19583E-02
         0.19583E-02
         0.19583E-02
         0.19583E-02
         0.19583E-02
         0.19583E-02
         0.19583E-02
         0.19583E-02
         0.19583E-02
         0.19583E-02
         0.19583E-02
         0.19583E-02
         0.19583E-02
         0.19583E-02
         0.19583E-02
         0.19583E-02
         0.19583E-02
         0.19583E-02
         0.19583E-02
         0.19583E-02
         0.19583E-02
         0.19583E-02
         0.19583E-02
         0.19583E-02
         0.19583E-02
         0.19583E-02
         0.19583E-02
         0.19583E-02
         0.19583E-02
         0.19583E-02
         0.19583E-02
         0.19583E-02
         0.19583E-02
         0.19583E-02
         0.19583E-02
         0.19583E-02
         0.19583E-02
         0.19583E-02
         0.19583E-02
         0.19583E-02
         0.19583E-02
         0.19583E-02
         0.19583E-02
         0.19583E-02
         0.19583E-02
         0.19583E-02
         0.19583E-02
         0.19583E-02
         0.19583E-02
         0.19583E-02
         0.19583E-02
         0.19583E-02
         0.19583E-02
         0.19583E-02
         0.19583E-02
         0.19583E-02
         0.29375E-02
         0.29375E-02
         0.29375E-02
         0.29375E-02
         0.29375E-02
         0.29375E-02
         0.29375E-02
         0.29375E-02
         0.29375E-02
         0.29375E-02
         0.29375E-02
         0.29375E-02
         0.29375E-02
         0.29375E-02
         0.29375E-02
         0.29375E-02
         0.29375E-02
         0.29375E-02
         0.29375E-02
         0.29375E-02
         0.29375E-02
         0.29375E-02
         0.29375E-02
         0.29375E-02
         0.29375E-02
         0.29375E-02
         0.29375E-02
         0.29375E-02
         0.29375E-02
         0.29375E-02
         0.29375E-02
         0.29375E-02
         0.29375E-02
         0.29375E-02
         0.29375E-02
         0.29375E-02
         0.29375E-02
         0.29375E-02
         0.29375E-02
         0.29375E-02
         0.29375E-02
         0.29375E-02
         0.29375E-02
         0.29375E-02
         0.29375E-02
         0.29375E-02
         0.29375E-02
         0.29375E-02
         0.29375E-02
         0.29375E-02
         0.29375E-02
         0.29375E-02
         0.29375E-02
         0.29375E-02
         0.29375E-02
         0.29375E-02
         0.29375E-02
         0.29375E-02
         0.29375E-02
         0.29375E-02
         0.29375E-02
         0.29375E-02
         0.29375E-02
         0.29375E-02
         0.29375E-02
         0.29375E-02
         0.29375E-02
         0.29375E-02
         0.29375E-02
         0.29375E-02
         0.29375E-02
         0.29375E-02
         0.29375E-02
         0.29375E-02
         0.29375E-02
         0.29375E-02
         0.29375E-02
         0.29375E-02
         0.39167E-02
         0.39167E-02
         0.39167E-02
         0.39167E-02
         0.39167E-02
         0.39167E-02
         0.39167E-02
         0.39167E-02
         0.39167E-02
         0.39167E-02
         0.39167E-02
         0.39167E-02
         0.39167E-02
         0.39167E-02
         0.39167E-02
         0.39167E-02
         0.39167E-02
         0.39167E-02
         0.39167E-02
         0.39167E-02
         0.39167E-02
         0.39167E-02
         0.39167E-02
         0.39167E-02
         0.39167E-02
         0.39167E-02
         0.39167E-02
         0.39167E-02
         0.39167E-02
         0.39167E-02
         0.39167E-02
         0.39167E-02
         0.39167E-02
         0.39167E-02
         0.39167E-02
         0.39167E-02
         0.39167E-02
         0.39167E-02
         0.39167E-02
         0.39167E-02
         0.39167E-02
         0.39167E-02
         0.39167E-02
         0.39167E-02
         0.39167E-02
         0.39167E-02
         0.39167E-02
         0.39167E-02
         0.39167E-02
         0.39167E-02
         0.39167E-02
         0.39167E-02
         0.39167E-02
         0.39167E-02
         0.39167E-02
         0.39167E-02
         0.39167E-02
         0.39167E-02
         0.39167E-02
         0.39167E-02
         0.39167E-02
         0.39167E-02
         0.39167E-02
         0.39167E-02
         0.39167E-02
         0.39167E-02
         0.39167E-02
         0.39167E-02
         0.39167E-02
         0.39167E-02
         0.39167E-02
         0.39167E-02
         0.39167E-02
         0.39167E-02
         0.39167E-02
         0.39167E-02
         0.39167E-02
         0.39167E-02
         0.48958E-02
         0.48958E-02
         0.48958E-02
         0.48958E-02
         0.48958E-02
         0.48958E-02
         0.48958E-02
         0.48958E-02
         0.48958E-02
         0.48958E-02
         0.48958E-02
         0.48958E-02
         0.48958E-02
         0.48958E-02
         0.48958E-02
         0.48958E-02
         0.48958E-02
         0.48958E-02
         0.48958E-02
         0.48958E-02
         0.48958E-02
         0.48958E-02
         0.48958E-02
         0.48958E-02
         0.48958E-02
         0.48958E-02
         0.48958E-02
         0.48958E-02
         0.48958E-02
         0.48958E-02
         0.48958E-02
         0.48958E-02
         0.48958E-02
         0.48958E-02
         0.48958E-02
         0.48958E-02
         0.48958E-02
         0.48958E-02
         0.48958E-02
         0.48958E-02
         0.48958E-02
         0.48958E-02
         0.48958E-02
         0.48958E-02
         0.48958E-02
         0.48958E-02
         0.48958E-02
         0.48958E-02
         0.48958E-02
         0.48958E-02
         0.48958E-02
         0.48958E-02
         0.48958E-02
         0.48958E-02
         0.48958E-02
         0.48958E-02
         0.48958E-02
         0.48958E-02
         0.48958E-02
         0.48958E-02
         0.48958E-02
         0.48958E-02
         0.48958E-02
         0.48958E-02
         0.48958E-02
         0.48958E-02
         0.48958E-02
         0.48958E-02
         0.48958E-02
         0.48958E-02
         0.48958E-02
         0.48958E-02
         0.48958E-02
         0.48958E-02
         0.48958E-02
         0.48958E-02
         0.48958E-02
         0.48958E-02
         0.58750E-02
         0.58750E-02
         0.58750E-02
         0.58750E-02
         0.58750E-02
         0.58750E-02
         0.58750E-02
         0.58750E-02
         0.58750E-02
         0.58750E-02
         0.58750E-02
         0.58750E-02
         0.58750E-02
         0.58750E-02
         0.58750E-02
         0.58750E-02
         0.58750E-02
         0.58750E-02
         0.58750E-02
         0.58750E-02
         0.58750E-02
         0.58750E-02
         0.58750E-02
         0.58750E-02
         0.58750E-02
         0.58750E-02
         0.58750E-02
         0.58750E-02
         0.58750E-02
         0.58750E-02
         0.58750E-02
         0.58750E-02
         0.58750E-02
         0.58750E-02
         0.58750E-02
         0.58750E-02
         0.58750E-02
         0.58750E-02
         0.58750E-02
         0.58750E-02
         0.58750E-02
         0.58750E-02
         0.58750E-02
         0.58750E-02
         0.58750E-02
         0.58750E-02
         0.58750E-02
         0.58750E-02
         0.58750E-02
         0.58750E-02
         0.58750E-02
         0.58750E-02
         0.58750E-02
         0.58750E-02
         0.58750E-02
         0.58750E-02
         0.58750E-02
         0.58750E-02
         0.58750E-02
         0.58750E-02
         0.58750E-02
         0.58750E-02
         0.58750E-02
         0.58750E-02
         0.58750E-02
         0.58750E-02
         0.58750E-02
         0.58750E-02
         0.58750E-02
         0.58750E-02
         0.58750E-02
         0.58750E-02
         0.58750E-02
         0.58750E-02
         0.58750E-02
         0.58750E-02
         0.58750E-02
         0.58750E-02
         0.68542E-02
         0.68542E-02
         0.68542E-02
         0.68542E-02
         0.68542E-02
         0.68542E-02
         0.68542E-02
         0.68542E-02
         0.68542E-02
         0.68542E-02
         0.68542E-02
         0.68542E-02
         0.68542E-02
         0.68542E-02
         0.68542E-02
         0.68542E-02
         0.68542E-02
         0.68542E-02
         0.68542E-02
         0.68542E-02
         0.68542E-02
         0.68542E-02
         0.68542E-02
         0.68542E-02
         0.68542E-02
         0.68542E-02
         0.68542E-02
         0.68542E-02
         0.68542E-02
         0.68542E-02
         0.68542E-02
         0.68542E-02
         0.68542E-02
         0.68542E-02
         0.68542E-02
         0.68542E-02
         0.68542E-02
         0.68542E-02
         0.68542E-02
         0.68542E-02
         0.68542E-02
         0.68542E-02
         0.68542E-02
         0.68542E-02
         0.68542E-02
         0.68542E-02
         0.68542E-02
         0.68542E-02
         0.68542E-02
         0.68542E-02
         0.68542E-02
         0.68542E-02
         0.68542E-02
         0.68542E-02
         0.68542E-02
         0.68542E-02
         0.68542E-02
         0.68542E-02
         0.68542E-02
         0.68542E-02
         0.68542E-02
         0.68542E-02
         0.68542E-02
         0.68542E-02
         0.68542E-02
         0.68542E-02
         0.68542E-02
         0.68542E-02
         0.68542E-02
         0.68542E-02
         0.68542E-02
         0.68542E-02
         0.68542E-02
         0.68542E-02
         0.68542E-02
         0.68542E-02
         0.68542E-02
         0.68542E-02
         0.78333E-02
         0.78333E-02
         0.78333E-02
         0.78333E-02
         0.78333E-02
         0.78333E-02
         0.78333E-02
         0.78333E-02
         0.78333E-02
         0.78333E-02
         0.78333E-02
         0.78333E-02
         0.78333E-02
         0.78333E-02
         0.78333E-02
         0.78333E-02
         0.78333E-02
         0.78333E-02
         0.78333E-02
         0.78333E-02
         0.78333E-02
         0.78333E-02
         0.78333E-02
         0.78333E-02
         0.78333E-02
         0.78333E-02
         0.78333E-02
         0.78333E-02
         0.78333E-02
         0.78333E-02
         0.78333E-02
         0.78333E-02
         0.78333E-02
         0.78333E-02
         0.78333E-02
         0.78333E-02
         0.78333E-02
         0.78333E-02
         0.78333E-02
         0.78333E-02
         0.78333E-02
         0.78333E-02
         0.78333E-02
         0.78333E-02
         0.78333E-02
         0.78333E-02
         0.78333E-02
         0.78333E-02
         0.78333E-02
         0.78333E-02
         0.78333E-02
         0.78333E-02
         0.78333E-02
         0.78333E-02
         0.78333E-02
         0.78333E-02
         0.78333E-02
         0.78333E-02
         0.78333E-02
         0.78333E-02
         0.78333E-02
         0.78333E-02
         0.78333E-02
         0.78333E-02
         0.78333E-02
         0.78333E-02
         0.78333E-02
         0.78333E-02
         0.78333E-02
         0.78333E-02
         0.78333E-02
         0.78333E-02
         0.78333E-02
         0.78333E-02
         0.78333E-02
         0.78333E-02
         0.78333E-02
         0.78333E-02
         0.88125E-02
         0.88125E-02
         0.88125E-02
         0.88125E-02
         0.88125E-02
         0.88125E-02
         0.88125E-02
         0.88125E-02
         0.88125E-02
         0.88125E-02
         0.88125E-02
         0.88125E-02
         0.88125E-02
         0.88125E-02
         0.88125E-02
         0.88125E-02
         0.88125E-02
         0.88125E-02
         0.88125E-02
         0.88125E-02
         0.88125E-02
         0.88125E-02
         0.88125E-02
         0.88125E-02
         0.88125E-02
         0.88125E-02
         0.88125E-02
         0.88125E-02
         0.88125E-02
         0.88125E-02
         0.88125E-02
         0.88125E-02
         0.88125E-02
         0.88125E-02
         0.88125E-02
         0.88125E-02
         0.88125E-02
         0.88125E-02
         0.88125E-02
         0.88125E-02
         0.88125E-02
         0.88125E-02
         0.88125E-02
         0.88125E-02
         0.88125E-02
         0.88125E-02
         0.88125E-02
         0.88125E-02
         0.88125E-02
         0.88125E-02
         0.88125E-02
         0.88125E-02
         0.88125E-02
         0.88125E-02
         0.88125E-02
         0.88125E-02
         0.88125E-02
         0.88125E-02
         0.88125E-02
         0.88125E-02
         0.88125E-02
         0.88125E-02
         0.88125E-02
         0.88125E-02
         0.88125E-02
         0.88125E-02
         0.88125E-02
         0.88125E-02
         0.88125E-02
         0.88125E-02
         0.88125E-02
         0.88125E-02
         0.88125E-02
         0.88125E-02
         0.88125E-02
         0.88125E-02
         0.88125E-02
         0.88125E-02
         0.97917E-02
         0.97917E-02
         0.97917E-02
         0.97917E-02
         0.97917E-02
         0.97917E-02
         0.97917E-02
         0.97917E-02
         0.97917E-02
         0.97917E-02
         0.97917E-02
         0.97917E-02
         0.97917E-02
         0.97917E-02
         0.97917E-02
         0.97917E-02
         0.97917E-02
         0.97917E-02
         0.97917E-02
         0.97917E-02
         0.97917E-02
         0.97917E-02
         0.97917E-02
         0.97917E-02
         0.97917E-02
         0.97917E-02
         0.97917E-02
         0.97917E-02
         0.97917E-02
         0.97917E-02
         0.97917E-02
         0.97917E-02
         0.97917E-02
         0.97917E-02
         0.97917E-02
         0.97917E-02
         0.97917E-02
         0.97917E-02
         0.97917E-02
         0.97917E-02
         0.97917E-02
         0.97917E-02
         0.97917E-02
         0.97917E-02
         0.97917E-02
         0.97917E-02
         0.97917E-02
         0.97917E-02
         0.97917E-02
         0.97917E-02
         0.97917E-02
         0.97917E-02
         0.97917E-02
         0.97917E-02
         0.97917E-02
         0.97917E-02
         0.97917E-02
         0.97917E-02
         0.97917E-02
         0.97917E-02
         0.97917E-02
         0.97917E-02
         0.97917E-02
         0.97917E-02
         0.97917E-02
         0.97917E-02
         0.97917E-02
         0.97917E-02
         0.97917E-02
         0.97917E-02
         0.97917E-02
         0.97917E-02
         0.97917E-02
         0.97917E-02
         0.97917E-02
         0.97917E-02
         0.97917E-02
         0.97917E-02
         0.10771E-01
         0.10771E-01
         0.10771E-01
         0.10771E-01
         0.10771E-01
         0.10771E-01
         0.10771E-01
         0.10771E-01
         0.10771E-01
         0.10771E-01
         0.10771E-01
         0.10771E-01
         0.10771E-01
         0.10771E-01
         0.10771E-01
         0.10771E-01
         0.10771E-01
         0.10771E-01
         0.10771E-01
         0.10771E-01
         0.10771E-01
         0.10771E-01
         0.10771E-01
         0.10771E-01
         0.10771E-01
         0.10771E-01
         0.10771E-01
         0.10771E-01
         0.10771E-01
         0.10771E-01
         0.10771E-01
         0.10771E-01
         0.10771E-01
         0.10771E-01
         0.10771E-01
         0.10771E-01
         0.10771E-01
         0.10771E-01
         0.10771E-01
         0.10771E-01
         0.10771E-01
         0.10771E-01
         0.10771E-01
         0.10771E-01
         0.10771E-01
         0.10771E-01
         0.10771E-01
         0.10771E-01
         0.10771E-01
         0.10771E-01
         0.10771E-01
         0.10771E-01
         0.10771E-01
         0.10771E-01
         0.10771E-01
         0.10771E-01
         0.10771E-01
         0.10771E-01
         0.10771E-01
         0.10771E-01
         0.10771E-01
         0.10771E-01
         0.10771E-01
         0.10771E-01
         0.10771E-01
         0.10771E-01
         0.10771E-01
         0.10771E-01
         0.10771E-01
         0.10771E-01
         0.10771E-01
         0.10771E-01
         0.10771E-01
         0.10771E-01
         0.10771E-01
         0.10771E-01
         0.10771E-01
         0.10771E-01
         0.11750E-01
         0.11750E-01
         0.11750E-01
         0.11750E-01
         0.11750E-01
         0.11750E-01
         0.11750E-01
         0.11750E-01
         0.11750E-01
         0.11750E-01
         0.11750E-01
         0.11750E-01
         0.11750E-01
         0.11750E-01
         0.11750E-01
         0.11750E-01
         0.11750E-01
         0.11750E-01
         0.11750E-01
         0.11750E-01
         0.11750E-01
         0.11750E-01
         0.11750E-01
         0.11750E-01
         0.11750E-01
         0.11750E-01
         0.11750E-01
         0.11750E-01
         0.11750E-01
         0.11750E-01
         0.11750E-01
         0.11750E-01
         0.11750E-01
         0.11750E-01
         0.11750E-01
         0.11750E-01
         0.11750E-01
         0.11750E-01
         0.11750E-01
         0.11750E-01
         0.11750E-01
         0.11750E-01
         0.11750E-01
         0.11750E-01
         0.11750E-01
         0.11750E-01
         0.11750E-01
         0.11750E-01
         0.11750E-01
         0.11750E-01
         0.11750E-01
         0.11750E-01
         0.11750E-01
         0.11750E-01
         0.11750E-01
         0.11750E-01
         0.11750E-01
         0.11750E-01
         0.11750E-01
         0.11750E-01
         0.11750E-01
         0.11750E-01
         0.11750E-01
         0.11750E-01
         0.11750E-01
         0.11750E-01
         0.11750E-01
         0.11750E-01
         0.11750E-01
         0.11750E-01
         0.11750E-01
         0.11750E-01
         0.11750E-01
         0.11750E-01
         0.11750E-01
         0.11750E-01
         0.11750E-01
         0.11750E-01
  
SCALARS                init_velocity_x  double 1
LOOKUP_TABLE default
         0.00000E+00
         0.00000E+00
         0.00000E+00
         0.00000E+00
         0.00000E+00
         0.00000E+00
         0.00000E+00
         0.00000E+00
         0.00000E+00
         0.00000E+00
         0.00000E+00
         0.00000E+00
         0.00000E+00
         0.00000E+00
         0.00000E+00
         0.00000E+00
         0.00000E+00
         0.00000E+00
         0.00000E+00
         0.00000E+00
         0.00000E+00
         0.00000E+00
         0.00000E+00
         0.00000E+00
         0.00000E+00
         0.00000E+00
         0.00000E+00
         0.00000E+00
         0.00000E+00
         0.00000E+00
         0.00000E+00
         0.00000E+00
         0.00000E+00
         0.00000E+00
         0.00000E+00
         0.00000E+00
         0.00000E+00
         0.00000E+00
         0.00000E+00
         0.00000E+00
         0.00000E+00
         0.00000E+00
         0.00000E+00
         0.00000E+00
         0.00000E+00
         0.00000E+00
         0.00000E+00
         0.00000E+00
         0.00000E+00
         0.00000E+00
         0.00000E+00
         0.00000E+00
         0.00000E+00
         0.00000E+00
         0.00000E+00
         0.00000E+00
         0.00000E+00
         0.00000E+00
         0.00000E+00
         0.00000E+00
         0.00000E+00
         0.00000E+00
         0.00000E+00
         0.00000E+00
         0.00000E+00
         0.00000E+00
         0.00000E+00
         0.00000E+00
         0.00000E+00
         0.00000E+00
         0.00000E+00
         0.00000E+00
         0.00000E+00
         0.00000E+00
         0.00000E+00
         0.00000E+00
         0.00000E+00
         0.00000E+00
         0.00000E+00
         0.00000E+00
         0.00000E+00
         0.00000E+00
         0.00000E+00
         0.00000E+00
         0.00000E+00
         0.00000E+00
         0.00000E+00
         0.00000E+00
         0.00000E+00
         0.00000E+00
         0.00000E+00
         0.00000E+00
         0.00000E+00
         0.00000E+00
         0.00000E+00
         0.00000E+00
         0.00000E+00
         0.00000E+00
         0.00000E+00
         0.00000E+00
         0.00000E+00
         0.00000E+00
         0.00000E+00
         0.00000E+00
         0.00000E+00
         0.00000E+00
         0.00000E+00
         0.00000E+00
         0.00000E+00
         0.00000E+00
         0.00000E+00
         0.00000E+00
         0.00000E+00
         0.00000E+00
         0.00000E+00
         0.00000E+00
         0.00000E+00
         0.00000E+00
         0.00000E+00
         0.00000E+00
         0.00000E+00
         0.00000E+00
         0.00000E+00
         0.00000E+00
         0.00000E+00
         0.00000E+00
         0.00000E+00
         0.00000E+00
         0.00000E+00
         0.00000E+00
         0.00000E+00
         0.00000E+00
         0.00000E+00
         0.00000E+00
         0.00000E+00
         0.00000E+00
         0.00000E+00
         0.00000E+00
         0.00000E+00
         0.00000E+00
         0.00000E+00
         0.00000E+00
         0.00000E+00
         0.00000E+00
         0.00000E+00
         0.00000E+00
         0.00000E+00
         0.00000E+00
         0.00000E+00
         0.00000E+00
         0.00000E+00
         0.00000E+00
         0.00000E+00
         0.00000E+00
         0.00000E+00
         0.00000E+00
         0.00000E+00
         0.00000E+00
         0.00000E+00
         0.00000E+00
         0.00000E+00
         0.00000E+00
         0.00000E+00
         0.00000E+00
         0.00000E+00
         0.00000E+00
         0.00000E+00
         0.00000E+00
         0.00000E+00
         0.00000E+00
         0.00000E+00
         0.00000E+00
         0.00000E+00
         0.00000E+00
         0.00000E+00
         0.00000E+00
         0.00000E+00
         0.00000E+00
         0.00000E+00
         0.00000E+00
         0.00000E+00
         0.00000E+00
         0.00000E+00
         0.00000E+00
         0.00000E+00
         0.00000E+00
         0.00000E+00
         0.00000E+00
         0.00000E+00
         0.00000E+00
         0.00000E+00
         0.00000E+00
         0.00000E+00
         0.00000E+00
         0.00000E+00
         0.00000E+00
         0.00000E+00
         0.00000E+00
         0.00000E+00
         0.00000E+00
         0.00000E+00
         0.00000E+00
         0.00000E+00
         0.00000E+00
         0.00000E+00
         0.00000E+00
         0.00000E+00
         0.00000E+00
         0.00000E+00
         0.00000E+00
         0.00000E+00
         0.00000E+00
         0.00000E+00
         0.00000E+00
         0.00000E+00
         0.00000E+00
         0.00000E+00
         0.00000E+00
         0.00000E+00
         0.00000E+00
         0.00000E+00
         0.00000E+00
         0.00000E+00
         0.00000E+00
         0.00000E+00
         0.00000E+00
         0.00000E+00
         0.00000E+00
         0.00000E+00
         0.00000E+00
         0.00000E+00
         0.00000E+00
         0.00000E+00
         0.00000E+00
         0.00000E+00
         0.00000E+00
         0.00000E+00
         0.00000E+00
         0.00000E+00
         0.00000E+00
         0.00000E+00
         0.00000E+00
         0.00000E+00
         0.00000E+00
         0.00000E+00
         0.00000E+00
         0.00000E+00
         0.00000E+00
         0.00000E+00
         0.00000E+00
         0.00000E+00
         0.00000E+00
         0.00000E+00
         0.00000E+00
         0.00000E+00
         0.00000E+00
         0.00000E+00
         0.00000E+00
         0.00000E+00
         0.00000E+00
         0.00000E+00
         0.00000E+00
         0.00000E+00
         0.00000E+00
         0.00000E+00
         0.00000E+00
         0.00000E+00
         0.00000E+00
         0.00000E+00
         0.00000E+00
         0.00000E+00
         0.00000E+00
         0.00000E+00
         0.00000E+00
         0.00000E+00
         0.00000E+00
         0.00000E+00
         0.00000E+00
         0.00000E+00
         0.00000E+00
         0.00000E+00
         0.00000E+00
         0.00000E+00
         0.00000E+00
         0.00000E+00
         0.00000E+00
         0.00000E+00
         0.00000E+00
         0.00000E+00
         0.00000E+00
         0.00000E+00
         0.00000E+00
         0.00000E+00
         0.00000E+00
         0.00000E+00
         0.00000E+00
         0.00000E+00
         0.00000E+00
         0.00000E+00
         0.00000E+00
         0.00000E+00
         0.00000E+00
         0.00000E+00
         0.00000E+00
         0.00000E+00
         0.00000E+00
         0.00000E+00
         0.00000E+00
         0.00000E+00
         0.00000E+00
         0.00000E+00
         0.00000E+00
         0.00000E+00
         0.00000E+00
         0.00000E+00
         0.00000E+00
         0.00000E+00
         0.00000E+00
         0.00000E+00
         0.00000E+00
         0.00000E+00
         0.00000E+00
         0.00000E+00
         0.00000E+00
         0.00000E+00
         0.00000E+00
         0.00000E+00
         0.00000E+00
         0.00000E+00
         0.00000E+00
         0.00000E+00
         0.00000E+00
         0.00000E+00
         0.00000E+00
         0.00000E+00
         0.00000E+00
         0.00000E+00
         0.00000E+00
         0.00000E+00
         0.00000E+00
         0.00000E+00
         0.00000E+00
         0.00000E+00
         0.00000E+00
         0.00000E+00
         0.00000E+00
         0.00000E+00
         0.00000E+00
         0.00000E+00
         0.00000E+00
         0.00000E+00
         0.00000E+00
         0.00000E+00
         0.00000E+00
         0.00000E+00
         0.00000E+00
         0.00000E+00
         0.00000E+00
         0.00000E+00
         0.00000E+00
         0.00000E+00
         0.00000E+00
         0.00000E+00
         0.00000E+00
         0.00000E+00
         0.00000E+00
         0.00000E+00
         0.00000E+00
         0.00000E+00
         0.00000E+00
         0.00000E+00
         0.00000E+00
         0.00000E+00
         0.00000E+00
         0.00000E+00
         0.00000E+00
         0.00000E+00
         0.00000E+00
         0.00000E+00
         0.00000E+00
         0.00000E+00
         0.00000E+00
         0.00000E+00
         0.00000E+00
         0.00000E+00
         0.00000E+00
         0.00000E+00
         0.00000E+00
         0.00000E+00
         0.00000E+00
         0.00000E+00
         0.00000E+00
         0.00000E+00
         0.00000E+00
         0.00000E+00
         0.00000E+00
         0.00000E+00
         0.00000E+00
         0.00000E+00
         0.00000E+00
         0.00000E+00
         0.00000E+00
         0.00000E+00
         0.00000E+00
         0.00000E+00
         0.00000E+00
         0.00000E+00
         0.00000E+00
         0.00000E+00
         0.00000E+00
         0.00000E+00
         0.00000E+00
         0.00000E+00
         0.00000E+00
         0.00000E+00
         0.00000E+00
         0.00000E+00
         0.00000E+00
         0.00000E+00
         0.00000E+00
         0.00000E+00
         0.00000E+00
         0.00000E+00
         0.00000E+00
         0.00000E+00
         0.00000E+00
         0.00000E+00
         0.00000E+00
         0.00000E+00
         0.00000E+00
         0.00000E+00
         0.00000E+00
         0.00000E+00
         0.00000E+00
         0.00000E+00
         0.00000E+00
         0.00000E+00
         0.00000E+00
         0.00000E+00
         0.00000E+00
         0.00000E+00
         0.00000E+00
         0.00000E+00
         0.00000E+00
         0.00000E+00
         0.00000E+00
         0.00000E+00
         0.00000E+00
         0.00000E+00
         0.00000E+00
         0.00000E+00
         0.00000E+00
         0.00000E+00
         0.00000E+00
         0.00000E+00
         0.00000E+00
         0.00000E+00
         0.00000E+00
         0.00000E+00
         0.00000E+00
         0.00000E+00
         0.00000E+00
         0.00000E+00
         0.00000E+00
         0.00000E+00
         0.00000E+00
         0.00000E+00
         0.00000E+00
         0.00000E+00
         0.00000E+00
         0.00000E+00
         0.00000E+00
         0.00000E+00
         0.00000E+00
         0.00000E+00
         0.00000E+00
         0.00000E+00
         0.00000E+00
         0.00000E+00
         0.00000E+00
         0.00000E+00
         0.00000E+00
         0.00000E+00
         0.00000E+00
         0.00000E+00
         0.00000E+00
         0.00000E+00
         0.00000E+00
         0.00000E+00
         0.00000E+00
         0.00000E+00
         0.00000E+00
         0.00000E+00
         0.00000E+00
         0.00000E+00
         0.00000E+00
         0.00000E+00
         0.00000E+00
         0.00000E+00
         0.00000E+00
         0.00000E+00
         0.00000E+00
         0.00000E+00
         0.00000E+00
         0.00000E+00
         0.00000E+00
         0.00000E+00
         0.00000E+00
         0.00000E+00
         0.00000E+00
         0.00000E+00
         0.00000E+00
         0.00000E+00
         0.00000E+00
         0.00000E+00
         0.00000E+00
         0.00000E+00
         0.00000E+00
         0.00000E+00
         0.00000E+00
         0.00000E+00
         0.00000E+00
         0.00000E+00
         0.00000E+00
         0.00000E+00
         0.00000E+00
         0.00000E+00
         0.00000E+00
         0.00000E+00
         0.00000E+00
         0.00000E+00
         0.00000E+00
         0.00000E+00
         0.00000E+00
         0.00000E+00
         0.00000E+00
         0.00000E+00
         0.00000E+00
         0.00000E+00
         0.00000E+00
         0.00000E+00
         0.00000E+00
         0.00000E+00
         0.00000E+00
         0.00000E+00
         0.00000E+00
         0.00000E+00
         0.00000E+00
         0.00000E+00
         0.00000E+00
         0.00000E+00
         0.00000E+00
         0.00000E+00
         0.00000E+00
         0.00000E+00
         0.00000E+00
         0.00000E+00
         0.00000E+00
         0.00000E+00
         0.00000E+00
         0.00000E+00
         0.00000E+00
         0.00000E+00
         0.00000E+00
         0.00000E+00
         0.00000E+00
         0.00000E+00
         0.00000E+00
         0.00000E+00
         0.00000E+00
         0.00000E+00
         0.00000E+00
         0.00000E+00
         0.00000E+00
         0.00000E+00
         0.00000E+00
         0.00000E+00
         0.00000E+00
         0.00000E+00
         0.00000E+00
         0.00000E+00
         0.00000E+00
         0.00000E+00
         0.00000E+00
         0.00000E+00
         0.00000E+00
         0.00000E+00
         0.00000E+00
         0.00000E+00
         0.00000E+00
         0.00000E+00
         0.00000E+00
         0.00000E+00
         0.00000E+00
         0.00000E+00
         0.00000E+00
         0.00000E+00
         0.00000E+00
         0.00000E+00
         0.00000E+00
         0.00000E+00
         0.00000E+00
         0.00000E+00
         0.00000E+00
         0.00000E+00
         0.00000E+00
         0.00000E+00
         0.00000E+00
         0.00000E+00
         0.00000E+00
         0.00000E+00
         0.00000E+00
         0.00000E+00
         0.00000E+00
         0.00000E+00
         0.00000E+00
         0.00000E+00
         0.00000E+00
         0.00000E+00
         0.00000E+00
         0.00000E+00
         0.00000E+00
         0.00000E+00
         0.00000E+00
         0.00000E+00
         0.00000E+00
         0.00000E+00
         0.00000E+00
         0.00000E+00
         0.00000E+00
         0.00000E+00
         0.00000E+00
         0.00000E+00
         0.00000E+00
         0.00000E+00
         0.00000E+00
         0.00000E+00
         0.00000E+00
         0.00000E+00
         0.00000E+00
         0.00000E+00
         0.00000E+00
         0.00000E+00
         0.00000E+00
         0.00000E+00
         0.00000E+00
         0.00000E+00
         0.00000E+00
         0.00000E+00
         0.00000E+00
         0.00000E+00
         0.00000E+00
         0.00000E+00
         0.00000E+00
         0.00000E+00
         0.00000E+00
         0.00000E+00
         0.00000E+00
         0.00000E+00
         0.00000E+00
         0.00000E+00
         0.00000E+00
         0.00000E+00
         0.00000E+00
         0.00000E+00
         0.00000E+00
         0.00000E+00
         0.00000E+00
         0.00000E+00
         0.00000E+00
         0.00000E+00
         0.00000E+00
         0.00000E+00
         0.00000E+00
         0.00000E+00
         0.00000E+00
         0.00000E+00
         0.00000E+00
         0.00000E+00
         0.00000E+00
         0.00000E+00
         0.00000E+00
         0.00000E+00
         0.00000E+00
         0.00000E+00
         0.00000E+00
         0.00000E+00
         0.00000E+00
         0.00000E+00
         0.00000E+00
         0.00000E+00
         0.00000E+00
         0.00000E+00
         0.00000E+00
         0.00000E+00
         0.00000E+00
         0.00000E+00
         0.00000E+00
         0.00000E+00
         0.00000E+00
         0.00000E+00
         0.00000E+00
         0.00000E+00
         0.00000E+00
         0.00000E+00
         0.00000E+00
         0.00000E+00
         0.00000E+00
         0.00000E+00
         0.00000E+00
         0.00000E+00
         0.00000E+00
         0.00000E+00
         0.00000E+00
         0.00000E+00
         0.00000E+00
         0.00000E+00
         0.00000E+00
         0.00000E+00
         0.00000E+00
         0.00000E+00
         0.00000E+00
         0.00000E+00
         0.00000E+00
         0.00000E+00
         0.00000E+00
         0.00000E+00
         0.00000E+00
         0.00000E+00
         0.00000E+00
         0.00000E+00
         0.00000E+00
         0.00000E+00
         0.00000E+00
         0.00000E+00
         0.00000E+00
         0.00000E+00
         0.00000E+00
         0.00000E+00
         0.00000E+00
         0.00000E+00
         0.00000E+00
         0.00000E+00
         0.00000E+00
         0.00000E+00
         0.00000E+00
         0.00000E+00
         0.00000E+00
         0.00000E+00
         0.00000E+00
         0.00000E+00
         0.00000E+00
         0.00000E+00
         0.00000E+00
         0.00000E+00
         0.00000E+00
         0.00000E+00
         0.00000E+00
         0.00000E+00
         0.00000E+00
         0.00000E+00
         0.00000E+00
         0.00000E+00
         0.00000E+00
         0.00000E+00
         0.00000E+00
         0.00000E+00
         0.00000E+00
         0.00000E+00
         0.00000E+00
         0.00000E+00
         0.00000E+00
         0.00000E+00
         0.00000E+00
         0.00000E+00
         0.00000E+00
         0.00000E+00
         0.00000E+00
         0.00000E+00
         0.00000E+00
         0.00000E+00
         0.00000E+00
         0.00000E+00
         0.00000E+00
         0.00000E+00
         0.00000E+00
         0.00000E+00
         0.00000E+00
         0.00000E+00
         0.00000E+00
         0.00000E+00
         0.00000E+00
         0.00000E+00
         0.00000E+00
         0.00000E+00
         0.00000E+00
         0.00000E+00
         0.00000E+00
         0.00000E+00
         0.00000E+00
         0.00000E+00
         0.00000E+00
         0.00000E+00
         0.00000E+00
         0.00000E+00
         0.00000E+00
         0.00000E+00
         0.00000E+00
         0.00000E+00
         0.00000E+00
         0.00000E+00
         0.00000E+00
         0.00000E+00
         0.00000E+00
         0.00000E+00
         0.00000E+00
         0.00000E+00
         0.00000E+00
         0.00000E+00
         0.00000E+00
         0.00000E+00
         0.00000E+00
         0.00000E+00
         0.00000E+00
         0.00000E+00
         0.00000E+00
         0.00000E+00
         0.00000E+00
         0.00000E+00
         0.00000E+00
         0.00000E+00
         0.00000E+00
         0.00000E+00
         0.00000E+00
         0.00000E+00
         0.00000E+00
         0.00000E+00
         0.00000E+00
         0.00000E+00
         0.00000E+00
         0.00000E+00
         0.00000E+00
         0.00000E+00
         0.00000E+00
         0.00000E+00
         0.00000E+00
         0.00000E+00
         0.00000E+00
         0.00000E+00
         0.00000E+00
         0.00000E+00
         0.00000E+00
         0.00000E+00
         0.00000E+00
         0.00000E+00
         0.00000E+00
         0.00000E+00
         0.00000E+00
         0.00000E+00
         0.00000E+00
         0.00000E+00
         0.00000E+00
         0.00000E+00
         0.00000E+00
         0.00000E+00
         0.00000E+00
         0.00000E+00
         0.00000E+00
         0.00000E+00
         0.00000E+00
         0.00000E+00
         0.00000E+00
         0.00000E+00
         0.00000E+00
         0.00000E+00
         0.00000E+00
         0.00000E+00
         0.00000E+00
         0.00000E+00
         0.00000E+00
         0.00000E+00
         0.00000E+00
         0.00000E+00
         0.00000E+00
         0.00000E+00
         0.00000E+00
         0.00000E+00
         0.00000E+00
         0.00000E+00
         0.00000E+00
         0.00000E+00
         0.00000E+00
         0.00000E+00
         0.00000E+00
         0.00000E+00
         0.00000E+00
         0.00000E+00
         0.00000E+00
         0.00000E+00
         0.00000E+00
         0.00000E+00
         0.00000E+00
         0.00000E+00
         0.00000E+00
         0.00000E+00
         0.00000E+00
         0.00000E+00
         0.00000E+00
         0.00000E+00
         0.00000E+00
         0.00000E+00
         0.00000E+00
         0.00000E+00
         0.00000E+00
         0.00000E+00
         0.00000E+00
         0.00000E+00
         0.00000E+00
         0.00000E+00
         0.00000E+00
         0.00000E+00
         0.00000E+00
         0.00000E+00
         0.00000E+00
         0.00000E+00
         0.00000E+00
         0.00000E+00
         0.00000E+00
         0.00000E+00
         0.00000E+00
         0.00000E+00
         0.00000E+00
         0.00000E+00
         0.00000E+00
         0.00000E+00
         0.00000E+00
         0.00000E+00
         0.00000E+00
         0.00000E+00
         0.00000E+00
         0.00000E+00
         0.00000E+00
         0.00000E+00
         0.00000E+00
         0.00000E+00
         0.00000E+00
         0.00000E+00
         0.00000E+00
         0.00000E+00
         0.00000E+00
         0.00000E+00
         0.00000E+00
         0.00000E+00
         0.00000E+00
         0.00000E+00
         0.00000E+00
         0.00000E+00
         0.00000E+00
         0.00000E+00
         0.00000E+00
         0.00000E+00
         0.00000E+00
         0.00000E+00
         0.00000E+00
         0.00000E+00
         0.00000E+00
         0.00000E+00
         0.00000E+00
         0.00000E+00
         0.00000E+00
         0.00000E+00
         0.00000E+00
         0.00000E+00
         0.00000E+00
         0.00000E+00
         0.00000E+00
         0.00000E+00
         0.00000E+00
         0.00000E+00
         0.00000E+00
         0.00000E+00
         0.00000E+00
         0.00000E+00
         0.00000E+00
         0.00000E+00
         0.00000E+00
         0.00000E+00
         0.00000E+00
         0.00000E+00
         0.00000E+00
         0.00000E+00
         0.00000E+00
         0.00000E+00
         0.00000E+00
         0.00000E+00
         0.00000E+00
         0.00000E+00
         0.00000E+00
         0.00000E+00
         0.00000E+00
         0.00000E+00
         0.00000E+00
         0.00000E+00
         0.00000E+00
         0.00000E+00
         0.00000E+00
         0.00000E+00
         0.00000E+00
         0.00000E+00
         0.00000E+00
         0.00000E+00
         0.00000E+00
         0.00000E+00
         0.00000E+00
         0.00000E+00
         0.00000E+00
         0.00000E+00
         0.00000E+00
         0.00000E+00
         0.00000E+00
         0.00000E+00
         0.00000E+00
         0.00000E+00
         0.00000E+00
         0.00000E+00
         0.00000E+00
         0.00000E+00
         0.00000E+00
         0.00000E+00
         0.00000E+00
         0.00000E+00
         0.00000E+00
         0.00000E+00
         0.00000E+00
         0.00000E+00
         0.00000E+00
         0.00000E+00
         0.00000E+00
         0.00000E+00
         0.00000E+00
         0.00000E+00
         0.00000E+00
         0.00000E+00
         0.00000E+00
         0.00000E+00
         0.00000E+00
         0.00000E+00
         0.00000E+00
         0.00000E+00
         0.00000E+00
         0.00000E+00
         0.00000E+00
         0.00000E+00
         0.00000E+00
         0.00000E+00
         0.00000E+00
         0.00000E+00
         0.00000E+00
         0.00000E+00
         0.00000E+00
         0.00000E+00
         0.00000E+00
         0.00000E+00
         0.00000E+00
         0.00000E+00
         0.00000E+00
         0.00000E+00
         0.00000E+00
         0.00000E+00
         0.00000E+00
         0.00000E+00
         0.00000E+00
         0.00000E+00
         0.00000E+00
         0.00000E+00
         0.00000E+00
         0.00000E+00
         0.00000E+00
         0.00000E+00
         0.00000E+00
         0.00000E+00
         0.00000E+00
         0.00000E+00
         0.00000E+00
         0.00000E+00
         0.00000E+00
         0.00000E+00
         0.00000E+00
         0.00000E+00
         0.00000E+00
         0.00000E+00
         0.00000E+00
         0.00000E+00
         0.00000E+00
         0.00000E+00
         0.00000E+00
         0.00000E+00
         0.00000E+00
         0.00000E+00
         0.00000E+00
         0.00000E+00
         0.00000E+00
         0.00000E+00
         0.00000E+00
         0.00000E+00
         0.00000E+00
         0.00000E+00
         0.00000E+00
         0.00000E+00
         0.00000E+00
         0.00000E+00
         0.00000E+00
         0.00000E+00
         0.00000E+00
         0.00000E+00
         0.00000E+00
         0.00000E+00
         0.00000E+00
         0.00000E+00
         0.00000E+00
         0.00000E+00
         0.00000E+00
         0.00000E+00
         0.00000E+00
         0.00000E+00
         0.00000E+00
         0.00000E+00
         0.00000E+00
         0.00000E+00
         0.00000E+00
         0.00000E+00
         0.00000E+00
         0.00000E+00
         0.00000E+00
         0.00000E+00
         0.00000E+00
         0.00000E+00
         0.00000E+00
         0.00000E+00
         0.00000E+00
         0.00000E+00
         0.00000E+00
         0.00000E+00
         0.00000E+00
         0.00000E+00
         0.00000E+00
         0.00000E+00
         0.00000E+00
         0.00000E+00
         0.00000E+00
         0.00000E+00
         0.00000E+00
         0.00000E+00
         0.00000E+00
         0.00000E+00
         0.00000E+00
         0.00000E+00
         0.00000E+00
         0.00000E+00
         0.00000E+00
         0.00000E+00
         0.00000E+00
         0.00000E+00
         0.00000E+00
         0.00000E+00
         0.00000E+00
         0.00000E+00
         0.00000E+00
         0.00000E+00
         0.00000E+00
         0.00000E+00
         0.00000E+00
         0.00000E+00
         0.00000E+00
         0.00000E+00
         0.00000E+00
         0.00000E+00
         0.00000E+00
         0.00000E+00
         0.00000E+00
         0.00000E+00
         0.00000E+00
         0.00000E+00
         0.00000E+00
         0.00000E+00
         0.00000E+00
         0.00000E+00
         0.00000E+00
         0.00000E+00
         0.00000E+00
         0.00000E+00
         0.00000E+00
         0.00000E+00
         0.00000E+00
         0.00000E+00
         0.00000E+00
         0.00000E+00
         0.00000E+00
         0.00000E+00
         0.00000E+00
         0.00000E+00
         0.00000E+00
         0.00000E+00
         0.00000E+00
         0.00000E+00
         0.00000E+00
         0.00000E+00
         0.00000E+00
         0.00000E+00
         0.00000E+00
         0.00000E+00
         0.00000E+00
         0.00000E+00
         0.00000E+00
         0.00000E+00
         0.00000E+00
         0.00000E+00
         0.00000E+00
         0.00000E+00
         0.00000E+00
         0.00000E+00
         0.00000E+00
         0.00000E+00
         0.00000E+00
         0.00000E+00
         0.00000E+00
         0.00000E+00
         0.00000E+00
         0.00000E+00
         0.00000E+00
         0.00000E+00
         0.00000E+00
         0.00000E+00
         0.00000E+00
         0.00000E+00
         0.00000E+00
         0.00000E+00
         0.00000E+00
         0.00000E+00
         0.00000E+00
         0.00000E+00
         0.00000E+00
         0.00000E+00
         0.00000E+00
         0.00000E+00
         0.00000E+00
         0.00000E+00
         0.00000E+00
         0.00000E+00
         0.00000E+00
         0.00000E+00
         0.00000E+00
         0.00000E+00
         0.00000E+00
         0.00000E+00
         0.00000E+00
         0.00000E+00
         0.00000E+00
         0.00000E+00
         0.00000E+00
         0.00000E+00
         0.00000E+00
         0.00000E+00
         0.00000E+00
         0.00000E+00
         0.00000E+00
         0.00000E+00
         0.00000E+00
         0.00000E+00
         0.00000E+00
         0.00000E+00
         0.00000E+00
         0.00000E+00
         0.00000E+00
         0.00000E+00
         0.00000E+00
         0.00000E+00
         0.00000E+00
         0.00000E+00
         0.00000E+00
         0.00000E+00
         0.00000E+00
         0.00000E+00
         0.00000E+00
         0.00000E+00
         0.00000E+00
         0.00000E+00
         0.00000E+00
         0.00000E+00
         0.00000E+00
         0.00000E+00
         0.00000E+00
         0.00000E+00
         0.00000E+00
         0.00000E+00
         0.00000E+00
         0.00000E+00
         0.00000E+00
         0.00000E+00
         0.00000E+00
         0.00000E+00
         0.00000E+00
         0.00000E+00
         0.00000E+00
         0.00000E+00
         0.00000E+00
         0.00000E+00
         0.00000E+00
         0.00000E+00
         0.00000E+00
         0.00000E+00
         0.00000E+00
         0.00000E+00
         0.00000E+00
         0.00000E+00
         0.00000E+00
         0.00000E+00
         0.00000E+00
         0.00000E+00
         0.00000E+00
         0.00000E+00
         0.00000E+00
         0.00000E+00
         0.00000E+00
         0.00000E+00
         0.00000E+00
         0.00000E+00
         0.00000E+00
         0.00000E+00
         0.00000E+00
         0.00000E+00
         0.00000E+00
         0.00000E+00
         0.00000E+00
         0.00000E+00
         0.00000E+00
         0.00000E+00
         0.00000E+00
         0.00000E+00
         0.00000E+00
         0.00000E+00
         0.00000E+00
         0.00000E+00
         0.00000E+00
         0.00000E+00
         0.00000E+00
         0.00000E+00
         0.00000E+00
         0.00000E+00
         0.00000E+00
         0.00000E+00
         0.00000E+00
         0.00000E+00
         0.00000E+00
         0.00000E+00
         0.00000E+00
         0.00000E+00
         0.00000E+00
         0.00000E+00
         0.00000E+00
         0.00000E+00
         0.00000E+00
         0.00000E+00
         0.00000E+00
         0.00000E+00
         0.00000E+00
         0.00000E+00
         0.00000E+00
         0.00000E+00
         0.00000E+00
         0.00000E+00
         0.00000E+00
         0.00000E+00
         0.00000E+00
         0.00000E+00
         0.00000E+00
         0.00000E+00
         0.00000E+00
         0.00000E+00
         0.00000E+00
         0.00000E+00
         0.00000E+00
         0.00000E+00
         0.00000E+00
         0.00000E+00
         0.00000E+00
         0.00000E+00
         0.00000E+00
         0.00000E+00
         0.00000E+00
         0.00000E+00
         0.00000E+00
         0.00000E+00
         0.00000E+00
         0.00000E+00
         0.00000E+00
         0.00000E+00
         0.00000E+00
         0.00000E+00
         0.00000E+00
         0.00000E+00
         0.00000E+00
         0.00000E+00
         0.00000E+00
         0.00000E+00
         0.00000E+00
         0.00000E+00
         0.00000E+00
         0.00000E+00
         0.00000E+00
         0.00000E+00
         0.00000E+00
         0.00000E+00
         0.00000E+00
         0.00000E+00
         0.00000E+00
         0.00000E+00
         0.00000E+00
         0.00000E+00
         0.00000E+00
         0.00000E+00
         0.00000E+00
         0.00000E+00
         0.00000E+00
         0.00000E+00
         0.00000E+00
         0.00000E+00
         0.00000E+00
         0.00000E+00
         0.00000E+00
         0.00000E+00
         0.00000E+00
         0.00000E+00
         0.00000E+00
         0.00000E+00
         0.00000E+00
         0.00000E+00
         0.00000E+00
         0.00000E+00
         0.00000E+00
         0.00000E+00
         0.00000E+00
         0.00000E+00
         0.00000E+00
         0.00000E+00
         0.00000E+00
         0.00000E+00
         0.00000E+00
         0.00000E+00
         0.00000E+00
         0.00000E+00
         0.00000E+00
         0.00000E+00
         0.00000E+00
         0.00000E+00
         0.00000E+00
         0.00000E+00
         0.00000E+00
         0.00000E+00
         0.00000E+00
         0.00000E+00
         0.00000E+00
         0.00000E+00
         0.00000E+00
         0.00000E+00
         0.00000E+00
         0.00000E+00
         0.00000E+00
         0.00000E+00
         0.00000E+00
         0.00000E+00
         0.00000E+00
         0.00000E+00
         0.00000E+00
         0.00000E+00
         0.00000E+00
         0.00000E+00
         0.00000E+00
         0.00000E+00
         0.00000E+00
         0.00000E+00
         0.00000E+00
         0.00000E+00
         0.00000E+00
         0.00000E+00
         0.00000E+00
         0.00000E+00
         0.00000E+00
         0.00000E+00
         0.00000E+00
         0.00000E+00
         0.00000E+00
         0.00000E+00
         0.00000E+00
         0.00000E+00
         0.00000E+00
         0.00000E+00
         0.00000E+00
         0.00000E+00
         0.00000E+00
         0.00000E+00
         0.00000E+00
         0.00000E+00
         0.00000E+00
         0.00000E+00
         0.00000E+00
         0.00000E+00
         0.00000E+00
         0.00000E+00
         0.00000E+00
         0.00000E+00
         0.00000E+00
         0.00000E+00
         0.00000E+00
         0.00000E+00
         0.00000E+00
         0.00000E+00
         0.00000E+00
         0.00000E+00
         0.00000E+00
         0.00000E+00
         0.00000E+00
         0.00000E+00
         0.00000E+00
         0.00000E+00
         0.00000E+00
         0.00000E+00
         0.00000E+00
         0.00000E+00
         0.00000E+00
         0.00000E+00
         0.00000E+00
         0.00000E+00
         0.00000E+00
         0.00000E+00
         0.00000E+00
         0.00000E+00
         0.00000E+00
         0.00000E+00
         0.00000E+00
         0.00000E+00
         0.00000E+00
         0.00000E+00
         0.00000E+00
         0.00000E+00
         0.00000E+00
         0.00000E+00
         0.00000E+00
         0.00000E+00
         0.00000E+00
         0.00000E+00
         0.00000E+00
         0.00000E+00
         0.00000E+00
         0.00000E+00
         0.00000E+00
         0.00000E+00
         0.00000E+00
         0.00000E+00
         0.00000E+00
         0.00000E+00
         0.00000E+00
         0.00000E+00
         0.00000E+00
         0.00000E+00
         0.00000E+00
         0.00000E+00
         0.00000E+00
         0.00000E+00
         0.00000E+00
         0.00000E+00
         0.00000E+00
         0.00000E+00
         0.00000E+00
         0.00000E+00
         0.00000E+00
         0.00000E+00
         0.00000E+00
         0.00000E+00
         0.00000E+00
         0.00000E+00
         0.00000E+00
         0.00000E+00
         0.00000E+00
         0.00000E+00
         0.00000E+00
         0.00000E+00
         0.00000E+00
         0.00000E+00
         0.00000E+00
         0.00000E+00
         0.00000E+00
         0.00000E+00
         0.00000E+00
         0.00000E+00
         0.00000E+00
         0.00000E+00
         0.00000E+00
         0.00000E+00
         0.00000E+00
         0.00000E+00
         0.00000E+00
         0.00000E+00
         0.00000E+00
         0.00000E+00
         0.00000E+00
         0.00000E+00
         0.00000E+00
         0.00000E+00
         0.00000E+00
         0.00000E+00
         0.00000E+00
         0.00000E+00
         0.00000E+00
         0.00000E+00
         0.00000E+00
         0.00000E+00
         0.00000E+00
         0.00000E+00
         0.00000E+00
         0.00000E+00
         0.00000E+00
         0.00000E+00
         0.00000E+00
         0.00000E+00
         0.00000E+00
         0.00000E+00
         0.00000E+00
         0.00000E+00
         0.00000E+00
         0.00000E+00
         0.00000E+00
         0.00000E+00
         0.00000E+00
         0.00000E+00
         0.00000E+00
         0.00000E+00
         0.00000E+00
         0.00000E+00
         0.00000E+00
         0.00000E+00
         0.00000E+00
         0.00000E+00
         0.00000E+00
         0.00000E+00
         0.00000E+00
         0.00000E+00
         0.00000E+00
         0.00000E+00
         0.00000E+00
         0.00000E+00
         0.00000E+00
         0.00000E+00
         0.00000E+00
         0.00000E+00
         0.00000E+00
         0.00000E+00
         0.00000E+00
         0.00000E+00
         0.00000E+00
         0.00000E+00
         0.00000E+00
         0.00000E+00
         0.00000E+00
         0.00000E+00
         0.00000E+00
         0.00000E+00
         0.00000E+00
         0.00000E+00
         0.00000E+00
         0.00000E+00
         0.00000E+00
         0.00000E+00
         0.00000E+00
         0.00000E+00
         0.00000E+00
         0.00000E+00
         0.00000E+00
         0.00000E+00
         0.00000E+00
         0.00000E+00
         0.00000E+00
         0.00000E+00
         0.00000E+00
         0.00000E+00
         0.00000E+00
         0.00000E+00
         0.00000E+00
         0.00000E+00
         0.00000E+00
         0.00000E+00
         0.00000E+00
         0.00000E+00
         0.00000E+00
         0.00000E+00
         0.00000E+00
         0.00000E+00
         0.00000E+00
         0.00000E+00
         0.00000E+00
         0.00000E+00
         0.00000E+00
         0.00000E+00
         0.00000E+00
         0.00000E+00
         0.00000E+00
         0.00000E+00
         0.00000E+00
         0.00000E+00
         0.00000E+00
         0.00000E+00
         0.00000E+00
         0.00000E+00
         0.00000E+00
         0.00000E+00
         0.00000E+00
         0.00000E+00
         0.00000E+00
         0.00000E+00
         0.00000E+00
         0.00000E+00
         0.00000E+00
         0.00000E+00
         0.00000E+00
         0.00000E+00
         0.00000E+00
         0.00000E+00
         0.00000E+00
         0.00000E+00
         0.00000E+00
         0.00000E+00
         0.00000E+00
         0.00000E+00
         0.00000E+00
         0.00000E+00
         0.00000E+00
         0.00000E+00
         0.00000E+00
         0.00000E+00
         0.00000E+00
         0.00000E+00
         0.00000E+00
         0.00000E+00
         0.00000E+00
         0.00000E+00
         0.00000E+00
         0.00000E+00
         0.00000E+00
         0.00000E+00
         0.00000E+00
         0.00000E+00
         0.00000E+00
         0.00000E+00
         0.00000E+00
         0.00000E+00
         0.00000E+00
         0.00000E+00
         0.00000E+00
         0.00000E+00
         0.00000E+00
         0.00000E+00
         0.00000E+00
         0.00000E+00
         0.00000E+00
         0.00000E+00
         0.00000E+00
         0.00000E+00
         0.00000E+00
         0.00000E+00
         0.00000E+00
         0.00000E+00
         0.00000E+00
         0.00000E+00
         0.00000E+00
         0.00000E+00
         0.00000E+00
         0.00000E+00
         0.00000E+00
         0.00000E+00
         0.00000E+00
         0.00000E+00
         0.00000E+00
         0.00000E+00
         0.00000E+00
         0.00000E+00
         0.00000E+00
         0.00000E+00
         0.00000E+00
         0.00000E+00
         0.00000E+00
         0.00000E+00
         0.00000E+00
         0.00000E+00
         0.00000E+00
         0.00000E+00
         0.00000E+00
         0.00000E+00
         0.00000E+00
         0.00000E+00
         0.00000E+00
         0.00000E+00
         0.00000E+00
         0.00000E+00
         0.00000E+00
         0.00000E+00
         0.00000E+00
         0.00000E+00
         0.00000E+00
         0.00000E+00
         0.00000E+00
         0.00000E+00
         0.00000E+00
         0.00000E+00
         0.00000E+00
         0.00000E+00
         0.00000E+00
         0.00000E+00
         0.00000E+00
         0.00000E+00
         0.00000E+00
         0.00000E+00
         0.00000E+00
         0.00000E+00
         0.00000E+00
         0.00000E+00
         0.00000E+00
         0.00000E+00
         0.00000E+00
         0.00000E+00
         0.00000E+00
         0.00000E+00
         0.00000E+00
         0.00000E+00
         0.00000E+00
         0.00000E+00
         0.00000E+00
         0.00000E+00
         0.00000E+00
         0.00000E+00
         0.00000E+00
         0.00000E+00
         0.00000E+00
         0.00000E+00
         0.00000E+00
         0.00000E+00
         0.00000E+00
         0.00000E+00
         0.00000E+00
         0.00000E+00
         0.00000E+00
         0.00000E+00
         0.00000E+00
         0.00000E+00
         0.00000E+00
         0.00000E+00
         0.00000E+00
         0.00000E+00
         0.00000E+00
         0.00000E+00
         0.00000E+00
         0.00000E+00
         0.00000E+00
         0.00000E+00
         0.00000E+00
         0.00000E+00
         0.00000E+00
         0.00000E+00
         0.00000E+00
         0.00000E+00
         0.00000E+00
         0.00000E+00
         0.00000E+00
         0.00000E+00
         0.00000E+00
         0.00000E+00
         0.00000E+00
         0.00000E+00
         0.00000E+00
         0.00000E+00
         0.00000E+00
         0.00000E+00
         0.00000E+00
         0.00000E+00
         0.00000E+00
         0.00000E+00
         0.00000E+00
         0.00000E+00
         0.00000E+00
         0.00000E+00
         0.00000E+00
         0.00000E+00
         0.00000E+00
         0.00000E+00
         0.00000E+00
         0.00000E+00
         0.00000E+00
         0.00000E+00
         0.00000E+00
         0.00000E+00
         0.00000E+00
         0.00000E+00
         0.00000E+00
         0.00000E+00
         0.00000E+00
         0.00000E+00
         0.00000E+00
         0.00000E+00
         0.00000E+00
         0.00000E+00
         0.00000E+00
         0.00000E+00
         0.00000E+00
         0.00000E+00
         0.00000E+00
         0.00000E+00
         0.00000E+00
         0.00000E+00
         0.00000E+00
         0.00000E+00
         0.00000E+00
         0.00000E+00
         0.00000E+00
         0.00000E+00
         0.00000E+00
         0.00000E+00
         0.00000E+00
         0.00000E+00
         0.00000E+00
         0.00000E+00
         0.00000E+00
         0.00000E+00
         0.00000E+00
         0.00000E+00
         0.00000E+00
         0.00000E+00
         0.00000E+00
         0.00000E+00
         0.00000E+00
         0.00000E+00
         0.00000E+00
         0.00000E+00
         0.00000E+00
         0.00000E+00
         0.00000E+00
         0.00000E+00
         0.00000E+00
         0.00000E+00
         0.00000E+00
         0.00000E+00
         0.00000E+00
  
SCALARS                init_velocity_y  double 1
LOOKUP_TABLE default
         0.00000E+00
         0.00000E+00
         0.00000E+00
         0.00000E+00
         0.00000E+00
         0.00000E+00
         0.00000E+00
         0.00000E+00
         0.00000E+00
         0.00000E+00
         0.00000E+00
         0.00000E+00
         0.00000E+00
         0.00000E+00
         0.00000E+00
         0.00000E+00
         0.00000E+00
         0.00000E+00
         0.00000E+00
         0.00000E+00
         0.00000E+00
         0.00000E+00
         0.00000E+00
         0.00000E+00
         0.00000E+00
         0.00000E+00
         0.00000E+00
         0.00000E+00
         0.00000E+00
         0.00000E+00
         0.00000E+00
         0.00000E+00
         0.00000E+00
         0.00000E+00
         0.00000E+00
         0.00000E+00
         0.00000E+00
         0.00000E+00
         0.00000E+00
         0.00000E+00
         0.00000E+00
         0.00000E+00
         0.00000E+00
         0.00000E+00
         0.00000E+00
         0.00000E+00
         0.00000E+00
         0.00000E+00
         0.00000E+00
         0.00000E+00
         0.00000E+00
         0.00000E+00
         0.00000E+00
         0.00000E+00
         0.00000E+00
         0.00000E+00
         0.00000E+00
         0.00000E+00
         0.00000E+00
         0.00000E+00
         0.00000E+00
         0.00000E+00
         0.00000E+00
         0.00000E+00
         0.00000E+00
         0.00000E+00
         0.00000E+00
         0.00000E+00
         0.00000E+00
         0.00000E+00
         0.00000E+00
         0.00000E+00
         0.00000E+00
         0.00000E+00
         0.00000E+00
         0.00000E+00
         0.00000E+00
         0.00000E+00
         0.00000E+00
         0.00000E+00
         0.00000E+00
         0.00000E+00
         0.00000E+00
         0.00000E+00
         0.00000E+00
         0.00000E+00
         0.00000E+00
         0.00000E+00
         0.00000E+00
         0.00000E+00
         0.00000E+00
         0.00000E+00
         0.00000E+00
         0.00000E+00
         0.00000E+00
         0.00000E+00
         0.00000E+00
         0.00000E+00
         0.00000E+00
         0.00000E+00
         0.00000E+00
         0.00000E+00
         0.00000E+00
         0.00000E+00
         0.00000E+00
         0.00000E+00
         0.00000E+00
         0.00000E+00
         0.00000E+00
         0.00000E+00
         0.00000E+00
         0.00000E+00
         0.00000E+00
         0.00000E+00
         0.00000E+00
         0.00000E+00
         0.00000E+00
         0.00000E+00
         0.00000E+00
         0.00000E+00
         0.00000E+00
         0.00000E+00
         0.00000E+00
         0.00000E+00
         0.00000E+00
         0.00000E+00
         0.00000E+00
         0.00000E+00
         0.00000E+00
         0.00000E+00
         0.00000E+00
         0.00000E+00
         0.00000E+00
         0.00000E+00
         0.00000E+00
         0.00000E+00
         0.00000E+00
         0.00000E+00
         0.00000E+00
         0.00000E+00
         0.00000E+00
         0.00000E+00
         0.00000E+00
         0.00000E+00
         0.00000E+00
         0.00000E+00
         0.00000E+00
         0.00000E+00
         0.00000E+00
         0.00000E+00
         0.00000E+00
         0.00000E+00
         0.00000E+00
         0.00000E+00
         0.00000E+00
         0.00000E+00
         0.00000E+00
         0.00000E+00
         0.00000E+00
         0.00000E+00
         0.00000E+00
         0.00000E+00
         0.00000E+00
         0.00000E+00
         0.00000E+00
         0.00000E+00
         0.00000E+00
         0.00000E+00
         0.00000E+00
         0.00000E+00
         0.00000E+00
         0.00000E+00
         0.00000E+00
         0.00000E+00
         0.00000E+00
         0.00000E+00
         0.00000E+00
         0.00000E+00
         0.00000E+00
         0.00000E+00
         0.00000E+00
         0.00000E+00
         0.00000E+00
         0.00000E+00
         0.00000E+00
         0.00000E+00
         0.00000E+00
         0.00000E+00
         0.00000E+00
         0.00000E+00
         0.00000E+00
         0.00000E+00
         0.00000E+00
         0.00000E+00
         0.00000E+00
         0.00000E+00
         0.00000E+00
         0.00000E+00
         0.00000E+00
         0.00000E+00
         0.00000E+00
         0.00000E+00
         0.00000E+00
         0.00000E+00
         0.00000E+00
         0.00000E+00
         0.00000E+00
         0.00000E+00
         0.00000E+00
         0.00000E+00
         0.00000E+00
         0.00000E+00
         0.00000E+00
         0.00000E+00
         0.00000E+00
         0.00000E+00
         0.00000E+00
         0.00000E+00
         0.00000E+00
         0.00000E+00
         0.00000E+00
         0.00000E+00
         0.00000E+00
         0.00000E+00
         0.00000E+00
         0.00000E+00
         0.00000E+00
         0.00000E+00
         0.00000E+00
         0.00000E+00
         0.00000E+00
         0.00000E+00
         0.00000E+00
         0.00000E+00
         0.00000E+00
         0.00000E+00
         0.00000E+00
         0.00000E+00
         0.00000E+00
         0.00000E+00
         0.00000E+00
         0.00000E+00
         0.00000E+00
         0.00000E+00
         0.00000E+00
         0.00000E+00
         0.00000E+00
         0.00000E+00
         0.00000E+00
         0.00000E+00
         0.00000E+00
         0.00000E+00
         0.00000E+00
         0.00000E+00
         0.00000E+00
         0.00000E+00
         0.00000E+00
         0.00000E+00
         0.00000E+00
         0.00000E+00
         0.00000E+00
         0.00000E+00
         0.00000E+00
         0.00000E+00
         0.00000E+00
         0.00000E+00
         0.00000E+00
         0.00000E+00
         0.00000E+00
         0.00000E+00
         0.00000E+00
         0.00000E+00
         0.00000E+00
         0.00000E+00
         0.00000E+00
         0.00000E+00
         0.00000E+00
         0.00000E+00
         0.00000E+00
         0.00000E+00
         0.00000E+00
         0.00000E+00
         0.00000E+00
         0.00000E+00
         0.00000E+00
         0.00000E+00
         0.00000E+00
         0.00000E+00
         0.00000E+00
         0.00000E+00
         0.00000E+00
         0.00000E+00
         0.00000E+00
         0.00000E+00
         0.00000E+00
         0.00000E+00
         0.00000E+00
         0.00000E+00
         0.00000E+00
         0.00000E+00
         0.00000E+00
         0.00000E+00
         0.00000E+00
         0.00000E+00
         0.00000E+00
         0.00000E+00
         0.00000E+00
         0.00000E+00
         0.00000E+00
         0.00000E+00
         0.00000E+00
         0.00000E+00
         0.00000E+00
         0.00000E+00
         0.00000E+00
         0.00000E+00
         0.00000E+00
         0.00000E+00
         0.00000E+00
         0.00000E+00
         0.00000E+00
         0.00000E+00
         0.00000E+00
         0.00000E+00
         0.00000E+00
         0.00000E+00
         0.00000E+00
         0.00000E+00
         0.00000E+00
         0.00000E+00
         0.00000E+00
         0.00000E+00
         0.00000E+00
         0.00000E+00
         0.00000E+00
         0.00000E+00
         0.00000E+00
         0.00000E+00
         0.00000E+00
         0.00000E+00
         0.00000E+00
         0.00000E+00
         0.00000E+00
         0.00000E+00
         0.00000E+00
         0.00000E+00
         0.00000E+00
         0.00000E+00
         0.00000E+00
         0.00000E+00
         0.00000E+00
         0.00000E+00
         0.00000E+00
         0.00000E+00
         0.00000E+00
         0.00000E+00
         0.00000E+00
         0.00000E+00
         0.00000E+00
         0.00000E+00
         0.00000E+00
         0.00000E+00
         0.00000E+00
         0.00000E+00
         0.00000E+00
         0.00000E+00
         0.00000E+00
         0.00000E+00
         0.00000E+00
         0.00000E+00
         0.00000E+00
         0.00000E+00
         0.00000E+00
         0.00000E+00
         0.00000E+00
         0.00000E+00
         0.00000E+00
         0.00000E+00
         0.00000E+00
         0.00000E+00
         0.00000E+00
         0.00000E+00
         0.00000E+00
         0.00000E+00
         0.00000E+00
         0.00000E+00
         0.00000E+00
         0.00000E+00
         0.00000E+00
         0.00000E+00
         0.00000E+00
         0.00000E+00
         0.00000E+00
         0.00000E+00
         0.00000E+00
         0.00000E+00
         0.00000E+00
         0.00000E+00
         0.00000E+00
         0.00000E+00
         0.00000E+00
         0.00000E+00
         0.00000E+00
         0.00000E+00
         0.00000E+00
         0.00000E+00
         0.00000E+00
         0.00000E+00
         0.00000E+00
         0.00000E+00
         0.00000E+00
         0.00000E+00
         0.00000E+00
         0.00000E+00
         0.00000E+00
         0.00000E+00
         0.00000E+00
         0.00000E+00
         0.00000E+00
         0.00000E+00
         0.00000E+00
         0.00000E+00
         0.00000E+00
         0.00000E+00
         0.00000E+00
         0.00000E+00
         0.00000E+00
         0.00000E+00
         0.00000E+00
         0.00000E+00
         0.00000E+00
         0.00000E+00
         0.00000E+00
         0.00000E+00
         0.00000E+00
         0.00000E+00
         0.00000E+00
         0.00000E+00
         0.00000E+00
         0.00000E+00
         0.00000E+00
         0.00000E+00
         0.00000E+00
         0.00000E+00
         0.00000E+00
         0.00000E+00
         0.00000E+00
         0.00000E+00
         0.00000E+00
         0.00000E+00
         0.00000E+00
         0.00000E+00
         0.00000E+00
         0.00000E+00
         0.00000E+00
         0.00000E+00
         0.00000E+00
         0.00000E+00
         0.00000E+00
         0.00000E+00
         0.00000E+00
         0.00000E+00
         0.00000E+00
         0.00000E+00
         0.00000E+00
         0.00000E+00
         0.00000E+00
         0.00000E+00
         0.00000E+00
         0.00000E+00
         0.00000E+00
         0.00000E+00
         0.00000E+00
         0.00000E+00
         0.00000E+00
         0.00000E+00
         0.00000E+00
         0.00000E+00
         0.00000E+00
         0.00000E+00
         0.00000E+00
         0.00000E+00
         0.00000E+00
         0.00000E+00
         0.00000E+00
         0.00000E+00
         0.00000E+00
         0.00000E+00
         0.00000E+00
         0.00000E+00
         0.00000E+00
         0.00000E+00
         0.00000E+00
         0.00000E+00
         0.00000E+00
         0.00000E+00
         0.00000E+00
         0.00000E+00
         0.00000E+00
         0.00000E+00
         0.00000E+00
         0.00000E+00
         0.00000E+00
         0.00000E+00
         0.00000E+00
         0.00000E+00
         0.00000E+00
         0.00000E+00
         0.00000E+00
         0.00000E+00
         0.00000E+00
         0.00000E+00
         0.00000E+00
         0.00000E+00
         0.00000E+00
         0.00000E+00
         0.00000E+00
         0.00000E+00
         0.00000E+00
         0.00000E+00
         0.00000E+00
         0.00000E+00
         0.00000E+00
         0.00000E+00
         0.00000E+00
         0.00000E+00
         0.00000E+00
         0.00000E+00
         0.00000E+00
         0.00000E+00
         0.00000E+00
         0.00000E+00
         0.00000E+00
         0.00000E+00
         0.00000E+00
         0.00000E+00
         0.00000E+00
         0.00000E+00
         0.00000E+00
         0.00000E+00
         0.00000E+00
         0.00000E+00
         0.00000E+00
         0.00000E+00
         0.00000E+00
         0.00000E+00
         0.00000E+00
         0.00000E+00
         0.00000E+00
         0.00000E+00
         0.00000E+00
         0.00000E+00
         0.00000E+00
         0.00000E+00
         0.00000E+00
         0.00000E+00
         0.00000E+00
         0.00000E+00
         0.00000E+00
         0.00000E+00
         0.00000E+00
         0.00000E+00
         0.00000E+00
         0.00000E+00
         0.00000E+00
         0.00000E+00
         0.00000E+00
         0.00000E+00
         0.00000E+00
         0.00000E+00
         0.00000E+00
         0.00000E+00
         0.00000E+00
         0.00000E+00
         0.00000E+00
         0.00000E+00
         0.00000E+00
         0.00000E+00
         0.00000E+00
         0.00000E+00
         0.00000E+00
         0.00000E+00
         0.00000E+00
         0.00000E+00
         0.00000E+00
         0.00000E+00
         0.00000E+00
         0.00000E+00
         0.00000E+00
         0.00000E+00
         0.00000E+00
         0.00000E+00
         0.00000E+00
         0.00000E+00
         0.00000E+00
         0.00000E+00
         0.00000E+00
         0.00000E+00
         0.00000E+00
         0.00000E+00
         0.00000E+00
         0.00000E+00
         0.00000E+00
         0.00000E+00
         0.00000E+00
         0.00000E+00
         0.00000E+00
         0.00000E+00
         0.00000E+00
         0.00000E+00
         0.00000E+00
         0.00000E+00
         0.00000E+00
         0.00000E+00
         0.00000E+00
         0.00000E+00
         0.00000E+00
         0.00000E+00
         0.00000E+00
         0.00000E+00
         0.00000E+00
         0.00000E+00
         0.00000E+00
         0.00000E+00
         0.00000E+00
         0.00000E+00
         0.00000E+00
         0.00000E+00
         0.00000E+00
         0.00000E+00
         0.00000E+00
         0.00000E+00
         0.00000E+00
         0.00000E+00
         0.00000E+00
         0.00000E+00
         0.00000E+00
         0.00000E+00
         0.00000E+00
         0.00000E+00
         0.00000E+00
         0.00000E+00
         0.00000E+00
         0.00000E+00
         0.00000E+00
         0.00000E+00
         0.00000E+00
         0.00000E+00
         0.00000E+00
         0.00000E+00
         0.00000E+00
         0.00000E+00
         0.00000E+00
         0.00000E+00
         0.00000E+00
         0.00000E+00
         0.00000E+00
         0.00000E+00
         0.00000E+00
         0.00000E+00
         0.00000E+00
         0.00000E+00
         0.00000E+00
         0.00000E+00
         0.00000E+00
         0.00000E+00
         0.00000E+00
         0.00000E+00
         0.00000E+00
         0.00000E+00
         0.00000E+00
         0.00000E+00
         0.00000E+00
         0.00000E+00
         0.00000E+00
         0.00000E+00
         0.00000E+00
         0.00000E+00
         0.00000E+00
         0.00000E+00
         0.00000E+00
         0.00000E+00
         0.00000E+00
         0.00000E+00
         0.00000E+00
         0.00000E+00
         0.00000E+00
         0.00000E+00
         0.00000E+00
         0.00000E+00
         0.00000E+00
         0.00000E+00
         0.00000E+00
         0.00000E+00
         0.00000E+00
         0.00000E+00
         0.00000E+00
         0.00000E+00
         0.00000E+00
         0.00000E+00
         0.00000E+00
         0.00000E+00
         0.00000E+00
         0.00000E+00
         0.00000E+00
         0.00000E+00
         0.00000E+00
         0.00000E+00
         0.00000E+00
         0.00000E+00
         0.00000E+00
         0.00000E+00
         0.00000E+00
         0.00000E+00
         0.00000E+00
         0.00000E+00
         0.00000E+00
         0.00000E+00
         0.00000E+00
         0.00000E+00
         0.00000E+00
         0.00000E+00
         0.00000E+00
         0.00000E+00
         0.00000E+00
         0.00000E+00
         0.00000E+00
         0.00000E+00
         0.00000E+00
         0.00000E+00
         0.00000E+00
         0.00000E+00
         0.00000E+00
         0.00000E+00
         0.00000E+00
         0.00000E+00
         0.00000E+00
         0.00000E+00
         0.00000E+00
         0.00000E+00
         0.00000E+00
         0.00000E+00
         0.00000E+00
         0.00000E+00
         0.00000E+00
         0.00000E+00
         0.00000E+00
         0.00000E+00
         0.00000E+00
         0.00000E+00
         0.00000E+00
         0.00000E+00
         0.00000E+00
         0.00000E+00
         0.00000E+00
         0.00000E+00
         0.00000E+00
         0.00000E+00
         0.00000E+00
         0.00000E+00
         0.00000E+00
         0.00000E+00
         0.00000E+00
         0.00000E+00
         0.00000E+00
         0.00000E+00
         0.00000E+00
         0.00000E+00
         0.00000E+00
         0.00000E+00
         0.00000E+00
         0.00000E+00
         0.00000E+00
         0.00000E+00
         0.00000E+00
         0.00000E+00
         0.00000E+00
         0.00000E+00
         0.00000E+00
         0.00000E+00
         0.00000E+00
         0.00000E+00
         0.00000E+00
         0.00000E+00
         0.00000E+00
         0.00000E+00
         0.00000E+00
         0.00000E+00
         0.00000E+00
         0.00000E+00
         0.00000E+00
         0.00000E+00
         0.00000E+00
         0.00000E+00
         0.00000E+00
         0.00000E+00
         0.00000E+00
         0.00000E+00
         0.00000E+00
         0.00000E+00
         0.00000E+00
         0.00000E+00
         0.00000E+00
         0.00000E+00
         0.00000E+00
         0.00000E+00
         0.00000E+00
         0.00000E+00
         0.00000E+00
         0.00000E+00
         0.00000E+00
         0.00000E+00
         0.00000E+00
         0.00000E+00
         0.00000E+00
         0.00000E+00
         0.00000E+00
         0.00000E+00
         0.00000E+00
         0.00000E+00
         0.00000E+00
         0.00000E+00
         0.00000E+00
         0.00000E+00
         0.00000E+00
         0.00000E+00
         0.00000E+00
         0.00000E+00
         0.00000E+00
         0.00000E+00
         0.00000E+00
         0.00000E+00
         0.00000E+00
         0.00000E+00
         0.00000E+00
         0.00000E+00
         0.00000E+00
         0.00000E+00
         0.00000E+00
         0.00000E+00
         0.00000E+00
         0.00000E+00
         0.00000E+00
         0.00000E+00
         0.00000E+00
         0.00000E+00
         0.00000E+00
         0.00000E+00
         0.00000E+00
         0.00000E+00
         0.00000E+00
         0.00000E+00
         0.00000E+00
         0.00000E+00
         0.00000E+00
         0.00000E+00
         0.00000E+00
         0.00000E+00
         0.00000E+00
         0.00000E+00
         0.00000E+00
         0.00000E+00
         0.00000E+00
         0.00000E+00
         0.00000E+00
         0.00000E+00
         0.00000E+00
         0.00000E+00
         0.00000E+00
         0.00000E+00
         0.00000E+00
         0.00000E+00
         0.00000E+00
         0.00000E+00
         0.00000E+00
         0.00000E+00
         0.00000E+00
         0.00000E+00
         0.00000E+00
         0.00000E+00
         0.00000E+00
         0.00000E+00
         0.00000E+00
         0.00000E+00
         0.00000E+00
         0.00000E+00
         0.00000E+00
         0.00000E+00
         0.00000E+00
         0.00000E+00
         0.00000E+00
         0.00000E+00
         0.00000E+00
         0.00000E+00
         0.00000E+00
         0.00000E+00
         0.00000E+00
         0.00000E+00
         0.00000E+00
         0.00000E+00
         0.00000E+00
         0.00000E+00
         0.00000E+00
         0.00000E+00
         0.00000E+00
         0.00000E+00
         0.00000E+00
         0.00000E+00
         0.00000E+00
         0.00000E+00
         0.00000E+00
         0.00000E+00
         0.00000E+00
         0.00000E+00
         0.00000E+00
         0.00000E+00
         0.00000E+00
         0.00000E+00
         0.00000E+00
         0.00000E+00
         0.00000E+00
         0.00000E+00
         0.00000E+00
         0.00000E+00
         0.00000E+00
         0.00000E+00
         0.00000E+00
         0.00000E+00
         0.00000E+00
         0.00000E+00
         0.00000E+00
         0.00000E+00
         0.00000E+00
         0.00000E+00
         0.00000E+00
         0.00000E+00
         0.00000E+00
         0.00000E+00
         0.00000E+00
         0.00000E+00
         0.00000E+00
         0.00000E+00
         0.00000E+00
         0.00000E+00
         0.00000E+00
         0.00000E+00
         0.00000E+00
         0.00000E+00
         0.00000E+00
         0.00000E+00
         0.00000E+00
         0.00000E+00
         0.00000E+00
         0.00000E+00
         0.00000E+00
         0.00000E+00
         0.00000E+00
         0.00000E+00
         0.00000E+00
         0.00000E+00
         0.00000E+00
         0.00000E+00
         0.00000E+00
         0.00000E+00
         0.00000E+00
         0.00000E+00
         0.00000E+00
         0.00000E+00
         0.00000E+00
         0.00000E+00
         0.00000E+00
         0.00000E+00
         0.00000E+00
         0.00000E+00
         0.00000E+00
         0.00000E+00
         0.00000E+00
         0.00000E+00
         0.00000E+00
         0.00000E+00
         0.00000E+00
         0.00000E+00
         0.00000E+00
         0.00000E+00
         0.00000E+00
         0.00000E+00
         0.00000E+00
         0.00000E+00
         0.00000E+00
         0.00000E+00
         0.00000E+00
         0.00000E+00
         0.00000E+00
         0.00000E+00
         0.00000E+00
         0.00000E+00
         0.00000E+00
         0.00000E+00
         0.00000E+00
         0.00000E+00
         0.00000E+00
         0.00000E+00
         0.00000E+00
         0.00000E+00
         0.00000E+00
         0.00000E+00
         0.00000E+00
         0.00000E+00
         0.00000E+00
         0.00000E+00
         0.00000E+00
         0.00000E+00
         0.00000E+00
         0.00000E+00
         0.00000E+00
         0.00000E+00
         0.00000E+00
         0.00000E+00
         0.00000E+00
         0.00000E+00
         0.00000E+00
         0.00000E+00
         0.00000E+00
         0.00000E+00
         0.00000E+00
         0.00000E+00
         0.00000E+00
         0.00000E+00
         0.00000E+00
         0.00000E+00
         0.00000E+00
         0.00000E+00
         0.00000E+00
         0.00000E+00
         0.00000E+00
         0.00000E+00
         0.00000E+00
         0.00000E+00
         0.00000E+00
         0.00000E+00
         0.00000E+00
         0.00000E+00
         0.00000E+00
         0.00000E+00
         0.00000E+00
         0.00000E+00
         0.00000E+00
         0.00000E+00
         0.00000E+00
         0.00000E+00
         0.00000E+00
         0.00000E+00
         0.00000E+00
         0.00000E+00
         0.00000E+00
         0.00000E+00
         0.00000E+00
         0.00000E+00
         0.00000E+00
         0.00000E+00
         0.00000E+00
         0.00000E+00
         0.00000E+00
         0.00000E+00
         0.00000E+00
         0.00000E+00
         0.00000E+00
         0.00000E+00
         0.00000E+00
         0.00000E+00
         0.00000E+00
         0.00000E+00
         0.00000E+00
         0.00000E+00
         0.00000E+00
         0.00000E+00
         0.00000E+00
         0.00000E+00
         0.00000E+00
         0.00000E+00
         0.00000E+00
         0.00000E+00
         0.00000E+00
         0.00000E+00
         0.00000E+00
         0.00000E+00
         0.00000E+00
         0.00000E+00
         0.00000E+00
         0.00000E+00
         0.00000E+00
         0.00000E+00
         0.00000E+00
         0.00000E+00
         0.00000E+00
         0.00000E+00
         0.00000E+00
         0.00000E+00
         0.00000E+00
         0.00000E+00
         0.00000E+00
         0.00000E+00
         0.00000E+00
         0.00000E+00
         0.00000E+00
         0.00000E+00
         0.00000E+00
         0.00000E+00
         0.00000E+00
         0.00000E+00
         0.00000E+00
         0.00000E+00
         0.00000E+00
         0.00000E+00
         0.00000E+00
         0.00000E+00
         0.00000E+00
         0.00000E+00
         0.00000E+00
         0.00000E+00
         0.00000E+00
         0.00000E+00
         0.00000E+00
         0.00000E+00
         0.00000E+00
         0.00000E+00
         0.00000E+00
         0.00000E+00
         0.00000E+00
         0.00000E+00
         0.00000E+00
         0.00000E+00
         0.00000E+00
         0.00000E+00
         0.00000E+00
         0.00000E+00
         0.00000E+00
         0.00000E+00
         0.00000E+00
         0.00000E+00
         0.00000E+00
         0.00000E+00
         0.00000E+00
         0.00000E+00
         0.00000E+00
         0.00000E+00
         0.00000E+00
         0.00000E+00
         0.00000E+00
         0.00000E+00
         0.00000E+00
         0.00000E+00
         0.00000E+00
         0.00000E+00
         0.00000E+00
         0.00000E+00
         0.00000E+00
         0.00000E+00
         0.00000E+00
         0.00000E+00
         0.00000E+00
         0.00000E+00
         0.00000E+00
         0.00000E+00
         0.00000E+00
         0.00000E+00
         0.00000E+00
         0.00000E+00
         0.00000E+00
         0.00000E+00
         0.00000E+00
         0.00000E+00
         0.00000E+00
         0.00000E+00
         0.00000E+00
         0.00000E+00
         0.00000E+00
         0.00000E+00
         0.00000E+00
         0.00000E+00
         0.00000E+00
         0.00000E+00
         0.00000E+00
         0.00000E+00
         0.00000E+00
         0.00000E+00
         0.00000E+00
         0.00000E+00
         0.00000E+00
         0.00000E+00
         0.00000E+00
         0.00000E+00
         0.00000E+00
         0.00000E+00
         0.00000E+00
         0.00000E+00
         0.00000E+00
         0.00000E+00
         0.00000E+00
         0.00000E+00
         0.00000E+00
         0.00000E+00
         0.00000E+00
         0.00000E+00
         0.00000E+00
         0.00000E+00
         0.00000E+00
         0.00000E+00
         0.00000E+00
         0.00000E+00
         0.00000E+00
         0.00000E+00
         0.00000E+00
         0.00000E+00
         0.00000E+00
         0.00000E+00
         0.00000E+00
         0.00000E+00
         0.00000E+00
         0.00000E+00
         0.00000E+00
         0.00000E+00
         0.00000E+00
         0.00000E+00
         0.00000E+00
         0.00000E+00
         0.00000E+00
         0.00000E+00
         0.00000E+00
         0.00000E+00
         0.00000E+00
         0.00000E+00
         0.00000E+00
         0.00000E+00
         0.00000E+00
         0.00000E+00
         0.00000E+00
         0.00000E+00
         0.00000E+00
         0.00000E+00
         0.00000E+00
         0.00000E+00
         0.00000E+00
         0.00000E+00
         0.00000E+00
         0.00000E+00
         0.00000E+00
         0.00000E+00
         0.00000E+00
         0.00000E+00
         0.00000E+00
         0.00000E+00
         0.00000E+00
         0.00000E+00
         0.00000E+00
         0.00000E+00
         0.00000E+00
         0.00000E+00
         0.00000E+00
         0.00000E+00
         0.00000E+00
         0.00000E+00
         0.00000E+00
         0.00000E+00
         0.00000E+00
         0.00000E+00
         0.00000E+00
         0.00000E+00
         0.00000E+00
         0.00000E+00
         0.00000E+00
         0.00000E+00
         0.00000E+00
         0.00000E+00
         0.00000E+00
         0.00000E+00
         0.00000E+00
         0.00000E+00
         0.00000E+00
         0.00000E+00
         0.00000E+00
         0.00000E+00
         0.00000E+00
         0.00000E+00
         0.00000E+00
         0.00000E+00
         0.00000E+00
         0.00000E+00
         0.00000E+00
         0.00000E+00
         0.00000E+00
         0.00000E+00
         0.00000E+00
         0.00000E+00
         0.00000E+00
         0.00000E+00
         0.00000E+00
         0.00000E+00
         0.00000E+00
         0.00000E+00
         0.00000E+00
         0.00000E+00
         0.00000E+00
         0.00000E+00
         0.00000E+00
         0.00000E+00
         0.00000E+00
         0.00000E+00
         0.00000E+00
         0.00000E+00
         0.00000E+00
         0.00000E+00
         0.00000E+00
         0.00000E+00
         0.00000E+00
         0.00000E+00
         0.00000E+00
         0.00000E+00
         0.00000E+00
         0.00000E+00
         0.00000E+00
         0.00000E+00
         0.00000E+00
         0.00000E+00
         0.00000E+00
         0.00000E+00
         0.00000E+00
         0.00000E+00
         0.00000E+00
         0.00000E+00
         0.00000E+00
         0.00000E+00
         0.00000E+00
         0.00000E+00
         0.00000E+00
         0.00000E+00
         0.00000E+00
         0.00000E+00
         0.00000E+00
         0.00000E+00
         0.00000E+00
         0.00000E+00
         0.00000E+00
         0.00000E+00
         0.00000E+00
         0.00000E+00
         0.00000E+00
         0.00000E+00
         0.00000E+00
         0.00000E+00
         0.00000E+00
         0.00000E+00
         0.00000E+00
         0.00000E+00
         0.00000E+00
         0.00000E+00
         0.00000E+00
         0.00000E+00
         0.00000E+00
         0.00000E+00
         0.00000E+00
         0.00000E+00
         0.00000E+00
         0.00000E+00
         0.00000E+00
         0.00000E+00
         0.00000E+00
         0.00000E+00
         0.00000E+00
         0.00000E+00
         0.00000E+00
         0.00000E+00
         0.00000E+00
         0.00000E+00
         0.00000E+00
         0.00000E+00
         0.00000E+00
         0.00000E+00
         0.00000E+00
         0.00000E+00
         0.00000E+00
         0.00000E+00
         0.00000E+00
         0.00000E+00
         0.00000E+00
         0.00000E+00
         0.00000E+00
         0.00000E+00
         0.00000E+00
         0.00000E+00
         0.00000E+00
         0.00000E+00
         0.00000E+00
         0.00000E+00
         0.00000E+00
         0.00000E+00
         0.00000E+00
         0.00000E+00
         0.00000E+00
         0.00000E+00
         0.00000E+00
         0.00000E+00
         0.00000E+00
         0.00000E+00
         0.00000E+00
         0.00000E+00
         0.00000E+00
         0.00000E+00
         0.00000E+00
         0.00000E+00
         0.00000E+00
         0.00000E+00
         0.00000E+00
         0.00000E+00
         0.00000E+00
         0.00000E+00
         0.00000E+00
         0.00000E+00
         0.00000E+00
         0.00000E+00
         0.00000E+00
         0.00000E+00
         0.00000E+00
         0.00000E+00
         0.00000E+00
         0.00000E+00
         0.00000E+00
         0.00000E+00
         0.00000E+00
         0.00000E+00
         0.00000E+00
         0.00000E+00
         0.00000E+00
         0.00000E+00
         0.00000E+00
         0.00000E+00
         0.00000E+00
         0.00000E+00
         0.00000E+00
         0.00000E+00
         0.00000E+00
         0.00000E+00
         0.00000E+00
         0.00000E+00
         0.00000E+00
         0.00000E+00
         0.00000E+00
         0.00000E+00
         0.00000E+00
         0.00000E+00
         0.00000E+00
         0.00000E+00
         0.00000E+00
         0.00000E+00
         0.00000E+00
         0.00000E+00
         0.00000E+00
         0.00000E+00
         0.00000E+00
         0.00000E+00
         0.00000E+00
         0.00000E+00
         0.00000E+00
         0.00000E+00
         0.00000E+00
         0.00000E+00
         0.00000E+00
         0.00000E+00
         0.00000E+00
         0.00000E+00
         0.00000E+00
         0.00000E+00
         0.00000E+00
         0.00000E+00
         0.00000E+00
         0.00000E+00
         0.00000E+00
         0.00000E+00
         0.00000E+00
         0.00000E+00
         0.00000E+00
         0.00000E+00
         0.00000E+00
         0.00000E+00
         0.00000E+00
         0.00000E+00
         0.00000E+00
         0.00000E+00
         0.00000E+00
         0.00000E+00
         0.00000E+00
         0.00000E+00
         0.00000E+00
         0.00000E+00
         0.00000E+00
         0.00000E+00
         0.00000E+00
         0.00000E+00
         0.00000E+00
         0.00000E+00
         0.00000E+00
         0.00000E+00
         0.00000E+00
         0.00000E+00
         0.00000E+00
         0.00000E+00
         0.00000E+00
         0.00000E+00
         0.00000E+00
         0.00000E+00
         0.00000E+00
         0.00000E+00
         0.00000E+00
         0.00000E+00
         0.00000E+00
         0.00000E+00
         0.00000E+00
         0.00000E+00
         0.00000E+00
         0.00000E+00
         0.00000E+00
         0.00000E+00
         0.00000E+00
         0.00000E+00
         0.00000E+00
         0.00000E+00
         0.00000E+00
         0.00000E+00
         0.00000E+00
         0.00000E+00
         0.00000E+00
         0.00000E+00
         0.00000E+00
         0.00000E+00
         0.00000E+00
         0.00000E+00
         0.00000E+00
         0.00000E+00
         0.00000E+00
         0.00000E+00
         0.00000E+00
         0.00000E+00
         0.00000E+00
         0.00000E+00
         0.00000E+00
         0.00000E+00
         0.00000E+00
         0.00000E+00
         0.00000E+00
         0.00000E+00
         0.00000E+00
         0.00000E+00
         0.00000E+00
         0.00000E+00
         0.00000E+00
         0.00000E+00
         0.00000E+00
         0.00000E+00
         0.00000E+00
         0.00000E+00
         0.00000E+00
         0.00000E+00
         0.00000E+00
         0.00000E+00
         0.00000E+00
         0.00000E+00
         0.00000E+00
         0.00000E+00
         0.00000E+00
         0.00000E+00
         0.00000E+00
         0.00000E+00
         0.00000E+00
         0.00000E+00
         0.00000E+00
         0.00000E+00
         0.00000E+00
         0.00000E+00
         0.00000E+00
         0.00000E+00
         0.00000E+00
         0.00000E+00
         0.00000E+00
         0.00000E+00
         0.00000E+00
         0.00000E+00
         0.00000E+00
         0.00000E+00
         0.00000E+00
         0.00000E+00
         0.00000E+00
         0.00000E+00
         0.00000E+00
         0.00000E+00
         0.00000E+00
         0.00000E+00
         0.00000E+00
         0.00000E+00
         0.00000E+00
         0.00000E+00
         0.00000E+00
         0.00000E+00
         0.00000E+00
         0.00000E+00
         0.00000E+00
         0.00000E+00
         0.00000E+00
         0.00000E+00
         0.00000E+00
         0.00000E+00
         0.00000E+00
         0.00000E+00
         0.00000E+00
         0.00000E+00
         0.00000E+00
         0.00000E+00
         0.00000E+00
         0.00000E+00
         0.00000E+00
         0.00000E+00
         0.00000E+00
         0.00000E+00
         0.00000E+00
         0.00000E+00
         0.00000E+00
         0.00000E+00
         0.00000E+00
         0.00000E+00
         0.00000E+00
         0.00000E+00
         0.00000E+00
         0.00000E+00
         0.00000E+00
         0.00000E+00
         0.00000E+00
         0.00000E+00
         0.00000E+00
         0.00000E+00
         0.00000E+00
         0.00000E+00
         0.00000E+00
         0.00000E+00
         0.00000E+00
         0.00000E+00
         0.00000E+00
         0.00000E+00
         0.00000E+00
         0.00000E+00
         0.00000E+00
         0.00000E+00
         0.00000E+00
         0.00000E+00
         0.00000E+00
         0.00000E+00
         0.00000E+00
         0.00000E+00
         0.00000E+00
         0.00000E+00
         0.00000E+00
         0.00000E+00
         0.00000E+00
         0.00000E+00
         0.00000E+00
         0.00000E+00
         0.00000E+00
         0.00000E+00
         0.00000E+00
         0.00000E+00
         0.00000E+00
         0.00000E+00
         0.00000E+00
         0.00000E+00
         0.00000E+00
         0.00000E+00
         0.00000E+00
         0.00000E+00
         0.00000E+00
         0.00000E+00
         0.00000E+00
         0.00000E+00
         0.00000E+00
         0.00000E+00
         0.00000E+00
         0.00000E+00
         0.00000E+00
         0.00000E+00
         0.00000E+00
         0.00000E+00
         0.00000E+00
         0.00000E+00
         0.00000E+00
         0.00000E+00
         0.00000E+00
         0.00000E+00
         0.00000E+00
         0.00000E+00
         0.00000E+00
         0.00000E+00
         0.00000E+00
         0.00000E+00
         0.00000E+00
         0.00000E+00
         0.00000E+00
         0.00000E+00
         0.00000E+00
         0.00000E+00
         0.00000E+00
         0.00000E+00
         0.00000E+00
         0.00000E+00
         0.00000E+00
         0.00000E+00
         0.00000E+00
         0.00000E+00
         0.00000E+00
         0.00000E+00
         0.00000E+00
         0.00000E+00
         0.00000E+00
         0.00000E+00
         0.00000E+00
         0.00000E+00
         0.00000E+00
         0.00000E+00
         0.00000E+00
         0.00000E+00
         0.00000E+00
         0.00000E+00
         0.00000E+00
         0.00000E+00
         0.00000E+00
         0.00000E+00
         0.00000E+00
         0.00000E+00
         0.00000E+00
         0.00000E+00
         0.00000E+00
         0.00000E+00
         0.00000E+00
         0.00000E+00
         0.00000E+00
         0.00000E+00
         0.00000E+00
         0.00000E+00
         0.00000E+00
         0.00000E+00
         0.00000E+00
         0.00000E+00
         0.00000E+00
         0.00000E+00
         0.00000E+00
         0.00000E+00
         0.00000E+00
         0.00000E+00
         0.00000E+00
         0.00000E+00
         0.00000E+00
         0.00000E+00
         0.00000E+00
         0.00000E+00
         0.00000E+00
         0.00000E+00
         0.00000E+00
         0.00000E+00
         0.00000E+00
         0.00000E+00
         0.00000E+00
         0.00000E+00
         0.00000E+00
         0.00000E+00
         0.00000E+00
         0.00000E+00
         0.00000E+00
         0.00000E+00
         0.00000E+00
         0.00000E+00
         0.00000E+00
         0.00000E+00
         0.00000E+00
         0.00000E+00
         0.00000E+00
         0.00000E+00
         0.00000E+00
         0.00000E+00
         0.00000E+00
         0.00000E+00
         0.00000E+00
         0.00000E+00
         0.00000E+00
         0.00000E+00
         0.00000E+00
         0.00000E+00
         0.00000E+00
         0.00000E+00
         0.00000E+00
         0.00000E+00
         0.00000E+00
         0.00000E+00
         0.00000E+00
         0.00000E+00
         0.00000E+00
         0.00000E+00
         0.00000E+00
         0.00000E+00
         0.00000E+00
         0.00000E+00
         0.00000E+00
         0.00000E+00
         0.00000E+00
         0.00000E+00
         0.00000E+00
         0.00000E+00
         0.00000E+00
         0.00000E+00
         0.00000E+00
         0.00000E+00
         0.00000E+00
         0.00000E+00
         0.00000E+00
         0.00000E+00
         0.00000E+00
         0.00000E+00
         0.00000E+00
         0.00000E+00
         0.00000E+00
         0.00000E+00
         0.00000E+00
         0.00000E+00
         0.00000E+00
         0.00000E+00
         0.00000E+00
         0.00000E+00
         0.00000E+00
         0.00000E+00
         0.00000E+00
         0.00000E+00
         0.00000E+00
         0.00000E+00
         0.00000E+00
         0.00000E+00
         0.00000E+00
         0.00000E+00
         0.00000E+00
         0.00000E+00
         0.00000E+00
         0.00000E+00
         0.00000E+00
         0.00000E+00
         0.00000E+00
         0.00000E+00
         0.00000E+00
         0.00000E+00
         0.00000E+00
         0.00000E+00
         0.00000E+00
         0.00000E+00
         0.00000E+00
         0.00000E+00
         0.00000E+00
         0.00000E+00
         0.00000E+00
         0.00000E+00
         0.00000E+00
         0.00000E+00
         0.00000E+00
         0.00000E+00
         0.00000E+00
         0.00000E+00
         0.00000E+00
         0.00000E+00
         0.00000E+00
         0.00000E+00
         0.00000E+00
         0.00000E+00
         0.00000E+00
         0.00000E+00
         0.00000E+00
         0.00000E+00
         0.00000E+00
         0.00000E+00
         0.00000E+00
         0.00000E+00
         0.00000E+00
         0.00000E+00
         0.00000E+00
         0.00000E+00
         0.00000E+00
         0.00000E+00
         0.00000E+00
         0.00000E+00
         0.00000E+00
         0.00000E+00
         0.00000E+00
         0.00000E+00
         0.00000E+00
         0.00000E+00
         0.00000E+00
         0.00000E+00
         0.00000E+00
         0.00000E+00
         0.00000E+00
         0.00000E+00
         0.00000E+00
         0.00000E+00
         0.00000E+00
         0.00000E+00
         0.00000E+00
         0.00000E+00
         0.00000E+00
         0.00000E+00
         0.00000E+00
         0.00000E+00
         0.00000E+00
         0.00000E+00
         0.00000E+00
         0.00000E+00
         0.00000E+00
         0.00000E+00
         0.00000E+00
         0.00000E+00
         0.00000E+00
         0.00000E+00
         0.00000E+00
         0.00000E+00
         0.00000E+00
         0.00000E+00
         0.00000E+00
         0.00000E+00
         0.00000E+00
         0.00000E+00
         0.00000E+00
         0.00000E+00
         0.00000E+00
         0.00000E+00
         0.00000E+00
         0.00000E+00
         0.00000E+00
         0.00000E+00
         0.00000E+00
         0.00000E+00
         0.00000E+00
         0.00000E+00
         0.00000E+00
         0.00000E+00
         0.00000E+00
         0.00000E+00
         0.00000E+00
         0.00000E+00
         0.00000E+00
         0.00000E+00
  
SCALARS                init_velocity_z  double 1
LOOKUP_TABLE default
        -0.37300E+03
        -0.37300E+03
        -0.37300E+03
        -0.37300E+03
        -0.37300E+03
        -0.37300E+03
        -0.37300E+03
        -0.37300E+03
        -0.37300E+03
        -0.37300E+03
        -0.37300E+03
        -0.37300E+03
        -0.37300E+03
        -0.37300E+03
        -0.37300E+03
        -0.37300E+03
        -0.37300E+03
        -0.37300E+03
        -0.37300E+03
        -0.37300E+03
        -0.37300E+03
        -0.37300E+03
        -0.37300E+03
        -0.37300E+03
        -0.37300E+03
        -0.37300E+03
        -0.37300E+03
        -0.37300E+03
        -0.37300E+03
        -0.37300E+03
        -0.37300E+03
        -0.37300E+03
        -0.37300E+03
        -0.37300E+03
        -0.37300E+03
        -0.37300E+03
        -0.37300E+03
        -0.37300E+03
        -0.37300E+03
        -0.37300E+03
        -0.37300E+03
        -0.37300E+03
        -0.37300E+03
        -0.37300E+03
        -0.37300E+03
        -0.37300E+03
        -0.37300E+03
        -0.37300E+03
        -0.37300E+03
        -0.37300E+03
        -0.37300E+03
        -0.37300E+03
        -0.37300E+03
        -0.37300E+03
        -0.37300E+03
        -0.37300E+03
        -0.37300E+03
        -0.37300E+03
        -0.37300E+03
        -0.37300E+03
        -0.37300E+03
        -0.37300E+03
        -0.37300E+03
        -0.37300E+03
        -0.37300E+03
        -0.37300E+03
        -0.37300E+03
        -0.37300E+03
        -0.37300E+03
        -0.37300E+03
        -0.37300E+03
        -0.37300E+03
        -0.37300E+03
        -0.37300E+03
        -0.37300E+03
        -0.37300E+03
        -0.37300E+03
        -0.37300E+03
        -0.37300E+03
        -0.37300E+03
        -0.37300E+03
        -0.37300E+03
        -0.37300E+03
        -0.37300E+03
        -0.37300E+03
        -0.37300E+03
        -0.37300E+03
        -0.37300E+03
        -0.37300E+03
        -0.37300E+03
        -0.37300E+03
        -0.37300E+03
        -0.37300E+03
        -0.37300E+03
        -0.37300E+03
        -0.37300E+03
        -0.37300E+03
        -0.37300E+03
        -0.37300E+03
        -0.37300E+03
        -0.37300E+03
        -0.37300E+03
        -0.37300E+03
        -0.37300E+03
        -0.37300E+03
        -0.37300E+03
        -0.37300E+03
        -0.37300E+03
        -0.37300E+03
        -0.37300E+03
        -0.37300E+03
        -0.37300E+03
        -0.37300E+03
        -0.37300E+03
        -0.37300E+03
        -0.37300E+03
        -0.37300E+03
        -0.37300E+03
        -0.37300E+03
        -0.37300E+03
        -0.37300E+03
        -0.37300E+03
        -0.37300E+03
        -0.37300E+03
        -0.37300E+03
        -0.37300E+03
        -0.37300E+03
        -0.37300E+03
        -0.37300E+03
        -0.37300E+03
        -0.37300E+03
        -0.37300E+03
        -0.37300E+03
        -0.37300E+03
        -0.37300E+03
        -0.37300E+03
        -0.37300E+03
        -0.37300E+03
        -0.37300E+03
        -0.37300E+03
        -0.37300E+03
        -0.37300E+03
        -0.37300E+03
        -0.37300E+03
        -0.37300E+03
        -0.37300E+03
        -0.37300E+03
        -0.37300E+03
        -0.37300E+03
        -0.37300E+03
        -0.37300E+03
        -0.37300E+03
        -0.37300E+03
        -0.37300E+03
        -0.37300E+03
        -0.37300E+03
        -0.37300E+03
        -0.37300E+03
        -0.37300E+03
        -0.37300E+03
        -0.37300E+03
        -0.37300E+03
        -0.37300E+03
        -0.37300E+03
        -0.37300E+03
        -0.37300E+03
        -0.37300E+03
        -0.37300E+03
        -0.37300E+03
        -0.37300E+03
        -0.37300E+03
        -0.37300E+03
        -0.37300E+03
        -0.37300E+03
        -0.37300E+03
        -0.37300E+03
        -0.37300E+03
        -0.37300E+03
        -0.37300E+03
        -0.37300E+03
        -0.37300E+03
        -0.37300E+03
        -0.37300E+03
        -0.37300E+03
        -0.37300E+03
        -0.37300E+03
        -0.37300E+03
        -0.37300E+03
        -0.37300E+03
        -0.37300E+03
        -0.37300E+03
        -0.37300E+03
        -0.37300E+03
        -0.37300E+03
        -0.37300E+03
        -0.37300E+03
        -0.37300E+03
        -0.37300E+03
        -0.37300E+03
        -0.37300E+03
        -0.37300E+03
        -0.37300E+03
        -0.37300E+03
        -0.37300E+03
        -0.37300E+03
        -0.37300E+03
        -0.37300E+03
        -0.37300E+03
        -0.37300E+03
        -0.37300E+03
        -0.37300E+03
        -0.37300E+03
        -0.37300E+03
        -0.37300E+03
        -0.37300E+03
        -0.37300E+03
        -0.37300E+03
        -0.37300E+03
        -0.37300E+03
        -0.37300E+03
        -0.37300E+03
        -0.37300E+03
        -0.37300E+03
        -0.37300E+03
        -0.37300E+03
        -0.37300E+03
        -0.37300E+03
        -0.37300E+03
        -0.37300E+03
        -0.37300E+03
        -0.37300E+03
        -0.37300E+03
        -0.37300E+03
        -0.37300E+03
        -0.37300E+03
        -0.37300E+03
        -0.37300E+03
        -0.37300E+03
        -0.37300E+03
        -0.37300E+03
        -0.37300E+03
        -0.37300E+03
        -0.37300E+03
        -0.37300E+03
        -0.37300E+03
        -0.37300E+03
        -0.37300E+03
        -0.37300E+03
        -0.37300E+03
        -0.37300E+03
        -0.37300E+03
        -0.37300E+03
        -0.37300E+03
        -0.37300E+03
        -0.37300E+03
        -0.37300E+03
        -0.37300E+03
        -0.37300E+03
        -0.37300E+03
        -0.37300E+03
        -0.37300E+03
        -0.37300E+03
        -0.37300E+03
        -0.37300E+03
        -0.37300E+03
        -0.37300E+03
        -0.37300E+03
        -0.37300E+03
        -0.37300E+03
        -0.37300E+03
        -0.37300E+03
        -0.37300E+03
        -0.37300E+03
        -0.37300E+03
        -0.37300E+03
        -0.37300E+03
        -0.37300E+03
        -0.37300E+03
        -0.37300E+03
        -0.37300E+03
        -0.37300E+03
        -0.37300E+03
        -0.37300E+03
        -0.37300E+03
        -0.37300E+03
        -0.37300E+03
        -0.37300E+03
        -0.37300E+03
        -0.37300E+03
        -0.37300E+03
        -0.37300E+03
        -0.37300E+03
        -0.37300E+03
        -0.37300E+03
        -0.37300E+03
        -0.37300E+03
        -0.37300E+03
        -0.37300E+03
        -0.37300E+03
        -0.37300E+03
        -0.37300E+03
        -0.37300E+03
        -0.37300E+03
        -0.37300E+03
        -0.37300E+03
        -0.37300E+03
        -0.37300E+03
        -0.37300E+03
        -0.37300E+03
        -0.37300E+03
        -0.37300E+03
        -0.37300E+03
        -0.37300E+03
        -0.37300E+03
        -0.37300E+03
        -0.37300E+03
        -0.37300E+03
        -0.37300E+03
        -0.37300E+03
        -0.37300E+03
        -0.37300E+03
        -0.37300E+03
        -0.37300E+03
        -0.37300E+03
        -0.37300E+03
        -0.37300E+03
        -0.37300E+03
        -0.37300E+03
        -0.37300E+03
        -0.37300E+03
        -0.37300E+03
        -0.37300E+03
        -0.37300E+03
        -0.37300E+03
        -0.37300E+03
        -0.37300E+03
        -0.37300E+03
        -0.37300E+03
        -0.37300E+03
        -0.37300E+03
        -0.37300E+03
        -0.37300E+03
        -0.37300E+03
        -0.37300E+03
        -0.37300E+03
        -0.37300E+03
        -0.37300E+03
        -0.37300E+03
        -0.37300E+03
        -0.37300E+03
        -0.37300E+03
        -0.37300E+03
        -0.37300E+03
        -0.37300E+03
        -0.37300E+03
        -0.37300E+03
        -0.37300E+03
        -0.37300E+03
        -0.37300E+03
        -0.37300E+03
        -0.37300E+03
        -0.37300E+03
        -0.37300E+03
        -0.37300E+03
        -0.37300E+03
        -0.37300E+03
        -0.37300E+03
        -0.37300E+03
        -0.37300E+03
        -0.37300E+03
        -0.37300E+03
        -0.37300E+03
        -0.37300E+03
        -0.37300E+03
        -0.37300E+03
        -0.37300E+03
        -0.37300E+03
        -0.37300E+03
        -0.37300E+03
        -0.37300E+03
        -0.37300E+03
        -0.37300E+03
        -0.37300E+03
        -0.37300E+03
        -0.37300E+03
        -0.37300E+03
        -0.37300E+03
        -0.37300E+03
        -0.37300E+03
        -0.37300E+03
        -0.37300E+03
        -0.37300E+03
        -0.37300E+03
        -0.37300E+03
        -0.37300E+03
        -0.37300E+03
        -0.37300E+03
        -0.37300E+03
        -0.37300E+03
        -0.37300E+03
        -0.37300E+03
        -0.37300E+03
        -0.37300E+03
        -0.37300E+03
        -0.37300E+03
        -0.37300E+03
        -0.37300E+03
        -0.37300E+03
        -0.37300E+03
        -0.37300E+03
        -0.37300E+03
        -0.37300E+03
        -0.37300E+03
        -0.37300E+03
        -0.37300E+03
        -0.37300E+03
        -0.37300E+03
        -0.37300E+03
        -0.37300E+03
        -0.37300E+03
        -0.37300E+03
        -0.37300E+03
        -0.37300E+03
        -0.37300E+03
        -0.37300E+03
        -0.37300E+03
        -0.37300E+03
        -0.37300E+03
        -0.37300E+03
        -0.37300E+03
        -0.37300E+03
        -0.37300E+03
        -0.37300E+03
        -0.37300E+03
        -0.37300E+03
        -0.37300E+03
        -0.37300E+03
        -0.37300E+03
        -0.37300E+03
        -0.37300E+03
        -0.37300E+03
        -0.37300E+03
        -0.37300E+03
        -0.37300E+03
        -0.37300E+03
        -0.37300E+03
        -0.37300E+03
        -0.37300E+03
        -0.37300E+03
        -0.37300E+03
        -0.37300E+03
        -0.37300E+03
        -0.37300E+03
        -0.37300E+03
        -0.37300E+03
        -0.37300E+03
        -0.37300E+03
        -0.37300E+03
        -0.37300E+03
        -0.37300E+03
        -0.37300E+03
        -0.37300E+03
        -0.37300E+03
        -0.37300E+03
        -0.37300E+03
        -0.37300E+03
        -0.37300E+03
        -0.37300E+03
        -0.37300E+03
        -0.37300E+03
        -0.37300E+03
        -0.37300E+03
        -0.37300E+03
        -0.37300E+03
        -0.37300E+03
        -0.37300E+03
        -0.37300E+03
        -0.37300E+03
        -0.37300E+03
        -0.37300E+03
        -0.37300E+03
        -0.37300E+03
        -0.37300E+03
        -0.37300E+03
        -0.37300E+03
        -0.37300E+03
        -0.37300E+03
        -0.37300E+03
        -0.37300E+03
        -0.37300E+03
        -0.37300E+03
        -0.37300E+03
        -0.37300E+03
        -0.37300E+03
        -0.37300E+03
        -0.37300E+03
        -0.37300E+03
        -0.37300E+03
        -0.37300E+03
        -0.37300E+03
        -0.37300E+03
        -0.37300E+03
        -0.37300E+03
        -0.37300E+03
        -0.37300E+03
        -0.37300E+03
        -0.37300E+03
        -0.37300E+03
        -0.37300E+03
        -0.37300E+03
        -0.37300E+03
        -0.37300E+03
        -0.37300E+03
        -0.37300E+03
        -0.37300E+03
        -0.37300E+03
        -0.37300E+03
        -0.37300E+03
        -0.37300E+03
        -0.37300E+03
        -0.37300E+03
        -0.37300E+03
        -0.37300E+03
        -0.37300E+03
        -0.37300E+03
        -0.37300E+03
        -0.37300E+03
        -0.37300E+03
        -0.37300E+03
        -0.37300E+03
        -0.37300E+03
        -0.37300E+03
        -0.37300E+03
        -0.37300E+03
        -0.37300E+03
        -0.37300E+03
        -0.37300E+03
        -0.37300E+03
        -0.37300E+03
        -0.37300E+03
        -0.37300E+03
        -0.37300E+03
        -0.37300E+03
        -0.37300E+03
        -0.37300E+03
        -0.37300E+03
        -0.37300E+03
        -0.37300E+03
        -0.37300E+03
        -0.37300E+03
        -0.37300E+03
        -0.37300E+03
        -0.37300E+03
        -0.37300E+03
        -0.37300E+03
        -0.37300E+03
        -0.37300E+03
        -0.37300E+03
        -0.37300E+03
        -0.37300E+03
        -0.37300E+03
        -0.37300E+03
        -0.37300E+03
        -0.37300E+03
        -0.37300E+03
        -0.37300E+03
        -0.37300E+03
        -0.37300E+03
        -0.37300E+03
        -0.37300E+03
        -0.37300E+03
        -0.37300E+03
        -0.37300E+03
        -0.37300E+03
        -0.37300E+03
        -0.37300E+03
        -0.37300E+03
        -0.37300E+03
        -0.37300E+03
        -0.37300E+03
        -0.37300E+03
        -0.37300E+03
        -0.37300E+03
        -0.37300E+03
        -0.37300E+03
        -0.37300E+03
        -0.37300E+03
        -0.37300E+03
        -0.37300E+03
        -0.37300E+03
        -0.37300E+03
        -0.37300E+03
        -0.37300E+03
        -0.37300E+03
        -0.37300E+03
        -0.37300E+03
        -0.37300E+03
        -0.37300E+03
        -0.37300E+03
        -0.37300E+03
        -0.37300E+03
        -0.37300E+03
        -0.37300E+03
        -0.37300E+03
        -0.37300E+03
        -0.37300E+03
        -0.37300E+03
        -0.37300E+03
        -0.37300E+03
        -0.37300E+03
        -0.37300E+03
        -0.37300E+03
        -0.37300E+03
        -0.37300E+03
        -0.37300E+03
        -0.37300E+03
        -0.37300E+03
        -0.37300E+03
        -0.37300E+03
        -0.37300E+03
        -0.37300E+03
        -0.37300E+03
        -0.37300E+03
        -0.37300E+03
        -0.37300E+03
        -0.37300E+03
        -0.37300E+03
        -0.37300E+03
        -0.37300E+03
        -0.37300E+03
        -0.37300E+03
        -0.37300E+03
        -0.37300E+03
        -0.37300E+03
        -0.37300E+03
        -0.37300E+03
        -0.37300E+03
        -0.37300E+03
        -0.37300E+03
        -0.37300E+03
        -0.37300E+03
        -0.37300E+03
        -0.37300E+03
        -0.37300E+03
        -0.37300E+03
        -0.37300E+03
        -0.37300E+03
        -0.37300E+03
        -0.37300E+03
        -0.37300E+03
        -0.37300E+03
        -0.37300E+03
        -0.37300E+03
        -0.37300E+03
        -0.37300E+03
        -0.37300E+03
        -0.37300E+03
        -0.37300E+03
        -0.37300E+03
        -0.37300E+03
        -0.37300E+03
        -0.37300E+03
        -0.37300E+03
        -0.37300E+03
        -0.37300E+03
        -0.37300E+03
        -0.37300E+03
        -0.37300E+03
        -0.37300E+03
        -0.37300E+03
        -0.37300E+03
        -0.37300E+03
        -0.37300E+03
        -0.37300E+03
        -0.37300E+03
        -0.37300E+03
        -0.37300E+03
        -0.37300E+03
        -0.37300E+03
        -0.37300E+03
        -0.37300E+03
        -0.37300E+03
        -0.37300E+03
        -0.37300E+03
        -0.37300E+03
        -0.37300E+03
        -0.37300E+03
        -0.37300E+03
        -0.37300E+03
        -0.37300E+03
        -0.37300E+03
        -0.37300E+03
        -0.37300E+03
        -0.37300E+03
        -0.37300E+03
        -0.37300E+03
        -0.37300E+03
        -0.37300E+03
        -0.37300E+03
        -0.37300E+03
        -0.37300E+03
        -0.37300E+03
        -0.37300E+03
        -0.37300E+03
        -0.37300E+03
        -0.37300E+03
        -0.37300E+03
        -0.37300E+03
        -0.37300E+03
        -0.37300E+03
        -0.37300E+03
        -0.37300E+03
        -0.37300E+03
        -0.37300E+03
        -0.37300E+03
        -0.37300E+03
        -0.37300E+03
        -0.37300E+03
        -0.37300E+03
        -0.37300E+03
        -0.37300E+03
        -0.37300E+03
        -0.37300E+03
        -0.37300E+03
        -0.37300E+03
        -0.37300E+03
        -0.37300E+03
        -0.37300E+03
        -0.37300E+03
        -0.37300E+03
        -0.37300E+03
        -0.37300E+03
        -0.37300E+03
        -0.37300E+03
        -0.37300E+03
        -0.37300E+03
        -0.37300E+03
        -0.37300E+03
        -0.37300E+03
        -0.37300E+03
        -0.37300E+03
        -0.37300E+03
        -0.37300E+03
        -0.37300E+03
        -0.37300E+03
        -0.37300E+03
        -0.37300E+03
        -0.37300E+03
        -0.37300E+03
        -0.37300E+03
        -0.37300E+03
        -0.37300E+03
        -0.37300E+03
        -0.37300E+03
        -0.37300E+03
        -0.37300E+03
        -0.37300E+03
        -0.37300E+03
        -0.37300E+03
        -0.37300E+03
        -0.37300E+03
        -0.37300E+03
        -0.37300E+03
        -0.37300E+03
        -0.37300E+03
        -0.37300E+03
        -0.37300E+03
        -0.37300E+03
        -0.37300E+03
        -0.37300E+03
        -0.37300E+03
        -0.37300E+03
        -0.37300E+03
        -0.37300E+03
        -0.37300E+03
        -0.37300E+03
        -0.37300E+03
        -0.37300E+03
        -0.37300E+03
        -0.37300E+03
        -0.37300E+03
        -0.37300E+03
        -0.37300E+03
        -0.37300E+03
        -0.37300E+03
        -0.37300E+03
        -0.37300E+03
        -0.37300E+03
        -0.37300E+03
        -0.37300E+03
        -0.37300E+03
        -0.37300E+03
        -0.37300E+03
        -0.37300E+03
        -0.37300E+03
        -0.37300E+03
        -0.37300E+03
        -0.37300E+03
        -0.37300E+03
        -0.37300E+03
        -0.37300E+03
        -0.37300E+03
        -0.37300E+03
        -0.37300E+03
        -0.37300E+03
        -0.37300E+03
        -0.37300E+03
        -0.37300E+03
        -0.37300E+03
        -0.37300E+03
        -0.37300E+03
        -0.37300E+03
        -0.37300E+03
        -0.37300E+03
        -0.37300E+03
        -0.37300E+03
        -0.37300E+03
        -0.37300E+03
        -0.37300E+03
        -0.37300E+03
        -0.37300E+03
        -0.37300E+03
        -0.37300E+03
        -0.37300E+03
        -0.37300E+03
        -0.37300E+03
        -0.37300E+03
        -0.37300E+03
        -0.37300E+03
        -0.37300E+03
        -0.37300E+03
        -0.37300E+03
        -0.37300E+03
        -0.37300E+03
        -0.37300E+03
        -0.37300E+03
        -0.37300E+03
        -0.37300E+03
        -0.37300E+03
        -0.37300E+03
        -0.37300E+03
        -0.37300E+03
        -0.37300E+03
        -0.37300E+03
        -0.37300E+03
        -0.37300E+03
        -0.37300E+03
        -0.37300E+03
        -0.37300E+03
        -0.37300E+03
        -0.37300E+03
        -0.37300E+03
        -0.37300E+03
        -0.37300E+03
        -0.37300E+03
        -0.37300E+03
        -0.37300E+03
        -0.37300E+03
        -0.37300E+03
        -0.37300E+03
        -0.37300E+03
        -0.37300E+03
        -0.37300E+03
        -0.37300E+03
        -0.37300E+03
        -0.37300E+03
        -0.37300E+03
        -0.37300E+03
        -0.37300E+03
        -0.37300E+03
        -0.37300E+03
        -0.37300E+03
        -0.37300E+03
        -0.37300E+03
        -0.37300E+03
        -0.37300E+03
        -0.37300E+03
        -0.37300E+03
        -0.37300E+03
        -0.37300E+03
        -0.37300E+03
        -0.37300E+03
        -0.37300E+03
        -0.37300E+03
        -0.37300E+03
        -0.37300E+03
        -0.37300E+03
        -0.37300E+03
        -0.37300E+03
        -0.37300E+03
        -0.37300E+03
        -0.37300E+03
        -0.37300E+03
        -0.37300E+03
        -0.37300E+03
        -0.37300E+03
        -0.37300E+03
        -0.37300E+03
        -0.37300E+03
        -0.37300E+03
        -0.37300E+03
        -0.37300E+03
        -0.37300E+03
        -0.37300E+03
        -0.37300E+03
        -0.37300E+03
        -0.37300E+03
        -0.37300E+03
        -0.37300E+03
        -0.37300E+03
        -0.37300E+03
        -0.37300E+03
        -0.37300E+03
        -0.37300E+03
        -0.37300E+03
        -0.37300E+03
        -0.37300E+03
        -0.37300E+03
        -0.37300E+03
        -0.37300E+03
        -0.37300E+03
        -0.37300E+03
        -0.37300E+03
        -0.37300E+03
        -0.37300E+03
        -0.37300E+03
        -0.37300E+03
        -0.37300E+03
        -0.37300E+03
        -0.37300E+03
        -0.37300E+03
        -0.37300E+03
        -0.37300E+03
        -0.37300E+03
        -0.37300E+03
        -0.37300E+03
        -0.37300E+03
        -0.37300E+03
        -0.37300E+03
        -0.37300E+03
        -0.37300E+03
        -0.37300E+03
        -0.37300E+03
        -0.37300E+03
        -0.37300E+03
        -0.37300E+03
        -0.37300E+03
        -0.37300E+03
        -0.37300E+03
        -0.37300E+03
        -0.37300E+03
        -0.37300E+03
        -0.37300E+03
        -0.37300E+03
        -0.37300E+03
        -0.37300E+03
        -0.37300E+03
        -0.37300E+03
        -0.37300E+03
        -0.37300E+03
        -0.37300E+03
        -0.37300E+03
        -0.37300E+03
        -0.37300E+03
        -0.37300E+03
        -0.37300E+03
        -0.37300E+03
        -0.37300E+03
        -0.37300E+03
        -0.37300E+03
        -0.37300E+03
        -0.37300E+03
        -0.37300E+03
        -0.37300E+03
        -0.37300E+03
        -0.37300E+03
        -0.37300E+03
        -0.37300E+03
        -0.37300E+03
        -0.37300E+03
        -0.37300E+03
        -0.37300E+03
        -0.37300E+03
        -0.37300E+03
        -0.37300E+03
        -0.37300E+03
        -0.37300E+03
        -0.37300E+03
        -0.37300E+03
        -0.37300E+03
        -0.37300E+03
        -0.37300E+03
        -0.37300E+03
        -0.37300E+03
        -0.37300E+03
        -0.37300E+03
        -0.37300E+03
        -0.37300E+03
        -0.37300E+03
        -0.37300E+03
        -0.37300E+03
        -0.37300E+03
        -0.37300E+03
        -0.37300E+03
        -0.37300E+03
        -0.37300E+03
        -0.37300E+03
        -0.37300E+03
        -0.37300E+03
        -0.37300E+03
        -0.37300E+03
        -0.37300E+03
        -0.37300E+03
        -0.37300E+03
        -0.37300E+03
        -0.37300E+03
        -0.37300E+03
        -0.37300E+03
        -0.37300E+03
        -0.37300E+03
        -0.37300E+03
        -0.37300E+03
        -0.37300E+03
        -0.37300E+03
        -0.37300E+03
        -0.37300E+03
        -0.37300E+03
        -0.37300E+03
        -0.37300E+03
        -0.37300E+03
        -0.37300E+03
        -0.37300E+03
        -0.37300E+03
        -0.37300E+03
        -0.37300E+03
        -0.37300E+03
        -0.37300E+03
        -0.37300E+03
        -0.37300E+03
        -0.37300E+03
        -0.37300E+03
        -0.37300E+03
        -0.37300E+03
        -0.37300E+03
        -0.37300E+03
        -0.37300E+03
        -0.37300E+03
        -0.37300E+03
        -0.37300E+03
        -0.37300E+03
        -0.37300E+03
        -0.37300E+03
        -0.37300E+03
        -0.37300E+03
        -0.37300E+03
        -0.37300E+03
        -0.37300E+03
        -0.37300E+03
        -0.37300E+03
        -0.37300E+03
        -0.37300E+03
        -0.37300E+03
        -0.37300E+03
        -0.37300E+03
        -0.37300E+03
        -0.37300E+03
        -0.37300E+03
        -0.37300E+03
        -0.37300E+03
        -0.37300E+03
        -0.37300E+03
        -0.37300E+03
        -0.37300E+03
        -0.37300E+03
        -0.37300E+03
        -0.37300E+03
        -0.37300E+03
        -0.37300E+03
        -0.37300E+03
        -0.37300E+03
        -0.37300E+03
        -0.37300E+03
        -0.37300E+03
        -0.37300E+03
        -0.37300E+03
        -0.37300E+03
        -0.37300E+03
        -0.37300E+03
        -0.37300E+03
        -0.37300E+03
        -0.37300E+03
        -0.37300E+03
        -0.37300E+03
        -0.37300E+03
        -0.37300E+03
        -0.37300E+03
        -0.37300E+03
        -0.37300E+03
        -0.37300E+03
        -0.37300E+03
        -0.37300E+03
        -0.37300E+03
        -0.37300E+03
        -0.37300E+03
        -0.37300E+03
        -0.37300E+03
        -0.37300E+03
        -0.37300E+03
        -0.37300E+03
        -0.37300E+03
        -0.37300E+03
        -0.37300E+03
        -0.37300E+03
        -0.37300E+03
        -0.37300E+03
        -0.37300E+03
        -0.37300E+03
        -0.37300E+03
        -0.37300E+03
        -0.37300E+03
        -0.37300E+03
        -0.37300E+03
        -0.37300E+03
        -0.37300E+03
        -0.37300E+03
        -0.37300E+03
        -0.37300E+03
        -0.37300E+03
        -0.37300E+03
        -0.37300E+03
        -0.37300E+03
        -0.37300E+03
        -0.37300E+03
        -0.37300E+03
        -0.37300E+03
        -0.37300E+03
        -0.37300E+03
        -0.37300E+03
        -0.37300E+03
        -0.37300E+03
        -0.37300E+03
        -0.37300E+03
        -0.37300E+03
        -0.37300E+03
        -0.37300E+03
        -0.37300E+03
        -0.37300E+03
        -0.37300E+03
        -0.37300E+03
        -0.37300E+03
        -0.37300E+03
        -0.37300E+03
        -0.37300E+03
        -0.37300E+03
        -0.37300E+03
        -0.37300E+03
        -0.37300E+03
        -0.37300E+03
        -0.37300E+03
        -0.37300E+03
        -0.37300E+03
        -0.37300E+03
        -0.37300E+03
        -0.37300E+03
        -0.37300E+03
        -0.37300E+03
        -0.37300E+03
        -0.37300E+03
        -0.37300E+03
        -0.37300E+03
        -0.37300E+03
        -0.37300E+03
        -0.37300E+03
        -0.37300E+03
        -0.37300E+03
        -0.37300E+03
        -0.37300E+03
        -0.37300E+03
        -0.37300E+03
        -0.37300E+03
        -0.37300E+03
        -0.37300E+03
        -0.37300E+03
        -0.37300E+03
        -0.37300E+03
        -0.37300E+03
        -0.37300E+03
        -0.37300E+03
        -0.37300E+03
        -0.37300E+03
        -0.37300E+03
        -0.37300E+03
        -0.37300E+03
        -0.37300E+03
        -0.37300E+03
        -0.37300E+03
        -0.37300E+03
        -0.37300E+03
        -0.37300E+03
        -0.37300E+03
        -0.37300E+03
        -0.37300E+03
        -0.37300E+03
        -0.37300E+03
        -0.37300E+03
        -0.37300E+03
        -0.37300E+03
        -0.37300E+03
        -0.37300E+03
        -0.37300E+03
        -0.37300E+03
        -0.37300E+03
        -0.37300E+03
        -0.37300E+03
        -0.37300E+03
        -0.37300E+03
        -0.37300E+03
        -0.37300E+03
        -0.37300E+03
        -0.37300E+03
        -0.37300E+03
        -0.37300E+03
        -0.37300E+03
        -0.37300E+03
        -0.37300E+03
        -0.37300E+03
        -0.37300E+03
        -0.37300E+03
        -0.37300E+03
        -0.37300E+03
        -0.37300E+03
        -0.37300E+03
        -0.37300E+03
        -0.37300E+03
        -0.37300E+03
        -0.37300E+03
        -0.37300E+03
        -0.37300E+03
        -0.37300E+03
        -0.37300E+03
        -0.37300E+03
        -0.37300E+03
        -0.37300E+03
        -0.37300E+03
        -0.37300E+03
        -0.37300E+03
        -0.37300E+03
        -0.37300E+03
        -0.37300E+03
        -0.37300E+03
        -0.37300E+03
        -0.37300E+03
        -0.37300E+03
        -0.37300E+03
        -0.37300E+03
        -0.37300E+03
        -0.37300E+03
        -0.37300E+03
        -0.37300E+03
        -0.37300E+03
        -0.37300E+03
        -0.37300E+03
        -0.37300E+03
        -0.37300E+03
        -0.37300E+03
        -0.37300E+03
        -0.37300E+03
        -0.37300E+03
        -0.37300E+03
        -0.37300E+03
        -0.37300E+03
        -0.37300E+03
        -0.37300E+03
        -0.37300E+03
        -0.37300E+03
        -0.37300E+03
        -0.37300E+03
        -0.37300E+03
        -0.37300E+03
        -0.37300E+03
        -0.37300E+03
        -0.37300E+03
        -0.37300E+03
        -0.37300E+03
        -0.37300E+03
        -0.37300E+03
        -0.37300E+03
        -0.37300E+03
        -0.37300E+03
        -0.37300E+03
        -0.37300E+03
        -0.37300E+03
        -0.37300E+03
        -0.37300E+03
        -0.37300E+03
        -0.37300E+03
        -0.37300E+03
        -0.37300E+03
        -0.37300E+03
        -0.37300E+03
        -0.37300E+03
        -0.37300E+03
        -0.37300E+03
        -0.37300E+03
        -0.37300E+03
        -0.37300E+03
        -0.37300E+03
        -0.37300E+03
        -0.37300E+03
        -0.37300E+03
        -0.37300E+03
        -0.37300E+03
        -0.37300E+03
        -0.37300E+03
        -0.37300E+03
        -0.37300E+03
        -0.37300E+03
        -0.37300E+03
        -0.37300E+03
        -0.37300E+03
        -0.37300E+03
        -0.37300E+03
        -0.37300E+03
        -0.37300E+03
        -0.37300E+03
        -0.37300E+03
        -0.37300E+03
        -0.37300E+03
        -0.37300E+03
        -0.37300E+03
        -0.37300E+03
        -0.37300E+03
        -0.37300E+03
        -0.37300E+03
        -0.37300E+03
        -0.37300E+03
        -0.37300E+03
        -0.37300E+03
        -0.37300E+03
        -0.37300E+03
        -0.37300E+03
        -0.37300E+03
        -0.37300E+03
        -0.37300E+03
        -0.37300E+03
        -0.37300E+03
        -0.37300E+03
        -0.37300E+03
        -0.37300E+03
        -0.37300E+03
        -0.37300E+03
        -0.37300E+03
        -0.37300E+03
        -0.37300E+03
        -0.37300E+03
        -0.37300E+03
        -0.37300E+03
        -0.37300E+03
        -0.37300E+03
        -0.37300E+03
        -0.37300E+03
        -0.37300E+03
        -0.37300E+03
        -0.37300E+03
        -0.37300E+03
        -0.37300E+03
        -0.37300E+03
        -0.37300E+03
        -0.37300E+03
        -0.37300E+03
        -0.37300E+03
        -0.37300E+03
        -0.37300E+03
        -0.37300E+03
        -0.37300E+03
        -0.37300E+03
        -0.37300E+03
        -0.37300E+03
        -0.37300E+03
        -0.37300E+03
        -0.37300E+03
        -0.37300E+03
        -0.37300E+03
        -0.37300E+03
        -0.37300E+03
        -0.37300E+03
        -0.37300E+03
        -0.37300E+03
        -0.37300E+03
        -0.37300E+03
        -0.37300E+03
        -0.37300E+03
        -0.37300E+03
        -0.37300E+03
        -0.37300E+03
        -0.37300E+03
        -0.37300E+03
        -0.37300E+03
        -0.37300E+03
        -0.37300E+03
        -0.37300E+03
        -0.37300E+03
        -0.37300E+03
        -0.37300E+03
        -0.37300E+03
        -0.37300E+03
        -0.37300E+03
        -0.37300E+03
        -0.37300E+03
        -0.37300E+03
        -0.37300E+03
        -0.37300E+03
        -0.37300E+03
        -0.37300E+03
        -0.37300E+03
        -0.37300E+03
        -0.37300E+03
        -0.37300E+03
        -0.37300E+03
        -0.37300E+03
        -0.37300E+03
        -0.37300E+03
        -0.37300E+03
        -0.37300E+03
        -0.37300E+03
        -0.37300E+03
        -0.37300E+03
        -0.37300E+03
        -0.37300E+03
        -0.37300E+03
        -0.37300E+03
        -0.37300E+03
        -0.37300E+03
        -0.37300E+03
        -0.37300E+03
        -0.37300E+03
        -0.37300E+03
        -0.37300E+03
        -0.37300E+03
        -0.37300E+03
        -0.37300E+03
        -0.37300E+03
        -0.37300E+03
        -0.37300E+03
        -0.37300E+03
        -0.37300E+03
        -0.37300E+03
        -0.37300E+03
        -0.37300E+03
        -0.37300E+03
        -0.37300E+03
        -0.37300E+03
        -0.37300E+03
        -0.37300E+03
        -0.37300E+03
        -0.37300E+03
        -0.37300E+03
        -0.37300E+03
        -0.37300E+03
        -0.37300E+03
        -0.37300E+03
        -0.37300E+03
        -0.37300E+03
        -0.37300E+03
        -0.37300E+03
        -0.37300E+03
        -0.37300E+03
        -0.37300E+03
        -0.37300E+03
        -0.37300E+03
        -0.37300E+03
        -0.37300E+03
        -0.37300E+03
        -0.37300E+03
        -0.37300E+03
        -0.37300E+03
        -0.37300E+03
        -0.37300E+03
        -0.37300E+03
        -0.37300E+03
        -0.37300E+03
        -0.37300E+03
        -0.37300E+03
        -0.37300E+03
        -0.37300E+03
        -0.37300E+03
        -0.37300E+03
        -0.37300E+03
        -0.37300E+03
        -0.37300E+03
        -0.37300E+03
        -0.37300E+03
        -0.37300E+03
        -0.37300E+03
        -0.37300E+03
        -0.37300E+03
        -0.37300E+03
        -0.37300E+03
        -0.37300E+03
        -0.37300E+03
        -0.37300E+03
        -0.37300E+03
        -0.37300E+03
        -0.37300E+03
        -0.37300E+03
        -0.37300E+03
        -0.37300E+03
        -0.37300E+03
        -0.37300E+03
        -0.37300E+03
        -0.37300E+03
        -0.37300E+03
        -0.37300E+03
        -0.37300E+03
        -0.37300E+03
        -0.37300E+03
        -0.37300E+03
        -0.37300E+03
        -0.37300E+03
        -0.37300E+03
        -0.37300E+03
        -0.37300E+03
        -0.37300E+03
        -0.37300E+03
        -0.37300E+03
        -0.37300E+03
        -0.37300E+03
        -0.37300E+03
        -0.37300E+03
        -0.37300E+03
        -0.37300E+03
        -0.37300E+03
        -0.37300E+03
        -0.37300E+03
        -0.37300E+03
        -0.37300E+03
        -0.37300E+03
        -0.37300E+03
        -0.37300E+03
        -0.37300E+03
        -0.37300E+03
        -0.37300E+03
        -0.37300E+03
        -0.37300E+03
        -0.37300E+03
        -0.37300E+03
        -0.37300E+03
        -0.37300E+03
        -0.37300E+03
        -0.37300E+03
        -0.37300E+03
        -0.37300E+03
        -0.37300E+03
        -0.37300E+03
        -0.37300E+03
        -0.37300E+03
        -0.37300E+03
        -0.37300E+03
        -0.37300E+03
        -0.37300E+03
        -0.37300E+03
        -0.37300E+03
        -0.37300E+03
        -0.37300E+03
        -0.37300E+03
        -0.37300E+03
        -0.37300E+03
        -0.37300E+03
        -0.37300E+03
        -0.37300E+03
        -0.37300E+03
        -0.37300E+03
        -0.37300E+03
        -0.37300E+03
        -0.37300E+03
        -0.37300E+03
        -0.37300E+03
        -0.37300E+03
        -0.37300E+03
        -0.37300E+03
        -0.37300E+03
        -0.37300E+03
        -0.37300E+03
        -0.37300E+03
        -0.37300E+03
        -0.37300E+03
        -0.37300E+03
        -0.37300E+03
        -0.37300E+03
        -0.37300E+03
        -0.37300E+03
        -0.37300E+03
        -0.37300E+03
        -0.37300E+03
        -0.37300E+03
        -0.37300E+03
        -0.37300E+03
        -0.37300E+03
        -0.37300E+03
        -0.37300E+03
        -0.37300E+03
        -0.37300E+03
        -0.37300E+03
        -0.37300E+03
        -0.37300E+03
        -0.37300E+03
        -0.37300E+03
        -0.37300E+03
        -0.37300E+03
        -0.37300E+03
        -0.37300E+03
        -0.37300E+03
        -0.37300E+03
        -0.37300E+03
        -0.37300E+03
        -0.37300E+03
        -0.37300E+03
        -0.37300E+03
        -0.37300E+03
        -0.37300E+03
        -0.37300E+03
        -0.37300E+03
        -0.37300E+03
        -0.37300E+03
        -0.37300E+03
        -0.37300E+03
        -0.37300E+03
        -0.37300E+03
        -0.37300E+03
        -0.37300E+03
        -0.37300E+03
        -0.37300E+03
        -0.37300E+03
        -0.37300E+03
        -0.37300E+03
        -0.37300E+03
        -0.37300E+03
        -0.37300E+03
        -0.37300E+03
        -0.37300E+03
        -0.37300E+03
        -0.37300E+03
        -0.37300E+03
        -0.37300E+03
        -0.37300E+03
        -0.37300E+03
        -0.37300E+03
        -0.37300E+03
        -0.37300E+03
        -0.37300E+03
        -0.37300E+03
        -0.37300E+03
        -0.37300E+03
        -0.37300E+03
        -0.37300E+03
        -0.37300E+03
        -0.37300E+03
        -0.37300E+03
        -0.37300E+03
        -0.37300E+03
        -0.37300E+03
        -0.37300E+03
        -0.37300E+03
        -0.37300E+03
        -0.37300E+03
        -0.37300E+03
        -0.37300E+03
        -0.37300E+03
        -0.37300E+03
        -0.37300E+03
        -0.37300E+03
        -0.37300E+03
        -0.37300E+03
        -0.37300E+03
        -0.37300E+03
        -0.37300E+03
        -0.37300E+03
        -0.37300E+03
        -0.37300E+03
        -0.37300E+03
        -0.37300E+03
        -0.37300E+03
        -0.37300E+03
        -0.37300E+03
        -0.37300E+03
        -0.37300E+03
        -0.37300E+03
        -0.37300E+03
        -0.37300E+03
        -0.37300E+03
        -0.37300E+03
        -0.37300E+03
        -0.37300E+03
        -0.37300E+03
        -0.37300E+03
        -0.37300E+03
        -0.37300E+03
        -0.37300E+03
        -0.37300E+03
        -0.37300E+03
        -0.37300E+03
        -0.37300E+03
        -0.37300E+03
        -0.37300E+03
        -0.37300E+03
        -0.37300E+03
        -0.37300E+03
        -0.37300E+03
        -0.37300E+03
        -0.37300E+03
        -0.37300E+03
        -0.37300E+03
        -0.37300E+03
        -0.37300E+03
        -0.37300E+03
        -0.37300E+03
        -0.37300E+03
        -0.37300E+03
        -0.37300E+03
        -0.37300E+03
        -0.37300E+03
        -0.37300E+03
        -0.37300E+03
        -0.37300E+03
        -0.37300E+03
        -0.37300E+03
        -0.37300E+03
        -0.37300E+03
        -0.37300E+03
        -0.37300E+03
        -0.37300E+03
        -0.37300E+03
        -0.37300E+03
        -0.37300E+03
        -0.37300E+03
        -0.37300E+03
        -0.37300E+03
        -0.37300E+03
        -0.37300E+03
        -0.37300E+03
        -0.37300E+03
        -0.37300E+03
        -0.37300E+03
        -0.37300E+03
        -0.37300E+03
        -0.37300E+03
        -0.37300E+03
        -0.37300E+03
        -0.37300E+03
        -0.37300E+03
        -0.37300E+03
        -0.37300E+03
        -0.37300E+03
        -0.37300E+03
        -0.37300E+03
        -0.37300E+03
        -0.37300E+03
        -0.37300E+03
        -0.37300E+03
        -0.37300E+03
        -0.37300E+03
        -0.37300E+03
        -0.37300E+03
        -0.37300E+03
        -0.37300E+03
        -0.37300E+03
        -0.37300E+03
        -0.37300E+03
        -0.37300E+03
        -0.37300E+03
        -0.37300E+03
        -0.37300E+03
        -0.37300E+03
        -0.37300E+03
        -0.37300E+03
        -0.37300E+03
        -0.37300E+03
        -0.37300E+03
        -0.37300E+03
        -0.37300E+03
        -0.37300E+03
        -0.37300E+03
        -0.37300E+03
        -0.37300E+03
        -0.37300E+03
        -0.37300E+03
        -0.37300E+03
        -0.37300E+03
        -0.37300E+03
        -0.37300E+03
        -0.37300E+03
        -0.37300E+03
        -0.37300E+03
        -0.37300E+03
        -0.37300E+03
        -0.37300E+03
        -0.37300E+03
        -0.37300E+03
        -0.37300E+03
        -0.37300E+03
        -0.37300E+03
        -0.37300E+03
        -0.37300E+03
        -0.37300E+03
        -0.37300E+03
        -0.37300E+03
        -0.37300E+03
        -0.37300E+03
        -0.37300E+03
        -0.37300E+03
        -0.37300E+03
        -0.37300E+03
        -0.37300E+03
        -0.37300E+03
        -0.37300E+03
        -0.37300E+03
        -0.37300E+03
        -0.37300E+03
        -0.37300E+03
        -0.37300E+03
        -0.37300E+03
        -0.37300E+03
        -0.37300E+03
        -0.37300E+03
        -0.37300E+03
        -0.37300E+03
        -0.37300E+03
        -0.37300E+03
        -0.37300E+03
        -0.37300E+03
        -0.37300E+03
        -0.37300E+03
        -0.37300E+03
        -0.37300E+03
        -0.37300E+03
        -0.37300E+03
        -0.37300E+03
        -0.37300E+03
        -0.37300E+03
        -0.37300E+03
        -0.37300E+03
        -0.37300E+03
        -0.37300E+03
        -0.37300E+03
        -0.37300E+03
        -0.37300E+03
        -0.37300E+03
        -0.37300E+03
        -0.37300E+03
        -0.37300E+03
        -0.37300E+03
        -0.37300E+03
        -0.37300E+03
        -0.37300E+03
        -0.37300E+03
        -0.37300E+03
        -0.37300E+03
        -0.37300E+03
        -0.37300E+03
        -0.37300E+03
        -0.37300E+03
        -0.37300E+03
        -0.37300E+03
        -0.37300E+03
        -0.37300E+03
        -0.37300E+03
        -0.37300E+03
        -0.37300E+03
        -0.37300E+03
        -0.37300E+03
        -0.37300E+03
        -0.37300E+03
        -0.37300E+03
        -0.37300E+03
        -0.37300E+03
        -0.37300E+03
        -0.37300E+03
        -0.37300E+03
        -0.37300E+03
        -0.37300E+03
        -0.37300E+03
        -0.37300E+03
        -0.37300E+03
        -0.37300E+03
        -0.37300E+03
        -0.37300E+03
        -0.37300E+03
        -0.37300E+03
        -0.37300E+03
        -0.37300E+03
        -0.37300E+03
        -0.37300E+03
        -0.37300E+03
        -0.37300E+03
        -0.37300E+03
        -0.37300E+03
        -0.37300E+03
        -0.37300E+03
        -0.37300E+03
        -0.37300E+03
        -0.37300E+03
        -0.37300E+03
        -0.37300E+03
        -0.37300E+03
        -0.37300E+03
        -0.37300E+03
        -0.37300E+03
        -0.37300E+03
        -0.37300E+03
        -0.37300E+03
        -0.37300E+03
        -0.37300E+03
        -0.37300E+03
        -0.37300E+03
        -0.37300E+03
        -0.37300E+03
        -0.37300E+03
        -0.37300E+03
        -0.37300E+03
        -0.37300E+03
        -0.37300E+03
        -0.37300E+03
        -0.37300E+03
        -0.37300E+03
        -0.37300E+03
        -0.37300E+03
        -0.37300E+03
        -0.37300E+03
        -0.37300E+03
        -0.37300E+03
        -0.37300E+03
        -0.37300E+03
        -0.37300E+03
        -0.37300E+03
        -0.37300E+03
        -0.37300E+03
        -0.37300E+03
        -0.37300E+03
        -0.37300E+03
        -0.37300E+03
        -0.37300E+03
        -0.37300E+03
        -0.37300E+03
        -0.37300E+03
        -0.37300E+03
        -0.37300E+03
        -0.37300E+03
        -0.37300E+03
        -0.37300E+03
        -0.37300E+03
  
SCALARS              normalized_window  double 1
LOOKUP_TABLE default
         0.27500E+01
         0.27500E+01
         0.27500E+01
         0.27500E+01
         0.27500E+01
         0.27500E+01
         0.27500E+01
         0.27500E+01
         0.27500E+01
         0.27500E+01
         0.27500E+01
         0.27500E+01
         0.27500E+01
         0.27500E+01
         0.27500E+01
         0.27500E+01
         0.27500E+01
         0.27500E+01
         0.27500E+01
         0.27500E+01
         0.27500E+01
         0.27500E+01
         0.27500E+01
         0.27500E+01
         0.27500E+01
         0.27500E+01
         0.27500E+01
         0.27500E+01
         0.27500E+01
         0.27500E+01
         0.27500E+01
         0.27500E+01
         0.27500E+01
         0.27500E+01
         0.27500E+01
         0.27500E+01
         0.27500E+01
         0.27500E+01
         0.27500E+01
         0.27500E+01
         0.27500E+01
         0.27500E+01
         0.27500E+01
         0.27500E+01
         0.27500E+01
         0.27500E+01
         0.27500E+01
         0.27500E+01
         0.27500E+01
         0.27500E+01
         0.27500E+01
         0.27500E+01
         0.27500E+01
         0.27500E+01
         0.27500E+01
         0.27500E+01
         0.27500E+01
         0.27500E+01
         0.27500E+01
         0.27500E+01
         0.27500E+01
         0.27500E+01
         0.27500E+01
         0.27500E+01
         0.27500E+01
         0.27500E+01
         0.27500E+01
         0.27500E+01
         0.27500E+01
         0.27500E+01
         0.27500E+01
         0.27500E+01
         0.27500E+01
         0.27500E+01
         0.27500E+01
         0.27500E+01
         0.27500E+01
         0.27500E+01
         0.27500E+01
         0.27500E+01
         0.27500E+01
         0.27500E+01
         0.27500E+01
         0.27500E+01
         0.27500E+01
         0.27500E+01
         0.27500E+01
         0.27500E+01
         0.27500E+01
         0.27500E+01
         0.27500E+01
         0.27500E+01
         0.27500E+01
         0.27500E+01
         0.27500E+01
         0.27500E+01
         0.27500E+01
         0.27500E+01
         0.27500E+01
         0.27500E+01
         0.27500E+01
         0.27500E+01
         0.27500E+01
         0.27500E+01
         0.27500E+01
         0.27500E+01
         0.27500E+01
         0.27500E+01
         0.27500E+01
         0.27500E+01
         0.27500E+01
         0.27500E+01
         0.27500E+01
         0.27500E+01
         0.27500E+01
         0.27500E+01
         0.27500E+01
         0.27500E+01
         0.27500E+01
         0.27500E+01
         0.27500E+01
         0.27500E+01
         0.27500E+01
         0.27500E+01
         0.27500E+01
         0.27500E+01
         0.27500E+01
         0.27500E+01
         0.27500E+01
         0.27500E+01
         0.27500E+01
         0.27500E+01
         0.27500E+01
         0.27500E+01
         0.27500E+01
         0.27500E+01
         0.27500E+01
         0.27500E+01
         0.27500E+01
         0.27500E+01
         0.27500E+01
         0.27500E+01
         0.27500E+01
         0.27500E+01
         0.27500E+01
         0.27500E+01
         0.27500E+01
         0.27500E+01
         0.27500E+01
         0.27500E+01
         0.27500E+01
         0.27500E+01
         0.27500E+01
         0.27500E+01
         0.27500E+01
         0.27500E+01
         0.27500E+01
         0.27500E+01
         0.27500E+01
         0.27500E+01
         0.27500E+01
         0.27500E+01
         0.27500E+01
         0.27500E+01
         0.27500E+01
         0.27500E+01
         0.27500E+01
         0.27500E+01
         0.27500E+01
         0.27500E+01
         0.27500E+01
         0.27500E+01
         0.27500E+01
         0.27500E+01
         0.27500E+01
         0.27500E+01
         0.27500E+01
         0.27500E+01
         0.27500E+01
         0.27500E+01
         0.27500E+01
         0.27500E+01
         0.27500E+01
         0.27500E+01
         0.27500E+01
         0.27500E+01
         0.27500E+01
         0.27500E+01
         0.27500E+01
         0.27500E+01
         0.27500E+01
         0.27500E+01
         0.27500E+01
         0.27500E+01
         0.27500E+01
         0.27500E+01
         0.27500E+01
         0.27500E+01
         0.27500E+01
         0.27500E+01
         0.27500E+01
         0.27500E+01
         0.27500E+01
         0.27500E+01
         0.27500E+01
         0.27500E+01
         0.27500E+01
         0.27500E+01
         0.27500E+01
         0.27500E+01
         0.27500E+01
         0.27500E+01
         0.27500E+01
         0.27500E+01
         0.27500E+01
         0.27500E+01
         0.27500E+01
         0.27500E+01
         0.27500E+01
         0.27500E+01
         0.27500E+01
         0.27500E+01
         0.27500E+01
         0.27500E+01
         0.27500E+01
         0.27500E+01
         0.27500E+01
         0.27500E+01
         0.27500E+01
         0.27500E+01
         0.27500E+01
         0.27500E+01
         0.27500E+01
         0.27500E+01
         0.27500E+01
         0.27500E+01
         0.27500E+01
         0.27500E+01
         0.27500E+01
         0.27500E+01
         0.27500E+01
         0.27500E+01
         0.27500E+01
         0.27500E+01
         0.27500E+01
         0.27500E+01
         0.27500E+01
         0.27500E+01
         0.27500E+01
         0.27500E+01
         0.27500E+01
         0.27500E+01
         0.27500E+01
         0.27500E+01
         0.27500E+01
         0.27500E+01
         0.27500E+01
         0.27500E+01
         0.27500E+01
         0.27500E+01
         0.27500E+01
         0.27500E+01
         0.27500E+01
         0.27500E+01
         0.27500E+01
         0.27500E+01
         0.27500E+01
         0.27500E+01
         0.27500E+01
         0.27500E+01
         0.27500E+01
         0.27500E+01
         0.27500E+01
         0.27500E+01
         0.27500E+01
         0.27500E+01
         0.27500E+01
         0.27500E+01
         0.27500E+01
         0.27500E+01
         0.27500E+01
         0.27500E+01
         0.27500E+01
         0.27500E+01
         0.27500E+01
         0.27500E+01
         0.27500E+01
         0.27500E+01
         0.27500E+01
         0.27500E+01
         0.27500E+01
         0.27500E+01
         0.27500E+01
         0.27500E+01
         0.27500E+01
         0.27500E+01
         0.27500E+01
         0.27500E+01
         0.27500E+01
         0.27500E+01
         0.27500E+01
         0.27500E+01
         0.27500E+01
         0.27500E+01
         0.27500E+01
         0.27500E+01
         0.27500E+01
         0.27500E+01
         0.27500E+01
         0.27500E+01
         0.27500E+01
         0.27500E+01
         0.27500E+01
         0.27500E+01
         0.27500E+01
         0.27500E+01
         0.27500E+01
         0.27500E+01
         0.27500E+01
         0.27500E+01
         0.27500E+01
         0.27500E+01
         0.27500E+01
         0.27500E+01
         0.27500E+01
         0.27500E+01
         0.27500E+01
         0.27500E+01
         0.27500E+01
         0.27500E+01
         0.27500E+01
         0.27500E+01
         0.27500E+01
         0.27500E+01
         0.27500E+01
         0.27500E+01
         0.27500E+01
         0.27500E+01
         0.27500E+01
         0.27500E+01
         0.27500E+01
         0.27500E+01
         0.27500E+01
         0.27500E+01
         0.27500E+01
         0.27500E+01
         0.27500E+01
         0.27500E+01
         0.27500E+01
         0.27500E+01
         0.27500E+01
         0.27500E+01
         0.27500E+01
         0.27500E+01
         0.27500E+01
         0.27500E+01
         0.27500E+01
         0.27500E+01
         0.27500E+01
         0.27500E+01
         0.27500E+01
         0.27500E+01
         0.27500E+01
         0.27500E+01
         0.27500E+01
         0.27500E+01
         0.27500E+01
         0.27500E+01
         0.27500E+01
         0.27500E+01
         0.27500E+01
         0.27500E+01
         0.27500E+01
         0.27500E+01
         0.27500E+01
         0.27500E+01
         0.27500E+01
         0.27500E+01
         0.27500E+01
         0.27500E+01
         0.27500E+01
         0.27500E+01
         0.27500E+01
         0.27500E+01
         0.27500E+01
         0.27500E+01
         0.27500E+01
         0.27500E+01
         0.27500E+01
         0.27500E+01
         0.27500E+01
         0.27500E+01
         0.27500E+01
         0.27500E+01
         0.27500E+01
         0.27500E+01
         0.27500E+01
         0.27500E+01
         0.27500E+01
         0.27500E+01
         0.27500E+01
         0.27500E+01
         0.27500E+01
         0.27500E+01
         0.27500E+01
         0.27500E+01
         0.27500E+01
         0.27500E+01
         0.27500E+01
         0.27500E+01
         0.27500E+01
         0.27500E+01
         0.27500E+01
         0.27500E+01
         0.27500E+01
         0.27500E+01
         0.27500E+01
         0.27500E+01
         0.27500E+01
         0.27500E+01
         0.27500E+01
         0.27500E+01
         0.27500E+01
         0.27500E+01
         0.27500E+01
         0.27500E+01
         0.27500E+01
         0.27500E+01
         0.27500E+01
         0.27500E+01
         0.27500E+01
         0.27500E+01
         0.27500E+01
         0.27500E+01
         0.27500E+01
         0.27500E+01
         0.27500E+01
         0.27500E+01
         0.27500E+01
         0.27500E+01
         0.27500E+01
         0.27500E+01
         0.27500E+01
         0.27500E+01
         0.27500E+01
         0.27500E+01
         0.27500E+01
         0.27500E+01
         0.27500E+01
         0.27500E+01
         0.27500E+01
         0.27500E+01
         0.27500E+01
         0.27500E+01
         0.27500E+01
         0.27500E+01
         0.27500E+01
         0.27500E+01
         0.27500E+01
         0.27500E+01
         0.27500E+01
         0.27500E+01
         0.27500E+01
         0.27500E+01
         0.27500E+01
         0.27500E+01
         0.27500E+01
         0.27500E+01
         0.27500E+01
         0.27500E+01
         0.27500E+01
         0.27500E+01
         0.27500E+01
         0.27500E+01
         0.27500E+01
         0.27500E+01
         0.27500E+01
         0.27500E+01
         0.27500E+01
         0.27500E+01
         0.27500E+01
         0.27500E+01
         0.27500E+01
         0.27500E+01
         0.27500E+01
         0.27500E+01
         0.27500E+01
         0.27500E+01
         0.27500E+01
         0.27500E+01
         0.27500E+01
         0.27500E+01
         0.27500E+01
         0.27500E+01
         0.27500E+01
         0.27500E+01
         0.27500E+01
         0.27500E+01
         0.27500E+01
         0.27500E+01
         0.27500E+01
         0.27500E+01
         0.27500E+01
         0.27500E+01
         0.27500E+01
         0.27500E+01
         0.27500E+01
         0.27500E+01
         0.27500E+01
         0.27500E+01
         0.27500E+01
         0.27500E+01
         0.27500E+01
         0.27500E+01
         0.27500E+01
         0.27500E+01
         0.27500E+01
         0.27500E+01
         0.27500E+01
         0.27500E+01
         0.27500E+01
         0.27500E+01
         0.27500E+01
         0.27500E+01
         0.27500E+01
         0.27500E+01
         0.27500E+01
         0.27500E+01
         0.27500E+01
         0.27500E+01
         0.27500E+01
         0.27500E+01
         0.27500E+01
         0.27500E+01
         0.27500E+01
         0.27500E+01
         0.27500E+01
         0.27500E+01
         0.27500E+01
         0.27500E+01
         0.27500E+01
         0.27500E+01
         0.27500E+01
         0.27500E+01
         0.27500E+01
         0.27500E+01
         0.27500E+01
         0.27500E+01
         0.27500E+01
         0.27500E+01
         0.27500E+01
         0.27500E+01
         0.27500E+01
         0.27500E+01
         0.27500E+01
         0.27500E+01
         0.27500E+01
         0.27500E+01
         0.27500E+01
         0.27500E+01
         0.27500E+01
         0.27500E+01
         0.27500E+01
         0.27500E+01
         0.27500E+01
         0.27500E+01
         0.27500E+01
         0.27500E+01
         0.27500E+01
         0.27500E+01
         0.27500E+01
         0.27500E+01
         0.27500E+01
         0.27500E+01
         0.27500E+01
         0.27500E+01
         0.27500E+01
         0.27500E+01
         0.27500E+01
         0.27500E+01
         0.27500E+01
         0.27500E+01
         0.27500E+01
         0.27500E+01
         0.27500E+01
         0.27500E+01
         0.27500E+01
         0.27500E+01
         0.27500E+01
         0.27500E+01
         0.27500E+01
         0.27500E+01
         0.27500E+01
         0.27500E+01
         0.27500E+01
         0.27500E+01
         0.27500E+01
         0.27500E+01
         0.27500E+01
         0.27500E+01
         0.27500E+01
         0.27500E+01
         0.27500E+01
         0.27500E+01
         0.27500E+01
         0.27500E+01
         0.27500E+01
         0.27500E+01
         0.27500E+01
         0.27500E+01
         0.27500E+01
         0.27500E+01
         0.27500E+01
         0.27500E+01
         0.27500E+01
         0.27500E+01
         0.27500E+01
         0.27500E+01
         0.27500E+01
         0.27500E+01
         0.27500E+01
         0.27500E+01
         0.27500E+01
         0.27500E+01
         0.27500E+01
         0.27500E+01
         0.27500E+01
         0.27500E+01
         0.27500E+01
         0.27500E+01
         0.27500E+01
         0.27500E+01
         0.27500E+01
         0.27500E+01
         0.27500E+01
         0.27500E+01
         0.27500E+01
         0.27500E+01
         0.27500E+01
         0.27500E+01
         0.27500E+01
         0.27500E+01
         0.27500E+01
         0.27500E+01
         0.27500E+01
         0.27500E+01
         0.27500E+01
         0.27500E+01
         0.27500E+01
         0.27500E+01
         0.27500E+01
         0.27500E+01
         0.27500E+01
         0.27500E+01
         0.27500E+01
         0.27500E+01
         0.27500E+01
         0.27500E+01
         0.27500E+01
         0.27500E+01
         0.27500E+01
         0.27500E+01
         0.27500E+01
         0.27500E+01
         0.27500E+01
         0.27500E+01
         0.27500E+01
         0.27500E+01
         0.27500E+01
         0.27500E+01
         0.27500E+01
         0.27500E+01
         0.27500E+01
         0.27500E+01
         0.27500E+01
         0.27500E+01
         0.27500E+01
         0.27500E+01
         0.27500E+01
         0.27500E+01
         0.27500E+01
         0.27500E+01
         0.27500E+01
         0.27500E+01
         0.27500E+01
         0.27500E+01
         0.27500E+01
         0.27500E+01
         0.27500E+01
         0.27500E+01
         0.27500E+01
         0.27500E+01
         0.27500E+01
         0.27500E+01
         0.27500E+01
         0.27500E+01
         0.27500E+01
         0.27500E+01
         0.27500E+01
         0.27500E+01
         0.27500E+01
         0.27500E+01
         0.27500E+01
         0.27500E+01
         0.27500E+01
         0.27500E+01
         0.27500E+01
         0.27500E+01
         0.27500E+01
         0.27500E+01
         0.27500E+01
         0.27500E+01
         0.27500E+01
         0.27500E+01
         0.27500E+01
         0.27500E+01
         0.27500E+01
         0.27500E+01
         0.27500E+01
         0.27500E+01
         0.27500E+01
         0.27500E+01
         0.27500E+01
         0.27500E+01
         0.27500E+01
         0.27500E+01
         0.27500E+01
         0.27500E+01
         0.27500E+01
         0.27500E+01
         0.27500E+01
         0.27500E+01
         0.27500E+01
         0.27500E+01
         0.27500E+01
         0.27500E+01
         0.27500E+01
         0.27500E+01
         0.27500E+01
         0.27500E+01
         0.27500E+01
         0.27500E+01
         0.27500E+01
         0.27500E+01
         0.27500E+01
         0.27500E+01
         0.27500E+01
         0.27500E+01
         0.27500E+01
         0.27500E+01
         0.27500E+01
         0.27500E+01
         0.27500E+01
         0.27500E+01
         0.27500E+01
         0.27500E+01
         0.27500E+01
         0.27500E+01
         0.27500E+01
         0.27500E+01
         0.27500E+01
         0.27500E+01
         0.27500E+01
         0.27500E+01
         0.27500E+01
         0.27500E+01
         0.27500E+01
         0.27500E+01
         0.27500E+01
         0.27500E+01
         0.27500E+01
         0.27500E+01
         0.27500E+01
         0.27500E+01
         0.27500E+01
         0.27500E+01
         0.27500E+01
         0.27500E+01
         0.27500E+01
         0.27500E+01
         0.27500E+01
         0.27500E+01
         0.27500E+01
         0.27500E+01
         0.27500E+01
         0.27500E+01
         0.27500E+01
         0.27500E+01
         0.27500E+01
         0.27500E+01
         0.27500E+01
         0.27500E+01
         0.27500E+01
         0.27500E+01
         0.27500E+01
         0.27500E+01
         0.27500E+01
         0.27500E+01
         0.27500E+01
         0.27500E+01
         0.27500E+01
         0.27500E+01
         0.27500E+01
         0.27500E+01
         0.27500E+01
         0.27500E+01
         0.27500E+01
         0.27500E+01
         0.27500E+01
         0.27500E+01
         0.27500E+01
         0.27500E+01
         0.27500E+01
         0.27500E+01
         0.27500E+01
         0.27500E+01
         0.27500E+01
         0.27500E+01
         0.27500E+01
         0.27500E+01
         0.27500E+01
         0.27500E+01
         0.27500E+01
         0.27500E+01
         0.27500E+01
         0.27500E+01
         0.27500E+01
         0.27500E+01
         0.27500E+01
         0.27500E+01
         0.27500E+01
         0.27500E+01
         0.27500E+01
         0.27500E+01
         0.27500E+01
         0.27500E+01
         0.27500E+01
         0.27500E+01
         0.27500E+01
         0.27500E+01
         0.27500E+01
         0.27500E+01
         0.27500E+01
         0.27500E+01
         0.27500E+01
         0.27500E+01
         0.27500E+01
         0.27500E+01
         0.27500E+01
         0.27500E+01
         0.27500E+01
         0.27500E+01
         0.27500E+01
         0.27500E+01
         0.27500E+01
         0.27500E+01
         0.27500E+01
         0.27500E+01
         0.27500E+01
         0.27500E+01
         0.27500E+01
         0.27500E+01
         0.27500E+01
         0.27500E+01
         0.27500E+01
         0.27500E+01
         0.27500E+01
         0.27500E+01
         0.27500E+01
         0.27500E+01
         0.27500E+01
         0.27500E+01
         0.27500E+01
         0.27500E+01
         0.27500E+01
         0.27500E+01
         0.27500E+01
         0.27500E+01
         0.27500E+01
         0.27500E+01
         0.27500E+01
         0.27500E+01
         0.27500E+01
         0.27500E+01
         0.27500E+01
         0.27500E+01
         0.27500E+01
         0.27500E+01
         0.27500E+01
         0.27500E+01
         0.27500E+01
         0.27500E+01
         0.27500E+01
         0.27500E+01
         0.27500E+01
         0.27500E+01
         0.27500E+01
         0.27500E+01
         0.27500E+01
         0.27500E+01
         0.27500E+01
         0.27500E+01
         0.27500E+01
         0.27500E+01
         0.27500E+01
         0.27500E+01
         0.27500E+01
         0.27500E+01
         0.27500E+01
         0.27500E+01
         0.27500E+01
         0.27500E+01
         0.27500E+01
         0.27500E+01
         0.27500E+01
         0.27500E+01
         0.27500E+01
         0.27500E+01
         0.27500E+01
         0.27500E+01
         0.27500E+01
         0.27500E+01
         0.27500E+01
         0.27500E+01
         0.27500E+01
         0.27500E+01
         0.27500E+01
         0.27500E+01
         0.27500E+01
         0.27500E+01
         0.27500E+01
         0.27500E+01
         0.27500E+01
         0.27500E+01
         0.27500E+01
         0.27500E+01
         0.27500E+01
         0.27500E+01
         0.27500E+01
         0.27500E+01
         0.27500E+01
         0.27500E+01
         0.27500E+01
         0.27500E+01
         0.27500E+01
         0.27500E+01
         0.27500E+01
         0.27500E+01
         0.27500E+01
         0.27500E+01
         0.27500E+01
         0.27500E+01
         0.27500E+01
         0.27500E+01
         0.27500E+01
         0.27500E+01
         0.27500E+01
         0.27500E+01
         0.27500E+01
         0.27500E+01
         0.27500E+01
         0.27500E+01
         0.27500E+01
         0.27500E+01
         0.27500E+01
         0.27500E+01
         0.27500E+01
         0.27500E+01
         0.27500E+01
         0.27500E+01
         0.27500E+01
         0.27500E+01
         0.27500E+01
         0.27500E+01
         0.27500E+01
         0.27500E+01
         0.27500E+01
         0.27500E+01
         0.27500E+01
         0.27500E+01
         0.27500E+01
         0.27500E+01
         0.27500E+01
         0.27500E+01
         0.27500E+01
         0.27500E+01
         0.27500E+01
         0.27500E+01
         0.27500E+01
         0.27500E+01
         0.27500E+01
         0.27500E+01
         0.27500E+01
         0.27500E+01
         0.27500E+01
         0.27500E+01
         0.27500E+01
         0.27500E+01
         0.27500E+01
         0.27500E+01
         0.27500E+01
         0.27500E+01
         0.27500E+01
         0.27500E+01
         0.27500E+01
         0.27500E+01
         0.27500E+01
         0.27500E+01
         0.27500E+01
         0.27500E+01
         0.27500E+01
         0.27500E+01
         0.27500E+01
         0.27500E+01
         0.27500E+01
         0.27500E+01
         0.27500E+01
         0.27500E+01
         0.27500E+01
         0.27500E+01
         0.27500E+01
         0.27500E+01
         0.27500E+01
         0.27500E+01
         0.27500E+01
         0.27500E+01
         0.27500E+01
         0.27500E+01
         0.27500E+01
         0.27500E+01
         0.27500E+01
         0.27500E+01
         0.27500E+01
         0.27500E+01
         0.27500E+01
         0.27500E+01
         0.27500E+01
         0.27500E+01
         0.27500E+01
         0.27500E+01
         0.27500E+01
         0.27500E+01
         0.27500E+01
         0.27500E+01
         0.27500E+01
         0.27500E+01
         0.27500E+01
         0.27500E+01
         0.27500E+01
         0.27500E+01
         0.27500E+01
         0.27500E+01
         0.27500E+01
         0.27500E+01
         0.27500E+01
         0.27500E+01
         0.27500E+01
         0.27500E+01
         0.27500E+01
         0.27500E+01
         0.27500E+01
         0.27500E+01
         0.27500E+01
         0.27500E+01
         0.27500E+01
         0.27500E+01
         0.27500E+01
         0.27500E+01
         0.27500E+01
         0.27500E+01
         0.27500E+01
         0.27500E+01
         0.27500E+01
         0.27500E+01
         0.27500E+01
         0.27500E+01
         0.27500E+01
         0.27500E+01
         0.27500E+01
         0.27500E+01
         0.27500E+01
         0.27500E+01
         0.27500E+01
         0.27500E+01
         0.27500E+01
         0.27500E+01
         0.27500E+01
         0.27500E+01
         0.27500E+01
         0.27500E+01
         0.27500E+01
         0.27500E+01
         0.27500E+01
         0.27500E+01
         0.27500E+01
         0.27500E+01
         0.27500E+01
         0.27500E+01
         0.27500E+01
         0.27500E+01
         0.27500E+01
         0.27500E+01
         0.27500E+01
         0.27500E+01
         0.27500E+01
         0.27500E+01
         0.27500E+01
         0.27500E+01
         0.27500E+01
         0.27500E+01
         0.27500E+01
         0.27500E+01
         0.27500E+01
         0.27500E+01
         0.27500E+01
         0.27500E+01
         0.27500E+01
         0.27500E+01
         0.27500E+01
         0.27500E+01
         0.27500E+01
         0.27500E+01
         0.27500E+01
         0.27500E+01
         0.27500E+01
         0.27500E+01
         0.27500E+01
         0.27500E+01
         0.27500E+01
         0.27500E+01
         0.27500E+01
         0.27500E+01
         0.27500E+01
         0.27500E+01
         0.27500E+01
         0.27500E+01
         0.27500E+01
         0.27500E+01
         0.27500E+01
         0.27500E+01
         0.27500E+01
         0.27500E+01
         0.27500E+01
         0.27500E+01
         0.27500E+01
         0.27500E+01
         0.27500E+01
         0.27500E+01
         0.27500E+01
         0.27500E+01
         0.27500E+01
         0.27500E+01
         0.27500E+01
         0.27500E+01
         0.27500E+01
         0.27500E+01
         0.27500E+01
         0.27500E+01
         0.27500E+01
         0.27500E+01
         0.27500E+01
         0.27500E+01
         0.27500E+01
         0.27500E+01
         0.27500E+01
         0.27500E+01
         0.27500E+01
         0.27500E+01
         0.27500E+01
         0.27500E+01
         0.27500E+01
         0.27500E+01
         0.27500E+01
         0.27500E+01
         0.27500E+01
         0.27500E+01
         0.27500E+01
         0.27500E+01
         0.27500E+01
         0.27500E+01
         0.27500E+01
         0.27500E+01
         0.27500E+01
         0.27500E+01
         0.27500E+01
         0.27500E+01
         0.27500E+01
         0.27500E+01
         0.27500E+01
         0.27500E+01
         0.27500E+01
         0.27500E+01
         0.27500E+01
         0.27500E+01
         0.27500E+01
         0.27500E+01
         0.27500E+01
         0.27500E+01
         0.27500E+01
         0.27500E+01
         0.27500E+01
         0.27500E+01
         0.27500E+01
         0.27500E+01
         0.27500E+01
         0.27500E+01
         0.27500E+01
         0.27500E+01
         0.27500E+01
         0.27500E+01
         0.27500E+01
         0.27500E+01
         0.27500E+01
         0.27500E+01
         0.27500E+01
         0.27500E+01
         0.27500E+01
         0.27500E+01
         0.27500E+01
         0.27500E+01
         0.27500E+01
         0.27500E+01
         0.27500E+01
         0.27500E+01
         0.27500E+01
         0.27500E+01
         0.27500E+01
         0.27500E+01
         0.27500E+01
         0.27500E+01
         0.27500E+01
         0.27500E+01
         0.27500E+01
         0.27500E+01
         0.27500E+01
         0.27500E+01
         0.27500E+01
         0.27500E+01
         0.27500E+01
         0.27500E+01
         0.27500E+01
         0.27500E+01
         0.27500E+01
         0.27500E+01
         0.27500E+01
         0.27500E+01
         0.27500E+01
         0.27500E+01
         0.27500E+01
         0.27500E+01
         0.27500E+01
         0.27500E+01
         0.27500E+01
         0.27500E+01
         0.27500E+01
         0.27500E+01
         0.27500E+01
         0.27500E+01
         0.27500E+01
         0.27500E+01
         0.27500E+01
         0.27500E+01
         0.27500E+01
         0.27500E+01
         0.27500E+01
         0.27500E+01
         0.27500E+01
         0.27500E+01
         0.27500E+01
         0.27500E+01
         0.27500E+01
         0.27500E+01
         0.27500E+01
         0.27500E+01
         0.27500E+01
         0.27500E+01
         0.27500E+01
         0.27500E+01
         0.27500E+01
         0.27500E+01
         0.27500E+01
         0.27500E+01
         0.27500E+01
         0.27500E+01
         0.27500E+01
         0.27500E+01
         0.27500E+01
         0.27500E+01
         0.27500E+01
         0.27500E+01
         0.27500E+01
         0.27500E+01
         0.27500E+01
         0.27500E+01
         0.27500E+01
         0.27500E+01
         0.27500E+01
         0.27500E+01
         0.27500E+01
         0.27500E+01
         0.27500E+01
         0.27500E+01
         0.27500E+01
         0.27500E+01
         0.27500E+01
         0.27500E+01
         0.27500E+01
         0.27500E+01
         0.27500E+01
         0.27500E+01
         0.27500E+01
         0.27500E+01
         0.27500E+01
         0.27500E+01
         0.27500E+01
         0.27500E+01
         0.27500E+01
         0.27500E+01
         0.27500E+01
         0.27500E+01
         0.27500E+01
         0.27500E+01
         0.27500E+01
         0.27500E+01
         0.27500E+01
         0.27500E+01
         0.27500E+01
         0.27500E+01
         0.27500E+01
         0.27500E+01
         0.27500E+01
         0.27500E+01
         0.27500E+01
         0.27500E+01
         0.27500E+01
         0.27500E+01
         0.27500E+01
         0.27500E+01
         0.27500E+01
         0.27500E+01
         0.27500E+01
         0.27500E+01
         0.27500E+01
         0.27500E+01
         0.27500E+01
         0.27500E+01
         0.27500E+01
         0.27500E+01
         0.27500E+01
         0.27500E+01
         0.27500E+01
         0.27500E+01
         0.27500E+01
         0.27500E+01
         0.27500E+01
         0.27500E+01
         0.27500E+01
         0.27500E+01
         0.27500E+01
         0.27500E+01
         0.27500E+01
         0.27500E+01
         0.27500E+01
         0.27500E+01
         0.27500E+01
         0.27500E+01
         0.27500E+01
         0.27500E+01
         0.27500E+01
         0.27500E+01
         0.27500E+01
         0.27500E+01
         0.27500E+01
         0.27500E+01
         0.27500E+01
         0.27500E+01
         0.27500E+01
         0.27500E+01
         0.27500E+01
         0.27500E+01
         0.27500E+01
         0.27500E+01
         0.27500E+01
         0.27500E+01
         0.27500E+01
         0.27500E+01
         0.27500E+01
         0.27500E+01
         0.27500E+01
         0.27500E+01
         0.27500E+01
         0.27500E+01
         0.27500E+01
         0.27500E+01
         0.27500E+01
         0.27500E+01
         0.27500E+01
         0.27500E+01
         0.27500E+01
         0.27500E+01
         0.27500E+01
         0.27500E+01
         0.27500E+01
         0.27500E+01
         0.27500E+01
         0.27500E+01
         0.27500E+01
         0.27500E+01
         0.27500E+01
         0.27500E+01
         0.27500E+01
         0.27500E+01
         0.27500E+01
         0.27500E+01
         0.27500E+01
         0.27500E+01
         0.27500E+01
         0.27500E+01
         0.27500E+01
         0.27500E+01
         0.27500E+01
         0.27500E+01
         0.27500E+01
         0.27500E+01
         0.27500E+01
         0.27500E+01
         0.27500E+01
         0.27500E+01
         0.27500E+01
         0.27500E+01
         0.27500E+01
         0.27500E+01
         0.27500E+01
         0.27500E+01
         0.27500E+01
         0.27500E+01
         0.27500E+01
         0.27500E+01
         0.27500E+01
         0.27500E+01
         0.27500E+01
         0.27500E+01
         0.27500E+01
         0.27500E+01
         0.27500E+01
         0.27500E+01
         0.27500E+01
         0.27500E+01
         0.27500E+01
         0.27500E+01
         0.27500E+01
         0.27500E+01
         0.27500E+01
         0.27500E+01
         0.27500E+01
         0.27500E+01
         0.27500E+01
         0.27500E+01
         0.27500E+01
         0.27500E+01
         0.27500E+01
         0.27500E+01
         0.27500E+01
         0.27500E+01
         0.27500E+01
         0.27500E+01
         0.27500E+01
         0.27500E+01
         0.27500E+01
         0.27500E+01
         0.27500E+01
         0.27500E+01
         0.27500E+01
         0.27500E+01
         0.27500E+01
         0.27500E+01
         0.27500E+01
         0.27500E+01
         0.27500E+01
         0.27500E+01
         0.27500E+01
         0.27500E+01
         0.27500E+01
         0.27500E+01
         0.27500E+01
         0.27500E+01
         0.27500E+01
         0.27500E+01
         0.27500E+01
         0.27500E+01
         0.27500E+01
         0.27500E+01
         0.27500E+01
         0.27500E+01
         0.27500E+01
         0.27500E+01
         0.27500E+01
         0.27500E+01
         0.27500E+01
         0.27500E+01
         0.27500E+01
         0.27500E+01
         0.27500E+01
         0.27500E+01
         0.27500E+01
         0.27500E+01
         0.27500E+01
         0.27500E+01
         0.27500E+01
         0.27500E+01
         0.27500E+01
         0.27500E+01
         0.27500E+01
         0.27500E+01
         0.27500E+01
         0.27500E+01
         0.27500E+01
         0.27500E+01
         0.27500E+01
         0.27500E+01
         0.27500E+01
         0.27500E+01
         0.27500E+01
         0.27500E+01
         0.27500E+01
         0.27500E+01
         0.27500E+01
         0.27500E+01
         0.27500E+01
         0.27500E+01
         0.27500E+01
         0.27500E+01
         0.27500E+01
         0.27500E+01
         0.27500E+01
         0.27500E+01
         0.27500E+01
         0.27500E+01
         0.27500E+01
         0.27500E+01
         0.27500E+01
         0.27500E+01
         0.27500E+01
         0.27500E+01
         0.27500E+01
         0.27500E+01
         0.27500E+01
         0.27500E+01
         0.27500E+01
         0.27500E+01
         0.27500E+01
         0.27500E+01
         0.27500E+01
         0.27500E+01
         0.27500E+01
         0.27500E+01
         0.27500E+01
         0.27500E+01
         0.27500E+01
         0.27500E+01
         0.27500E+01
         0.27500E+01
         0.27500E+01
         0.27500E+01
         0.27500E+01
         0.27500E+01
         0.27500E+01
         0.27500E+01
         0.27500E+01
         0.27500E+01
         0.27500E+01
         0.27500E+01
         0.27500E+01
         0.27500E+01
         0.27500E+01
         0.27500E+01
         0.27500E+01
         0.27500E+01
         0.27500E+01
         0.27500E+01
         0.27500E+01
         0.27500E+01
         0.27500E+01
         0.27500E+01
         0.27500E+01
         0.27500E+01
         0.27500E+01
         0.27500E+01
         0.27500E+01
         0.27500E+01
         0.27500E+01
         0.27500E+01
         0.27500E+01
         0.27500E+01
         0.27500E+01
         0.27500E+01
         0.27500E+01
         0.27500E+01
         0.27500E+01
         0.27500E+01
         0.27500E+01
         0.27500E+01
         0.27500E+01
         0.27500E+01
         0.27500E+01
         0.27500E+01
         0.27500E+01
         0.27500E+01
         0.27500E+01
         0.27500E+01
         0.27500E+01
         0.27500E+01
         0.27500E+01
         0.27500E+01
         0.27500E+01
         0.27500E+01
         0.27500E+01
         0.27500E+01
         0.27500E+01
         0.27500E+01
         0.27500E+01
         0.27500E+01
         0.27500E+01
         0.27500E+01
         0.27500E+01
         0.27500E+01
         0.27500E+01
         0.27500E+01
         0.27500E+01
         0.27500E+01
         0.27500E+01
         0.27500E+01
         0.27500E+01
         0.27500E+01
         0.27500E+01
         0.27500E+01
         0.27500E+01
         0.27500E+01
         0.27500E+01
         0.27500E+01
         0.27500E+01
         0.27500E+01
         0.27500E+01
         0.27500E+01
         0.27500E+01
         0.27500E+01
         0.27500E+01
         0.27500E+01
         0.27500E+01
         0.27500E+01
         0.27500E+01
         0.27500E+01
         0.27500E+01
         0.27500E+01
         0.27500E+01
         0.27500E+01
         0.27500E+01
         0.27500E+01
         0.27500E+01
         0.27500E+01
         0.27500E+01
         0.27500E+01
         0.27500E+01
         0.27500E+01
         0.27500E+01
         0.27500E+01
         0.27500E+01
         0.27500E+01
         0.27500E+01
         0.27500E+01
         0.27500E+01
         0.27500E+01
         0.27500E+01
         0.27500E+01
         0.27500E+01
         0.27500E+01
         0.27500E+01
         0.27500E+01
         0.27500E+01
         0.27500E+01
         0.27500E+01
         0.27500E+01
         0.27500E+01
         0.27500E+01
         0.27500E+01
         0.27500E+01
         0.27500E+01
         0.27500E+01
         0.27500E+01
         0.27500E+01
         0.27500E+01
         0.27500E+01
         0.27500E+01
         0.27500E+01
         0.27500E+01
         0.27500E+01
         0.27500E+01
         0.27500E+01
         0.27500E+01
         0.27500E+01
         0.27500E+01
         0.27500E+01
         0.27500E+01
         0.27500E+01
         0.27500E+01
         0.27500E+01
         0.27500E+01
         0.27500E+01
         0.27500E+01
         0.27500E+01
         0.27500E+01
         0.27500E+01
         0.27500E+01
         0.27500E+01
         0.27500E+01
         0.27500E+01
         0.27500E+01
         0.27500E+01
         0.27500E+01
         0.27500E+01
         0.27500E+01
         0.27500E+01
         0.27500E+01
         0.27500E+01
         0.27500E+01
         0.27500E+01
         0.27500E+01
         0.27500E+01
         0.27500E+01
         0.27500E+01
         0.27500E+01
         0.27500E+01
         0.27500E+01
         0.27500E+01
         0.27500E+01
         0.27500E+01
         0.27500E+01
         0.27500E+01
         0.27500E+01
         0.27500E+01
         0.27500E+01
         0.27500E+01
         0.27500E+01
         0.27500E+01
         0.27500E+01
         0.27500E+01
         0.27500E+01
         0.27500E+01
         0.27500E+01
         0.27500E+01
         0.27500E+01
         0.27500E+01
         0.27500E+01
         0.27500E+01
         0.27500E+01
         0.27500E+01
         0.27500E+01
         0.27500E+01
         0.27500E+01
         0.27500E+01
         0.27500E+01
         0.27500E+01
         0.27500E+01
         0.27500E+01
         0.27500E+01
         0.27500E+01
         0.27500E+01
         0.27500E+01
         0.27500E+01
         0.27500E+01
         0.27500E+01
         0.27500E+01
         0.27500E+01
         0.27500E+01
         0.27500E+01
         0.27500E+01
         0.27500E+01
         0.27500E+01
         0.27500E+01
         0.27500E+01
         0.27500E+01
         0.27500E+01
         0.27500E+01
         0.27500E+01
         0.27500E+01
         0.27500E+01
         0.27500E+01
         0.27500E+01
         0.27500E+01
         0.27500E+01
         0.27500E+01
         0.27500E+01
         0.27500E+01
         0.27500E+01
         0.27500E+01
         0.27500E+01
         0.27500E+01
         0.27500E+01
         0.27500E+01
         0.27500E+01
         0.27500E+01
         0.27500E+01
         0.27500E+01
         0.27500E+01
         0.27500E+01
         0.27500E+01
         0.27500E+01
         0.27500E+01
         0.27500E+01
         0.27500E+01
         0.27500E+01
         0.27500E+01
         0.27500E+01
         0.27500E+01
         0.27500E+01
         0.27500E+01
         0.27500E+01
         0.27500E+01
         0.27500E+01
         0.27500E+01
         0.27500E+01
         0.27500E+01
         0.27500E+01
         0.27500E+01
         0.27500E+01
         0.27500E+01
         0.27500E+01
         0.27500E+01
         0.27500E+01
         0.27500E+01
         0.27500E+01
         0.27500E+01
         0.27500E+01
         0.27500E+01
         0.27500E+01
         0.27500E+01
         0.27500E+01
         0.27500E+01
         0.27500E+01
         0.27500E+01
         0.27500E+01
         0.27500E+01
         0.27500E+01
         0.27500E+01
         0.27500E+01
         0.27500E+01
         0.27500E+01
         0.27500E+01
         0.27500E+01
         0.27500E+01
         0.27500E+01
         0.27500E+01
         0.27500E+01
         0.27500E+01
         0.27500E+01
         0.27500E+01
         0.27500E+01
         0.27500E+01
         0.27500E+01
         0.27500E+01
         0.27500E+01
         0.27500E+01
         0.27500E+01
         0.27500E+01
         0.27500E+01
         0.27500E+01
         0.27500E+01
         0.27500E+01
         0.27500E+01
         0.27500E+01
         0.27500E+01
         0.27500E+01
         0.27500E+01
         0.27500E+01
         0.27500E+01
         0.27500E+01
         0.27500E+01
         0.27500E+01
         0.27500E+01
         0.27500E+01
         0.27500E+01
         0.27500E+01
         0.27500E+01
         0.27500E+01
         0.27500E+01
         0.27500E+01
         0.27500E+01
         0.27500E+01
         0.27500E+01
         0.27500E+01
         0.27500E+01
         0.27500E+01
         0.27500E+01
         0.27500E+01
         0.27500E+01
         0.27500E+01
         0.27500E+01
         0.27500E+01
         0.27500E+01
         0.27500E+01
         0.27500E+01
         0.27500E+01
         0.27500E+01
         0.27500E+01
         0.27500E+01
         0.27500E+01
         0.27500E+01
         0.27500E+01
         0.27500E+01
         0.27500E+01
         0.27500E+01
         0.27500E+01
         0.27500E+01
         0.27500E+01
         0.27500E+01
         0.27500E+01
         0.27500E+01
         0.27500E+01
         0.27500E+01
         0.27500E+01
         0.27500E+01
         0.27500E+01
         0.27500E+01
         0.27500E+01
         0.27500E+01
         0.27500E+01
         0.27500E+01
         0.27500E+01
         0.27500E+01
         0.27500E+01
         0.27500E+01
         0.27500E+01
         0.27500E+01
         0.27500E+01
         0.27500E+01
         0.27500E+01
         0.27500E+01
         0.27500E+01
         0.27500E+01
         0.27500E+01
         0.27500E+01
         0.27500E+01
         0.27500E+01
         0.27500E+01
         0.27500E+01
         0.27500E+01
         0.27500E+01
         0.27500E+01
         0.27500E+01
         0.27500E+01
  
SCALARS              physical_window_x  double 1
LOOKUP_TABLE default
         0.42419E-02
         0.35201E-02
         0.37624E-02
         0.42419E-02
         0.42417E-02
         0.35201E-02
         0.37618E-02
         0.42417E-02
         0.37624E-02
         0.37624E-02
         0.37618E-02
         0.37618E-02
         0.30086E-02
         0.32069E-02
         0.30084E-02
         0.32067E-02
         0.42419E-02
         0.32069E-02
         0.42417E-02
         0.32067E-02
         0.24180E-02
         0.29942E-02
         0.32396E-02
         0.24180E-02
         0.29933E-02
         0.32385E-02
         0.26608E-02
         0.27190E-02
         0.26608E-02
         0.27190E-02
         0.42687E-02
         0.36511E-02
         0.42687E-02
         0.42687E-02
         0.36511E-02
         0.42687E-02
         0.32069E-02
         0.29739E-02
         0.32066E-02
         0.29739E-02
         0.34652E-02
         0.32621E-02
         0.34652E-02
         0.32621E-02
         0.37123E-02
         0.32069E-02
         0.37123E-02
         0.32066E-02
         0.30844E-02
         0.30844E-02
         0.35191E-02
         0.35189E-02
         0.26925E-02
         0.26925E-02
         0.26925E-02
         0.26925E-02
         0.24643E-02
         0.27651E-02
         0.24643E-02
         0.27651E-02
         0.42687E-02
         0.35191E-02
         0.42687E-02
         0.35189E-02
         0.42687E-02
         0.42687E-02
         0.34658E-02
         0.34648E-02
         0.27274E-02
         0.31799E-02
         0.27273E-02
         0.31796E-02
         0.32396E-02
         0.32385E-02
         0.26964E-02
         0.26960E-02
         0.27828E-02
         0.27828E-02
         0.27828E-02
         0.27828E-02
         0.27004E-02
         0.31883E-02
         0.27003E-02
         0.31880E-02
         0.31883E-02
         0.31880E-02
         0.37123E-02
         0.37123E-02
         0.36245E-02
         0.36245E-02
         0.28253E-02
         0.31642E-02
         0.28253E-02
         0.31636E-02
         0.33485E-02
         0.33485E-02
         0.33485E-02
         0.33485E-02
         0.31978E-02
         0.31969E-02
         0.29849E-02
         0.32843E-02
         0.29849E-02
         0.32843E-02
         0.27274E-02
         0.31109E-02
         0.27273E-02
         0.31109E-02
         0.31799E-02
         0.31796E-02
         0.32396E-02
         0.32385E-02
         0.32396E-02
         0.32385E-02
         0.29942E-02
         0.29933E-02
         0.27190E-02
         0.27190E-02
         0.26964E-02
         0.26960E-02
         0.27828E-02
         0.27828E-02
         0.27828E-02
         0.27828E-02
         0.27004E-02
         0.27003E-02
         0.31883E-02
         0.31880E-02
         0.31883E-02
         0.31880E-02
         0.32621E-02
         0.32621E-02
         0.34652E-02
         0.34652E-02
         0.37123E-02
         0.37123E-02
         0.37123E-02
         0.37123E-02
         0.36245E-02
         0.36245E-02
         0.28253E-02
         0.28253E-02
         0.29097E-02
         0.29087E-02
         0.32389E-02
         0.32378E-02
         0.32389E-02
         0.32378E-02
         0.31978E-02
         0.31969E-02
         0.29849E-02
         0.29849E-02
         0.32843E-02
         0.32843E-02
         0.32843E-02
         0.32843E-02
         0.42420E-02
         0.35201E-02
         0.37629E-02
         0.42420E-02
         0.37629E-02
         0.37629E-02
         0.30087E-02
         0.32071E-02
         0.42420E-02
         0.32071E-02
         0.24178E-02
         0.29952E-02
         0.32407E-02
         0.26596E-02
         0.27191E-02
         0.42679E-02
         0.36502E-02
         0.42679E-02
         0.32071E-02
         0.29727E-02
         0.34648E-02
         0.32622E-02
         0.37119E-02
         0.32071E-02
         0.30833E-02
         0.35193E-02
         0.26910E-02
         0.26910E-02
         0.24638E-02
         0.27644E-02
         0.42679E-02
         0.35193E-02
         0.42679E-02
         0.34670E-02
         0.27274E-02
         0.31802E-02
         0.32407E-02
         0.26968E-02
         0.27828E-02
         0.27828E-02
         0.27005E-02
         0.31885E-02
         0.31885E-02
         0.37119E-02
         0.36244E-02
         0.28250E-02
         0.31647E-02
         0.33484E-02
         0.33484E-02
         0.31986E-02
         0.29848E-02
         0.32841E-02
         0.27274E-02
         0.31099E-02
         0.31802E-02
         0.32407E-02
         0.32407E-02
         0.29952E-02
         0.27191E-02
         0.26968E-02
         0.27828E-02
         0.27828E-02
         0.27005E-02
         0.31885E-02
         0.31885E-02
         0.32622E-02
         0.34648E-02
         0.37119E-02
         0.37119E-02
         0.36244E-02
         0.28250E-02
         0.29106E-02
         0.32401E-02
         0.32401E-02
         0.31986E-02
         0.29848E-02
         0.32841E-02
         0.32841E-02
         0.42421E-02
         0.35201E-02
         0.37634E-02
         0.42421E-02
         0.37634E-02
         0.37634E-02
         0.30089E-02
         0.32073E-02
         0.42421E-02
         0.32073E-02
         0.24177E-02
         0.29961E-02
         0.32418E-02
         0.26584E-02
         0.27191E-02
         0.42670E-02
         0.36493E-02
         0.42670E-02
         0.32073E-02
         0.29714E-02
         0.34644E-02
         0.32623E-02
         0.37115E-02
         0.32073E-02
         0.30822E-02
         0.35195E-02
         0.26896E-02
         0.26896E-02
         0.24633E-02
         0.27638E-02
         0.42670E-02
         0.35195E-02
         0.42670E-02
         0.34681E-02
         0.27275E-02
         0.31805E-02
         0.32418E-02
         0.26972E-02
         0.27828E-02
         0.27828E-02
         0.27006E-02
         0.31888E-02
         0.31888E-02
         0.37115E-02
         0.36243E-02
         0.28247E-02
         0.31652E-02
         0.33483E-02
         0.33483E-02
         0.31995E-02
         0.29847E-02
         0.32839E-02
         0.27275E-02
         0.31090E-02
         0.31805E-02
         0.32418E-02
         0.32418E-02
         0.29961E-02
         0.27191E-02
         0.26972E-02
         0.27828E-02
         0.27828E-02
         0.27006E-02
         0.31888E-02
         0.31888E-02
         0.32623E-02
         0.34644E-02
         0.37115E-02
         0.37115E-02
         0.36243E-02
         0.28247E-02
         0.29116E-02
         0.32412E-02
         0.32412E-02
         0.31995E-02
         0.29847E-02
         0.32839E-02
         0.32839E-02
         0.42423E-02
         0.35200E-02
         0.37639E-02
         0.42423E-02
         0.37639E-02
         0.37639E-02
         0.30091E-02
         0.32075E-02
         0.42423E-02
         0.32075E-02
         0.24176E-02
         0.29970E-02
         0.32428E-02
         0.26572E-02
         0.27192E-02
         0.42662E-02
         0.36483E-02
         0.42662E-02
         0.32075E-02
         0.29702E-02
         0.34639E-02
         0.32624E-02
         0.37111E-02
         0.32075E-02
         0.30811E-02
         0.35197E-02
         0.26881E-02
         0.26881E-02
         0.24628E-02
         0.27631E-02
         0.42662E-02
         0.35197E-02
         0.42662E-02
         0.34692E-02
         0.27276E-02
         0.31808E-02
         0.32428E-02
         0.26975E-02
         0.27828E-02
         0.27828E-02
         0.27007E-02
         0.31890E-02
         0.31890E-02
         0.37111E-02
         0.36242E-02
         0.28243E-02
         0.31658E-02
         0.33482E-02
         0.33482E-02
         0.32003E-02
         0.29846E-02
         0.32837E-02
         0.27276E-02
         0.31081E-02
         0.31808E-02
         0.32428E-02
         0.32428E-02
         0.29970E-02
         0.27192E-02
         0.26975E-02
         0.27828E-02
         0.27828E-02
         0.27007E-02
         0.31890E-02
         0.31890E-02
         0.32624E-02
         0.34639E-02
         0.37111E-02
         0.37111E-02
         0.36242E-02
         0.28243E-02
         0.29125E-02
         0.32423E-02
         0.32423E-02
         0.32003E-02
         0.29846E-02
         0.32837E-02
         0.32837E-02
         0.42424E-02
         0.35200E-02
         0.37644E-02
         0.42424E-02
         0.37644E-02
         0.37644E-02
         0.30093E-02
         0.32077E-02
         0.42424E-02
         0.32077E-02
         0.24174E-02
         0.29979E-02
         0.32439E-02
         0.26559E-02
         0.27192E-02
         0.42653E-02
         0.36474E-02
         0.42653E-02
         0.32077E-02
         0.29690E-02
         0.34635E-02
         0.32624E-02
         0.37108E-02
         0.32077E-02
         0.30799E-02
         0.35199E-02
         0.26867E-02
         0.26867E-02
         0.24623E-02
         0.27625E-02
         0.42653E-02
         0.35199E-02
         0.42653E-02
         0.34703E-02
         0.27276E-02
         0.31812E-02
         0.32439E-02
         0.26979E-02
         0.27828E-02
         0.27828E-02
         0.27008E-02
         0.31893E-02
         0.31893E-02
         0.37108E-02
         0.36241E-02
         0.28240E-02
         0.31663E-02
         0.33481E-02
         0.33481E-02
         0.32012E-02
         0.29844E-02
         0.32835E-02
         0.27276E-02
         0.31071E-02
         0.31812E-02
         0.32439E-02
         0.32439E-02
         0.29979E-02
         0.27192E-02
         0.26979E-02
         0.27828E-02
         0.27828E-02
         0.27008E-02
         0.31893E-02
         0.31893E-02
         0.32624E-02
         0.34635E-02
         0.37108E-02
         0.37108E-02
         0.36241E-02
         0.28240E-02
         0.29135E-02
         0.32434E-02
         0.32434E-02
         0.32012E-02
         0.29844E-02
         0.32835E-02
         0.32835E-02
         0.42425E-02
         0.35200E-02
         0.37649E-02
         0.42425E-02
         0.37649E-02
         0.37649E-02
         0.30095E-02
         0.32079E-02
         0.42425E-02
         0.32079E-02
         0.24173E-02
         0.29989E-02
         0.32450E-02
         0.26547E-02
         0.27193E-02
         0.42645E-02
         0.36465E-02
         0.42645E-02
         0.32079E-02
         0.29677E-02
         0.34631E-02
         0.32625E-02
         0.37104E-02
         0.32079E-02
         0.30788E-02
         0.35201E-02
         0.26852E-02
         0.26852E-02
         0.24618E-02
         0.27618E-02
         0.42645E-02
         0.35201E-02
         0.42645E-02
         0.34715E-02
         0.27277E-02
         0.31815E-02
         0.32450E-02
         0.26983E-02
         0.27828E-02
         0.27828E-02
         0.27009E-02
         0.31895E-02
         0.31895E-02
         0.37104E-02
         0.36239E-02
         0.28237E-02
         0.31668E-02
         0.33480E-02
         0.33480E-02
         0.32020E-02
         0.29843E-02
         0.32833E-02
         0.27277E-02
         0.31062E-02
         0.31815E-02
         0.32450E-02
         0.32450E-02
         0.29989E-02
         0.27193E-02
         0.26983E-02
         0.27828E-02
         0.27828E-02
         0.27009E-02
         0.31895E-02
         0.31895E-02
         0.32625E-02
         0.34631E-02
         0.37104E-02
         0.37104E-02
         0.36239E-02
         0.28237E-02
         0.29145E-02
         0.32445E-02
         0.32445E-02
         0.32020E-02
         0.29843E-02
         0.32833E-02
         0.32833E-02
         0.42427E-02
         0.35200E-02
         0.37654E-02
         0.42427E-02
         0.37654E-02
         0.37654E-02
         0.30097E-02
         0.32081E-02
         0.42427E-02
         0.32081E-02
         0.24171E-02
         0.29998E-02
         0.32461E-02
         0.26535E-02
         0.27193E-02
         0.42636E-02
         0.36455E-02
         0.42636E-02
         0.32081E-02
         0.29665E-02
         0.34626E-02
         0.32626E-02
         0.37100E-02
         0.32081E-02
         0.30777E-02
         0.35203E-02
         0.26838E-02
         0.26838E-02
         0.24613E-02
         0.27611E-02
         0.42636E-02
         0.35203E-02
         0.42636E-02
         0.34726E-02
         0.27278E-02
         0.31818E-02
         0.32461E-02
         0.26987E-02
         0.27827E-02
         0.27827E-02
         0.27010E-02
         0.31898E-02
         0.31898E-02
         0.37100E-02
         0.36238E-02
         0.28234E-02
         0.31673E-02
         0.33479E-02
         0.33479E-02
         0.32029E-02
         0.29842E-02
         0.32831E-02
         0.27278E-02
         0.31052E-02
         0.31818E-02
         0.32461E-02
         0.32461E-02
         0.29998E-02
         0.27193E-02
         0.26987E-02
         0.27827E-02
         0.27827E-02
         0.27010E-02
         0.31898E-02
         0.31898E-02
         0.32626E-02
         0.34626E-02
         0.37100E-02
         0.37100E-02
         0.36238E-02
         0.28234E-02
         0.29154E-02
         0.32457E-02
         0.32457E-02
         0.32029E-02
         0.29842E-02
         0.32831E-02
         0.32831E-02
         0.42428E-02
         0.35199E-02
         0.37660E-02
         0.42428E-02
         0.37660E-02
         0.37660E-02
         0.30099E-02
         0.32083E-02
         0.42428E-02
         0.32083E-02
         0.24170E-02
         0.30007E-02
         0.32471E-02
         0.26523E-02
         0.27194E-02
         0.42628E-02
         0.36446E-02
         0.42628E-02
         0.32083E-02
         0.29652E-02
         0.34622E-02
         0.32627E-02
         0.37096E-02
         0.32083E-02
         0.30766E-02
         0.35205E-02
         0.26823E-02
         0.26823E-02
         0.24608E-02
         0.27605E-02
         0.42628E-02
         0.35205E-02
         0.42628E-02
         0.34737E-02
         0.27279E-02
         0.31821E-02
         0.32471E-02
         0.26991E-02
         0.27827E-02
         0.27827E-02
         0.27011E-02
         0.31900E-02
         0.31900E-02
         0.37096E-02
         0.36237E-02
         0.28231E-02
         0.31679E-02
         0.33478E-02
         0.33478E-02
         0.32038E-02
         0.29841E-02
         0.32829E-02
         0.27279E-02
         0.31043E-02
         0.31821E-02
         0.32471E-02
         0.32471E-02
         0.30007E-02
         0.27194E-02
         0.26991E-02
         0.27827E-02
         0.27827E-02
         0.27011E-02
         0.31900E-02
         0.31900E-02
         0.32627E-02
         0.34622E-02
         0.37096E-02
         0.37096E-02
         0.36237E-02
         0.28231E-02
         0.29164E-02
         0.32468E-02
         0.32468E-02
         0.32038E-02
         0.29841E-02
         0.32829E-02
         0.32829E-02
         0.42429E-02
         0.35199E-02
         0.37665E-02
         0.42429E-02
         0.37665E-02
         0.37665E-02
         0.30101E-02
         0.32085E-02
         0.42429E-02
         0.32085E-02
         0.24168E-02
         0.30017E-02
         0.32482E-02
         0.26510E-02
         0.27194E-02
         0.42619E-02
         0.36437E-02
         0.42619E-02
         0.32085E-02
         0.29640E-02
         0.34618E-02
         0.32627E-02
         0.37092E-02
         0.32085E-02
         0.30755E-02
         0.35207E-02
         0.26808E-02
         0.26808E-02
         0.24603E-02
         0.27599E-02
         0.42619E-02
         0.35207E-02
         0.42619E-02
         0.34748E-02
         0.27279E-02
         0.31824E-02
         0.32482E-02
         0.26994E-02
         0.27827E-02
         0.27827E-02
         0.27012E-02
         0.31902E-02
         0.31902E-02
         0.37092E-02
         0.36236E-02
         0.28227E-02
         0.31684E-02
         0.33477E-02
         0.33477E-02
         0.32046E-02
         0.29840E-02
         0.32827E-02
         0.27279E-02
         0.31034E-02
         0.31824E-02
         0.32482E-02
         0.32482E-02
         0.30017E-02
         0.27194E-02
         0.26994E-02
         0.27827E-02
         0.27827E-02
         0.27012E-02
         0.31902E-02
         0.31902E-02
         0.32627E-02
         0.34618E-02
         0.37092E-02
         0.37092E-02
         0.36236E-02
         0.28227E-02
         0.29173E-02
         0.32479E-02
         0.32479E-02
         0.32046E-02
         0.29840E-02
         0.32827E-02
         0.32827E-02
         0.42431E-02
         0.35199E-02
         0.37670E-02
         0.42431E-02
         0.37670E-02
         0.37670E-02
         0.30102E-02
         0.32087E-02
         0.42431E-02
         0.32087E-02
         0.24167E-02
         0.30026E-02
         0.32493E-02
         0.26498E-02
         0.27194E-02
         0.42611E-02
         0.36427E-02
         0.42611E-02
         0.32087E-02
         0.29628E-02
         0.34613E-02
         0.32628E-02
         0.37089E-02
         0.32087E-02
         0.30744E-02
         0.35209E-02
         0.26794E-02
         0.26794E-02
         0.24598E-02
         0.27592E-02
         0.42611E-02
         0.35209E-02
         0.42611E-02
         0.34759E-02
         0.27280E-02
         0.31827E-02
         0.32493E-02
         0.26998E-02
         0.27827E-02
         0.27827E-02
         0.27013E-02
         0.31905E-02
         0.31905E-02
         0.37089E-02
         0.36235E-02
         0.28224E-02
         0.31689E-02
         0.33476E-02
         0.33476E-02
         0.32055E-02
         0.29839E-02
         0.32825E-02
         0.27280E-02
         0.31024E-02
         0.31827E-02
         0.32493E-02
         0.32493E-02
         0.30026E-02
         0.27194E-02
         0.26998E-02
         0.27827E-02
         0.27827E-02
         0.27013E-02
         0.31905E-02
         0.31905E-02
         0.32628E-02
         0.34613E-02
         0.37089E-02
         0.37089E-02
         0.36235E-02
         0.28224E-02
         0.29183E-02
         0.32490E-02
         0.32490E-02
         0.32055E-02
         0.29839E-02
         0.32825E-02
         0.32825E-02
         0.42432E-02
         0.35199E-02
         0.37675E-02
         0.42432E-02
         0.37675E-02
         0.37675E-02
         0.30104E-02
         0.32089E-02
         0.42432E-02
         0.32089E-02
         0.24166E-02
         0.30035E-02
         0.32504E-02
         0.26486E-02
         0.27195E-02
         0.42603E-02
         0.36418E-02
         0.42603E-02
         0.32089E-02
         0.29615E-02
         0.34609E-02
         0.32629E-02
         0.37085E-02
         0.32089E-02
         0.30732E-02
         0.35211E-02
         0.26779E-02
         0.26779E-02
         0.24593E-02
         0.27585E-02
         0.42603E-02
         0.35211E-02
         0.42603E-02
         0.34771E-02
         0.27281E-02
         0.31830E-02
         0.32504E-02
         0.27002E-02
         0.27827E-02
         0.27827E-02
         0.27014E-02
         0.31907E-02
         0.31907E-02
         0.37085E-02
         0.36233E-02
         0.28221E-02
         0.31694E-02
         0.33475E-02
         0.33475E-02
         0.32063E-02
         0.29838E-02
         0.32823E-02
         0.27281E-02
         0.31015E-02
         0.31830E-02
         0.32504E-02
         0.32504E-02
         0.30035E-02
         0.27195E-02
         0.27002E-02
         0.27827E-02
         0.27827E-02
         0.27014E-02
         0.31907E-02
         0.31907E-02
         0.32629E-02
         0.34609E-02
         0.37085E-02
         0.37085E-02
         0.36233E-02
         0.28221E-02
         0.29193E-02
         0.32501E-02
         0.32501E-02
         0.32063E-02
         0.29838E-02
         0.32823E-02
         0.32823E-02
         0.42433E-02
         0.35199E-02
         0.37680E-02
         0.42433E-02
         0.37680E-02
         0.37680E-02
         0.30106E-02
         0.32091E-02
         0.42433E-02
         0.32091E-02
         0.24164E-02
         0.30045E-02
         0.32514E-02
         0.26474E-02
         0.27195E-02
         0.42594E-02
         0.36409E-02
         0.42594E-02
         0.32091E-02
         0.29603E-02
         0.34605E-02
         0.32630E-02
         0.37081E-02
         0.32091E-02
         0.30721E-02
         0.35213E-02
         0.26765E-02
         0.26765E-02
         0.24588E-02
         0.27579E-02
         0.42594E-02
         0.35213E-02
         0.42594E-02
         0.34782E-02
         0.27281E-02
         0.31833E-02
         0.32514E-02
         0.27006E-02
         0.27826E-02
         0.27826E-02
         0.27015E-02
         0.31910E-02
         0.31910E-02
         0.37081E-02
         0.36232E-02
         0.28218E-02
         0.31700E-02
         0.33474E-02
         0.33474E-02
         0.32072E-02
         0.29836E-02
         0.32821E-02
         0.27281E-02
         0.31005E-02
         0.31833E-02
         0.32514E-02
         0.32514E-02
         0.30045E-02
         0.27195E-02
         0.27006E-02
         0.27826E-02
         0.27826E-02
         0.27015E-02
         0.31910E-02
         0.31910E-02
         0.32630E-02
         0.34605E-02
         0.37081E-02
         0.37081E-02
         0.36232E-02
         0.28218E-02
         0.29202E-02
         0.32512E-02
         0.32512E-02
         0.32072E-02
         0.29836E-02
         0.32821E-02
         0.32821E-02
         0.42435E-02
         0.35199E-02
         0.37685E-02
         0.42435E-02
         0.37685E-02
         0.37685E-02
         0.30108E-02
         0.32093E-02
         0.42435E-02
         0.32093E-02
         0.24163E-02
         0.30054E-02
         0.32525E-02
         0.26461E-02
         0.27196E-02
         0.42586E-02
         0.36399E-02
         0.42586E-02
         0.32093E-02
         0.29591E-02
         0.34601E-02
         0.32630E-02
         0.37077E-02
         0.32093E-02
         0.30710E-02
         0.35215E-02
         0.26750E-02
         0.26750E-02
         0.24583E-02
         0.27572E-02
         0.42586E-02
         0.35215E-02
         0.42586E-02
         0.34793E-02
         0.27282E-02
         0.31836E-02
         0.32525E-02
         0.27010E-02
         0.27826E-02
         0.27826E-02
         0.27016E-02
         0.31912E-02
         0.31912E-02
         0.37077E-02
         0.36231E-02
         0.28215E-02
         0.31705E-02
         0.33473E-02
         0.33473E-02
         0.32080E-02
         0.29835E-02
         0.32819E-02
         0.27282E-02
         0.30996E-02
         0.31836E-02
         0.32525E-02
         0.32525E-02
         0.30054E-02
         0.27196E-02
         0.27010E-02
         0.27826E-02
         0.27826E-02
         0.27016E-02
         0.31912E-02
         0.31912E-02
         0.32630E-02
         0.34601E-02
         0.37077E-02
         0.37077E-02
         0.36231E-02
         0.28215E-02
         0.29212E-02
         0.32524E-02
         0.32524E-02
         0.32080E-02
         0.29835E-02
         0.32819E-02
         0.32819E-02
         0.42436E-02
         0.35198E-02
         0.37690E-02
         0.42436E-02
         0.37690E-02
         0.37690E-02
         0.30110E-02
         0.32095E-02
         0.42436E-02
         0.32095E-02
         0.24162E-02
         0.30064E-02
         0.32536E-02
         0.26449E-02
         0.27196E-02
         0.42577E-02
         0.36390E-02
         0.42577E-02
         0.32096E-02
         0.29578E-02
         0.34596E-02
         0.32631E-02
         0.37074E-02
         0.32096E-02
         0.30699E-02
         0.35217E-02
         0.26735E-02
         0.26735E-02
         0.24578E-02
         0.27566E-02
         0.42577E-02
         0.35217E-02
         0.42577E-02
         0.34804E-02
         0.27283E-02
         0.31839E-02
         0.32536E-02
         0.27013E-02
         0.27826E-02
         0.27826E-02
         0.27017E-02
         0.31915E-02
         0.31915E-02
         0.37074E-02
         0.36230E-02
         0.28211E-02
         0.31710E-02
         0.33472E-02
         0.33472E-02
         0.32089E-02
         0.29834E-02
         0.32817E-02
         0.27283E-02
         0.30986E-02
         0.31839E-02
         0.32536E-02
         0.32536E-02
         0.30064E-02
         0.27196E-02
         0.27013E-02
         0.27826E-02
         0.27826E-02
         0.27017E-02
         0.31915E-02
         0.31915E-02
         0.32631E-02
         0.34596E-02
         0.37074E-02
         0.37074E-02
         0.36230E-02
         0.28211E-02
         0.29221E-02
         0.32535E-02
         0.32535E-02
         0.32089E-02
         0.29834E-02
         0.32817E-02
         0.32817E-02
         0.42437E-02
         0.35198E-02
         0.37695E-02
         0.42437E-02
         0.37695E-02
         0.37695E-02
         0.30112E-02
         0.32097E-02
         0.42437E-02
         0.32097E-02
         0.24160E-02
         0.30073E-02
         0.32547E-02
         0.26437E-02
         0.27197E-02
         0.42569E-02
         0.36381E-02
         0.42569E-02
         0.32098E-02
         0.29566E-02
         0.34592E-02
         0.32632E-02
         0.37070E-02
         0.32098E-02
         0.30688E-02
         0.35219E-02
         0.26721E-02
         0.26721E-02
         0.24573E-02
         0.27560E-02
         0.42569E-02
         0.35219E-02
         0.42569E-02
         0.34815E-02
         0.27284E-02
         0.31843E-02
         0.32547E-02
         0.27017E-02
         0.27826E-02
         0.27826E-02
         0.27018E-02
         0.31917E-02
         0.31917E-02
         0.37070E-02
         0.36229E-02
         0.28208E-02
         0.31716E-02
         0.33471E-02
         0.33471E-02
         0.32097E-02
         0.29833E-02
         0.32815E-02
         0.27284E-02
         0.30977E-02
         0.31843E-02
         0.32547E-02
         0.32547E-02
         0.30073E-02
         0.27197E-02
         0.27017E-02
         0.27826E-02
         0.27826E-02
         0.27018E-02
         0.31917E-02
         0.31917E-02
         0.32632E-02
         0.34592E-02
         0.37070E-02
         0.37070E-02
         0.36229E-02
         0.28208E-02
         0.29231E-02
         0.32546E-02
         0.32546E-02
         0.32097E-02
         0.29833E-02
         0.32815E-02
         0.32815E-02
         0.42439E-02
         0.35198E-02
         0.37701E-02
         0.42439E-02
         0.37701E-02
         0.37701E-02
         0.30113E-02
         0.32099E-02
         0.42439E-02
         0.32099E-02
         0.24159E-02
         0.30082E-02
         0.32558E-02
         0.26425E-02
         0.27197E-02
         0.42560E-02
         0.36371E-02
         0.42560E-02
         0.32100E-02
         0.29554E-02
         0.34588E-02
         0.32633E-02
         0.37066E-02
         0.32100E-02
         0.30677E-02
         0.35221E-02
         0.26706E-02
         0.26706E-02
         0.24568E-02
         0.27553E-02
         0.42560E-02
         0.35221E-02
         0.42560E-02
         0.34827E-02
         0.27284E-02
         0.31846E-02
         0.32558E-02
         0.27021E-02
         0.27826E-02
         0.27826E-02
         0.27019E-02
         0.31920E-02
         0.31920E-02
         0.37066E-02
         0.36227E-02
         0.28205E-02
         0.31721E-02
         0.33470E-02
         0.33470E-02
         0.32106E-02
         0.29831E-02
         0.32813E-02
         0.27284E-02
         0.30968E-02
         0.31846E-02
         0.32558E-02
         0.32558E-02
         0.30082E-02
         0.27197E-02
         0.27021E-02
         0.27826E-02
         0.27826E-02
         0.27019E-02
         0.31920E-02
         0.31920E-02
         0.32633E-02
         0.34588E-02
         0.37066E-02
         0.37066E-02
         0.36227E-02
         0.28205E-02
         0.29241E-02
         0.32557E-02
         0.32557E-02
         0.32106E-02
         0.29831E-02
         0.32813E-02
         0.32813E-02
         0.42440E-02
         0.35198E-02
         0.37706E-02
         0.42440E-02
         0.37706E-02
         0.37706E-02
         0.30115E-02
         0.32101E-02
         0.42440E-02
         0.32101E-02
         0.24158E-02
         0.30091E-02
         0.32568E-02
         0.26412E-02
         0.27198E-02
         0.42552E-02
         0.36362E-02
         0.42552E-02
         0.32102E-02
         0.29541E-02
         0.34583E-02
         0.32633E-02
         0.37062E-02
         0.32102E-02
         0.30665E-02
         0.35223E-02
         0.26692E-02
         0.26692E-02
         0.24563E-02
         0.27546E-02
         0.42552E-02
         0.35223E-02
         0.42552E-02
         0.34838E-02
         0.27285E-02
         0.31849E-02
         0.32568E-02
         0.27025E-02
         0.27826E-02
         0.27826E-02
         0.27020E-02
         0.31922E-02
         0.31922E-02
         0.37062E-02
         0.36226E-02
         0.28202E-02
         0.31726E-02
         0.33469E-02
         0.33469E-02
         0.32114E-02
         0.29830E-02
         0.32811E-02
         0.27285E-02
         0.30958E-02
         0.31849E-02
         0.32568E-02
         0.32568E-02
         0.30091E-02
         0.27198E-02
         0.27025E-02
         0.27826E-02
         0.27826E-02
         0.27020E-02
         0.31922E-02
         0.31922E-02
         0.32633E-02
         0.34583E-02
         0.37062E-02
         0.37062E-02
         0.36226E-02
         0.28202E-02
         0.29250E-02
         0.32568E-02
         0.32568E-02
         0.32114E-02
         0.29830E-02
         0.32811E-02
         0.32811E-02
         0.42441E-02
         0.35198E-02
         0.37711E-02
         0.42441E-02
         0.37711E-02
         0.37711E-02
         0.30117E-02
         0.32103E-02
         0.42441E-02
         0.32103E-02
         0.24156E-02
         0.30101E-02
         0.32579E-02
         0.26400E-02
         0.27198E-02
         0.42543E-02
         0.36353E-02
         0.42543E-02
         0.32104E-02
         0.29529E-02
         0.34579E-02
         0.32634E-02
         0.37058E-02
         0.32104E-02
         0.30654E-02
         0.35225E-02
         0.26677E-02
         0.26677E-02
         0.24558E-02
         0.27540E-02
         0.42543E-02
         0.35225E-02
         0.42543E-02
         0.34849E-02
         0.27286E-02
         0.31852E-02
         0.32579E-02
         0.27029E-02
         0.27826E-02
         0.27826E-02
         0.27021E-02
         0.31924E-02
         0.31924E-02
         0.37058E-02
         0.36225E-02
         0.28198E-02
         0.31731E-02
         0.33468E-02
         0.33468E-02
         0.32123E-02
         0.29829E-02
         0.32809E-02
         0.27286E-02
         0.30949E-02
         0.31852E-02
         0.32579E-02
         0.32579E-02
         0.30101E-02
         0.27198E-02
         0.27029E-02
         0.27826E-02
         0.27826E-02
         0.27021E-02
         0.31924E-02
         0.31924E-02
         0.32634E-02
         0.34579E-02
         0.37058E-02
         0.37058E-02
         0.36225E-02
         0.28198E-02
         0.29260E-02
         0.32579E-02
         0.32579E-02
         0.32123E-02
         0.29829E-02
         0.32809E-02
         0.32809E-02
         0.42443E-02
         0.35197E-02
         0.37716E-02
         0.42443E-02
         0.37716E-02
         0.37716E-02
         0.30119E-02
         0.32105E-02
         0.42443E-02
         0.32105E-02
         0.24155E-02
         0.30110E-02
         0.32590E-02
         0.26388E-02
         0.27199E-02
         0.42535E-02
         0.36343E-02
         0.42535E-02
         0.32106E-02
         0.29517E-02
         0.34575E-02
         0.32635E-02
         0.37055E-02
         0.32106E-02
         0.30643E-02
         0.35227E-02
         0.26663E-02
         0.26663E-02
         0.24553E-02
         0.27533E-02
         0.42535E-02
         0.35227E-02
         0.42535E-02
         0.34860E-02
         0.27286E-02
         0.31855E-02
         0.32590E-02
         0.27032E-02
         0.27826E-02
         0.27826E-02
         0.27022E-02
         0.31927E-02
         0.31927E-02
         0.37055E-02
         0.36224E-02
         0.28195E-02
         0.31737E-02
         0.33467E-02
         0.33467E-02
         0.32132E-02
         0.29828E-02
         0.32807E-02
         0.27286E-02
         0.30939E-02
         0.31855E-02
         0.32590E-02
         0.32590E-02
         0.30110E-02
         0.27199E-02
         0.27032E-02
         0.27826E-02
         0.27826E-02
         0.27022E-02
         0.31927E-02
         0.31927E-02
         0.32635E-02
         0.34575E-02
         0.37055E-02
         0.37055E-02
         0.36224E-02
         0.28195E-02
         0.29269E-02
         0.32591E-02
         0.32591E-02
         0.32132E-02
         0.29828E-02
         0.32807E-02
         0.32807E-02
         0.42444E-02
         0.35197E-02
         0.37721E-02
         0.42444E-02
         0.37721E-02
         0.37721E-02
         0.30121E-02
         0.32107E-02
         0.42444E-02
         0.32107E-02
         0.24154E-02
         0.30119E-02
         0.32601E-02
         0.26376E-02
         0.27199E-02
         0.42527E-02
         0.36334E-02
         0.42527E-02
         0.32108E-02
         0.29504E-02
         0.34571E-02
         0.32636E-02
         0.37051E-02
         0.32108E-02
         0.30632E-02
         0.35229E-02
         0.26648E-02
         0.26648E-02
         0.24552E-02
         0.27527E-02
         0.42527E-02
         0.35229E-02
         0.42527E-02
         0.34871E-02
         0.27287E-02
         0.31858E-02
         0.32601E-02
         0.27036E-02
         0.27825E-02
         0.27825E-02
         0.27023E-02
         0.31929E-02
         0.31929E-02
         0.37051E-02
         0.36223E-02
         0.28192E-02
         0.31742E-02
         0.33466E-02
         0.33466E-02
         0.32140E-02
         0.29827E-02
         0.32805E-02
         0.27287E-02
         0.30930E-02
         0.31858E-02
         0.32601E-02
         0.32601E-02
         0.30119E-02
         0.27199E-02
         0.27036E-02
         0.27825E-02
         0.27825E-02
         0.27023E-02
         0.31929E-02
         0.31929E-02
         0.32636E-02
         0.34571E-02
         0.37051E-02
         0.37051E-02
         0.36223E-02
         0.28192E-02
         0.29279E-02
         0.32602E-02
         0.32602E-02
         0.32140E-02
         0.29827E-02
         0.32805E-02
         0.32805E-02
         0.42445E-02
         0.35197E-02
         0.37726E-02
         0.42445E-02
         0.37726E-02
         0.37726E-02
         0.30123E-02
         0.32108E-02
         0.42445E-02
         0.32108E-02
         0.24152E-02
         0.30129E-02
         0.32611E-02
         0.26363E-02
         0.27200E-02
         0.42518E-02
         0.36325E-02
         0.42518E-02
         0.32110E-02
         0.29492E-02
         0.34566E-02
         0.32636E-02
         0.37047E-02
         0.32110E-02
         0.30621E-02
         0.35231E-02
         0.26633E-02
         0.26633E-02
         0.24554E-02
         0.27520E-02
         0.42518E-02
         0.35231E-02
         0.42518E-02
         0.34882E-02
         0.27288E-02
         0.31861E-02
         0.32611E-02
         0.27040E-02
         0.27825E-02
         0.27825E-02
         0.27024E-02
         0.31932E-02
         0.31932E-02
         0.37047E-02
         0.36222E-02
         0.28189E-02
         0.31747E-02
         0.33465E-02
         0.33465E-02
         0.32149E-02
         0.29826E-02
         0.32803E-02
         0.27288E-02
         0.30921E-02
         0.31861E-02
         0.32611E-02
         0.32611E-02
         0.30129E-02
         0.27200E-02
         0.27040E-02
         0.27825E-02
         0.27825E-02
         0.27024E-02
         0.31932E-02
         0.31932E-02
         0.32636E-02
         0.34566E-02
         0.37047E-02
         0.37047E-02
         0.36222E-02
         0.28189E-02
         0.29289E-02
         0.32613E-02
         0.32613E-02
         0.32149E-02
         0.29826E-02
         0.32803E-02
         0.32803E-02
         0.42447E-02
         0.35196E-02
         0.37732E-02
         0.42447E-02
         0.37732E-02
         0.37732E-02
         0.30125E-02
         0.32111E-02
         0.42447E-02
         0.32111E-02
         0.24151E-02
         0.30138E-02
         0.32622E-02
         0.26351E-02
         0.27200E-02
         0.42510E-02
         0.36315E-02
         0.42510E-02
         0.32112E-02
         0.29480E-02
         0.34562E-02
         0.32637E-02
         0.37043E-02
         0.32112E-02
         0.30610E-02
         0.35233E-02
         0.26619E-02
         0.26619E-02
         0.24557E-02
         0.27514E-02
         0.42510E-02
         0.35233E-02
         0.42510E-02
         0.34894E-02
         0.27289E-02
         0.31864E-02
         0.32622E-02
         0.27044E-02
         0.27825E-02
         0.27825E-02
         0.27025E-02
         0.31934E-02
         0.31934E-02
         0.37043E-02
         0.36220E-02
         0.28186E-02
         0.31753E-02
         0.33464E-02
         0.33464E-02
         0.32157E-02
         0.29824E-02
         0.32801E-02
         0.27289E-02
         0.30911E-02
         0.31864E-02
         0.32622E-02
         0.32622E-02
         0.30138E-02
         0.27200E-02
         0.27044E-02
         0.27825E-02
         0.27825E-02
         0.27025E-02
         0.31934E-02
         0.31934E-02
         0.32637E-02
         0.34562E-02
         0.37043E-02
         0.37043E-02
         0.36220E-02
         0.28186E-02
         0.29298E-02
         0.32624E-02
         0.32624E-02
         0.32157E-02
         0.29824E-02
         0.32801E-02
         0.32801E-02
         0.42448E-02
         0.35196E-02
         0.37737E-02
         0.42448E-02
         0.37737E-02
         0.37737E-02
         0.30126E-02
         0.32112E-02
         0.42448E-02
         0.32112E-02
         0.24150E-02
         0.30147E-02
         0.32633E-02
         0.26339E-02
         0.27200E-02
         0.42501E-02
         0.36306E-02
         0.42501E-02
         0.32114E-02
         0.29467E-02
         0.34558E-02
         0.32638E-02
         0.37039E-02
         0.32114E-02
         0.30598E-02
         0.35235E-02
         0.26604E-02
         0.26604E-02
         0.24559E-02
         0.27507E-02
         0.42501E-02
         0.35235E-02
         0.42501E-02
         0.34905E-02
         0.27289E-02
         0.31867E-02
         0.32633E-02
         0.27048E-02
         0.27825E-02
         0.27825E-02
         0.27026E-02
         0.31937E-02
         0.31937E-02
         0.37039E-02
         0.36219E-02
         0.28183E-02
         0.31758E-02
         0.33463E-02
         0.33463E-02
         0.32166E-02
         0.29823E-02
         0.32799E-02
         0.27289E-02
         0.30902E-02
         0.31867E-02
         0.32633E-02
         0.32633E-02
         0.30147E-02
         0.27200E-02
         0.27048E-02
         0.27825E-02
         0.27825E-02
         0.27026E-02
         0.31937E-02
         0.31937E-02
         0.32638E-02
         0.34558E-02
         0.37039E-02
         0.37039E-02
         0.36219E-02
         0.28183E-02
         0.29308E-02
         0.32635E-02
         0.32635E-02
         0.32166E-02
         0.29823E-02
         0.32799E-02
         0.32799E-02
         0.42448E-02
         0.35196E-02
         0.37737E-02
         0.42448E-02
         0.37737E-02
         0.37737E-02
         0.30126E-02
         0.32112E-02
         0.42448E-02
         0.32112E-02
         0.24148E-02
         0.30147E-02
         0.32633E-02
         0.26327E-02
         0.27200E-02
         0.42493E-02
         0.36297E-02
         0.42493E-02
         0.32114E-02
         0.29455E-02
         0.34553E-02
         0.32638E-02
         0.37036E-02
         0.32114E-02
         0.30587E-02
         0.35235E-02
         0.26590E-02
         0.26590E-02
         0.24559E-02
         0.27501E-02
         0.42493E-02
         0.35235E-02
         0.42493E-02
         0.34905E-02
         0.27289E-02
         0.31867E-02
         0.32633E-02
         0.27048E-02
         0.27825E-02
         0.27825E-02
         0.27026E-02
         0.31937E-02
         0.31937E-02
         0.37036E-02
         0.36218E-02
         0.28180E-02
         0.31758E-02
         0.33462E-02
         0.33462E-02
         0.32166E-02
         0.29822E-02
         0.32797E-02
         0.27289E-02
         0.30892E-02
         0.31867E-02
         0.32633E-02
         0.32633E-02
         0.30147E-02
         0.27200E-02
         0.27048E-02
         0.27825E-02
         0.27825E-02
         0.27026E-02
         0.31937E-02
         0.31937E-02
         0.32638E-02
         0.34553E-02
         0.37036E-02
         0.37036E-02
         0.36218E-02
         0.28180E-02
         0.29308E-02
         0.32635E-02
         0.32635E-02
         0.32166E-02
         0.29822E-02
         0.32797E-02
         0.32797E-02
  
SCALARS              physical_window_y  double 1
LOOKUP_TABLE default
         0.43155E-02
         0.43155E-02
         0.43155E-02
         0.43155E-02
         0.43155E-02
         0.43155E-02
         0.43155E-02
         0.43155E-02
         0.34883E-02
         0.34883E-02
         0.34882E-02
         0.34882E-02
         0.32826E-02
         0.32142E-02
         0.32826E-02
         0.32142E-02
         0.37863E-02
         0.31884E-02
         0.37863E-02
         0.31884E-02
         0.27172E-02
         0.33887E-02
         0.37164E-02
         0.27172E-02
         0.33887E-02
         0.37164E-02
         0.27582E-02
         0.28966E-02
         0.27582E-02
         0.28954E-02
         0.37007E-02
         0.35859E-02
         0.37863E-02
         0.37007E-02
         0.35824E-02
         0.37863E-02
         0.29875E-02
         0.29875E-02
         0.29867E-02
         0.29867E-02
         0.28561E-02
         0.26860E-02
         0.28556E-02
         0.26852E-02
         0.29518E-02
         0.28068E-02
         0.29517E-02
         0.28066E-02
         0.29975E-02
         0.29949E-02
         0.37007E-02
         0.37007E-02
         0.28693E-02
         0.28693E-02
         0.28693E-02
         0.28693E-02
         0.27602E-02
         0.26193E-02
         0.27602E-02
         0.26193E-02
         0.37007E-02
         0.37007E-02
         0.37007E-02
         0.37007E-02
         0.37685E-02
         0.37665E-02
         0.37685E-02
         0.37665E-02
         0.30230E-02
         0.37003E-02
         0.30229E-02
         0.37003E-02
         0.37164E-02
         0.37164E-02
         0.31934E-02
         0.31921E-02
         0.32777E-02
         0.32771E-02
         0.32777E-02
         0.32771E-02
         0.27006E-02
         0.25920E-02
         0.27006E-02
         0.25920E-02
         0.25916E-02
         0.25916E-02
         0.29715E-02
         0.29715E-02
         0.29715E-02
         0.29715E-02
         0.26477E-02
         0.29102E-02
         0.26477E-02
         0.29102E-02
         0.34085E-02
         0.34085E-02
         0.35350E-02
         0.35350E-02
         0.35350E-02
         0.35350E-02
         0.29766E-02
         0.32272E-02
         0.29763E-02
         0.32254E-02
         0.29087E-02
         0.29835E-02
         0.29087E-02
         0.29825E-02
         0.37003E-02
         0.37003E-02
         0.37164E-02
         0.37164E-02
         0.37164E-02
         0.37164E-02
         0.33887E-02
         0.33887E-02
         0.28966E-02
         0.28954E-02
         0.31934E-02
         0.31921E-02
         0.32777E-02
         0.32771E-02
         0.32777E-02
         0.32771E-02
         0.27006E-02
         0.27006E-02
         0.25920E-02
         0.25920E-02
         0.25916E-02
         0.25916E-02
         0.26860E-02
         0.26852E-02
         0.28561E-02
         0.28556E-02
         0.29518E-02
         0.29517E-02
         0.29715E-02
         0.29715E-02
         0.29715E-02
         0.29715E-02
         0.26477E-02
         0.26477E-02
         0.27685E-02
         0.27685E-02
         0.34085E-02
         0.34085E-02
         0.35350E-02
         0.35350E-02
         0.35350E-02
         0.35350E-02
         0.29766E-02
         0.29763E-02
         0.31381E-02
         0.31368E-02
         0.31381E-02
         0.31368E-02
         0.43153E-02
         0.43153E-02
         0.43153E-02
         0.43153E-02
         0.34883E-02
         0.34883E-02
         0.32812E-02
         0.32132E-02
         0.37858E-02
         0.31880E-02
         0.27155E-02
         0.33883E-02
         0.37163E-02
         0.27535E-02
         0.28978E-02
         0.37004E-02
         0.35894E-02
         0.37858E-02
         0.29882E-02
         0.29882E-02
         0.28566E-02
         0.26867E-02
         0.29519E-02
         0.28071E-02
         0.30001E-02
         0.37004E-02
         0.28667E-02
         0.28667E-02
         0.27589E-02
         0.26183E-02
         0.37004E-02
         0.37004E-02
         0.37706E-02
         0.37706E-02
         0.30232E-02
         0.36991E-02
         0.37163E-02
         0.31947E-02
         0.32784E-02
         0.32784E-02
         0.27006E-02
         0.25920E-02
         0.25909E-02
         0.29715E-02
         0.29715E-02
         0.26476E-02
         0.29101E-02
         0.34078E-02
         0.35344E-02
         0.35344E-02
         0.29769E-02
         0.32290E-02
         0.29059E-02
         0.29845E-02
         0.36991E-02
         0.37163E-02
         0.37163E-02
         0.33883E-02
         0.28978E-02
         0.31947E-02
         0.32784E-02
         0.32784E-02
         0.27006E-02
         0.25920E-02
         0.25909E-02
         0.26867E-02
         0.28566E-02
         0.29519E-02
         0.29715E-02
         0.29715E-02
         0.26476E-02
         0.27685E-02
         0.34078E-02
         0.35344E-02
         0.35344E-02
         0.29769E-02
         0.31395E-02
         0.31395E-02
         0.43150E-02
         0.43150E-02
         0.43150E-02
         0.43150E-02
         0.34884E-02
         0.34884E-02
         0.32798E-02
         0.32122E-02
         0.37853E-02
         0.31876E-02
         0.27137E-02
         0.33879E-02
         0.37162E-02
         0.27488E-02
         0.28990E-02
         0.37001E-02
         0.35930E-02
         0.37853E-02
         0.29889E-02
         0.29889E-02
         0.28571E-02
         0.26875E-02
         0.29521E-02
         0.28074E-02
         0.30027E-02
         0.37001E-02
         0.28641E-02
         0.28641E-02
         0.27576E-02
         0.26173E-02
         0.37001E-02
         0.37001E-02
         0.37727E-02
         0.37727E-02
         0.30234E-02
         0.36979E-02
         0.37162E-02
         0.31960E-02
         0.32790E-02
         0.32790E-02
         0.27006E-02
         0.25920E-02
         0.25902E-02
         0.29715E-02
         0.29715E-02
         0.26476E-02
         0.29100E-02
         0.34071E-02
         0.35339E-02
         0.35339E-02
         0.29772E-02
         0.32307E-02
         0.29032E-02
         0.29855E-02
         0.36979E-02
         0.37162E-02
         0.37162E-02
         0.33879E-02
         0.28990E-02
         0.31960E-02
         0.32790E-02
         0.32790E-02
         0.27006E-02
         0.25920E-02
         0.25902E-02
         0.26875E-02
         0.28571E-02
         0.29521E-02
         0.29715E-02
         0.29715E-02
         0.26476E-02
         0.27684E-02
         0.34071E-02
         0.35339E-02
         0.35339E-02
         0.29772E-02
         0.31408E-02
         0.31408E-02
         0.43148E-02
         0.43148E-02
         0.43148E-02
         0.43148E-02
         0.34885E-02
         0.34885E-02
         0.32783E-02
         0.32112E-02
         0.37849E-02
         0.31872E-02
         0.27120E-02
         0.33875E-02
         0.37161E-02
         0.27441E-02
         0.29003E-02
         0.36998E-02
         0.35965E-02
         0.37849E-02
         0.29896E-02
         0.29896E-02
         0.28575E-02
         0.26882E-02
         0.29522E-02
         0.28077E-02
         0.30053E-02
         0.36998E-02
         0.28615E-02
         0.28615E-02
         0.27563E-02
         0.26163E-02
         0.36998E-02
         0.36998E-02
         0.37747E-02
         0.37747E-02
         0.30236E-02
         0.36967E-02
         0.37161E-02
         0.31973E-02
         0.32796E-02
         0.32796E-02
         0.27006E-02
         0.25920E-02
         0.25895E-02
         0.29714E-02
         0.29714E-02
         0.26475E-02
         0.29099E-02
         0.34063E-02
         0.35333E-02
         0.35333E-02
         0.29775E-02
         0.32325E-02
         0.29004E-02
         0.29865E-02
         0.36967E-02
         0.37161E-02
         0.37161E-02
         0.33875E-02
         0.29003E-02
         0.31973E-02
         0.32796E-02
         0.32796E-02
         0.27006E-02
         0.25920E-02
         0.25895E-02
         0.26882E-02
         0.28575E-02
         0.29522E-02
         0.29714E-02
         0.29714E-02
         0.26475E-02
         0.27684E-02
         0.34063E-02
         0.35333E-02
         0.35333E-02
         0.29775E-02
         0.31422E-02
         0.31422E-02
         0.43145E-02
         0.43145E-02
         0.43145E-02
         0.43145E-02
         0.34886E-02
         0.34886E-02
         0.32769E-02
         0.32102E-02
         0.37844E-02
         0.31868E-02
         0.27103E-02
         0.33871E-02
         0.37160E-02
         0.27394E-02
         0.29015E-02
         0.36995E-02
         0.36000E-02
         0.37844E-02
         0.29903E-02
         0.29903E-02
         0.28580E-02
         0.26890E-02
         0.29523E-02
         0.28079E-02
         0.30079E-02
         0.36995E-02
         0.28589E-02
         0.28589E-02
         0.27550E-02
         0.26152E-02
         0.36995E-02
         0.36995E-02
         0.37768E-02
         0.37768E-02
         0.30238E-02
         0.36956E-02
         0.37160E-02
         0.31986E-02
         0.32802E-02
         0.32802E-02
         0.27006E-02
         0.25920E-02
         0.25887E-02
         0.29714E-02
         0.29714E-02
         0.26475E-02
         0.29098E-02
         0.34056E-02
         0.35327E-02
         0.35327E-02
         0.29778E-02
         0.32342E-02
         0.28977E-02
         0.29875E-02
         0.36956E-02
         0.37160E-02
         0.37160E-02
         0.33871E-02
         0.29015E-02
         0.31986E-02
         0.32802E-02
         0.32802E-02
         0.27006E-02
         0.25920E-02
         0.25887E-02
         0.26890E-02
         0.28580E-02
         0.29523E-02
         0.29714E-02
         0.29714E-02
         0.26475E-02
         0.27683E-02
         0.34056E-02
         0.35327E-02
         0.35327E-02
         0.29778E-02
         0.31435E-02
         0.31435E-02
         0.43143E-02
         0.43143E-02
         0.43143E-02
         0.43143E-02
         0.34887E-02
         0.34887E-02
         0.32755E-02
         0.32091E-02
         0.37839E-02
         0.31864E-02
         0.27086E-02
         0.33867E-02
         0.37159E-02
         0.27347E-02
         0.29027E-02
         0.36991E-02
         0.36036E-02
         0.37839E-02
         0.29920E-02
         0.29920E-02
         0.28585E-02
         0.26897E-02
         0.29525E-02
         0.28082E-02
         0.30105E-02
         0.36991E-02
         0.28563E-02
         0.28563E-02
         0.27537E-02
         0.26142E-02
         0.36991E-02
         0.36991E-02
         0.37789E-02
         0.37789E-02
         0.30240E-02
         0.36944E-02
         0.37159E-02
         0.31999E-02
         0.32808E-02
         0.32808E-02
         0.27006E-02
         0.25920E-02
         0.25880E-02
         0.29714E-02
         0.29714E-02
         0.26474E-02
         0.29097E-02
         0.34049E-02
         0.35322E-02
         0.35322E-02
         0.29781E-02
         0.32360E-02
         0.28949E-02
         0.29885E-02
         0.36944E-02
         0.37159E-02
         0.37159E-02
         0.33867E-02
         0.29027E-02
         0.31999E-02
         0.32808E-02
         0.32808E-02
         0.27006E-02
         0.25920E-02
         0.25880E-02
         0.26897E-02
         0.28585E-02
         0.29525E-02
         0.29714E-02
         0.29714E-02
         0.26474E-02
         0.27683E-02
         0.34049E-02
         0.35322E-02
         0.35322E-02
         0.29781E-02
         0.31449E-02
         0.31449E-02
         0.43140E-02
         0.43140E-02
         0.43140E-02
         0.43140E-02
         0.34888E-02
         0.34888E-02
         0.32740E-02
         0.32081E-02
         0.37834E-02
         0.31860E-02
         0.27069E-02
         0.33863E-02
         0.37158E-02
         0.27299E-02
         0.29039E-02
         0.36988E-02
         0.36071E-02
         0.37834E-02
         0.29946E-02
         0.29946E-02
         0.28589E-02
         0.26905E-02
         0.29526E-02
         0.28085E-02
         0.30131E-02
         0.36988E-02
         0.28538E-02
         0.28538E-02
         0.27524E-02
         0.26132E-02
         0.36988E-02
         0.36988E-02
         0.37809E-02
         0.37809E-02
         0.30241E-02
         0.36932E-02
         0.37158E-02
         0.32012E-02
         0.32814E-02
         0.32814E-02
         0.27006E-02
         0.25920E-02
         0.25873E-02
         0.29714E-02
         0.29714E-02
         0.26473E-02
         0.29097E-02
         0.34041E-02
         0.35316E-02
         0.35316E-02
         0.29784E-02
         0.32378E-02
         0.28921E-02
         0.29895E-02
         0.36932E-02
         0.37158E-02
         0.37158E-02
         0.33863E-02
         0.29039E-02
         0.32012E-02
         0.32814E-02
         0.32814E-02
         0.27006E-02
         0.25920E-02
         0.25873E-02
         0.26905E-02
         0.28589E-02
         0.29526E-02
         0.29714E-02
         0.29714E-02
         0.26473E-02
         0.27683E-02
         0.34041E-02
         0.35316E-02
         0.35316E-02
         0.29784E-02
         0.31463E-02
         0.31463E-02
         0.43138E-02
         0.43138E-02
         0.43138E-02
         0.43138E-02
         0.34888E-02
         0.34888E-02
         0.32726E-02
         0.32071E-02
         0.37830E-02
         0.31856E-02
         0.27051E-02
         0.33859E-02
         0.37157E-02
         0.27252E-02
         0.29051E-02
         0.36985E-02
         0.36106E-02
         0.37830E-02
         0.29972E-02
         0.29972E-02
         0.28594E-02
         0.26912E-02
         0.29528E-02
         0.28087E-02
         0.30156E-02
         0.36985E-02
         0.28512E-02
         0.28512E-02
         0.27512E-02
         0.26122E-02
         0.36985E-02
         0.36985E-02
         0.37830E-02
         0.37830E-02
         0.30243E-02
         0.36920E-02
         0.37157E-02
         0.32025E-02
         0.32821E-02
         0.32821E-02
         0.27006E-02
         0.25920E-02
         0.25866E-02
         0.29714E-02
         0.29714E-02
         0.26473E-02
         0.29096E-02
         0.34034E-02
         0.35310E-02
         0.35310E-02
         0.29787E-02
         0.32396E-02
         0.28894E-02
         0.29905E-02
         0.36920E-02
         0.37157E-02
         0.37157E-02
         0.33859E-02
         0.29051E-02
         0.32025E-02
         0.32821E-02
         0.32821E-02
         0.27006E-02
         0.25920E-02
         0.25866E-02
         0.26912E-02
         0.28594E-02
         0.29528E-02
         0.29714E-02
         0.29714E-02
         0.26473E-02
         0.27682E-02
         0.34034E-02
         0.35310E-02
         0.35310E-02
         0.29787E-02
         0.31476E-02
         0.31476E-02
         0.43135E-02
         0.43135E-02
         0.43135E-02
         0.43135E-02
         0.34889E-02
         0.34889E-02
         0.32712E-02
         0.32061E-02
         0.37825E-02
         0.31852E-02
         0.27034E-02
         0.33856E-02
         0.37156E-02
         0.27205E-02
         0.29063E-02
         0.36982E-02
         0.36142E-02
         0.37851E-02
         0.29998E-02
         0.29998E-02
         0.28599E-02
         0.26920E-02
         0.29529E-02
         0.28090E-02
         0.30182E-02
         0.36982E-02
         0.28486E-02
         0.28486E-02
         0.27499E-02
         0.26112E-02
         0.36982E-02
         0.36982E-02
         0.37851E-02
         0.37851E-02
         0.30245E-02
         0.36908E-02
         0.37156E-02
         0.32038E-02
         0.32827E-02
         0.32827E-02
         0.27006E-02
         0.25920E-02
         0.25859E-02
         0.29714E-02
         0.29714E-02
         0.26472E-02
         0.29095E-02
         0.34027E-02
         0.35304E-02
         0.35304E-02
         0.29790E-02
         0.32413E-02
         0.28866E-02
         0.29915E-02
         0.36908E-02
         0.37156E-02
         0.37156E-02
         0.33856E-02
         0.29063E-02
         0.32038E-02
         0.32827E-02
         0.32827E-02
         0.27006E-02
         0.25920E-02
         0.25859E-02
         0.26920E-02
         0.28599E-02
         0.29529E-02
         0.29714E-02
         0.29714E-02
         0.26472E-02
         0.27682E-02
         0.34027E-02
         0.35304E-02
         0.35304E-02
         0.29790E-02
         0.31490E-02
         0.31490E-02
         0.43133E-02
         0.43133E-02
         0.43133E-02
         0.43133E-02
         0.34890E-02
         0.34890E-02
         0.32698E-02
         0.32051E-02
         0.37820E-02
         0.31848E-02
         0.27017E-02
         0.33851E-02
         0.37155E-02
         0.27158E-02
         0.29075E-02
         0.36979E-02
         0.36177E-02
         0.37871E-02
         0.30024E-02
         0.30024E-02
         0.28603E-02
         0.26927E-02
         0.29530E-02
         0.28093E-02
         0.30208E-02
         0.36979E-02
         0.28460E-02
         0.28460E-02
         0.27486E-02
         0.26101E-02
         0.36979E-02
         0.36979E-02
         0.37871E-02
         0.37871E-02
         0.30247E-02
         0.36896E-02
         0.37155E-02
         0.32051E-02
         0.32833E-02
         0.32833E-02
         0.27006E-02
         0.25920E-02
         0.25851E-02
         0.29714E-02
         0.29714E-02
         0.26472E-02
         0.29094E-02
         0.34019E-02
         0.35299E-02
         0.35299E-02
         0.29793E-02
         0.32431E-02
         0.28838E-02
         0.29925E-02
         0.36896E-02
         0.37155E-02
         0.37155E-02
         0.33851E-02
         0.29075E-02
         0.32051E-02
         0.32833E-02
         0.32833E-02
         0.27006E-02
         0.25920E-02
         0.25851E-02
         0.26927E-02
         0.28603E-02
         0.29530E-02
         0.29714E-02
         0.29714E-02
         0.26472E-02
         0.27681E-02
         0.34019E-02
         0.35299E-02
         0.35299E-02
         0.29793E-02
         0.31503E-02
         0.31503E-02
         0.43130E-02
         0.43130E-02
         0.43130E-02
         0.43130E-02
         0.34891E-02
         0.34891E-02
         0.32683E-02
         0.32041E-02
         0.37816E-02
         0.31844E-02
         0.27000E-02
         0.33848E-02
         0.37154E-02
         0.27111E-02
         0.29087E-02
         0.36976E-02
         0.36213E-02
         0.37892E-02
         0.30050E-02
         0.30050E-02
         0.28608E-02
         0.26935E-02
         0.29532E-02
         0.28096E-02
         0.30234E-02
         0.36976E-02
         0.28434E-02
         0.28434E-02
         0.27472E-02
         0.26091E-02
         0.36976E-02
         0.36976E-02
         0.37892E-02
         0.37892E-02
         0.30249E-02
         0.36885E-02
         0.37154E-02
         0.32064E-02
         0.32839E-02
         0.32839E-02
         0.27006E-02
         0.25920E-02
         0.25844E-02
         0.29714E-02
         0.29714E-02
         0.26471E-02
         0.29094E-02
         0.34012E-02
         0.35293E-02
         0.35293E-02
         0.29797E-02
         0.32449E-02
         0.28811E-02
         0.29935E-02
         0.36885E-02
         0.37154E-02
         0.37154E-02
         0.33848E-02
         0.29087E-02
         0.32064E-02
         0.32839E-02
         0.32839E-02
         0.27006E-02
         0.25920E-02
         0.25844E-02
         0.26935E-02
         0.28608E-02
         0.29532E-02
         0.29714E-02
         0.29714E-02
         0.26471E-02
         0.27681E-02
         0.34012E-02
         0.35293E-02
         0.35293E-02
         0.29797E-02
         0.31517E-02
         0.31517E-02
         0.43128E-02
         0.43128E-02
         0.43128E-02
         0.43128E-02
         0.34892E-02
         0.34892E-02
         0.32669E-02
         0.32031E-02
         0.37811E-02
         0.31840E-02
         0.26982E-02
         0.33844E-02
         0.37152E-02
         0.27063E-02
         0.29099E-02
         0.36973E-02
         0.36248E-02
         0.37913E-02
         0.30076E-02
         0.30076E-02
         0.28613E-02
         0.26942E-02
         0.29533E-02
         0.28099E-02
         0.30260E-02
         0.36973E-02
         0.28408E-02
         0.28408E-02
         0.27460E-02
         0.26081E-02
         0.36973E-02
         0.36973E-02
         0.37913E-02
         0.37913E-02
         0.30250E-02
         0.36873E-02
         0.37152E-02
         0.32077E-02
         0.32845E-02
         0.32845E-02
         0.27006E-02
         0.25920E-02
         0.25837E-02
         0.29714E-02
         0.29714E-02
         0.26471E-02
         0.29093E-02
         0.34005E-02
         0.35287E-02
         0.35287E-02
         0.29800E-02
         0.32467E-02
         0.28783E-02
         0.29945E-02
         0.36873E-02
         0.37152E-02
         0.37152E-02
         0.33844E-02
         0.29099E-02
         0.32077E-02
         0.32845E-02
         0.32845E-02
         0.27006E-02
         0.25920E-02
         0.25837E-02
         0.26942E-02
         0.28613E-02
         0.29533E-02
         0.29714E-02
         0.29714E-02
         0.26471E-02
         0.27681E-02
         0.34005E-02
         0.35287E-02
         0.35287E-02
         0.29800E-02
         0.31530E-02
         0.31530E-02
         0.43125E-02
         0.43125E-02
         0.43125E-02
         0.43125E-02
         0.34893E-02
         0.34893E-02
         0.32655E-02
         0.32021E-02
         0.37806E-02
         0.31836E-02
         0.26965E-02
         0.33840E-02
         0.37151E-02
         0.27016E-02
         0.29111E-02
         0.36969E-02
         0.36283E-02
         0.37933E-02
         0.30102E-02
         0.30102E-02
         0.28617E-02
         0.26950E-02
         0.29535E-02
         0.28101E-02
         0.30286E-02
         0.36969E-02
         0.28382E-02
         0.28382E-02
         0.27447E-02
         0.26071E-02
         0.36969E-02
         0.36969E-02
         0.37933E-02
         0.37933E-02
         0.30252E-02
         0.36861E-02
         0.37151E-02
         0.32090E-02
         0.32852E-02
         0.32852E-02
         0.27006E-02
         0.25920E-02
         0.25830E-02
         0.29714E-02
         0.29714E-02
         0.26470E-02
         0.29092E-02
         0.33997E-02
         0.35282E-02
         0.35282E-02
         0.29803E-02
         0.32484E-02
         0.28755E-02
         0.29955E-02
         0.36861E-02
         0.37151E-02
         0.37151E-02
         0.33840E-02
         0.29111E-02
         0.32090E-02
         0.32852E-02
         0.32852E-02
         0.27006E-02
         0.25920E-02
         0.25830E-02
         0.26950E-02
         0.28617E-02
         0.29535E-02
         0.29714E-02
         0.29714E-02
         0.26470E-02
         0.27680E-02
         0.33997E-02
         0.35282E-02
         0.35282E-02
         0.29803E-02
         0.31544E-02
         0.31544E-02
         0.43123E-02
         0.43123E-02
         0.43123E-02
         0.43123E-02
         0.34893E-02
         0.34893E-02
         0.32640E-02
         0.32011E-02
         0.37801E-02
         0.31832E-02
         0.26948E-02
         0.33836E-02
         0.37150E-02
         0.26969E-02
         0.29123E-02
         0.36966E-02
         0.36319E-02
         0.37954E-02
         0.30128E-02
         0.30128E-02
         0.28622E-02
         0.26957E-02
         0.29536E-02
         0.28104E-02
         0.30312E-02
         0.36966E-02
         0.28357E-02
         0.28357E-02
         0.27434E-02
         0.26061E-02
         0.36966E-02
         0.36966E-02
         0.37954E-02
         0.37954E-02
         0.30254E-02
         0.36849E-02
         0.37150E-02
         0.32103E-02
         0.32858E-02
         0.32858E-02
         0.27006E-02
         0.25920E-02
         0.25823E-02
         0.29714E-02
         0.29714E-02
         0.26470E-02
         0.29091E-02
         0.33990E-02
         0.35276E-02
         0.35276E-02
         0.29806E-02
         0.32502E-02
         0.28728E-02
         0.29965E-02
         0.36849E-02
         0.37150E-02
         0.37150E-02
         0.33836E-02
         0.29123E-02
         0.32103E-02
         0.32858E-02
         0.32858E-02
         0.27006E-02
         0.25920E-02
         0.25823E-02
         0.26957E-02
         0.28622E-02
         0.29536E-02
         0.29714E-02
         0.29714E-02
         0.26470E-02
         0.27680E-02
         0.33990E-02
         0.35276E-02
         0.35276E-02
         0.29806E-02
         0.31557E-02
         0.31557E-02
         0.43120E-02
         0.43120E-02
         0.43120E-02
         0.43120E-02
         0.34894E-02
         0.34894E-02
         0.32626E-02
         0.32001E-02
         0.37797E-02
         0.31828E-02
         0.26931E-02
         0.33832E-02
         0.37149E-02
         0.26922E-02
         0.29135E-02
         0.36963E-02
         0.36354E-02
         0.37975E-02
         0.30154E-02
         0.30154E-02
         0.28627E-02
         0.26965E-02
         0.29537E-02
         0.28107E-02
         0.30338E-02
         0.36963E-02
         0.28331E-02
         0.28331E-02
         0.27421E-02
         0.26051E-02
         0.36963E-02
         0.36963E-02
         0.37975E-02
         0.37975E-02
         0.30256E-02
         0.36838E-02
         0.37149E-02
         0.32116E-02
         0.32864E-02
         0.32864E-02
         0.27006E-02
         0.25920E-02
         0.25815E-02
         0.29714E-02
         0.29714E-02
         0.26469E-02
         0.29090E-02
         0.33983E-02
         0.35270E-02
         0.35270E-02
         0.29809E-02
         0.32519E-02
         0.28700E-02
         0.29975E-02
         0.36838E-02
         0.37149E-02
         0.37149E-02
         0.33832E-02
         0.29135E-02
         0.32116E-02
         0.32864E-02
         0.32864E-02
         0.27006E-02
         0.25920E-02
         0.25815E-02
         0.26965E-02
         0.28627E-02
         0.29537E-02
         0.29714E-02
         0.29714E-02
         0.26469E-02
         0.27680E-02
         0.33983E-02
         0.35270E-02
         0.35270E-02
         0.29809E-02
         0.31571E-02
         0.31571E-02
         0.43118E-02
         0.43118E-02
         0.43118E-02
         0.43118E-02
         0.34895E-02
         0.34895E-02
         0.32612E-02
         0.31990E-02
         0.37792E-02
         0.31824E-02
         0.26913E-02
         0.33828E-02
         0.37148E-02
         0.26875E-02
         0.29148E-02
         0.36960E-02
         0.36390E-02
         0.37995E-02
         0.30180E-02
         0.30180E-02
         0.28631E-02
         0.26972E-02
         0.29539E-02
         0.28110E-02
         0.30364E-02
         0.36960E-02
         0.28305E-02
         0.28305E-02
         0.27408E-02
         0.26040E-02
         0.36960E-02
         0.36960E-02
         0.37995E-02
         0.37995E-02
         0.30258E-02
         0.36826E-02
         0.37148E-02
         0.32129E-02
         0.32870E-02
         0.32870E-02
         0.27006E-02
         0.25920E-02
         0.25808E-02
         0.29713E-02
         0.29713E-02
         0.26468E-02
         0.29089E-02
         0.33975E-02
         0.35264E-02
         0.35264E-02
         0.29812E-02
         0.32537E-02
         0.28672E-02
         0.29985E-02
         0.36826E-02
         0.37148E-02
         0.37148E-02
         0.33828E-02
         0.29148E-02
         0.32129E-02
         0.32870E-02
         0.32870E-02
         0.27006E-02
         0.25920E-02
         0.25808E-02
         0.26972E-02
         0.28631E-02
         0.29539E-02
         0.29713E-02
         0.29713E-02
         0.26468E-02
         0.27679E-02
         0.33975E-02
         0.35264E-02
         0.35264E-02
         0.29812E-02
         0.31585E-02
         0.31585E-02
         0.43115E-02
         0.43115E-02
         0.43115E-02
         0.43115E-02
         0.34896E-02
         0.34896E-02
         0.32597E-02
         0.31980E-02
         0.37787E-02
         0.31820E-02
         0.26896E-02
         0.33824E-02
         0.37147E-02
         0.26827E-02
         0.29160E-02
         0.36957E-02
         0.36425E-02
         0.38016E-02
         0.30206E-02
         0.30206E-02
         0.28636E-02
         0.26980E-02
         0.29540E-02
         0.28112E-02
         0.30390E-02
         0.36957E-02
         0.28279E-02
         0.28279E-02
         0.27395E-02
         0.26030E-02
         0.36957E-02
         0.36957E-02
         0.38016E-02
         0.38016E-02
         0.30260E-02
         0.36814E-02
         0.37147E-02
         0.32141E-02
         0.32876E-02
         0.32876E-02
         0.27006E-02
         0.25920E-02
         0.25801E-02
         0.29713E-02
         0.29713E-02
         0.26468E-02
         0.29089E-02
         0.33968E-02
         0.35259E-02
         0.35259E-02
         0.29815E-02
         0.32555E-02
         0.28645E-02
         0.29995E-02
         0.36814E-02
         0.37147E-02
         0.37147E-02
         0.33824E-02
         0.29160E-02
         0.32141E-02
         0.32876E-02
         0.32876E-02
         0.27006E-02
         0.25920E-02
         0.25801E-02
         0.26980E-02
         0.28636E-02
         0.29540E-02
         0.29713E-02
         0.29713E-02
         0.26468E-02
         0.27679E-02
         0.33968E-02
         0.35259E-02
         0.35259E-02
         0.29815E-02
         0.31598E-02
         0.31598E-02
         0.43113E-02
         0.43113E-02
         0.43113E-02
         0.43113E-02
         0.34897E-02
         0.34897E-02
         0.32583E-02
         0.31970E-02
         0.37783E-02
         0.31816E-02
         0.26879E-02
         0.33820E-02
         0.37146E-02
         0.26780E-02
         0.29172E-02
         0.36954E-02
         0.36460E-02
         0.38037E-02
         0.30232E-02
         0.30232E-02
         0.28641E-02
         0.26987E-02
         0.29542E-02
         0.28115E-02
         0.30416E-02
         0.36954E-02
         0.28253E-02
         0.28253E-02
         0.27382E-02
         0.26020E-02
         0.36954E-02
         0.36954E-02
         0.38037E-02
         0.38037E-02
         0.30261E-02
         0.36802E-02
         0.37146E-02
         0.32154E-02
         0.32882E-02
         0.32882E-02
         0.27006E-02
         0.25921E-02
         0.25794E-02
         0.29713E-02
         0.29713E-02
         0.26467E-02
         0.29088E-02
         0.33961E-02
         0.35253E-02
         0.35253E-02
         0.29818E-02
         0.32573E-02
         0.28617E-02
         0.30005E-02
         0.36802E-02
         0.37146E-02
         0.37146E-02
         0.33820E-02
         0.29172E-02
         0.32154E-02
         0.32882E-02
         0.32882E-02
         0.27006E-02
         0.25921E-02
         0.25794E-02
         0.26987E-02
         0.28641E-02
         0.29542E-02
         0.29713E-02
         0.29713E-02
         0.26467E-02
         0.27678E-02
         0.33961E-02
         0.35253E-02
         0.35253E-02
         0.29818E-02
         0.31612E-02
         0.31612E-02
         0.43110E-02
         0.43110E-02
         0.43110E-02
         0.43110E-02
         0.34898E-02
         0.34898E-02
         0.32569E-02
         0.31960E-02
         0.37778E-02
         0.31812E-02
         0.26862E-02
         0.33816E-02
         0.37145E-02
         0.26733E-02
         0.29184E-02
         0.36950E-02
         0.36495E-02
         0.38057E-02
         0.30258E-02
         0.30258E-02
         0.28645E-02
         0.26995E-02
         0.29543E-02
         0.28118E-02
         0.30442E-02
         0.36950E-02
         0.28227E-02
         0.28227E-02
         0.27369E-02
         0.26010E-02
         0.36950E-02
         0.36950E-02
         0.38057E-02
         0.38057E-02
         0.30263E-02
         0.36790E-02
         0.37145E-02
         0.32167E-02
         0.32889E-02
         0.32889E-02
         0.27006E-02
         0.25921E-02
         0.25787E-02
         0.29713E-02
         0.29713E-02
         0.26467E-02
         0.29087E-02
         0.33953E-02
         0.35247E-02
         0.35247E-02
         0.29821E-02
         0.32590E-02
         0.28589E-02
         0.30015E-02
         0.36790E-02
         0.37145E-02
         0.37145E-02
         0.33816E-02
         0.29184E-02
         0.32167E-02
         0.32889E-02
         0.32889E-02
         0.27006E-02
         0.25921E-02
         0.25787E-02
         0.26995E-02
         0.28645E-02
         0.29543E-02
         0.29713E-02
         0.29713E-02
         0.26467E-02
         0.27678E-02
         0.33953E-02
         0.35247E-02
         0.35247E-02
         0.29821E-02
         0.31625E-02
         0.31625E-02
         0.43108E-02
         0.43108E-02
         0.43108E-02
         0.43108E-02
         0.34898E-02
         0.34898E-02
         0.32555E-02
         0.31950E-02
         0.37773E-02
         0.31808E-02
         0.26845E-02
         0.33812E-02
         0.37144E-02
         0.26686E-02
         0.29196E-02
         0.36948E-02
         0.36531E-02
         0.38078E-02
         0.30285E-02
         0.30285E-02
         0.28650E-02
         0.27002E-02
         0.29544E-02
         0.28120E-02
         0.30467E-02
         0.36948E-02
         0.28201E-02
         0.28201E-02
         0.27356E-02
         0.26000E-02
         0.36948E-02
         0.36948E-02
         0.38078E-02
         0.38078E-02
         0.30265E-02
         0.36779E-02
         0.37144E-02
         0.32181E-02
         0.32895E-02
         0.32895E-02
         0.27006E-02
         0.25921E-02
         0.25779E-02
         0.29713E-02
         0.29713E-02
         0.26466E-02
         0.29086E-02
         0.33946E-02
         0.35242E-02
         0.35242E-02
         0.29824E-02
         0.32608E-02
         0.28562E-02
         0.30025E-02
         0.36779E-02
         0.37144E-02
         0.37144E-02
         0.33812E-02
         0.29196E-02
         0.32181E-02
         0.32895E-02
         0.32895E-02
         0.27006E-02
         0.25921E-02
         0.25779E-02
         0.27002E-02
         0.28650E-02
         0.29544E-02
         0.29713E-02
         0.29713E-02
         0.26466E-02
         0.27678E-02
         0.33946E-02
         0.35242E-02
         0.35242E-02
         0.29824E-02
         0.31639E-02
         0.31639E-02
         0.43105E-02
         0.43105E-02
         0.43105E-02
         0.43105E-02
         0.34899E-02
         0.34899E-02
         0.32540E-02
         0.31940E-02
         0.37768E-02
         0.31804E-02
         0.26827E-02
         0.33808E-02
         0.37143E-02
         0.26639E-02
         0.29208E-02
         0.36944E-02
         0.36566E-02
         0.38099E-02
         0.30311E-02
         0.30311E-02
         0.28655E-02
         0.27010E-02
         0.29546E-02
         0.28123E-02
         0.30493E-02
         0.36944E-02
         0.28175E-02
         0.28175E-02
         0.27343E-02
         0.25990E-02
         0.36944E-02
         0.36944E-02
         0.38099E-02
         0.38099E-02
         0.30267E-02
         0.36767E-02
         0.37143E-02
         0.32193E-02
         0.32901E-02
         0.32901E-02
         0.27006E-02
         0.25921E-02
         0.25772E-02
         0.29713E-02
         0.29713E-02
         0.26466E-02
         0.29085E-02
         0.33939E-02
         0.35236E-02
         0.35236E-02
         0.29827E-02
         0.32626E-02
         0.28534E-02
         0.30035E-02
         0.36767E-02
         0.37143E-02
         0.37143E-02
         0.33808E-02
         0.29208E-02
         0.32193E-02
         0.32901E-02
         0.32901E-02
         0.27006E-02
         0.25921E-02
         0.25772E-02
         0.27010E-02
         0.28655E-02
         0.29546E-02
         0.29713E-02
         0.29713E-02
         0.26466E-02
         0.27677E-02
         0.33939E-02
         0.35236E-02
         0.35236E-02
         0.29827E-02
         0.31652E-02
         0.31652E-02
         0.43103E-02
         0.43103E-02
         0.43103E-02
         0.43103E-02
         0.34900E-02
         0.34900E-02
         0.32526E-02
         0.31930E-02
         0.37764E-02
         0.31800E-02
         0.26810E-02
         0.33804E-02
         0.37142E-02
         0.26591E-02
         0.29220E-02
         0.36941E-02
         0.36602E-02
         0.38119E-02
         0.30337E-02
         0.30337E-02
         0.28660E-02
         0.27017E-02
         0.29547E-02
         0.28126E-02
         0.30519E-02
         0.36941E-02
         0.28150E-02
         0.28150E-02
         0.27330E-02
         0.25979E-02
         0.36941E-02
         0.36941E-02
         0.38119E-02
         0.38119E-02
         0.30269E-02
         0.36755E-02
         0.37142E-02
         0.32206E-02
         0.32907E-02
         0.32907E-02
         0.27006E-02
         0.25921E-02
         0.25765E-02
         0.29713E-02
         0.29713E-02
         0.26465E-02
         0.29085E-02
         0.33931E-02
         0.35230E-02
         0.35230E-02
         0.29830E-02
         0.32643E-02
         0.28507E-02
         0.30045E-02
         0.36755E-02
         0.37142E-02
         0.37142E-02
         0.33804E-02
         0.29220E-02
         0.32206E-02
         0.32907E-02
         0.32907E-02
         0.27006E-02
         0.25921E-02
         0.25765E-02
         0.27017E-02
         0.28660E-02
         0.29547E-02
         0.29713E-02
         0.29713E-02
         0.26465E-02
         0.27677E-02
         0.33931E-02
         0.35230E-02
         0.35230E-02
         0.29830E-02
         0.31666E-02
         0.31666E-02
         0.43100E-02
         0.43100E-02
         0.43100E-02
         0.43100E-02
         0.34901E-02
         0.34901E-02
         0.32512E-02
         0.31920E-02
         0.37759E-02
         0.31796E-02
         0.26793E-02
         0.33800E-02
         0.37141E-02
         0.26544E-02
         0.29232E-02
         0.36938E-02
         0.36637E-02
         0.38140E-02
         0.30363E-02
         0.30363E-02
         0.28664E-02
         0.27025E-02
         0.29548E-02
         0.28129E-02
         0.30545E-02
         0.36938E-02
         0.28124E-02
         0.28124E-02
         0.27317E-02
         0.25969E-02
         0.36938E-02
         0.36938E-02
         0.38140E-02
         0.38140E-02
         0.30271E-02
         0.36743E-02
         0.37141E-02
         0.32219E-02
         0.32913E-02
         0.32913E-02
         0.27006E-02
         0.25921E-02
         0.25758E-02
         0.29713E-02
         0.29713E-02
         0.26465E-02
         0.29084E-02
         0.33924E-02
         0.35224E-02
         0.35224E-02
         0.29833E-02
         0.32661E-02
         0.28479E-02
         0.30055E-02
         0.36743E-02
         0.37141E-02
         0.37141E-02
         0.33800E-02
         0.29232E-02
         0.32219E-02
         0.32913E-02
         0.32913E-02
         0.27006E-02
         0.25921E-02
         0.25758E-02
         0.27025E-02
         0.28664E-02
         0.29548E-02
         0.29713E-02
         0.29713E-02
         0.26465E-02
         0.27677E-02
         0.33924E-02
         0.35224E-02
         0.35224E-02
         0.29833E-02
         0.31680E-02
         0.31680E-02
         0.43098E-02
         0.43098E-02
         0.43098E-02
         0.43098E-02
         0.34901E-02
         0.34901E-02
         0.32498E-02
         0.31910E-02
         0.37754E-02
         0.31792E-02
         0.26776E-02
         0.33796E-02
         0.37140E-02
         0.26497E-02
         0.29232E-02
         0.36935E-02
         0.36637E-02
         0.38140E-02
         0.30363E-02
         0.30363E-02
         0.28664E-02
         0.27025E-02
         0.29548E-02
         0.28129E-02
         0.30545E-02
         0.36935E-02
         0.28098E-02
         0.28098E-02
         0.27304E-02
         0.25959E-02
         0.36935E-02
         0.36935E-02
         0.38140E-02
         0.38140E-02
         0.30271E-02
         0.36731E-02
         0.37140E-02
         0.32219E-02
         0.32913E-02
         0.32913E-02
         0.27006E-02
         0.25921E-02
         0.25751E-02
         0.29713E-02
         0.29713E-02
         0.26464E-02
         0.29083E-02
         0.33916E-02
         0.35219E-02
         0.35219E-02
         0.29833E-02
         0.32661E-02
         0.28451E-02
         0.30055E-02
         0.36731E-02
         0.37140E-02
         0.37140E-02
         0.33796E-02
         0.29232E-02
         0.32219E-02
         0.32913E-02
         0.32913E-02
         0.27006E-02
         0.25921E-02
         0.25751E-02
         0.27025E-02
         0.28664E-02
         0.29548E-02
         0.29713E-02
         0.29713E-02
         0.26464E-02
         0.27676E-02
         0.33916E-02
         0.35219E-02
         0.35219E-02
         0.29833E-02
         0.31680E-02
         0.31680E-02
  
SCALARS              physical_window_z  double 1
LOOKUP_TABLE default
         0.26928E-02
         0.26928E-02
         0.26928E-02
         0.26928E-02
         0.26928E-02
         0.26928E-02
         0.26928E-02
         0.26928E-02
         0.26928E-02
         0.26928E-02
         0.26928E-02
         0.26928E-02
         0.26928E-02
         0.26928E-02
         0.26928E-02
         0.26928E-02
         0.26928E-02
         0.26928E-02
         0.26928E-02
         0.26928E-02
         0.26928E-02
         0.26928E-02
         0.26928E-02
         0.26928E-02
         0.26928E-02
         0.26928E-02
         0.26928E-02
         0.26928E-02
         0.26928E-02
         0.26928E-02
         0.26928E-02
         0.26928E-02
         0.26928E-02
         0.26928E-02
         0.26928E-02
         0.26928E-02
         0.26928E-02
         0.26928E-02
         0.26928E-02
         0.26928E-02
         0.26928E-02
         0.26928E-02
         0.26928E-02
         0.26928E-02
         0.26928E-02
         0.26928E-02
         0.26928E-02
         0.26928E-02
         0.26928E-02
         0.26928E-02
         0.26928E-02
         0.26928E-02
         0.26928E-02
         0.26928E-02
         0.26928E-02
         0.26928E-02
         0.26928E-02
         0.26928E-02
         0.26928E-02
         0.26928E-02
         0.26928E-02
         0.26928E-02
         0.26928E-02
         0.26928E-02
         0.26928E-02
         0.26928E-02
         0.26928E-02
         0.26928E-02
         0.26928E-02
         0.26928E-02
         0.26928E-02
         0.26928E-02
         0.26928E-02
         0.26928E-02
         0.26928E-02
         0.26928E-02
         0.26928E-02
         0.26928E-02
         0.26928E-02
         0.26928E-02
         0.26928E-02
         0.26928E-02
         0.26928E-02
         0.26928E-02
         0.26928E-02
         0.26928E-02
         0.26928E-02
         0.26928E-02
         0.26928E-02
         0.26928E-02
         0.26928E-02
         0.26928E-02
         0.26928E-02
         0.26928E-02
         0.26928E-02
         0.26928E-02
         0.26928E-02
         0.26928E-02
         0.26928E-02
         0.26928E-02
         0.26928E-02
         0.26928E-02
         0.26928E-02
         0.26928E-02
         0.26928E-02
         0.26928E-02
         0.26928E-02
         0.26928E-02
         0.26928E-02
         0.26928E-02
         0.26928E-02
         0.26928E-02
         0.26928E-02
         0.26928E-02
         0.26928E-02
         0.26928E-02
         0.26928E-02
         0.26928E-02
         0.26928E-02
         0.26928E-02
         0.26928E-02
         0.26928E-02
         0.26928E-02
         0.26928E-02
         0.26928E-02
         0.26928E-02
         0.26928E-02
         0.26928E-02
         0.26928E-02
         0.26928E-02
         0.26928E-02
         0.26928E-02
         0.26928E-02
         0.26928E-02
         0.26928E-02
         0.26928E-02
         0.26928E-02
         0.26928E-02
         0.26928E-02
         0.26928E-02
         0.26928E-02
         0.26928E-02
         0.26928E-02
         0.26928E-02
         0.26928E-02
         0.26928E-02
         0.26928E-02
         0.26928E-02
         0.26928E-02
         0.26928E-02
         0.26928E-02
         0.26928E-02
         0.26928E-02
         0.26928E-02
         0.26928E-02
         0.26928E-02
         0.26927E-02
         0.26927E-02
         0.26927E-02
         0.26927E-02
         0.26927E-02
         0.26927E-02
         0.26927E-02
         0.26927E-02
         0.26927E-02
         0.26927E-02
         0.26927E-02
         0.26927E-02
         0.26927E-02
         0.26927E-02
         0.26927E-02
         0.26927E-02
         0.26927E-02
         0.26927E-02
         0.26927E-02
         0.26927E-02
         0.26927E-02
         0.26927E-02
         0.26927E-02
         0.26927E-02
         0.26927E-02
         0.26927E-02
         0.26927E-02
         0.26927E-02
         0.26927E-02
         0.26927E-02
         0.26927E-02
         0.26927E-02
         0.26927E-02
         0.26927E-02
         0.26927E-02
         0.26927E-02
         0.26927E-02
         0.26927E-02
         0.26927E-02
         0.26927E-02
         0.26927E-02
         0.26927E-02
         0.26927E-02
         0.26927E-02
         0.26927E-02
         0.26927E-02
         0.26927E-02
         0.26927E-02
         0.26927E-02
         0.26927E-02
         0.26927E-02
         0.26927E-02
         0.26927E-02
         0.26927E-02
         0.26927E-02
         0.26927E-02
         0.26927E-02
         0.26927E-02
         0.26927E-02
         0.26927E-02
         0.26927E-02
         0.26927E-02
         0.26927E-02
         0.26927E-02
         0.26927E-02
         0.26927E-02
         0.26927E-02
         0.26927E-02
         0.26927E-02
         0.26927E-02
         0.26927E-02
         0.26927E-02
         0.26927E-02
         0.26927E-02
         0.26927E-02
         0.26927E-02
         0.26927E-02
         0.26927E-02
         0.26927E-02
         0.26927E-02
         0.26927E-02
         0.26927E-02
         0.26927E-02
         0.26927E-02
         0.26927E-02
         0.26927E-02
         0.26927E-02
         0.26927E-02
         0.26927E-02
         0.26927E-02
         0.26927E-02
         0.26927E-02
         0.26927E-02
         0.26927E-02
         0.26927E-02
         0.26927E-02
         0.26927E-02
         0.26927E-02
         0.26927E-02
         0.26927E-02
         0.26927E-02
         0.26927E-02
         0.26927E-02
         0.26927E-02
         0.26927E-02
         0.26927E-02
         0.26927E-02
         0.26927E-02
         0.26927E-02
         0.26927E-02
         0.26927E-02
         0.26927E-02
         0.26927E-02
         0.26927E-02
         0.26927E-02
         0.26927E-02
         0.26927E-02
         0.26927E-02
         0.26927E-02
         0.26927E-02
         0.26927E-02
         0.26927E-02
         0.26927E-02
         0.26927E-02
         0.26927E-02
         0.26927E-02
         0.26927E-02
         0.26927E-02
         0.26927E-02
         0.26927E-02
         0.26927E-02
         0.26927E-02
         0.26927E-02
         0.26927E-02
         0.26927E-02
         0.26927E-02
         0.26927E-02
         0.26927E-02
         0.26927E-02
         0.26927E-02
         0.26927E-02
         0.26927E-02
         0.26927E-02
         0.26927E-02
         0.26927E-02
         0.26927E-02
         0.26927E-02
         0.26927E-02
         0.26927E-02
         0.26927E-02
         0.26927E-02
         0.26927E-02
         0.26927E-02
         0.26927E-02
         0.26927E-02
         0.26927E-02
         0.26927E-02
         0.26927E-02
         0.26927E-02
         0.26927E-02
         0.26927E-02
         0.26927E-02
         0.26927E-02
         0.26927E-02
         0.26927E-02
         0.26927E-02
         0.26927E-02
         0.26927E-02
         0.26927E-02
         0.26927E-02
         0.26927E-02
         0.26927E-02
         0.26927E-02
         0.26927E-02
         0.26927E-02
         0.26927E-02
         0.26927E-02
         0.26927E-02
         0.26927E-02
         0.26927E-02
         0.26927E-02
         0.26927E-02
         0.26927E-02
         0.26927E-02
         0.26927E-02
         0.26927E-02
         0.26927E-02
         0.26927E-02
         0.26927E-02
         0.26927E-02
         0.26927E-02
         0.26927E-02
         0.26927E-02
         0.26927E-02
         0.26927E-02
         0.26927E-02
         0.26927E-02
         0.26927E-02
         0.26927E-02
         0.26927E-02
         0.26927E-02
         0.26927E-02
         0.26927E-02
         0.26927E-02
         0.26927E-02
         0.26927E-02
         0.26927E-02
         0.26927E-02
         0.26927E-02
         0.26927E-02
         0.26927E-02
         0.26927E-02
         0.26927E-02
         0.26927E-02
         0.26927E-02
         0.26927E-02
         0.26927E-02
         0.26927E-02
         0.26927E-02
         0.26927E-02
         0.26927E-02
         0.26927E-02
         0.26927E-02
         0.26927E-02
         0.26927E-02
         0.26927E-02
         0.26927E-02
         0.26927E-02
         0.26927E-02
         0.26927E-02
         0.26927E-02
         0.26927E-02
         0.26927E-02
         0.26927E-02
         0.26927E-02
         0.26927E-02
         0.26927E-02
         0.26927E-02
         0.26927E-02
         0.26927E-02
         0.26927E-02
         0.26927E-02
         0.26927E-02
         0.26927E-02
         0.26927E-02
         0.26927E-02
         0.26927E-02
         0.26927E-02
         0.26927E-02
         0.26927E-02
         0.26927E-02
         0.26927E-02
         0.26927E-02
         0.26927E-02
         0.26927E-02
         0.26927E-02
         0.26927E-02
         0.26927E-02
         0.26927E-02
         0.26927E-02
         0.26927E-02
         0.26927E-02
         0.26927E-02
         0.26927E-02
         0.26927E-02
         0.26927E-02
         0.26927E-02
         0.26927E-02
         0.26927E-02
         0.26927E-02
         0.26927E-02
         0.26927E-02
         0.26927E-02
         0.26927E-02
         0.26927E-02
         0.26927E-02
         0.26927E-02
         0.26927E-02
         0.26927E-02
         0.26927E-02
         0.26927E-02
         0.26927E-02
         0.26927E-02
         0.26927E-02
         0.26927E-02
         0.26927E-02
         0.26927E-02
         0.26927E-02
         0.26927E-02
         0.26927E-02
         0.26927E-02
         0.26927E-02
         0.26927E-02
         0.26927E-02
         0.26927E-02
         0.26927E-02
         0.26927E-02
         0.26927E-02
         0.26927E-02
         0.26927E-02
         0.26927E-02
         0.26927E-02
         0.26927E-02
         0.26927E-02
         0.26927E-02
         0.26927E-02
         0.26927E-02
         0.26927E-02
         0.26927E-02
         0.26927E-02
         0.26927E-02
         0.26927E-02
         0.26927E-02
         0.26927E-02
         0.26927E-02
         0.26927E-02
         0.26927E-02
         0.26927E-02
         0.26927E-02
         0.26927E-02
         0.26927E-02
         0.26927E-02
         0.26927E-02
         0.26927E-02
         0.26927E-02
         0.26927E-02
         0.26927E-02
         0.26927E-02
         0.26927E-02
         0.26927E-02
         0.26927E-02
         0.26927E-02
         0.26927E-02
         0.26927E-02
         0.26927E-02
         0.26927E-02
         0.26927E-02
         0.26927E-02
         0.26927E-02
         0.26927E-02
         0.26927E-02
         0.26927E-02
         0.26927E-02
         0.26927E-02
         0.26927E-02
         0.26927E-02
         0.26927E-02
         0.26927E-02
         0.26927E-02
         0.26927E-02
         0.26927E-02
         0.26927E-02
         0.26927E-02
         0.26927E-02
         0.26927E-02
         0.26927E-02
         0.26927E-02
         0.26927E-02
         0.26927E-02
         0.26927E-02
         0.26927E-02
         0.26927E-02
         0.26927E-02
         0.26927E-02
         0.26927E-02
         0.26927E-02
         0.26927E-02
         0.26927E-02
         0.26927E-02
         0.26927E-02
         0.26927E-02
         0.26927E-02
         0.26927E-02
         0.26927E-02
         0.26927E-02
         0.26927E-02
         0.26927E-02
         0.26927E-02
         0.26927E-02
         0.26927E-02
         0.26927E-02
         0.26927E-02
         0.26927E-02
         0.26927E-02
         0.26927E-02
         0.26927E-02
         0.26927E-02
         0.26927E-02
         0.26927E-02
         0.26927E-02
         0.26927E-02
         0.26927E-02
         0.26927E-02
         0.26927E-02
         0.26927E-02
         0.26927E-02
         0.26927E-02
         0.26927E-02
         0.26927E-02
         0.26927E-02
         0.26927E-02
         0.26927E-02
         0.26927E-02
         0.26927E-02
         0.26927E-02
         0.26927E-02
         0.26927E-02
         0.26927E-02
         0.26927E-02
         0.26927E-02
         0.26927E-02
         0.26927E-02
         0.26927E-02
         0.26927E-02
         0.26927E-02
         0.26927E-02
         0.26927E-02
         0.26927E-02
         0.26927E-02
         0.26927E-02
         0.26927E-02
         0.26927E-02
         0.26927E-02
         0.26927E-02
         0.26927E-02
         0.26927E-02
         0.26927E-02
         0.26927E-02
         0.26927E-02
         0.26927E-02
         0.26927E-02
         0.26927E-02
         0.26927E-02
         0.26927E-02
         0.26927E-02
         0.26927E-02
         0.26927E-02
         0.26927E-02
         0.26927E-02
         0.26927E-02
         0.26927E-02
         0.26927E-02
         0.26927E-02
         0.26927E-02
         0.26927E-02
         0.26927E-02
         0.26927E-02
         0.26927E-02
         0.26927E-02
         0.26927E-02
         0.26927E-02
         0.26927E-02
         0.26927E-02
         0.26927E-02
         0.26927E-02
         0.26927E-02
         0.26927E-02
         0.26927E-02
         0.26927E-02
         0.26927E-02
         0.26927E-02
         0.26927E-02
         0.26927E-02
         0.26927E-02
         0.26927E-02
         0.26927E-02
         0.26927E-02
         0.26927E-02
         0.26927E-02
         0.26927E-02
         0.26927E-02
         0.26927E-02
         0.26927E-02
         0.26927E-02
         0.26927E-02
         0.26927E-02
         0.26927E-02
         0.26927E-02
         0.26927E-02
         0.26927E-02
         0.26927E-02
         0.26927E-02
         0.26927E-02
         0.26927E-02
         0.26927E-02
         0.26927E-02
         0.26927E-02
         0.26927E-02
         0.26927E-02
         0.26927E-02
         0.26927E-02
         0.26927E-02
         0.26927E-02
         0.26927E-02
         0.26927E-02
         0.26927E-02
         0.26927E-02
         0.26927E-02
         0.26927E-02
         0.26927E-02
         0.26927E-02
         0.26927E-02
         0.26927E-02
         0.26927E-02
         0.26927E-02
         0.26927E-02
         0.26927E-02
         0.26927E-02
         0.26927E-02
         0.26927E-02
         0.26927E-02
         0.26927E-02
         0.26927E-02
         0.26927E-02
         0.26927E-02
         0.26927E-02
         0.26927E-02
         0.26927E-02
         0.26927E-02
         0.26927E-02
         0.26927E-02
         0.26927E-02
         0.26927E-02
         0.26927E-02
         0.26927E-02
         0.26927E-02
         0.26927E-02
         0.26927E-02
         0.26927E-02
         0.26927E-02
         0.26927E-02
         0.26927E-02
         0.26927E-02
         0.26927E-02
         0.26927E-02
         0.26927E-02
         0.26927E-02
         0.26927E-02
         0.26927E-02
         0.26927E-02
         0.26927E-02
         0.26927E-02
         0.26927E-02
         0.26927E-02
         0.26927E-02
         0.26927E-02
         0.26927E-02
         0.26927E-02
         0.26927E-02
         0.26927E-02
         0.26927E-02
         0.26927E-02
         0.26927E-02
         0.26927E-02
         0.26927E-02
         0.26927E-02
         0.26927E-02
         0.26927E-02
         0.26927E-02
         0.26927E-02
         0.26927E-02
         0.26927E-02
         0.26927E-02
         0.26927E-02
         0.26927E-02
         0.26927E-02
         0.26927E-02
         0.26927E-02
         0.26927E-02
         0.26927E-02
         0.26927E-02
         0.26927E-02
         0.26927E-02
         0.26927E-02
         0.26927E-02
         0.26927E-02
         0.26927E-02
         0.26927E-02
         0.26927E-02
         0.26927E-02
         0.26927E-02
         0.26927E-02
         0.26927E-02
         0.26927E-02
         0.26927E-02
         0.26927E-02
         0.26927E-02
         0.26927E-02
         0.26927E-02
         0.26927E-02
         0.26927E-02
         0.26927E-02
         0.26927E-02
         0.26927E-02
         0.26927E-02
         0.26927E-02
         0.26927E-02
         0.26927E-02
         0.26927E-02
         0.26927E-02
         0.26927E-02
         0.26927E-02
         0.26927E-02
         0.26927E-02
         0.26927E-02
         0.26927E-02
         0.26927E-02
         0.26927E-02
         0.26927E-02
         0.26927E-02
         0.26927E-02
         0.26927E-02
         0.26927E-02
         0.26927E-02
         0.26927E-02
         0.26927E-02
         0.26927E-02
         0.26927E-02
         0.26927E-02
         0.26927E-02
         0.26927E-02
         0.26927E-02
         0.26927E-02
         0.26927E-02
         0.26927E-02
         0.26927E-02
         0.26927E-02
         0.26927E-02
         0.26927E-02
         0.26927E-02
         0.26927E-02
         0.26927E-02
         0.26927E-02
         0.26927E-02
         0.26927E-02
         0.26927E-02
         0.26927E-02
         0.26927E-02
         0.26927E-02
         0.26927E-02
         0.26927E-02
         0.26927E-02
         0.26927E-02
         0.26927E-02
         0.26927E-02
         0.26927E-02
         0.26927E-02
         0.26927E-02
         0.26927E-02
         0.26927E-02
         0.26927E-02
         0.26927E-02
         0.26927E-02
         0.26927E-02
         0.26927E-02
         0.26927E-02
         0.26927E-02
         0.26927E-02
         0.26927E-02
         0.26927E-02
         0.26927E-02
         0.26927E-02
         0.26927E-02
         0.26927E-02
         0.26927E-02
         0.26927E-02
         0.26927E-02
         0.26927E-02
         0.26927E-02
         0.26927E-02
         0.26927E-02
         0.26927E-02
         0.26927E-02
         0.26927E-02
         0.26927E-02
         0.26927E-02
         0.26927E-02
         0.26927E-02
         0.26927E-02
         0.26927E-02
         0.26927E-02
         0.26927E-02
         0.26927E-02
         0.26927E-02
         0.26927E-02
         0.26927E-02
         0.26927E-02
         0.26927E-02
         0.26927E-02
         0.26927E-02
         0.26927E-02
         0.26927E-02
         0.26927E-02
         0.26927E-02
         0.26927E-02
         0.26927E-02
         0.26927E-02
         0.26927E-02
         0.26927E-02
         0.26927E-02
         0.26927E-02
         0.26927E-02
         0.26927E-02
         0.26927E-02
         0.26927E-02
         0.26927E-02
         0.26927E-02
         0.26927E-02
         0.26927E-02
         0.26927E-02
         0.26927E-02
         0.26927E-02
         0.26927E-02
         0.26927E-02
         0.26927E-02
         0.26927E-02
         0.26927E-02
         0.26927E-02
         0.26927E-02
         0.26927E-02
         0.26927E-02
         0.26927E-02
         0.26927E-02
         0.26927E-02
         0.26927E-02
         0.26927E-02
         0.26927E-02
         0.26927E-02
         0.26927E-02
         0.26927E-02
         0.26927E-02
         0.26927E-02
         0.26927E-02
         0.26927E-02
         0.26927E-02
         0.26927E-02
         0.26927E-02
         0.26927E-02
         0.26927E-02
         0.26927E-02
         0.26927E-02
         0.26927E-02
         0.26927E-02
         0.26927E-02
         0.26927E-02
         0.26927E-02
         0.26927E-02
         0.26927E-02
         0.26927E-02
         0.26927E-02
         0.26927E-02
         0.26927E-02
         0.26927E-02
         0.26927E-02
         0.26927E-02
         0.26927E-02
         0.26927E-02
         0.26927E-02
         0.26927E-02
         0.26927E-02
         0.26927E-02
         0.26927E-02
         0.26927E-02
         0.26927E-02
         0.26927E-02
         0.26927E-02
         0.26927E-02
         0.26927E-02
         0.26927E-02
         0.26927E-02
         0.26927E-02
         0.26927E-02
         0.26927E-02
         0.26927E-02
         0.26927E-02
         0.26927E-02
         0.26927E-02
         0.26927E-02
         0.26927E-02
         0.26927E-02
         0.26927E-02
         0.26927E-02
         0.26927E-02
         0.26927E-02
         0.26927E-02
         0.26927E-02
         0.26927E-02
         0.26927E-02
         0.26927E-02
         0.26927E-02
         0.26927E-02
         0.26927E-02
         0.26927E-02
         0.26927E-02
         0.26927E-02
         0.26927E-02
         0.26927E-02
         0.26927E-02
         0.26927E-02
         0.26927E-02
         0.26927E-02
         0.26927E-02
         0.26927E-02
         0.26927E-02
         0.26927E-02
         0.26927E-02
         0.26927E-02
         0.26927E-02
         0.26927E-02
         0.26927E-02
         0.26927E-02
         0.26927E-02
         0.26927E-02
         0.26927E-02
         0.26927E-02
         0.26927E-02
         0.26927E-02
         0.26927E-02
         0.26927E-02
         0.26927E-02
         0.26927E-02
         0.26927E-02
         0.26927E-02
         0.26927E-02
         0.26927E-02
         0.26927E-02
         0.26927E-02
         0.26927E-02
         0.26927E-02
         0.26927E-02
         0.26927E-02
         0.26927E-02
         0.26927E-02
         0.26927E-02
         0.26927E-02
         0.26927E-02
         0.26927E-02
         0.26927E-02
         0.26927E-02
         0.26927E-02
         0.26927E-02
         0.26927E-02
         0.26927E-02
         0.26927E-02
         0.26927E-02
         0.26927E-02
         0.26927E-02
         0.26927E-02
         0.26927E-02
         0.26927E-02
         0.26927E-02
         0.26927E-02
         0.26927E-02
         0.26927E-02
         0.26927E-02
         0.26927E-02
         0.26927E-02
         0.26927E-02
         0.26927E-02
         0.26927E-02
         0.26927E-02
         0.26927E-02
         0.26927E-02
         0.26927E-02
         0.26927E-02
         0.26927E-02
         0.26927E-02
         0.26927E-02
         0.26927E-02
         0.26927E-02
         0.26927E-02
         0.26927E-02
         0.26927E-02
         0.26927E-02
         0.26927E-02
         0.26927E-02
         0.26927E-02
         0.26927E-02
         0.26927E-02
         0.26927E-02
         0.26927E-02
         0.26927E-02
         0.26927E-02
         0.26927E-02
         0.26927E-02
         0.26927E-02
         0.26927E-02
         0.26927E-02
         0.26927E-02
         0.26927E-02
         0.26927E-02
         0.26927E-02
         0.26927E-02
         0.26927E-02
         0.26927E-02
         0.26927E-02
         0.26927E-02
         0.26927E-02
         0.26927E-02
         0.26927E-02
         0.26927E-02
         0.26927E-02
         0.26927E-02
         0.26927E-02
         0.26927E-02
         0.26927E-02
         0.26927E-02
         0.26927E-02
         0.26927E-02
         0.26927E-02
         0.26927E-02
         0.26927E-02
         0.26927E-02
         0.26927E-02
         0.26927E-02
         0.26927E-02
         0.26927E-02
         0.26927E-02
         0.26927E-02
         0.26927E-02
         0.26927E-02
         0.26927E-02
         0.26927E-02
         0.26927E-02
         0.26927E-02
         0.26927E-02
         0.26927E-02
         0.26927E-02
         0.26927E-02
         0.26927E-02
         0.26927E-02
         0.26927E-02
         0.26927E-02
         0.26927E-02
         0.26927E-02
         0.26927E-02
         0.26927E-02
         0.26927E-02
         0.26927E-02
         0.26927E-02
         0.26927E-02
         0.26927E-02
         0.26927E-02
         0.26927E-02
         0.26927E-02
         0.26927E-02
         0.26927E-02
         0.26927E-02
         0.26927E-02
         0.26927E-02
         0.26927E-02
         0.26927E-02
         0.26927E-02
         0.26927E-02
         0.26927E-02
         0.26927E-02
         0.26927E-02
         0.26927E-02
         0.26927E-02
         0.26927E-02
         0.26927E-02
         0.26927E-02
         0.26927E-02
         0.26927E-02
         0.26927E-02
         0.26927E-02
         0.26927E-02
         0.26927E-02
         0.26927E-02
         0.26927E-02
         0.26927E-02
         0.26927E-02
         0.26927E-02
         0.26927E-02
         0.26927E-02
         0.26927E-02
         0.26927E-02
         0.26927E-02
         0.26927E-02
         0.26927E-02
         0.26927E-02
         0.26927E-02
         0.26927E-02
         0.26927E-02
         0.26927E-02
         0.26927E-02
         0.26927E-02
         0.26927E-02
         0.26927E-02
         0.26927E-02
         0.26927E-02
         0.26927E-02
         0.26927E-02
         0.26927E-02
         0.26927E-02
         0.26927E-02
         0.26927E-02
         0.26927E-02
         0.26927E-02
         0.26927E-02
         0.26927E-02
         0.26927E-02
         0.26927E-02
         0.26927E-02
         0.26927E-02
         0.26927E-02
         0.26927E-02
         0.26927E-02
         0.26927E-02
         0.26927E-02
         0.26927E-02
         0.26927E-02
         0.26927E-02
         0.26927E-02
         0.26927E-02
         0.26927E-02
         0.26927E-02
         0.26927E-02
         0.26927E-02
         0.26927E-02
         0.26927E-02
         0.26927E-02
         0.26927E-02
         0.26927E-02
         0.26927E-02
         0.26927E-02
         0.26927E-02
         0.26927E-02
         0.26927E-02
         0.26927E-02
         0.26927E-02
         0.26927E-02
         0.26927E-02
         0.26927E-02
         0.26927E-02
         0.26927E-02
         0.26927E-02
         0.26927E-02
         0.26927E-02
         0.26927E-02
         0.26927E-02
         0.26927E-02
         0.26927E-02
         0.26927E-02
         0.26927E-02
         0.26927E-02
         0.26927E-02
         0.26927E-02
         0.26927E-02
         0.26927E-02
         0.26927E-02
         0.26927E-02
         0.26927E-02
         0.26927E-02
         0.26927E-02
         0.26927E-02
         0.26927E-02
         0.26927E-02
         0.26927E-02
         0.26927E-02
         0.26927E-02
         0.26927E-02
         0.26927E-02
         0.26927E-02
         0.26927E-02
         0.26927E-02
         0.26927E-02
         0.26927E-02
         0.26927E-02
         0.26927E-02
         0.26927E-02
         0.26927E-02
         0.26927E-02
         0.26927E-02
         0.26927E-02
         0.26927E-02
         0.26927E-02
         0.26927E-02
         0.26927E-02
         0.26927E-02
         0.26927E-02
         0.26927E-02
         0.26927E-02
         0.26927E-02
         0.26927E-02
         0.26927E-02
         0.26927E-02
         0.26927E-02
         0.26927E-02
         0.26927E-02
         0.26927E-02
         0.26927E-02
         0.26927E-02
         0.26927E-02
         0.26927E-02
         0.26927E-02
         0.26927E-02
         0.26927E-02
         0.26927E-02
         0.26927E-02
         0.26927E-02
         0.26927E-02
         0.26927E-02
         0.26927E-02
         0.26927E-02
         0.26927E-02
         0.26927E-02
         0.26927E-02
         0.26927E-02
         0.26927E-02
         0.26927E-02
         0.26927E-02
         0.26927E-02
         0.26927E-02
         0.26927E-02
         0.26927E-02
         0.26927E-02
         0.26927E-02
         0.26927E-02
         0.26927E-02
         0.26927E-02
         0.26927E-02
         0.26927E-02
         0.26927E-02
         0.26927E-02
         0.26927E-02
         0.26927E-02
         0.26927E-02
         0.26927E-02
         0.26927E-02
         0.26927E-02
         0.26927E-02
         0.26927E-02
         0.26927E-02
         0.26927E-02
         0.26927E-02
         0.26927E-02
         0.26927E-02
         0.26927E-02
         0.26927E-02
         0.26927E-02
         0.26927E-02
         0.26927E-02
         0.26927E-02
         0.26927E-02
         0.26927E-02
         0.26927E-02
         0.26927E-02
         0.26927E-02
         0.26927E-02
         0.26927E-02
         0.26927E-02
         0.26927E-02
         0.26927E-02
         0.26927E-02
         0.26927E-02
         0.26927E-02
         0.26927E-02
         0.26927E-02
         0.26927E-02
         0.26927E-02
         0.26927E-02
         0.26927E-02
         0.26927E-02
         0.26927E-02
         0.26927E-02
         0.26927E-02
         0.26927E-02
         0.26927E-02
         0.26927E-02
         0.26927E-02
         0.26927E-02
         0.26927E-02
         0.26927E-02
         0.26927E-02
         0.26927E-02
         0.26927E-02
         0.26927E-02
         0.26927E-02
         0.26927E-02
         0.26927E-02
         0.26927E-02
         0.26927E-02
         0.26927E-02
         0.26927E-02
         0.26927E-02
         0.26927E-02
         0.26927E-02
         0.26927E-02
         0.26927E-02
         0.26927E-02
         0.26927E-02
         0.26927E-02
         0.26927E-02
         0.26927E-02
         0.26927E-02
         0.26927E-02
         0.26927E-02
         0.26927E-02
         0.26927E-02
         0.26927E-02
         0.26927E-02
         0.26927E-02
         0.26927E-02
         0.26927E-02
         0.26927E-02
         0.26927E-02
         0.26927E-02
         0.26927E-02
         0.26927E-02
         0.26927E-02
         0.26927E-02
         0.26927E-02
         0.26927E-02
         0.26927E-02
         0.26927E-02
         0.26927E-02
         0.26927E-02
         0.26927E-02
         0.26927E-02
         0.26927E-02
         0.26927E-02
         0.26927E-02
         0.26927E-02
         0.26927E-02
         0.26927E-02
         0.26927E-02
         0.26927E-02
         0.26927E-02
         0.26927E-02
         0.26927E-02
         0.26927E-02
         0.26927E-02
         0.26927E-02
         0.26927E-02
         0.26927E-02
         0.26927E-02
         0.26927E-02
         0.26927E-02
         0.26927E-02
         0.26927E-02
         0.26927E-02
         0.26927E-02
         0.26927E-02
         0.26927E-02
         0.26927E-02
         0.26927E-02
         0.26927E-02
         0.26927E-02
         0.26927E-02
         0.26927E-02
         0.26927E-02
         0.26927E-02
         0.26927E-02
         0.26927E-02
         0.26927E-02
         0.26927E-02
         0.26927E-02
         0.26927E-02
         0.26927E-02
         0.26927E-02
         0.26927E-02
         0.26927E-02
         0.26927E-02
         0.26927E-02
         0.26927E-02
         0.26927E-02
         0.26927E-02
         0.26927E-02
         0.26927E-02
         0.26927E-02
         0.26927E-02
         0.26927E-02
         0.26927E-02
         0.26927E-02
         0.26927E-02
         0.26927E-02
         0.26927E-02
         0.26927E-02
         0.26927E-02
         0.26927E-02
         0.26927E-02
         0.26927E-02
         0.26927E-02
         0.26927E-02
         0.26927E-02
         0.26927E-02
         0.26927E-02
         0.26927E-02
         0.26927E-02
         0.26927E-02
         0.26927E-02
         0.26927E-02
         0.26927E-02
         0.26927E-02
         0.26927E-02
         0.26927E-02
         0.26927E-02
         0.26927E-02
         0.26927E-02
         0.26927E-02
         0.26927E-02
         0.26927E-02
         0.26927E-02
         0.26927E-02
         0.26927E-02
         0.26927E-02
         0.26927E-02
         0.26927E-02
         0.26927E-02
         0.26927E-02
         0.26927E-02
         0.26927E-02
         0.26927E-02
         0.26927E-02
         0.26927E-02
         0.26927E-02
         0.26927E-02
         0.26927E-02
         0.26927E-02
         0.26927E-02
         0.26927E-02
         0.26927E-02
         0.26927E-02
         0.26927E-02
         0.26927E-02
         0.26927E-02
         0.26927E-02
         0.26927E-02
         0.26927E-02
         0.26927E-02
         0.26927E-02
         0.26927E-02
         0.26927E-02
         0.26927E-02
         0.26927E-02
         0.26927E-02
         0.26927E-02
         0.26927E-02
         0.26927E-02
         0.26927E-02
         0.26927E-02
         0.26927E-02
         0.26927E-02
         0.26927E-02
         0.26927E-02
         0.26927E-02
         0.26927E-02
         0.26927E-02
         0.26927E-02
         0.26927E-02
         0.26927E-02
         0.26927E-02
         0.26927E-02
         0.26927E-02
         0.26927E-02
         0.26927E-02
         0.26927E-02
         0.26927E-02
         0.26927E-02
         0.26927E-02
         0.26927E-02
         0.26927E-02
         0.26927E-02
         0.26927E-02
         0.26927E-02
         0.26927E-02
         0.26927E-02
         0.26927E-02
         0.26927E-02
         0.26927E-02
         0.26927E-02
         0.26927E-02
         0.26927E-02
         0.26927E-02
         0.26927E-02
         0.26927E-02
         0.26927E-02
         0.26927E-02
         0.26927E-02
         0.26927E-02
         0.26927E-02
         0.26927E-02
         0.26927E-02
         0.26927E-02
         0.26927E-02
         0.26927E-02
         0.26927E-02
         0.26927E-02
         0.26927E-02
         0.26927E-02
         0.26927E-02
         0.26927E-02
         0.26927E-02
         0.26927E-02
         0.26927E-02
         0.26927E-02
         0.26927E-02
         0.26927E-02
         0.26927E-02
         0.26927E-02
         0.26927E-02
         0.26927E-02
         0.26927E-02
         0.26927E-02
         0.26927E-02
         0.26927E-02
         0.26927E-02
         0.26927E-02
         0.26927E-02
         0.26927E-02
         0.26927E-02
         0.26927E-02
         0.26927E-02
         0.26927E-02
         0.26927E-02
         0.26927E-02
         0.26927E-02
         0.26927E-02
         0.26927E-02
         0.26927E-02
         0.26927E-02
         0.26927E-02
         0.26927E-02
         0.26927E-02
         0.26927E-02
         0.26927E-02
         0.26927E-02
         0.26927E-02
         0.26927E-02
         0.26927E-02
         0.26927E-02
         0.26927E-02
         0.26927E-02
         0.26927E-02
         0.26927E-02
         0.26927E-02
         0.26927E-02
         0.26927E-02
         0.26927E-02
         0.26927E-02
         0.26927E-02
         0.26927E-02
         0.26927E-02
         0.26927E-02
         0.26927E-02
         0.26927E-02
         0.26927E-02
         0.26927E-02
         0.26927E-02
         0.26927E-02
         0.26927E-02
         0.26927E-02
         0.26927E-02
         0.26927E-02
         0.26927E-02
         0.26927E-02
         0.26927E-02
         0.26927E-02
         0.26927E-02
         0.26927E-02
         0.26927E-02
         0.26927E-02
         0.26927E-02
         0.26927E-02
         0.26927E-02
         0.26927E-02
         0.26927E-02
         0.26927E-02
         0.26927E-02
         0.26927E-02
         0.26927E-02
         0.26927E-02
         0.26927E-02
         0.26927E-02
         0.26927E-02
         0.26927E-02
         0.26927E-02
         0.26927E-02
         0.26927E-02
         0.26927E-02
         0.26927E-02
         0.26927E-02
         0.26927E-02
         0.26927E-02
         0.26927E-02
         0.26927E-02
         0.26927E-02
         0.26927E-02
         0.26927E-02
         0.26927E-02
         0.26927E-02
         0.26927E-02
         0.26927E-02
         0.26927E-02
         0.26927E-02
         0.26927E-02
         0.26927E-02
         0.26927E-02
         0.26927E-02
         0.26927E-02
         0.26927E-02
         0.26927E-02
         0.26927E-02
         0.26927E-02
         0.26927E-02
         0.26927E-02
         0.26927E-02
         0.26927E-02
         0.26927E-02
         0.26927E-02
         0.26927E-02
         0.26927E-02
         0.26927E-02
         0.26927E-02
         0.26927E-02
         0.26927E-02
         0.26927E-02
         0.26927E-02
         0.26927E-02
         0.26927E-02
         0.26927E-02
         0.26927E-02
         0.26927E-02
         0.26927E-02
         0.26927E-02
         0.26927E-02
         0.26927E-02
         0.26927E-02
         0.26927E-02
         0.26927E-02
         0.26927E-02
         0.26927E-02
         0.26927E-02
         0.26927E-02
         0.26927E-02
         0.26927E-02
         0.26927E-02
         0.26927E-02
         0.26927E-02
         0.26927E-02
         0.26927E-02
         0.26927E-02
         0.26927E-02
         0.26927E-02
         0.26927E-02
         0.26927E-02
         0.26927E-02
         0.26927E-02
         0.26927E-02
         0.26927E-02
         0.26927E-02
         0.26927E-02
         0.26927E-02
         0.26927E-02
         0.26927E-02
         0.26927E-02
         0.26927E-02
         0.26927E-02
         0.26927E-02
         0.26927E-02
         0.26927E-02
         0.26927E-02
         0.26927E-02
         0.26927E-02
         0.26927E-02
         0.26927E-02
         0.26927E-02
         0.26927E-02
         0.26927E-02
         0.26927E-02
         0.26927E-02
         0.26927E-02
         0.26927E-02
         0.26927E-02
         0.26927E-02
         0.26927E-02
         0.26927E-02
         0.26927E-02
         0.26927E-02
         0.26927E-02
         0.26927E-02
         0.26927E-02
         0.26927E-02
         0.26927E-02
         0.26927E-02
         0.26927E-02
         0.26927E-02
         0.26927E-02
         0.26927E-02
         0.26927E-02
         0.26927E-02
         0.26927E-02
         0.26927E-02
         0.26927E-02
         0.26927E-02
         0.26927E-02
         0.26927E-02
         0.26927E-02
         0.26927E-02
         0.26927E-02
         0.26927E-02
         0.26927E-02
         0.26927E-02
         0.26927E-02
         0.26927E-02
         0.26927E-02
         0.26927E-02
         0.26927E-02
         0.26927E-02
         0.26927E-02
         0.26927E-02
         0.26927E-02
         0.26927E-02
         0.26927E-02
         0.26927E-02
         0.26927E-02
         0.26927E-02
         0.26927E-02
         0.26927E-02
         0.26927E-02
         0.26927E-02
         0.26927E-02
         0.26927E-02
         0.26927E-02
         0.26927E-02
         0.26927E-02
         0.26927E-02
         0.26927E-02
         0.26927E-02
         0.26927E-02
         0.26927E-02
         0.26927E-02
         0.26927E-02
         0.26927E-02
         0.26927E-02
         0.26927E-02
         0.26927E-02
         0.26928E-02
         0.26928E-02
         0.26928E-02
         0.26928E-02
         0.26928E-02
         0.26928E-02
         0.26928E-02
         0.26928E-02
         0.26928E-02
         0.26928E-02
         0.26928E-02
         0.26928E-02
         0.26928E-02
         0.26928E-02
         0.26928E-02
         0.26928E-02
         0.26928E-02
         0.26928E-02
         0.26928E-02
         0.26928E-02
         0.26928E-02
         0.26928E-02
         0.26928E-02
         0.26928E-02
         0.26928E-02
         0.26928E-02
         0.26928E-02
         0.26928E-02
         0.26928E-02
         0.26928E-02
         0.26928E-02
         0.26928E-02
         0.26928E-02
         0.26928E-02
         0.26928E-02
         0.26928E-02
         0.26928E-02
         0.26928E-02
         0.26928E-02
         0.26928E-02
         0.26928E-02
         0.26928E-02
         0.26928E-02
         0.26928E-02
         0.26928E-02
         0.26928E-02
         0.26928E-02
         0.26928E-02
         0.26928E-02
         0.26928E-02
         0.26928E-02
         0.26928E-02
         0.26928E-02
         0.26928E-02
         0.26928E-02
         0.26928E-02
         0.26928E-02
         0.26928E-02
         0.26928E-02
         0.26928E-02
         0.26928E-02
         0.26928E-02
         0.26928E-02
         0.26928E-02
         0.26928E-02
         0.26928E-02
         0.26928E-02
         0.26928E-02
         0.26928E-02
         0.26928E-02
         0.26928E-02
         0.26928E-02
         0.26928E-02
         0.26928E-02
         0.26928E-02
         0.26928E-02
         0.26928E-02
         0.26928E-02
         0.26928E-02
         0.26928E-02
         0.26928E-02
         0.26928E-02
         0.26928E-02
         0.26928E-02
         0.26928E-02
         0.26928E-02
         0.26928E-02
         0.26928E-02
         0.26928E-02
         0.26928E-02
         0.26928E-02
         0.26928E-02
         0.26928E-02
         0.26928E-02
         0.26928E-02
         0.26928E-02
         0.26928E-02
         0.26928E-02
         0.26928E-02
         0.26928E-02
         0.26928E-02
         0.26928E-02
         0.26928E-02
         0.26928E-02
         0.26928E-02
         0.26928E-02
         0.26928E-02
         0.26928E-02
         0.26928E-02
         0.26928E-02
         0.26928E-02
         0.26928E-02
         0.26928E-02
         0.26928E-02
         0.26928E-02
         0.26928E-02
         0.26928E-02
         0.26928E-02
         0.26928E-02
         0.26928E-02
         0.26928E-02
         0.26928E-02
         0.26928E-02
         0.26928E-02
         0.26928E-02
         0.26928E-02
         0.26928E-02
         0.26928E-02
         0.26928E-02
         0.26928E-02
         0.26928E-02
         0.26928E-02
         0.26928E-02
         0.26928E-02
         0.26928E-02
         0.26928E-02
         0.26928E-02
         0.26928E-02
         0.26928E-02
         0.26928E-02
         0.26928E-02
         0.26928E-02
         0.26928E-02
         0.26928E-02
         0.26928E-02
         0.26928E-02
         0.26928E-02
         0.26928E-02
         0.26928E-02
         0.26928E-02
         0.26928E-02
         0.26928E-02
         0.26928E-02
         0.26928E-02
         0.26928E-02
         0.26928E-02
  
SCALARS                   nodal_volume  double 1
LOOKUP_TABLE default
         0.91140E-09
         0.72412E-09
         0.77574E-09
         0.13316E-08
         0.45570E-09
         0.36211E-09
         0.38787E-09
         0.66566E-09
         0.71537E-09
         0.91211E-09
         0.35767E-09
         0.45600E-09
         0.51195E-09
         0.61532E-09
         0.25605E-09
         0.30776E-09
         0.10101E-08
         0.74536E-09
         0.50500E-09
         0.37281E-09
         0.30273E-09
         0.57012E-09
         0.62699E-09
         0.15144E-09
         0.28509E-09
         0.31352E-09
         0.51329E-09
         0.64933E-09
         0.25683E-09
         0.32471E-09
         0.12026E-08
         0.93909E-09
         0.11935E-08
         0.60122E-09
         0.46945E-09
         0.59663E-09
         0.70296E-09
         0.80270E-09
         0.35149E-09
         0.40134E-09
         0.75859E-09
         0.84013E-09
         0.37932E-09
         0.42007E-09
         0.64542E-09
         0.40086E-09
         0.32274E-09
         0.20045E-09
         0.76288E-09
         0.38153E-09
         0.63346E-09
         0.31675E-09
         0.66583E-09
         0.33318E-09
         0.68008E-09
         0.34022E-09
         0.58930E-09
         0.71738E-09
         0.29472E-09
         0.35874E-09
         0.90938E-09
         0.64302E-09
         0.45469E-09
         0.32154E-09
         0.10152E-08
         0.50747E-09
         0.88120E-09
         0.44042E-09
         0.40077E-09
         0.61872E-09
         0.20039E-09
         0.30940E-09
         0.70206E-09
         0.35106E-09
         0.74172E-09
         0.37089E-09
         0.71539E-09
         0.35770E-09
         0.56226E-09
         0.28113E-09
         0.35349E-09
         0.58452E-09
         0.17675E-09
         0.29229E-09
         0.77354E-09
         0.38679E-09
         0.62469E-09
         0.31238E-09
         0.54957E-09
         0.27483E-09
         0.36009E-09
         0.61365E-09
         0.18007E-09
         0.30685E-09
         0.83268E-09
         0.41635E-09
         0.87287E-09
         0.43642E-09
         0.70438E-09
         0.35217E-09
         0.43365E-09
         0.74413E-09
         0.21683E-09
         0.37198E-09
         0.27660E-09
         0.35144E-09
         0.13833E-09
         0.17573E-09
         0.32921E-09
         0.16465E-09
         0.38764E-09
         0.19382E-09
         0.37797E-09
         0.18897E-09
         0.36707E-09
         0.18352E-09
         0.39112E-09
         0.19552E-09
         0.41268E-09
         0.20627E-09
         0.38876E-09
         0.19433E-09
         0.30402E-09
         0.15200E-09
         0.24796E-09
         0.12398E-09
         0.31999E-09
         0.16000E-09
         0.42608E-09
         0.21303E-09
         0.46805E-09
         0.23401E-09
         0.44933E-09
         0.22466E-09
         0.40550E-09
         0.20276E-09
         0.36826E-09
         0.18414E-09
         0.29911E-09
         0.14956E-09
         0.25178E-09
         0.12591E-09
         0.32888E-09
         0.16445E-09
         0.43529E-09
         0.21765E-09
         0.44963E-09
         0.22482E-09
         0.36384E-09
         0.18194E-09
         0.29543E-09
         0.14774E-09
         0.36126E-09
         0.18063E-09
         0.42771E-09
         0.21386E-09
         0.91143E-09
         0.72396E-09
         0.77579E-09
         0.13322E-08
         0.71547E-09
         0.91237E-09
         0.51167E-09
         0.61494E-09
         0.10105E-08
         0.74486E-09
         0.30244E-09
         0.57001E-09
         0.62694E-09
         0.51257E-09
         0.64918E-09
         0.12029E-08
         0.93950E-09
         0.11941E-08
         0.70298E-09
         0.80279E-09
         0.75855E-09
         0.84015E-09
         0.64535E-09
         0.40081E-09
         0.76254E-09
         0.63339E-09
         0.66483E-09
         0.67941E-09
         0.58904E-09
         0.71721E-09
         0.90946E-09
         0.64293E-09
         0.10157E-08
         0.88199E-09
         0.40076E-09
         0.61859E-09
         0.70195E-09
         0.74166E-09
         0.71543E-09
         0.56228E-09
         0.35349E-09
         0.58443E-09
         0.77349E-09
         0.62459E-09
         0.54943E-09
         0.35999E-09
         0.61359E-09
         0.83268E-09
         0.87299E-09
         0.70451E-09
         0.43366E-09
         0.74449E-09
         0.27651E-09
         0.35143E-09
         0.32904E-09
         0.38765E-09
         0.37805E-09
         0.36714E-09
         0.39129E-09
         0.41297E-09
         0.38899E-09
         0.30408E-09
         0.24798E-09
         0.31999E-09
         0.42613E-09
         0.46815E-09
         0.44938E-09
         0.40548E-09
         0.36823E-09
         0.29908E-09
         0.25174E-09
         0.32885E-09
         0.43527E-09
         0.44962E-09
         0.36376E-09
         0.29536E-09
         0.36130E-09
         0.42769E-09
         0.91151E-09
         0.72383E-09
         0.77587E-09
         0.13329E-08
         0.71560E-09
         0.91267E-09
         0.51142E-09
         0.61459E-09
         0.10109E-08
         0.74439E-09
         0.30216E-09
         0.56992E-09
         0.62691E-09
         0.51187E-09
         0.64906E-09
         0.12033E-08
         0.93995E-09
         0.11947E-08
         0.70302E-09
         0.80291E-09
         0.75853E-09
         0.84020E-09
         0.64530E-09
         0.40078E-09
         0.76223E-09
         0.63335E-09
         0.66385E-09
         0.67875E-09
         0.58880E-09
         0.71706E-09
         0.90957E-09
         0.64286E-09
         0.10162E-08
         0.88281E-09
         0.40076E-09
         0.61849E-09
         0.70188E-09
         0.74162E-09
         0.71550E-09
         0.56232E-09
         0.35350E-09
         0.58436E-09
         0.77347E-09
         0.62452E-09
         0.54931E-09
         0.35990E-09
         0.61355E-09
         0.83270E-09
         0.87315E-09
         0.70467E-09
         0.43368E-09
         0.74487E-09
         0.27643E-09
         0.35143E-09
         0.32889E-09
         0.38767E-09
         0.37814E-09
         0.36723E-09
         0.39147E-09
         0.41328E-09
         0.38923E-09
         0.30416E-09
         0.24800E-09
         0.32001E-09
         0.42620E-09
         0.46826E-09
         0.44944E-09
         0.40548E-09
         0.36821E-09
         0.29906E-09
         0.25171E-09
         0.32883E-09
         0.43527E-09
         0.44963E-09
         0.36369E-09
         0.29530E-09
         0.36135E-09
         0.42769E-09
         0.91156E-09
         0.72368E-09
         0.77594E-09
         0.13335E-08
         0.71571E-09
         0.91295E-09
         0.51115E-09
         0.61422E-09
         0.10112E-08
         0.74389E-09
         0.30187E-09
         0.56982E-09
         0.62686E-09
         0.51116E-09
         0.64892E-09
         0.12036E-08
         0.94038E-09
         0.11953E-08
         0.70304E-09
         0.80300E-09
         0.75850E-09
         0.84023E-09
         0.64523E-09
         0.40073E-09
         0.76190E-09
         0.63330E-09
         0.66285E-09
         0.67809E-09
         0.58855E-09
         0.71689E-09
         0.90966E-09
         0.64278E-09
         0.10168E-08
         0.88361E-09
         0.40076E-09
         0.61837E-09
         0.70178E-09
         0.74156E-09
         0.71554E-09
         0.56234E-09
         0.35350E-09
         0.58428E-09
         0.77343E-09
         0.62442E-09
         0.54918E-09
         0.35981E-09
         0.61349E-09
         0.83271E-09
         0.87328E-09
         0.70481E-09
         0.43369E-09
         0.74524E-09
         0.27634E-09
         0.35142E-09
         0.32873E-09
         0.38768E-09
         0.37823E-09
         0.36731E-09
         0.39163E-09
         0.41358E-09
         0.38945E-09
         0.30422E-09
         0.24802E-09
         0.32001E-09
         0.42625E-09
         0.46837E-09
         0.44949E-09
         0.40546E-09
         0.36819E-09
         0.29904E-09
         0.25167E-09
         0.32881E-09
         0.43526E-09
         0.44963E-09
         0.36362E-09
         0.29523E-09
         0.36139E-09
         0.42768E-09
         0.91161E-09
         0.72353E-09
         0.77600E-09
         0.13341E-08
         0.71583E-09
         0.91323E-09
         0.51088E-09
         0.61386E-09
         0.10116E-08
         0.74341E-09
         0.30158E-09
         0.56972E-09
         0.62682E-09
         0.51045E-09
         0.64879E-09
         0.12040E-08
         0.94081E-09
         0.11959E-08
         0.70307E-09
         0.80310E-09
         0.75847E-09
         0.84027E-09
         0.64517E-09
         0.40069E-09
         0.76158E-09
         0.63325E-09
         0.66186E-09
         0.67742E-09
         0.58831E-09
         0.71673E-09
         0.90975E-09
         0.64270E-09
         0.10173E-08
         0.88441E-09
         0.40075E-09
         0.61825E-09
         0.70169E-09
         0.74151E-09
         0.71559E-09
         0.56237E-09
         0.35350E-09
         0.58420E-09
         0.77339E-09
         0.62433E-09
         0.54905E-09
         0.35972E-09
         0.61344E-09
         0.83272E-09
         0.87341E-09
         0.70496E-09
         0.43370E-09
         0.74562E-09
         0.27626E-09
         0.35142E-09
         0.32857E-09
         0.38770E-09
         0.37832E-09
         0.36739E-09
         0.39181E-09
         0.41387E-09
         0.38968E-09
         0.30429E-09
         0.24804E-09
         0.32002E-09
         0.42631E-09
         0.46847E-09
         0.44954E-09
         0.40545E-09
         0.36816E-09
         0.29901E-09
         0.25163E-09
         0.32878E-09
         0.43525E-09
         0.44963E-09
         0.36354E-09
         0.29517E-09
         0.36144E-09
         0.42766E-09
         0.91167E-09
         0.72338E-09
         0.77607E-09
         0.13348E-08
         0.71594E-09
         0.91351E-09
         0.51062E-09
         0.61349E-09
         0.10119E-08
         0.74292E-09
         0.30129E-09
         0.56962E-09
         0.62678E-09
         0.50974E-09
         0.64865E-09
         0.12044E-08
         0.94125E-09
         0.11965E-08
         0.70310E-09
         0.80321E-09
         0.75844E-09
         0.84031E-09
         0.64511E-09
         0.40065E-09
         0.76125E-09
         0.63320E-09
         0.66087E-09
         0.67676E-09
         0.58806E-09
         0.71657E-09
         0.90984E-09
         0.64263E-09
         0.10179E-08
         0.88522E-09
         0.40075E-09
         0.61813E-09
         0.70160E-09
         0.74146E-09
         0.71564E-09
         0.56240E-09
         0.35350E-09
         0.58412E-09
         0.77336E-09
         0.62425E-09
         0.54892E-09
         0.35963E-09
         0.61339E-09
         0.83274E-09
         0.87355E-09
         0.70511E-09
         0.43371E-09
         0.74599E-09
         0.27618E-09
         0.35141E-09
         0.32841E-09
         0.38771E-09
         0.37841E-09
         0.36747E-09
         0.39198E-09
         0.41417E-09
         0.38992E-09
         0.30436E-09
         0.24806E-09
         0.32003E-09
         0.42637E-09
         0.46858E-09
         0.44960E-09
         0.40544E-09
         0.36814E-09
         0.29899E-09
         0.25159E-09
         0.32876E-09
         0.43525E-09
         0.44963E-09
         0.36347E-09
         0.29511E-09
         0.36148E-09
         0.42766E-09
         0.91171E-09
         0.72323E-09
         0.77613E-09
         0.13354E-08
         0.71606E-09
         0.91379E-09
         0.51035E-09
         0.61313E-09
         0.10123E-08
         0.74243E-09
         0.30101E-09
         0.56952E-09
         0.62674E-09
         0.50903E-09
         0.64851E-09
         0.12047E-08
         0.94167E-09
         0.11971E-08
         0.70312E-09
         0.80331E-09
         0.75840E-09
         0.84034E-09
         0.64504E-09
         0.40061E-09
         0.76092E-09
         0.63314E-09
         0.65988E-09
         0.67609E-09
         0.58781E-09
         0.71641E-09
         0.90993E-09
         0.64255E-09
         0.10184E-08
         0.88601E-09
         0.40075E-09
         0.61801E-09
         0.70151E-09
         0.74140E-09
         0.71569E-09
         0.56243E-09
         0.35350E-09
         0.58404E-09
         0.77332E-09
         0.62416E-09
         0.54879E-09
         0.35953E-09
         0.61334E-09
         0.83274E-09
         0.87368E-09
         0.70525E-09
         0.43372E-09
         0.74636E-09
         0.27609E-09
         0.35141E-09
         0.32825E-09
         0.38772E-09
         0.37849E-09
         0.36754E-09
         0.39215E-09
         0.41447E-09
         0.39014E-09
         0.30443E-09
         0.24808E-09
         0.32004E-09
         0.42642E-09
         0.46868E-09
         0.44965E-09
         0.40543E-09
         0.36812E-09
         0.29897E-09
         0.25155E-09
         0.32874E-09
         0.43524E-09
         0.44963E-09
         0.36340E-09
         0.29504E-09
         0.36153E-09
         0.42764E-09
         0.91176E-09
         0.72308E-09
         0.77620E-09
         0.13360E-08
         0.71617E-09
         0.91407E-09
         0.51008E-09
         0.61276E-09
         0.10126E-08
         0.74195E-09
         0.30072E-09
         0.56942E-09
         0.62670E-09
         0.50832E-09
         0.64838E-09
         0.12051E-08
         0.94210E-09
         0.11977E-08
         0.70314E-09
         0.80341E-09
         0.75837E-09
         0.84038E-09
         0.64498E-09
         0.40056E-09
         0.76060E-09
         0.63309E-09
         0.65888E-09
         0.67542E-09
         0.58756E-09
         0.71624E-09
         0.91002E-09
         0.64247E-09
         0.10189E-08
         0.88682E-09
         0.40074E-09
         0.61790E-09
         0.70142E-09
         0.74135E-09
         0.71574E-09
         0.56245E-09
         0.35351E-09
         0.58396E-09
         0.77328E-09
         0.62407E-09
         0.54866E-09
         0.35944E-09
         0.61329E-09
         0.83275E-09
         0.87382E-09
         0.70539E-09
         0.43373E-09
         0.74673E-09
         0.27601E-09
         0.35140E-09
         0.32809E-09
         0.38774E-09
         0.37858E-09
         0.36762E-09
         0.39232E-09
         0.41477E-09
         0.39037E-09
         0.30450E-09
         0.24810E-09
         0.32005E-09
         0.42648E-09
         0.46879E-09
         0.44970E-09
         0.40541E-09
         0.36809E-09
         0.29894E-09
         0.25151E-09
         0.32871E-09
         0.43523E-09
         0.44963E-09
         0.36333E-09
         0.29497E-09
         0.36157E-09
         0.42763E-09
         0.91182E-09
         0.72293E-09
         0.77627E-09
         0.13367E-08
         0.71629E-09
         0.91436E-09
         0.50982E-09
         0.61240E-09
         0.10130E-08
         0.74146E-09
         0.30043E-09
         0.56932E-09
         0.62666E-09
         0.50762E-09
         0.64825E-09
         0.12054E-08
         0.94253E-09
         0.11983E-08
         0.70317E-09
         0.80351E-09
         0.75834E-09
         0.84041E-09
         0.64491E-09
         0.40053E-09
         0.76028E-09
         0.63304E-09
         0.65790E-09
         0.67476E-09
         0.58731E-09
         0.71609E-09
         0.91012E-09
         0.64239E-09
         0.10195E-08
         0.88762E-09
         0.40074E-09
         0.61778E-09
         0.70133E-09
         0.74130E-09
         0.71579E-09
         0.56249E-09
         0.35351E-09
         0.58388E-09
         0.77324E-09
         0.62398E-09
         0.54853E-09
         0.35935E-09
         0.61324E-09
         0.83277E-09
         0.87396E-09
         0.70554E-09
         0.43375E-09
         0.74711E-09
         0.27592E-09
         0.35140E-09
         0.32793E-09
         0.38775E-09
         0.37867E-09
         0.36770E-09
         0.39249E-09
         0.41507E-09
         0.39061E-09
         0.30457E-09
         0.24812E-09
         0.32006E-09
         0.42654E-09
         0.46890E-09
         0.44975E-09
         0.40540E-09
         0.36807E-09
         0.29892E-09
         0.25148E-09
         0.32869E-09
         0.43522E-09
         0.44963E-09
         0.36325E-09
         0.29491E-09
         0.36162E-09
         0.42762E-09
         0.91187E-09
         0.72278E-09
         0.77633E-09
         0.13373E-08
         0.71640E-09
         0.91463E-09
         0.50955E-09
         0.61204E-09
         0.10134E-08
         0.74098E-09
         0.30015E-09
         0.56922E-09
         0.62662E-09
         0.50691E-09
         0.64811E-09
         0.12058E-08
         0.94296E-09
         0.11989E-08
         0.70320E-09
         0.80361E-09
         0.75831E-09
         0.84045E-09
         0.64485E-09
         0.40048E-09
         0.75995E-09
         0.63298E-09
         0.65690E-09
         0.67409E-09
         0.58706E-09
         0.71592E-09
         0.91020E-09
         0.64231E-09
         0.10200E-08
         0.88843E-09
         0.40074E-09
         0.61766E-09
         0.70124E-09
         0.74124E-09
         0.71584E-09
         0.56251E-09
         0.35351E-09
         0.58380E-09
         0.77320E-09
         0.62389E-09
         0.54840E-09
         0.35926E-09
         0.61318E-09
         0.83277E-09
         0.87409E-09
         0.70568E-09
         0.43376E-09
         0.74748E-09
         0.27584E-09
         0.35139E-09
         0.32777E-09
         0.38777E-09
         0.37876E-09
         0.36778E-09
         0.39266E-09
         0.41536E-09
         0.39084E-09
         0.30464E-09
         0.24814E-09
         0.32006E-09
         0.42659E-09
         0.46900E-09
         0.44980E-09
         0.40539E-09
         0.36805E-09
         0.29890E-09
         0.25144E-09
         0.32867E-09
         0.43521E-09
         0.44963E-09
         0.36318E-09
         0.29485E-09
         0.36166E-09
         0.42761E-09
         0.91192E-09
         0.72263E-09
         0.77640E-09
         0.13380E-08
         0.71652E-09
         0.91491E-09
         0.50928E-09
         0.61167E-09
         0.10137E-08
         0.74049E-09
         0.29986E-09
         0.56912E-09
         0.62657E-09
         0.50620E-09
         0.64797E-09
         0.12061E-08
         0.94339E-09
         0.11995E-08
         0.70322E-09
         0.80371E-09
         0.75827E-09
         0.84048E-09
         0.64478E-09
         0.40044E-09
         0.75962E-09
         0.63293E-09
         0.65591E-09
         0.67343E-09
         0.58681E-09
         0.71576E-09
         0.91029E-09
         0.64223E-09
         0.10205E-08
         0.88923E-09
         0.40073E-09
         0.61754E-09
         0.70114E-09
         0.74119E-09
         0.71588E-09
         0.56254E-09
         0.35351E-09
         0.58372E-09
         0.77316E-09
         0.62380E-09
         0.54827E-09
         0.35917E-09
         0.61313E-09
         0.83278E-09
         0.87422E-09
         0.70582E-09
         0.43377E-09
         0.74785E-09
         0.27575E-09
         0.35138E-09
         0.32761E-09
         0.38778E-09
         0.37885E-09
         0.36786E-09
         0.39283E-09
         0.41566E-09
         0.39107E-09
         0.30470E-09
         0.24816E-09
         0.32007E-09
         0.42665E-09
         0.46911E-09
         0.44985E-09
         0.40538E-09
         0.36802E-09
         0.29887E-09
         0.25140E-09
         0.32864E-09
         0.43520E-09
         0.44963E-09
         0.36310E-09
         0.29478E-09
         0.36170E-09
         0.42760E-09
         0.91198E-09
         0.72248E-09
         0.77646E-09
         0.13386E-08
         0.71663E-09
         0.91520E-09
         0.50901E-09
         0.61131E-09
         0.10141E-08
         0.74000E-09
         0.29957E-09
         0.56902E-09
         0.62653E-09
         0.50549E-09
         0.64784E-09
         0.12065E-08
         0.94382E-09
         0.12002E-08
         0.70325E-09
         0.80381E-09
         0.75824E-09
         0.84052E-09
         0.64472E-09
         0.40040E-09
         0.75929E-09
         0.63288E-09
         0.65492E-09
         0.67276E-09
         0.58657E-09
         0.71560E-09
         0.91038E-09
         0.64216E-09
         0.10211E-08
         0.89003E-09
         0.40073E-09
         0.61742E-09
         0.70105E-09
         0.74114E-09
         0.71593E-09
         0.56257E-09
         0.35351E-09
         0.58364E-09
         0.77313E-09
         0.62371E-09
         0.54814E-09
         0.35908E-09
         0.61308E-09
         0.83280E-09
         0.87436E-09
         0.70597E-09
         0.43378E-09
         0.74823E-09
         0.27567E-09
         0.35138E-09
         0.32745E-09
         0.38779E-09
         0.37893E-09
         0.36794E-09
         0.39300E-09
         0.41596E-09
         0.39130E-09
         0.30477E-09
         0.24818E-09
         0.32008E-09
         0.42671E-09
         0.46921E-09
         0.44991E-09
         0.40537E-09
         0.36800E-09
         0.29885E-09
         0.25136E-09
         0.32862E-09
         0.43520E-09
         0.44963E-09
         0.36303E-09
         0.29472E-09
         0.36175E-09
         0.42759E-09
         0.91203E-09
         0.72233E-09
         0.77653E-09
         0.13392E-08
         0.71675E-09
         0.91547E-09
         0.50875E-09
         0.61094E-09
         0.10144E-08
         0.73952E-09
         0.29928E-09
         0.56892E-09
         0.62649E-09
         0.50478E-09
         0.64770E-09
         0.12068E-08
         0.94424E-09
         0.12008E-08
         0.70327E-09
         0.80391E-09
         0.75821E-09
         0.84055E-09
         0.64465E-09
         0.40035E-09
         0.75896E-09
         0.63282E-09
         0.65393E-09
         0.67210E-09
         0.58632E-09
         0.71543E-09
         0.91047E-09
         0.64208E-09
         0.10216E-08
         0.89084E-09
         0.40073E-09
         0.61730E-09
         0.70096E-09
         0.74108E-09
         0.71598E-09
         0.56259E-09
         0.35351E-09
         0.58356E-09
         0.77309E-09
         0.62362E-09
         0.54801E-09
         0.35898E-09
         0.61303E-09
         0.83281E-09
         0.87449E-09
         0.70611E-09
         0.43379E-09
         0.74860E-09
         0.27558E-09
         0.35137E-09
         0.32729E-09
         0.38781E-09
         0.37902E-09
         0.36802E-09
         0.39317E-09
         0.41625E-09
         0.39153E-09
         0.30484E-09
         0.24820E-09
         0.32009E-09
         0.42677E-09
         0.46932E-09
         0.44996E-09
         0.40536E-09
         0.36798E-09
         0.29883E-09
         0.25132E-09
         0.32859E-09
         0.43519E-09
         0.44963E-09
         0.36296E-09
         0.29465E-09
         0.36179E-09
         0.42758E-09
         0.91208E-09
         0.72218E-09
         0.77659E-09
         0.13399E-08
         0.71686E-09
         0.91576E-09
         0.50848E-09
         0.61058E-09
         0.10148E-08
         0.73903E-09
         0.29900E-09
         0.56882E-09
         0.62645E-09
         0.50408E-09
         0.64757E-09
         0.12072E-08
         0.94467E-09
         0.12014E-08
         0.70330E-09
         0.80401E-09
         0.75818E-09
         0.84059E-09
         0.64459E-09
         0.40031E-09
         0.75864E-09
         0.63277E-09
         0.65294E-09
         0.67143E-09
         0.58607E-09
         0.71527E-09
         0.91057E-09
         0.64200E-09
         0.10221E-08
         0.89164E-09
         0.40072E-09
         0.61719E-09
         0.70087E-09
         0.74103E-09
         0.71603E-09
         0.56262E-09
         0.35352E-09
         0.58348E-09
         0.77305E-09
         0.62354E-09
         0.54788E-09
         0.35889E-09
         0.61298E-09
         0.83282E-09
         0.87463E-09
         0.70626E-09
         0.43380E-09
         0.74897E-09
         0.27550E-09
         0.35137E-09
         0.32713E-09
         0.38782E-09
         0.37911E-09
         0.36810E-09
         0.39334E-09
         0.41655E-09
         0.39176E-09
         0.30491E-09
         0.24822E-09
         0.32010E-09
         0.42682E-09
         0.46942E-09
         0.45001E-09
         0.40534E-09
         0.36796E-09
         0.29881E-09
         0.25128E-09
         0.32857E-09
         0.43518E-09
         0.44963E-09
         0.36288E-09
         0.29459E-09
         0.36184E-09
         0.42757E-09
         0.91214E-09
         0.72204E-09
         0.77666E-09
         0.13405E-08
         0.71698E-09
         0.91604E-09
         0.50822E-09
         0.61022E-09
         0.10151E-08
         0.73855E-09
         0.29871E-09
         0.56872E-09
         0.62641E-09
         0.50337E-09
         0.64743E-09
         0.12075E-08
         0.94510E-09
         0.12020E-08
         0.70333E-09
         0.80411E-09
         0.75815E-09
         0.84063E-09
         0.64453E-09
         0.40027E-09
         0.75831E-09
         0.63272E-09
         0.65196E-09
         0.67077E-09
         0.58582E-09
         0.71511E-09
         0.91066E-09
         0.64192E-09
         0.10227E-08
         0.89245E-09
         0.40072E-09
         0.61707E-09
         0.70078E-09
         0.74098E-09
         0.71608E-09
         0.56265E-09
         0.35352E-09
         0.58340E-09
         0.77301E-09
         0.62345E-09
         0.54775E-09
         0.35880E-09
         0.61293E-09
         0.83283E-09
         0.87476E-09
         0.70641E-09
         0.43382E-09
         0.74935E-09
         0.27541E-09
         0.35136E-09
         0.32697E-09
         0.38784E-09
         0.37920E-09
         0.36818E-09
         0.39352E-09
         0.41685E-09
         0.39199E-09
         0.30498E-09
         0.24824E-09
         0.32011E-09
         0.42688E-09
         0.46953E-09
         0.45007E-09
         0.40533E-09
         0.36793E-09
         0.29878E-09
         0.25124E-09
         0.32855E-09
         0.43517E-09
         0.44963E-09
         0.36281E-09
         0.29452E-09
         0.36188E-09
         0.42756E-09
         0.91219E-09
         0.72188E-09
         0.77672E-09
         0.13412E-08
         0.71709E-09
         0.91632E-09
         0.50795E-09
         0.60986E-09
         0.10155E-08
         0.73806E-09
         0.29842E-09
         0.56862E-09
         0.62636E-09
         0.50266E-09
         0.64730E-09
         0.12079E-08
         0.94552E-09
         0.12026E-08
         0.70335E-09
         0.80421E-09
         0.75811E-09
         0.84066E-09
         0.64446E-09
         0.40023E-09
         0.75798E-09
         0.63267E-09
         0.65096E-09
         0.67010E-09
         0.58557E-09
         0.71494E-09
         0.91074E-09
         0.64184E-09
         0.10232E-08
         0.89325E-09
         0.40072E-09
         0.61695E-09
         0.70069E-09
         0.74092E-09
         0.71612E-09
         0.56268E-09
         0.35352E-09
         0.58332E-09
         0.77297E-09
         0.62336E-09
         0.54762E-09
         0.35871E-09
         0.61287E-09
         0.83284E-09
         0.87489E-09
         0.70655E-09
         0.43383E-09
         0.74972E-09
         0.27533E-09
         0.35136E-09
         0.32681E-09
         0.38785E-09
         0.37929E-09
         0.36825E-09
         0.39369E-09
         0.41715E-09
         0.39222E-09
         0.30505E-09
         0.24826E-09
         0.32011E-09
         0.42694E-09
         0.46963E-09
         0.45011E-09
         0.40532E-09
         0.36791E-09
         0.29876E-09
         0.25120E-09
         0.32853E-09
         0.43516E-09
         0.44962E-09
         0.36274E-09
         0.29445E-09
         0.36192E-09
         0.42755E-09
         0.91224E-09
         0.72173E-09
         0.77679E-09
         0.13418E-08
         0.71720E-09
         0.91660E-09
         0.50768E-09
         0.60949E-09
         0.10158E-08
         0.73758E-09
         0.29814E-09
         0.56852E-09
         0.62632E-09
         0.50195E-09
         0.64716E-09
         0.12082E-08
         0.94595E-09
         0.12032E-08
         0.70337E-09
         0.80431E-09
         0.75808E-09
         0.84069E-09
         0.64440E-09
         0.40018E-09
         0.75766E-09
         0.63262E-09
         0.64998E-09
         0.66943E-09
         0.58532E-09
         0.71478E-09
         0.91083E-09
         0.64176E-09
         0.10238E-08
         0.89406E-09
         0.40071E-09
         0.61683E-09
         0.70059E-09
         0.74087E-09
         0.71617E-09
         0.56270E-09
         0.35352E-09
         0.58324E-09
         0.77294E-09
         0.62327E-09
         0.54749E-09
         0.35861E-09
         0.61282E-09
         0.83284E-09
         0.87503E-09
         0.70669E-09
         0.43384E-09
         0.75009E-09
         0.27524E-09
         0.35135E-09
         0.32665E-09
         0.38786E-09
         0.37937E-09
         0.36833E-09
         0.39386E-09
         0.41745E-09
         0.39245E-09
         0.30512E-09
         0.24828E-09
         0.32012E-09
         0.42699E-09
         0.46974E-09
         0.45017E-09
         0.40531E-09
         0.36788E-09
         0.29873E-09
         0.25117E-09
         0.32850E-09
         0.43515E-09
         0.44962E-09
         0.36266E-09
         0.29439E-09
         0.36197E-09
         0.42754E-09
         0.91230E-09
         0.72159E-09
         0.77686E-09
         0.13425E-08
         0.71732E-09
         0.91688E-09
         0.50742E-09
         0.60913E-09
         0.10162E-08
         0.73710E-09
         0.29785E-09
         0.56842E-09
         0.62628E-09
         0.50125E-09
         0.64703E-09
         0.12086E-08
         0.94638E-09
         0.12038E-08
         0.70340E-09
         0.80441E-09
         0.75805E-09
         0.84073E-09
         0.64433E-09
         0.40014E-09
         0.75733E-09
         0.63257E-09
         0.64899E-09
         0.66877E-09
         0.58508E-09
         0.71462E-09
         0.91093E-09
         0.64169E-09
         0.10243E-08
         0.89487E-09
         0.40071E-09
         0.61671E-09
         0.70051E-09
         0.74082E-09
         0.71622E-09
         0.56273E-09
         0.35352E-09
         0.58316E-09
         0.77290E-09
         0.62318E-09
         0.54737E-09
         0.35852E-09
         0.61277E-09
         0.83286E-09
         0.87517E-09
         0.70684E-09
         0.43385E-09
         0.75047E-09
         0.27516E-09
         0.35135E-09
         0.32649E-09
         0.38788E-09
         0.37946E-09
         0.36841E-09
         0.39403E-09
         0.41775E-09
         0.39268E-09
         0.30519E-09
         0.24830E-09
         0.32013E-09
         0.42705E-09
         0.46985E-09
         0.45022E-09
         0.40530E-09
         0.36786E-09
         0.29871E-09
         0.25113E-09
         0.32848E-09
         0.43515E-09
         0.44962E-09
         0.36259E-09
         0.29433E-09
         0.36201E-09
         0.42753E-09
         0.91235E-09
         0.72143E-09
         0.77692E-09
         0.13431E-08
         0.71743E-09
         0.91716E-09
         0.50715E-09
         0.60877E-09
         0.10165E-08
         0.73661E-09
         0.29757E-09
         0.56832E-09
         0.62624E-09
         0.50054E-09
         0.64689E-09
         0.12089E-08
         0.94680E-09
         0.12044E-08
         0.70342E-09
         0.80450E-09
         0.75802E-09
         0.84076E-09
         0.64427E-09
         0.40010E-09
         0.75700E-09
         0.63251E-09
         0.64800E-09
         0.66810E-09
         0.58482E-09
         0.71445E-09
         0.91101E-09
         0.64161E-09
         0.10248E-08
         0.89567E-09
         0.40071E-09
         0.61659E-09
         0.70041E-09
         0.74077E-09
         0.71627E-09
         0.56276E-09
         0.35352E-09
         0.58308E-09
         0.77286E-09
         0.62309E-09
         0.54723E-09
         0.35843E-09
         0.61272E-09
         0.83287E-09
         0.87530E-09
         0.70698E-09
         0.43386E-09
         0.75084E-09
         0.27507E-09
         0.35134E-09
         0.32633E-09
         0.38789E-09
         0.37955E-09
         0.36849E-09
         0.39420E-09
         0.41804E-09
         0.39291E-09
         0.30525E-09
         0.24832E-09
         0.32014E-09
         0.42711E-09
         0.46995E-09
         0.45027E-09
         0.40528E-09
         0.36784E-09
         0.29869E-09
         0.25109E-09
         0.32845E-09
         0.43514E-09
         0.44962E-09
         0.36252E-09
         0.29426E-09
         0.36206E-09
         0.42751E-09
         0.91240E-09
         0.72128E-09
         0.77698E-09
         0.13437E-08
         0.71755E-09
         0.91744E-09
         0.50688E-09
         0.60841E-09
         0.10169E-08
         0.73612E-09
         0.29728E-09
         0.56822E-09
         0.62619E-09
         0.49984E-09
         0.64676E-09
         0.12093E-08
         0.94723E-09
         0.12050E-08
         0.70345E-09
         0.80460E-09
         0.75798E-09
         0.84080E-09
         0.64420E-09
         0.40006E-09
         0.75667E-09
         0.63246E-09
         0.64701E-09
         0.66744E-09
         0.58457E-09
         0.71429E-09
         0.91110E-09
         0.64153E-09
         0.10254E-08
         0.89648E-09
         0.40070E-09
         0.61647E-09
         0.70032E-09
         0.74071E-09
         0.71632E-09
         0.56279E-09
         0.35353E-09
         0.58300E-09
         0.77282E-09
         0.62300E-09
         0.54710E-09
         0.35834E-09
         0.61266E-09
         0.83288E-09
         0.87543E-09
         0.70713E-09
         0.43387E-09
         0.75122E-09
         0.27499E-09
         0.35133E-09
         0.32617E-09
         0.38790E-09
         0.37964E-09
         0.36857E-09
         0.39437E-09
         0.41834E-09
         0.39314E-09
         0.30532E-09
         0.24834E-09
         0.32014E-09
         0.42716E-09
         0.47005E-09
         0.45032E-09
         0.40527E-09
         0.36781E-09
         0.29866E-09
         0.25105E-09
         0.32843E-09
         0.43513E-09
         0.44962E-09
         0.36244E-09
         0.29419E-09
         0.36210E-09
         0.42750E-09
         0.91246E-09
         0.72114E-09
         0.77705E-09
         0.13444E-08
         0.71767E-09
         0.91773E-09
         0.50662E-09
         0.60805E-09
         0.10173E-08
         0.73564E-09
         0.29700E-09
         0.56812E-09
         0.62616E-09
         0.49914E-09
         0.64663E-09
         0.12097E-08
         0.94766E-09
         0.12056E-08
         0.70348E-09
         0.80471E-09
         0.75796E-09
         0.84084E-09
         0.64414E-09
         0.40002E-09
         0.75635E-09
         0.63241E-09
         0.64603E-09
         0.66678E-09
         0.58433E-09
         0.71413E-09
         0.91120E-09
         0.64146E-09
         0.10259E-08
         0.89729E-09
         0.40070E-09
         0.61636E-09
         0.70023E-09
         0.74067E-09
         0.71637E-09
         0.56282E-09
         0.35353E-09
         0.58293E-09
         0.77279E-09
         0.62291E-09
         0.54698E-09
         0.35825E-09
         0.61261E-09
         0.83289E-09
         0.87557E-09
         0.70728E-09
         0.43389E-09
         0.75160E-09
         0.27491E-09
         0.35133E-09
         0.32601E-09
         0.38792E-09
         0.37972E-09
         0.36865E-09
         0.39454E-09
         0.41864E-09
         0.39337E-09
         0.30539E-09
         0.24836E-09
         0.32015E-09
         0.42722E-09
         0.47016E-09
         0.45038E-09
         0.40526E-09
         0.36779E-09
         0.29864E-09
         0.25101E-09
         0.32841E-09
         0.43512E-09
         0.44962E-09
         0.36237E-09
         0.29413E-09
         0.36215E-09
         0.42750E-09
         0.91249E-09
         0.72097E-09
         0.77710E-09
         0.13450E-08
         0.71777E-09
         0.91799E-09
         0.50634E-09
         0.60767E-09
         0.10176E-08
         0.73514E-09
         0.29670E-09
         0.56801E-09
         0.62610E-09
         0.49842E-09
         0.64648E-09
         0.12100E-08
         0.94806E-09
         0.12062E-08
         0.70349E-09
         0.80479E-09
         0.75791E-09
         0.84086E-09
         0.64406E-09
         0.39997E-09
         0.75600E-09
         0.63234E-09
         0.64503E-09
         0.66610E-09
         0.58407E-09
         0.71395E-09
         0.91127E-09
         0.64136E-09
         0.10264E-08
         0.89808E-09
         0.40069E-09
         0.61622E-09
         0.70012E-09
         0.74060E-09
         0.71641E-09
         0.56283E-09
         0.35352E-09
         0.58283E-09
         0.77273E-09
         0.62281E-09
         0.54684E-09
         0.35815E-09
         0.61255E-09
         0.83288E-09
         0.87569E-09
         0.70741E-09
         0.43389E-09
         0.75195E-09
         0.27482E-09
         0.35132E-09
         0.32584E-09
         0.38793E-09
         0.37980E-09
         0.36872E-09
         0.39470E-09
         0.41893E-09
         0.39360E-09
         0.30545E-09
         0.24837E-09
         0.32016E-09
         0.42727E-09
         0.47026E-09
         0.45042E-09
         0.40524E-09
         0.36776E-09
         0.29861E-09
         0.25097E-09
         0.32838E-09
         0.43510E-09
         0.44961E-09
         0.36229E-09
         0.29406E-09
         0.36218E-09
         0.42748E-09
         0.91256E-09
         0.72083E-09
         0.77718E-09
         0.13457E-08
         0.71789E-09
         0.91829E-09
         0.50608E-09
         0.60732E-09
         0.10180E-08
         0.73467E-09
         0.29642E-09
         0.56792E-09
         0.62607E-09
         0.49772E-09
         0.64636E-09
         0.12103E-08
         0.94850E-09
         0.12068E-08
         0.70352E-09
         0.80490E-09
         0.75789E-09
         0.84091E-09
         0.64401E-09
         0.39993E-09
         0.75569E-09
         0.63230E-09
         0.64405E-09
         0.66544E-09
         0.58382E-09
         0.71379E-09
         0.91137E-09
         0.64129E-09
         0.10270E-08
         0.89890E-09
         0.40069E-09
         0.61611E-09
         0.70004E-09
         0.74056E-09
         0.71646E-09
         0.56287E-09
         0.35353E-09
         0.58276E-09
         0.77271E-09
         0.62273E-09
         0.54672E-09
         0.35806E-09
         0.61251E-09
         0.83291E-09
         0.87583E-09
         0.70756E-09
         0.43391E-09
         0.75234E-09
         0.27474E-09
         0.35132E-09
         0.32569E-09
         0.38794E-09
         0.37990E-09
         0.36881E-09
         0.39488E-09
         0.41923E-09
         0.39383E-09
         0.30553E-09
         0.24840E-09
         0.32017E-09
         0.42734E-09
         0.47037E-09
         0.45048E-09
         0.40524E-09
         0.36774E-09
         0.29859E-09
         0.25093E-09
         0.32836E-09
         0.43510E-09
         0.44962E-09
         0.36222E-09
         0.29400E-09
         0.36223E-09
         0.42747E-09
         0.45631E-09
         0.36039E-09
         0.38862E-09
         0.67302E-09
         0.35899E-09
         0.45923E-09
         0.25298E-09
         0.30358E-09
         0.50909E-09
         0.36723E-09
         0.14815E-09
         0.28394E-09
         0.31303E-09
         0.24869E-09
         0.32316E-09
         0.60528E-09
         0.47437E-09
         0.60357E-09
         0.35178E-09
         0.40249E-09
         0.37895E-09
         0.42048E-09
         0.32200E-09
         0.19996E-09
         0.37777E-09
         0.31615E-09
         0.32179E-09
         0.33257E-09
         0.29186E-09
         0.35687E-09
         0.45572E-09
         0.32064E-09
         0.51365E-09
         0.44967E-09
         0.20035E-09
         0.30804E-09
         0.35001E-09
         0.37028E-09
         0.35826E-09
         0.28145E-09
         0.17677E-09
         0.29137E-09
         0.38636E-09
         0.31135E-09
         0.27333E-09
         0.17901E-09
         0.30625E-09
         0.41647E-09
         0.43797E-09
         0.35383E-09
         0.21697E-09
         0.37628E-09
         0.13735E-09
         0.17566E-09
         0.16281E-09
         0.19398E-09
         0.18998E-09
         0.18443E-09
         0.19749E-09
         0.20970E-09
         0.19698E-09
         0.15279E-09
         0.12421E-09
         0.16009E-09
         0.21369E-09
         0.23522E-09
         0.22526E-09
         0.20262E-09
         0.18387E-09
         0.14930E-09
         0.12546E-09
         0.16418E-09
         0.21756E-09
         0.22482E-09
         0.18110E-09
         0.14699E-09
         0.18113E-09
         0.21374E-09
  
SCALARS               pre_disp_force_x  double 1
LOOKUP_TABLE default
         0.00000E+00
         0.00000E+00
         0.00000E+00
         0.00000E+00
         0.00000E+00
         0.00000E+00
         0.00000E+00
         0.00000E+00
         0.00000E+00
         0.00000E+00
         0.00000E+00
         0.00000E+00
         0.00000E+00
         0.00000E+00
         0.00000E+00
         0.00000E+00
         0.00000E+00
         0.00000E+00
         0.00000E+00
         0.00000E+00
         0.00000E+00
         0.00000E+00
         0.00000E+00
         0.00000E+00
         0.00000E+00
         0.00000E+00
         0.00000E+00
         0.00000E+00
         0.00000E+00
         0.00000E+00
         0.00000E+00
         0.00000E+00
         0.00000E+00
         0.00000E+00
         0.00000E+00
         0.00000E+00
         0.00000E+00
         0.00000E+00
         0.00000E+00
         0.00000E+00
         0.00000E+00
         0.00000E+00
         0.00000E+00
         0.00000E+00
         0.00000E+00
         0.00000E+00
         0.00000E+00
         0.00000E+00
         0.00000E+00
         0.00000E+00
         0.00000E+00
         0.00000E+00
         0.00000E+00
         0.00000E+00
         0.00000E+00
         0.00000E+00
         0.00000E+00
         0.00000E+00
         0.00000E+00
         0.00000E+00
         0.00000E+00
         0.00000E+00
         0.00000E+00
         0.00000E+00
         0.00000E+00
         0.00000E+00
         0.00000E+00
         0.00000E+00
         0.00000E+00
         0.00000E+00
         0.00000E+00
         0.00000E+00
         0.00000E+00
         0.00000E+00
         0.00000E+00
         0.00000E+00
         0.00000E+00
         0.00000E+00
         0.00000E+00
         0.00000E+00
         0.00000E+00
         0.00000E+00
         0.00000E+00
         0.00000E+00
         0.00000E+00
         0.00000E+00
         0.00000E+00
         0.00000E+00
         0.00000E+00
         0.00000E+00
         0.00000E+00
         0.00000E+00
         0.00000E+00
         0.00000E+00
         0.00000E+00
         0.00000E+00
         0.00000E+00
         0.00000E+00
         0.00000E+00
         0.00000E+00
         0.00000E+00
         0.00000E+00
         0.00000E+00
         0.00000E+00
         0.00000E+00
         0.00000E+00
         0.00000E+00
         0.00000E+00
         0.00000E+00
         0.00000E+00
         0.00000E+00
         0.00000E+00
         0.00000E+00
         0.00000E+00
         0.00000E+00
         0.00000E+00
         0.00000E+00
         0.00000E+00
         0.00000E+00
         0.00000E+00
         0.00000E+00
         0.00000E+00
         0.00000E+00
         0.00000E+00
         0.00000E+00
         0.00000E+00
         0.00000E+00
         0.00000E+00
         0.00000E+00
         0.00000E+00
         0.00000E+00
         0.00000E+00
         0.00000E+00
         0.00000E+00
         0.00000E+00
         0.00000E+00
         0.00000E+00
         0.00000E+00
         0.00000E+00
         0.00000E+00
         0.00000E+00
         0.00000E+00
         0.00000E+00
         0.00000E+00
         0.00000E+00
         0.00000E+00
         0.00000E+00
         0.00000E+00
         0.00000E+00
         0.00000E+00
         0.00000E+00
         0.00000E+00
         0.00000E+00
         0.00000E+00
         0.00000E+00
         0.00000E+00
         0.00000E+00
         0.00000E+00
         0.00000E+00
         0.00000E+00
         0.00000E+00
         0.00000E+00
         0.00000E+00
         0.00000E+00
         0.00000E+00
         0.00000E+00
         0.00000E+00
         0.00000E+00
         0.00000E+00
         0.00000E+00
         0.00000E+00
         0.00000E+00
         0.00000E+00
         0.00000E+00
         0.00000E+00
         0.00000E+00
         0.00000E+00
         0.00000E+00
         0.00000E+00
         0.00000E+00
         0.00000E+00
         0.00000E+00
         0.00000E+00
         0.00000E+00
         0.00000E+00
         0.00000E+00
         0.00000E+00
         0.00000E+00
         0.00000E+00
         0.00000E+00
         0.00000E+00
         0.00000E+00
         0.00000E+00
         0.00000E+00
         0.00000E+00
         0.00000E+00
         0.00000E+00
         0.00000E+00
         0.00000E+00
         0.00000E+00
         0.00000E+00
         0.00000E+00
         0.00000E+00
         0.00000E+00
         0.00000E+00
         0.00000E+00
         0.00000E+00
         0.00000E+00
         0.00000E+00
         0.00000E+00
         0.00000E+00
         0.00000E+00
         0.00000E+00
         0.00000E+00
         0.00000E+00
         0.00000E+00
         0.00000E+00
         0.00000E+00
         0.00000E+00
         0.00000E+00
         0.00000E+00
         0.00000E+00
         0.00000E+00
         0.00000E+00
         0.00000E+00
         0.00000E+00
         0.00000E+00
         0.00000E+00
         0.00000E+00
         0.00000E+00
         0.00000E+00
         0.00000E+00
         0.00000E+00
         0.00000E+00
         0.00000E+00
         0.00000E+00
         0.00000E+00
         0.00000E+00
         0.00000E+00
         0.00000E+00
         0.00000E+00
         0.00000E+00
         0.00000E+00
         0.00000E+00
         0.00000E+00
         0.00000E+00
         0.00000E+00
         0.00000E+00
         0.00000E+00
         0.00000E+00
         0.00000E+00
         0.00000E+00
         0.00000E+00
         0.00000E+00
         0.00000E+00
         0.00000E+00
         0.00000E+00
         0.00000E+00
         0.00000E+00
         0.00000E+00
         0.00000E+00
         0.00000E+00
         0.00000E+00
         0.00000E+00
         0.00000E+00
         0.00000E+00
         0.00000E+00
         0.00000E+00
         0.00000E+00
         0.00000E+00
         0.00000E+00
         0.00000E+00
         0.00000E+00
         0.00000E+00
         0.00000E+00
         0.00000E+00
         0.00000E+00
         0.00000E+00
         0.00000E+00
         0.00000E+00
         0.00000E+00
         0.00000E+00
         0.00000E+00
         0.00000E+00
         0.00000E+00
         0.00000E+00
         0.00000E+00
         0.00000E+00
         0.00000E+00
         0.00000E+00
         0.00000E+00
         0.00000E+00
         0.00000E+00
         0.00000E+00
         0.00000E+00
         0.00000E+00
         0.00000E+00
         0.00000E+00
         0.00000E+00
         0.00000E+00
         0.00000E+00
         0.00000E+00
         0.00000E+00
         0.00000E+00
         0.00000E+00
         0.00000E+00
         0.00000E+00
         0.00000E+00
         0.00000E+00
         0.00000E+00
         0.00000E+00
         0.00000E+00
         0.00000E+00
         0.00000E+00
         0.00000E+00
         0.00000E+00
         0.00000E+00
         0.00000E+00
         0.00000E+00
         0.00000E+00
         0.00000E+00
         0.00000E+00
         0.00000E+00
         0.00000E+00
         0.00000E+00
         0.00000E+00
         0.00000E+00
         0.00000E+00
         0.00000E+00
         0.00000E+00
         0.00000E+00
         0.00000E+00
         0.00000E+00
         0.00000E+00
         0.00000E+00
         0.00000E+00
         0.00000E+00
         0.00000E+00
         0.00000E+00
         0.00000E+00
         0.00000E+00
         0.00000E+00
         0.00000E+00
         0.00000E+00
         0.00000E+00
         0.00000E+00
         0.00000E+00
         0.00000E+00
         0.00000E+00
         0.00000E+00
         0.00000E+00
         0.00000E+00
         0.00000E+00
         0.00000E+00
         0.00000E+00
         0.00000E+00
         0.00000E+00
         0.00000E+00
         0.00000E+00
         0.00000E+00
         0.00000E+00
         0.00000E+00
         0.00000E+00
         0.00000E+00
         0.00000E+00
         0.00000E+00
         0.00000E+00
         0.00000E+00
         0.00000E+00
         0.00000E+00
         0.00000E+00
         0.00000E+00
         0.00000E+00
         0.00000E+00
         0.00000E+00
         0.00000E+00
         0.00000E+00
         0.00000E+00
         0.00000E+00
         0.00000E+00
         0.00000E+00
         0.00000E+00
         0.00000E+00
         0.00000E+00
         0.00000E+00
         0.00000E+00
         0.00000E+00
         0.00000E+00
         0.00000E+00
         0.00000E+00
         0.00000E+00
         0.00000E+00
         0.00000E+00
         0.00000E+00
         0.00000E+00
         0.00000E+00
         0.00000E+00
         0.00000E+00
         0.00000E+00
         0.00000E+00
         0.00000E+00
         0.00000E+00
         0.00000E+00
         0.00000E+00
         0.00000E+00
         0.00000E+00
         0.00000E+00
         0.00000E+00
         0.00000E+00
         0.00000E+00
         0.00000E+00
         0.00000E+00
         0.00000E+00
         0.00000E+00
         0.00000E+00
         0.00000E+00
         0.00000E+00
         0.00000E+00
         0.00000E+00
         0.00000E+00
         0.00000E+00
         0.00000E+00
         0.00000E+00
         0.00000E+00
         0.00000E+00
         0.00000E+00
         0.00000E+00
         0.00000E+00
         0.00000E+00
         0.00000E+00
         0.00000E+00
         0.00000E+00
         0.00000E+00
         0.00000E+00
         0.00000E+00
         0.00000E+00
         0.00000E+00
         0.00000E+00
         0.00000E+00
         0.00000E+00
         0.00000E+00
         0.00000E+00
         0.00000E+00
         0.00000E+00
         0.00000E+00
         0.00000E+00
         0.00000E+00
         0.00000E+00
         0.00000E+00
         0.00000E+00
         0.00000E+00
         0.00000E+00
         0.00000E+00
         0.00000E+00
         0.00000E+00
         0.00000E+00
         0.00000E+00
         0.00000E+00
         0.00000E+00
         0.00000E+00
         0.00000E+00
         0.00000E+00
         0.00000E+00
         0.00000E+00
         0.00000E+00
         0.00000E+00
         0.00000E+00
         0.00000E+00
         0.00000E+00
         0.00000E+00
         0.00000E+00
         0.00000E+00
         0.00000E+00
         0.00000E+00
         0.00000E+00
         0.00000E+00
         0.00000E+00
         0.00000E+00
         0.00000E+00
         0.00000E+00
         0.00000E+00
         0.00000E+00
         0.00000E+00
         0.00000E+00
         0.00000E+00
         0.00000E+00
         0.00000E+00
         0.00000E+00
         0.00000E+00
         0.00000E+00
         0.00000E+00
         0.00000E+00
         0.00000E+00
         0.00000E+00
         0.00000E+00
         0.00000E+00
         0.00000E+00
         0.00000E+00
         0.00000E+00
         0.00000E+00
         0.00000E+00
         0.00000E+00
         0.00000E+00
         0.00000E+00
         0.00000E+00
         0.00000E+00
         0.00000E+00
         0.00000E+00
         0.00000E+00
         0.00000E+00
         0.00000E+00
         0.00000E+00
         0.00000E+00
         0.00000E+00
         0.00000E+00
         0.00000E+00
         0.00000E+00
         0.00000E+00
         0.00000E+00
         0.00000E+00
         0.00000E+00
         0.00000E+00
         0.00000E+00
         0.00000E+00
         0.00000E+00
         0.00000E+00
         0.00000E+00
         0.00000E+00
         0.00000E+00
         0.00000E+00
         0.00000E+00
         0.00000E+00
         0.00000E+00
         0.00000E+00
         0.00000E+00
         0.00000E+00
         0.00000E+00
         0.00000E+00
         0.00000E+00
         0.00000E+00
         0.00000E+00
         0.00000E+00
         0.00000E+00
         0.00000E+00
         0.00000E+00
         0.00000E+00
         0.00000E+00
         0.00000E+00
         0.00000E+00
         0.00000E+00
         0.00000E+00
         0.00000E+00
         0.00000E+00
         0.00000E+00
         0.00000E+00
         0.00000E+00
         0.00000E+00
         0.00000E+00
         0.00000E+00
         0.00000E+00
         0.00000E+00
         0.00000E+00
         0.00000E+00
         0.00000E+00
         0.00000E+00
         0.00000E+00
         0.00000E+00
         0.00000E+00
         0.00000E+00
         0.00000E+00
         0.00000E+00
         0.00000E+00
         0.00000E+00
         0.00000E+00
         0.00000E+00
         0.00000E+00
         0.00000E+00
         0.00000E+00
         0.00000E+00
         0.00000E+00
         0.00000E+00
         0.00000E+00
         0.00000E+00
         0.00000E+00
         0.00000E+00
         0.00000E+00
         0.00000E+00
         0.00000E+00
         0.00000E+00
         0.00000E+00
         0.00000E+00
         0.00000E+00
         0.00000E+00
         0.00000E+00
         0.00000E+00
         0.00000E+00
         0.00000E+00
         0.00000E+00
         0.00000E+00
         0.00000E+00
         0.00000E+00
         0.00000E+00
         0.00000E+00
         0.00000E+00
         0.00000E+00
         0.00000E+00
         0.00000E+00
         0.00000E+00
         0.00000E+00
         0.00000E+00
         0.00000E+00
         0.00000E+00
         0.00000E+00
         0.00000E+00
         0.00000E+00
         0.00000E+00
         0.00000E+00
         0.00000E+00
         0.00000E+00
         0.00000E+00
         0.00000E+00
         0.00000E+00
         0.00000E+00
         0.00000E+00
         0.00000E+00
         0.00000E+00
         0.00000E+00
         0.00000E+00
         0.00000E+00
         0.00000E+00
         0.00000E+00
         0.00000E+00
         0.00000E+00
         0.00000E+00
         0.00000E+00
         0.00000E+00
         0.00000E+00
         0.00000E+00
         0.00000E+00
         0.00000E+00
         0.00000E+00
         0.00000E+00
         0.00000E+00
         0.00000E+00
         0.00000E+00
         0.00000E+00
         0.00000E+00
         0.00000E+00
         0.00000E+00
         0.00000E+00
         0.00000E+00
         0.00000E+00
         0.00000E+00
         0.00000E+00
         0.00000E+00
         0.00000E+00
         0.00000E+00
         0.00000E+00
         0.00000E+00
         0.00000E+00
         0.00000E+00
         0.00000E+00
         0.00000E+00
         0.00000E+00
         0.00000E+00
         0.00000E+00
         0.00000E+00
         0.00000E+00
         0.00000E+00
         0.00000E+00
         0.00000E+00
         0.00000E+00
         0.00000E+00
         0.00000E+00
         0.00000E+00
         0.00000E+00
         0.00000E+00
         0.00000E+00
         0.00000E+00
         0.00000E+00
         0.00000E+00
         0.00000E+00
         0.00000E+00
         0.00000E+00
         0.00000E+00
         0.00000E+00
         0.00000E+00
         0.00000E+00
         0.00000E+00
         0.00000E+00
         0.00000E+00
         0.00000E+00
         0.00000E+00
         0.00000E+00
         0.00000E+00
         0.00000E+00
         0.00000E+00
         0.00000E+00
         0.00000E+00
         0.00000E+00
         0.00000E+00
         0.00000E+00
         0.00000E+00
         0.00000E+00
         0.00000E+00
         0.00000E+00
         0.00000E+00
         0.00000E+00
         0.00000E+00
         0.00000E+00
         0.00000E+00
         0.00000E+00
         0.00000E+00
         0.00000E+00
         0.00000E+00
         0.00000E+00
         0.00000E+00
         0.00000E+00
         0.00000E+00
         0.00000E+00
         0.00000E+00
         0.00000E+00
         0.00000E+00
         0.00000E+00
         0.00000E+00
         0.00000E+00
         0.00000E+00
         0.00000E+00
         0.00000E+00
         0.00000E+00
         0.00000E+00
         0.00000E+00
         0.00000E+00
         0.00000E+00
         0.00000E+00
         0.00000E+00
         0.00000E+00
         0.00000E+00
         0.00000E+00
         0.00000E+00
         0.00000E+00
         0.00000E+00
         0.00000E+00
         0.00000E+00
         0.00000E+00
         0.00000E+00
         0.00000E+00
         0.00000E+00
         0.00000E+00
         0.00000E+00
         0.00000E+00
         0.00000E+00
         0.00000E+00
         0.00000E+00
         0.00000E+00
         0.00000E+00
         0.00000E+00
         0.00000E+00
         0.00000E+00
         0.00000E+00
         0.00000E+00
         0.00000E+00
         0.00000E+00
         0.00000E+00
         0.00000E+00
         0.00000E+00
         0.00000E+00
         0.00000E+00
         0.00000E+00
         0.00000E+00
         0.00000E+00
         0.00000E+00
         0.00000E+00
         0.00000E+00
         0.00000E+00
         0.00000E+00
         0.00000E+00
         0.00000E+00
         0.00000E+00
         0.00000E+00
         0.00000E+00
         0.00000E+00
         0.00000E+00
         0.00000E+00
         0.00000E+00
         0.00000E+00
         0.00000E+00
         0.00000E+00
         0.00000E+00
         0.00000E+00
         0.00000E+00
         0.00000E+00
         0.00000E+00
         0.00000E+00
         0.00000E+00
         0.00000E+00
         0.00000E+00
         0.00000E+00
         0.00000E+00
         0.00000E+00
         0.00000E+00
         0.00000E+00
         0.00000E+00
         0.00000E+00
         0.00000E+00
         0.00000E+00
         0.00000E+00
         0.00000E+00
         0.00000E+00
         0.00000E+00
         0.00000E+00
         0.00000E+00
         0.00000E+00
         0.00000E+00
         0.00000E+00
         0.00000E+00
         0.00000E+00
         0.00000E+00
         0.00000E+00
         0.00000E+00
         0.00000E+00
         0.00000E+00
         0.00000E+00
         0.00000E+00
         0.00000E+00
         0.00000E+00
         0.00000E+00
         0.00000E+00
         0.00000E+00
         0.00000E+00
         0.00000E+00
         0.00000E+00
         0.00000E+00
         0.00000E+00
         0.00000E+00
         0.00000E+00
         0.00000E+00
         0.00000E+00
         0.00000E+00
         0.00000E+00
         0.00000E+00
         0.00000E+00
         0.00000E+00
         0.00000E+00
         0.00000E+00
         0.00000E+00
         0.00000E+00
         0.00000E+00
         0.00000E+00
         0.00000E+00
         0.00000E+00
         0.00000E+00
         0.00000E+00
         0.00000E+00
         0.00000E+00
         0.00000E+00
         0.00000E+00
         0.00000E+00
         0.00000E+00
         0.00000E+00
         0.00000E+00
         0.00000E+00
         0.00000E+00
         0.00000E+00
         0.00000E+00
         0.00000E+00
         0.00000E+00
         0.00000E+00
         0.00000E+00
         0.00000E+00
         0.00000E+00
         0.00000E+00
         0.00000E+00
         0.00000E+00
         0.00000E+00
         0.00000E+00
         0.00000E+00
         0.00000E+00
         0.00000E+00
         0.00000E+00
         0.00000E+00
         0.00000E+00
         0.00000E+00
         0.00000E+00
         0.00000E+00
         0.00000E+00
         0.00000E+00
         0.00000E+00
         0.00000E+00
         0.00000E+00
         0.00000E+00
         0.00000E+00
         0.00000E+00
         0.00000E+00
         0.00000E+00
         0.00000E+00
         0.00000E+00
         0.00000E+00
         0.00000E+00
         0.00000E+00
         0.00000E+00
         0.00000E+00
         0.00000E+00
         0.00000E+00
         0.00000E+00
         0.00000E+00
         0.00000E+00
         0.00000E+00
         0.00000E+00
         0.00000E+00
         0.00000E+00
         0.00000E+00
         0.00000E+00
         0.00000E+00
         0.00000E+00
         0.00000E+00
         0.00000E+00
         0.00000E+00
         0.00000E+00
         0.00000E+00
         0.00000E+00
         0.00000E+00
         0.00000E+00
         0.00000E+00
         0.00000E+00
         0.00000E+00
         0.00000E+00
         0.00000E+00
         0.00000E+00
         0.00000E+00
         0.00000E+00
         0.00000E+00
         0.00000E+00
         0.00000E+00
         0.00000E+00
         0.00000E+00
         0.00000E+00
         0.00000E+00
         0.00000E+00
         0.00000E+00
         0.00000E+00
         0.00000E+00
         0.00000E+00
         0.00000E+00
         0.00000E+00
         0.00000E+00
         0.00000E+00
         0.00000E+00
         0.00000E+00
         0.00000E+00
         0.00000E+00
         0.00000E+00
         0.00000E+00
         0.00000E+00
         0.00000E+00
         0.00000E+00
         0.00000E+00
         0.00000E+00
         0.00000E+00
         0.00000E+00
         0.00000E+00
         0.00000E+00
         0.00000E+00
         0.00000E+00
         0.00000E+00
         0.00000E+00
         0.00000E+00
         0.00000E+00
         0.00000E+00
         0.00000E+00
         0.00000E+00
         0.00000E+00
         0.00000E+00
         0.00000E+00
         0.00000E+00
         0.00000E+00
         0.00000E+00
         0.00000E+00
         0.00000E+00
         0.00000E+00
         0.00000E+00
         0.00000E+00
         0.00000E+00
         0.00000E+00
         0.00000E+00
         0.00000E+00
         0.00000E+00
         0.00000E+00
         0.00000E+00
         0.00000E+00
         0.00000E+00
         0.00000E+00
         0.00000E+00
         0.00000E+00
         0.00000E+00
         0.00000E+00
         0.00000E+00
         0.00000E+00
         0.00000E+00
         0.00000E+00
         0.00000E+00
         0.00000E+00
         0.00000E+00
         0.00000E+00
         0.00000E+00
         0.00000E+00
         0.00000E+00
         0.00000E+00
         0.00000E+00
         0.00000E+00
         0.00000E+00
         0.00000E+00
         0.00000E+00
         0.00000E+00
         0.00000E+00
         0.00000E+00
         0.00000E+00
         0.00000E+00
         0.00000E+00
         0.00000E+00
         0.00000E+00
         0.00000E+00
         0.00000E+00
         0.00000E+00
         0.00000E+00
         0.00000E+00
         0.00000E+00
         0.00000E+00
         0.00000E+00
         0.00000E+00
         0.00000E+00
         0.00000E+00
         0.00000E+00
         0.00000E+00
         0.00000E+00
         0.00000E+00
         0.00000E+00
         0.00000E+00
         0.00000E+00
         0.00000E+00
         0.00000E+00
         0.00000E+00
         0.00000E+00
         0.00000E+00
         0.00000E+00
         0.00000E+00
         0.00000E+00
         0.00000E+00
         0.00000E+00
         0.00000E+00
         0.00000E+00
         0.00000E+00
         0.00000E+00
         0.00000E+00
         0.00000E+00
         0.00000E+00
         0.00000E+00
         0.00000E+00
         0.00000E+00
         0.00000E+00
         0.00000E+00
         0.00000E+00
         0.00000E+00
         0.00000E+00
         0.00000E+00
         0.00000E+00
         0.00000E+00
         0.00000E+00
         0.00000E+00
         0.00000E+00
         0.00000E+00
         0.00000E+00
         0.00000E+00
         0.00000E+00
         0.00000E+00
         0.00000E+00
         0.00000E+00
         0.00000E+00
         0.00000E+00
         0.00000E+00
         0.00000E+00
         0.00000E+00
         0.00000E+00
         0.00000E+00
         0.00000E+00
         0.00000E+00
         0.00000E+00
         0.00000E+00
         0.00000E+00
         0.00000E+00
         0.00000E+00
         0.00000E+00
         0.00000E+00
         0.00000E+00
         0.00000E+00
         0.00000E+00
         0.00000E+00
         0.00000E+00
         0.00000E+00
         0.00000E+00
         0.00000E+00
         0.00000E+00
         0.00000E+00
         0.00000E+00
         0.00000E+00
         0.00000E+00
         0.00000E+00
         0.00000E+00
         0.00000E+00
         0.00000E+00
         0.00000E+00
         0.00000E+00
         0.00000E+00
         0.00000E+00
         0.00000E+00
         0.00000E+00
         0.00000E+00
         0.00000E+00
         0.00000E+00
         0.00000E+00
         0.00000E+00
         0.00000E+00
         0.00000E+00
         0.00000E+00
         0.00000E+00
         0.00000E+00
         0.00000E+00
         0.00000E+00
         0.00000E+00
         0.00000E+00
         0.00000E+00
         0.00000E+00
         0.00000E+00
         0.00000E+00
         0.00000E+00
         0.00000E+00
         0.00000E+00
         0.00000E+00
         0.00000E+00
         0.00000E+00
         0.00000E+00
         0.00000E+00
         0.00000E+00
         0.00000E+00
         0.00000E+00
         0.00000E+00
         0.00000E+00
         0.00000E+00
         0.00000E+00
         0.00000E+00
         0.00000E+00
         0.00000E+00
         0.00000E+00
         0.00000E+00
         0.00000E+00
         0.00000E+00
         0.00000E+00
         0.00000E+00
         0.00000E+00
         0.00000E+00
         0.00000E+00
         0.00000E+00
         0.00000E+00
         0.00000E+00
         0.00000E+00
         0.00000E+00
         0.00000E+00
         0.00000E+00
         0.00000E+00
         0.00000E+00
         0.00000E+00
         0.00000E+00
         0.00000E+00
         0.00000E+00
         0.00000E+00
         0.00000E+00
         0.00000E+00
         0.00000E+00
         0.00000E+00
         0.00000E+00
         0.00000E+00
         0.00000E+00
         0.00000E+00
         0.00000E+00
         0.00000E+00
         0.00000E+00
         0.00000E+00
         0.00000E+00
         0.00000E+00
         0.00000E+00
         0.00000E+00
         0.00000E+00
         0.00000E+00
         0.00000E+00
         0.00000E+00
         0.00000E+00
         0.00000E+00
         0.00000E+00
         0.00000E+00
         0.00000E+00
         0.00000E+00
         0.00000E+00
         0.00000E+00
         0.00000E+00
         0.00000E+00
         0.00000E+00
         0.00000E+00
         0.00000E+00
         0.00000E+00
         0.00000E+00
         0.00000E+00
         0.00000E+00
         0.00000E+00
         0.00000E+00
         0.00000E+00
         0.00000E+00
         0.00000E+00
         0.00000E+00
         0.00000E+00
         0.00000E+00
         0.00000E+00
         0.00000E+00
         0.00000E+00
         0.00000E+00
         0.00000E+00
         0.00000E+00
         0.00000E+00
         0.00000E+00
         0.00000E+00
         0.00000E+00
         0.00000E+00
         0.00000E+00
         0.00000E+00
         0.00000E+00
         0.00000E+00
         0.00000E+00
         0.00000E+00
         0.00000E+00
         0.00000E+00
         0.00000E+00
         0.00000E+00
         0.00000E+00
         0.00000E+00
         0.00000E+00
         0.00000E+00
         0.00000E+00
         0.00000E+00
         0.00000E+00
         0.00000E+00
         0.00000E+00
         0.00000E+00
         0.00000E+00
         0.00000E+00
         0.00000E+00
         0.00000E+00
         0.00000E+00
         0.00000E+00
         0.00000E+00
         0.00000E+00
         0.00000E+00
         0.00000E+00
         0.00000E+00
         0.00000E+00
         0.00000E+00
         0.00000E+00
         0.00000E+00
         0.00000E+00
         0.00000E+00
         0.00000E+00
         0.00000E+00
         0.00000E+00
         0.00000E+00
         0.00000E+00
         0.00000E+00
         0.00000E+00
         0.00000E+00
         0.00000E+00
         0.00000E+00
         0.00000E+00
         0.00000E+00
         0.00000E+00
         0.00000E+00
         0.00000E+00
         0.00000E+00
         0.00000E+00
         0.00000E+00
         0.00000E+00
         0.00000E+00
         0.00000E+00
         0.00000E+00
         0.00000E+00
         0.00000E+00
         0.00000E+00
         0.00000E+00
         0.00000E+00
         0.00000E+00
         0.00000E+00
         0.00000E+00
         0.00000E+00
         0.00000E+00
         0.00000E+00
         0.00000E+00
         0.00000E+00
         0.00000E+00
         0.00000E+00
         0.00000E+00
         0.00000E+00
         0.00000E+00
         0.00000E+00
         0.00000E+00
         0.00000E+00
         0.00000E+00
         0.00000E+00
         0.00000E+00
         0.00000E+00
         0.00000E+00
         0.00000E+00
         0.00000E+00
         0.00000E+00
         0.00000E+00
         0.00000E+00
         0.00000E+00
         0.00000E+00
         0.00000E+00
         0.00000E+00
         0.00000E+00
         0.00000E+00
         0.00000E+00
         0.00000E+00
         0.00000E+00
         0.00000E+00
         0.00000E+00
         0.00000E+00
         0.00000E+00
         0.00000E+00
         0.00000E+00
         0.00000E+00
         0.00000E+00
         0.00000E+00
         0.00000E+00
         0.00000E+00
         0.00000E+00
         0.00000E+00
         0.00000E+00
         0.00000E+00
         0.00000E+00
         0.00000E+00
         0.00000E+00
         0.00000E+00
         0.00000E+00
         0.00000E+00
         0.00000E+00
         0.00000E+00
         0.00000E+00
         0.00000E+00
         0.00000E+00
         0.00000E+00
         0.00000E+00
         0.00000E+00
         0.00000E+00
         0.00000E+00
         0.00000E+00
         0.00000E+00
         0.00000E+00
         0.00000E+00
         0.00000E+00
         0.00000E+00
         0.00000E+00
         0.00000E+00
         0.00000E+00
         0.00000E+00
         0.00000E+00
         0.00000E+00
         0.00000E+00
         0.00000E+00
         0.00000E+00
         0.00000E+00
         0.00000E+00
         0.00000E+00
         0.00000E+00
         0.00000E+00
         0.00000E+00
         0.00000E+00
         0.00000E+00
         0.00000E+00
         0.00000E+00
         0.00000E+00
         0.00000E+00
         0.00000E+00
         0.00000E+00
         0.00000E+00
         0.00000E+00
         0.00000E+00
         0.00000E+00
         0.00000E+00
         0.00000E+00
         0.00000E+00
         0.00000E+00
         0.00000E+00
         0.00000E+00
         0.00000E+00
         0.00000E+00
         0.00000E+00
         0.00000E+00
         0.00000E+00
         0.00000E+00
         0.00000E+00
         0.00000E+00
         0.00000E+00
         0.00000E+00
         0.00000E+00
         0.00000E+00
         0.00000E+00
         0.00000E+00
         0.00000E+00
         0.00000E+00
         0.00000E+00
         0.00000E+00
         0.00000E+00
         0.00000E+00
         0.00000E+00
         0.00000E+00
         0.00000E+00
         0.00000E+00
         0.00000E+00
         0.00000E+00
         0.00000E+00
         0.00000E+00
         0.00000E+00
         0.00000E+00
         0.00000E+00
         0.00000E+00
         0.00000E+00
         0.00000E+00
         0.00000E+00
         0.00000E+00
         0.00000E+00
         0.00000E+00
         0.00000E+00
         0.00000E+00
         0.00000E+00
         0.00000E+00
         0.00000E+00
         0.00000E+00
         0.00000E+00
         0.00000E+00
         0.00000E+00
         0.00000E+00
         0.00000E+00
         0.00000E+00
         0.00000E+00
         0.00000E+00
         0.00000E+00
         0.00000E+00
         0.00000E+00
         0.00000E+00
         0.00000E+00
         0.00000E+00
         0.00000E+00
         0.00000E+00
         0.00000E+00
         0.00000E+00
         0.00000E+00
         0.00000E+00
         0.00000E+00
         0.00000E+00
         0.00000E+00
         0.00000E+00
         0.00000E+00
         0.00000E+00
         0.00000E+00
         0.00000E+00
         0.00000E+00
         0.00000E+00
         0.00000E+00
         0.00000E+00
         0.00000E+00
         0.00000E+00
         0.00000E+00
         0.00000E+00
         0.00000E+00
         0.00000E+00
         0.00000E+00
         0.00000E+00
         0.00000E+00
         0.00000E+00
         0.00000E+00
         0.00000E+00
         0.00000E+00
         0.00000E+00
         0.00000E+00
         0.00000E+00
         0.00000E+00
         0.00000E+00
         0.00000E+00
         0.00000E+00
         0.00000E+00
         0.00000E+00
         0.00000E+00
         0.00000E+00
         0.00000E+00
         0.00000E+00
         0.00000E+00
         0.00000E+00
         0.00000E+00
         0.00000E+00
         0.00000E+00
         0.00000E+00
         0.00000E+00
         0.00000E+00
         0.00000E+00
         0.00000E+00
         0.00000E+00
         0.00000E+00
         0.00000E+00
         0.00000E+00
         0.00000E+00
         0.00000E+00
         0.00000E+00
         0.00000E+00
         0.00000E+00
         0.00000E+00
         0.00000E+00
         0.00000E+00
         0.00000E+00
         0.00000E+00
         0.00000E+00
         0.00000E+00
         0.00000E+00
         0.00000E+00
         0.00000E+00
         0.00000E+00
         0.00000E+00
         0.00000E+00
         0.00000E+00
         0.00000E+00
         0.00000E+00
         0.00000E+00
         0.00000E+00
         0.00000E+00
         0.00000E+00
         0.00000E+00
         0.00000E+00
         0.00000E+00
         0.00000E+00
         0.00000E+00
         0.00000E+00
         0.00000E+00
         0.00000E+00
         0.00000E+00
         0.00000E+00
         0.00000E+00
         0.00000E+00
         0.00000E+00
         0.00000E+00
         0.00000E+00
         0.00000E+00
         0.00000E+00
         0.00000E+00
         0.00000E+00
         0.00000E+00
         0.00000E+00
         0.00000E+00
         0.00000E+00
         0.00000E+00
         0.00000E+00
         0.00000E+00
         0.00000E+00
         0.00000E+00
         0.00000E+00
         0.00000E+00
         0.00000E+00
         0.00000E+00
         0.00000E+00
         0.00000E+00
         0.00000E+00
         0.00000E+00
         0.00000E+00
         0.00000E+00
         0.00000E+00
         0.00000E+00
         0.00000E+00
         0.00000E+00
         0.00000E+00
         0.00000E+00
         0.00000E+00
         0.00000E+00
         0.00000E+00
         0.00000E+00
         0.00000E+00
         0.00000E+00
         0.00000E+00
         0.00000E+00
         0.00000E+00
         0.00000E+00
         0.00000E+00
         0.00000E+00
         0.00000E+00
         0.00000E+00
         0.00000E+00
         0.00000E+00
         0.00000E+00
         0.00000E+00
         0.00000E+00
         0.00000E+00
         0.00000E+00
         0.00000E+00
         0.00000E+00
         0.00000E+00
         0.00000E+00
         0.00000E+00
         0.00000E+00
         0.00000E+00
         0.00000E+00
         0.00000E+00
         0.00000E+00
         0.00000E+00
         0.00000E+00
         0.00000E+00
         0.00000E+00
         0.00000E+00
         0.00000E+00
         0.00000E+00
         0.00000E+00
         0.00000E+00
         0.00000E+00
         0.00000E+00
         0.00000E+00
         0.00000E+00
         0.00000E+00
         0.00000E+00
         0.00000E+00
         0.00000E+00
         0.00000E+00
         0.00000E+00
         0.00000E+00
         0.00000E+00
         0.00000E+00
         0.00000E+00
         0.00000E+00
         0.00000E+00
         0.00000E+00
         0.00000E+00
         0.00000E+00
         0.00000E+00
         0.00000E+00
         0.00000E+00
         0.00000E+00
         0.00000E+00
         0.00000E+00
         0.00000E+00
         0.00000E+00
         0.00000E+00
         0.00000E+00
         0.00000E+00
         0.00000E+00
         0.00000E+00
         0.00000E+00
         0.00000E+00
         0.00000E+00
         0.00000E+00
         0.00000E+00
         0.00000E+00
         0.00000E+00
         0.00000E+00
         0.00000E+00
         0.00000E+00
         0.00000E+00
         0.00000E+00
         0.00000E+00
         0.00000E+00
         0.00000E+00
         0.00000E+00
         0.00000E+00
         0.00000E+00
         0.00000E+00
         0.00000E+00
         0.00000E+00
         0.00000E+00
         0.00000E+00
         0.00000E+00
         0.00000E+00
         0.00000E+00
         0.00000E+00
         0.00000E+00
         0.00000E+00
         0.00000E+00
         0.00000E+00
         0.00000E+00
         0.00000E+00
         0.00000E+00
         0.00000E+00
         0.00000E+00
         0.00000E+00
         0.00000E+00
         0.00000E+00
         0.00000E+00
         0.00000E+00
         0.00000E+00
         0.00000E+00
         0.00000E+00
         0.00000E+00
         0.00000E+00
         0.00000E+00
         0.00000E+00
         0.00000E+00
         0.00000E+00
         0.00000E+00
         0.00000E+00
         0.00000E+00
         0.00000E+00
         0.00000E+00
         0.00000E+00
         0.00000E+00
         0.00000E+00
         0.00000E+00
         0.00000E+00
         0.00000E+00
         0.00000E+00
         0.00000E+00
         0.00000E+00
         0.00000E+00
         0.00000E+00
         0.00000E+00
         0.00000E+00
         0.00000E+00
         0.00000E+00
         0.00000E+00
         0.00000E+00
         0.00000E+00
         0.00000E+00
         0.00000E+00
         0.00000E+00
         0.00000E+00
         0.00000E+00
         0.00000E+00
         0.00000E+00
         0.00000E+00
         0.00000E+00
         0.00000E+00
         0.00000E+00
         0.00000E+00
         0.00000E+00
         0.00000E+00
         0.00000E+00
         0.00000E+00
         0.00000E+00
         0.00000E+00
         0.00000E+00
         0.00000E+00
         0.00000E+00
         0.00000E+00
         0.00000E+00
         0.00000E+00
         0.00000E+00
         0.00000E+00
         0.00000E+00
         0.00000E+00
         0.00000E+00
         0.00000E+00
         0.00000E+00
         0.00000E+00
         0.00000E+00
         0.00000E+00
         0.00000E+00
         0.00000E+00
         0.00000E+00
         0.00000E+00
         0.00000E+00
         0.00000E+00
         0.00000E+00
         0.00000E+00
         0.00000E+00
         0.00000E+00
         0.00000E+00
         0.00000E+00
         0.00000E+00
         0.00000E+00
         0.00000E+00
         0.00000E+00
         0.00000E+00
         0.00000E+00
         0.00000E+00
         0.00000E+00
         0.00000E+00
         0.00000E+00
         0.00000E+00
         0.00000E+00
         0.00000E+00
         0.00000E+00
         0.00000E+00
         0.00000E+00
         0.00000E+00
         0.00000E+00
         0.00000E+00
         0.00000E+00
         0.00000E+00
         0.00000E+00
         0.00000E+00
         0.00000E+00
         0.00000E+00
         0.00000E+00
         0.00000E+00
         0.00000E+00
         0.00000E+00
         0.00000E+00
         0.00000E+00
         0.00000E+00
         0.00000E+00
         0.00000E+00
         0.00000E+00
         0.00000E+00
         0.00000E+00
         0.00000E+00
         0.00000E+00
         0.00000E+00
         0.00000E+00
         0.00000E+00
         0.00000E+00
         0.00000E+00
         0.00000E+00
         0.00000E+00
         0.00000E+00
         0.00000E+00
         0.00000E+00
         0.00000E+00
         0.00000E+00
         0.00000E+00
         0.00000E+00
         0.00000E+00
         0.00000E+00
         0.00000E+00
         0.00000E+00
         0.00000E+00
         0.00000E+00
         0.00000E+00
         0.00000E+00
         0.00000E+00
         0.00000E+00
         0.00000E+00
         0.00000E+00
         0.00000E+00
         0.00000E+00
         0.00000E+00
         0.00000E+00
         0.00000E+00
         0.00000E+00
         0.00000E+00
         0.00000E+00
         0.00000E+00
         0.00000E+00
         0.00000E+00
         0.00000E+00
         0.00000E+00
         0.00000E+00
         0.00000E+00
         0.00000E+00
         0.00000E+00
         0.00000E+00
         0.00000E+00
         0.00000E+00
         0.00000E+00
         0.00000E+00
         0.00000E+00
         0.00000E+00
         0.00000E+00
         0.00000E+00
         0.00000E+00
         0.00000E+00
         0.00000E+00
         0.00000E+00
         0.00000E+00
         0.00000E+00
         0.00000E+00
         0.00000E+00
         0.00000E+00
         0.00000E+00
         0.00000E+00
         0.00000E+00
         0.00000E+00
         0.00000E+00
         0.00000E+00
         0.00000E+00
         0.00000E+00
         0.00000E+00
         0.00000E+00
         0.00000E+00
         0.00000E+00
         0.00000E+00
         0.00000E+00
         0.00000E+00
         0.00000E+00
         0.00000E+00
         0.00000E+00
         0.00000E+00
         0.00000E+00
         0.00000E+00
         0.00000E+00
         0.00000E+00
         0.00000E+00
         0.00000E+00
         0.00000E+00
         0.00000E+00
         0.00000E+00
         0.00000E+00
         0.00000E+00
         0.00000E+00
         0.00000E+00
         0.00000E+00
         0.00000E+00
         0.00000E+00
         0.00000E+00
         0.00000E+00
         0.00000E+00
         0.00000E+00
         0.00000E+00
         0.00000E+00
         0.00000E+00
         0.00000E+00
         0.00000E+00
         0.00000E+00
         0.00000E+00
         0.00000E+00
         0.00000E+00
         0.00000E+00
         0.00000E+00
         0.00000E+00
         0.00000E+00
         0.00000E+00
         0.00000E+00
         0.00000E+00
         0.00000E+00
         0.00000E+00
         0.00000E+00
         0.00000E+00
         0.00000E+00
         0.00000E+00
         0.00000E+00
         0.00000E+00
         0.00000E+00
         0.00000E+00
         0.00000E+00
         0.00000E+00
         0.00000E+00
         0.00000E+00
         0.00000E+00
         0.00000E+00
         0.00000E+00
         0.00000E+00
         0.00000E+00
  
SCALARS               pre_disp_force_y  double 1
LOOKUP_TABLE default
         0.00000E+00
         0.00000E+00
         0.00000E+00
         0.00000E+00
         0.00000E+00
         0.00000E+00
         0.00000E+00
         0.00000E+00
         0.00000E+00
         0.00000E+00
         0.00000E+00
         0.00000E+00
         0.00000E+00
         0.00000E+00
         0.00000E+00
         0.00000E+00
         0.00000E+00
         0.00000E+00
         0.00000E+00
         0.00000E+00
         0.00000E+00
         0.00000E+00
         0.00000E+00
         0.00000E+00
         0.00000E+00
         0.00000E+00
         0.00000E+00
         0.00000E+00
         0.00000E+00
         0.00000E+00
         0.00000E+00
         0.00000E+00
         0.00000E+00
         0.00000E+00
         0.00000E+00
         0.00000E+00
         0.00000E+00
         0.00000E+00
         0.00000E+00
         0.00000E+00
         0.00000E+00
         0.00000E+00
         0.00000E+00
         0.00000E+00
         0.00000E+00
         0.00000E+00
         0.00000E+00
         0.00000E+00
         0.00000E+00
         0.00000E+00
         0.00000E+00
         0.00000E+00
         0.00000E+00
         0.00000E+00
         0.00000E+00
         0.00000E+00
         0.00000E+00
         0.00000E+00
         0.00000E+00
         0.00000E+00
         0.00000E+00
         0.00000E+00
         0.00000E+00
         0.00000E+00
         0.00000E+00
         0.00000E+00
         0.00000E+00
         0.00000E+00
         0.00000E+00
         0.00000E+00
         0.00000E+00
         0.00000E+00
         0.00000E+00
         0.00000E+00
         0.00000E+00
         0.00000E+00
         0.00000E+00
         0.00000E+00
         0.00000E+00
         0.00000E+00
         0.00000E+00
         0.00000E+00
         0.00000E+00
         0.00000E+00
         0.00000E+00
         0.00000E+00
         0.00000E+00
         0.00000E+00
         0.00000E+00
         0.00000E+00
         0.00000E+00
         0.00000E+00
         0.00000E+00
         0.00000E+00
         0.00000E+00
         0.00000E+00
         0.00000E+00
         0.00000E+00
         0.00000E+00
         0.00000E+00
         0.00000E+00
         0.00000E+00
         0.00000E+00
         0.00000E+00
         0.00000E+00
         0.00000E+00
         0.00000E+00
         0.00000E+00
         0.00000E+00
         0.00000E+00
         0.00000E+00
         0.00000E+00
         0.00000E+00
         0.00000E+00
         0.00000E+00
         0.00000E+00
         0.00000E+00
         0.00000E+00
         0.00000E+00
         0.00000E+00
         0.00000E+00
         0.00000E+00
         0.00000E+00
         0.00000E+00
         0.00000E+00
         0.00000E+00
         0.00000E+00
         0.00000E+00
         0.00000E+00
         0.00000E+00
         0.00000E+00
         0.00000E+00
         0.00000E+00
         0.00000E+00
         0.00000E+00
         0.00000E+00
         0.00000E+00
         0.00000E+00
         0.00000E+00
         0.00000E+00
         0.00000E+00
         0.00000E+00
         0.00000E+00
         0.00000E+00
         0.00000E+00
         0.00000E+00
         0.00000E+00
         0.00000E+00
         0.00000E+00
         0.00000E+00
         0.00000E+00
         0.00000E+00
         0.00000E+00
         0.00000E+00
         0.00000E+00
         0.00000E+00
         0.00000E+00
         0.00000E+00
         0.00000E+00
         0.00000E+00
         0.00000E+00
         0.00000E+00
         0.00000E+00
         0.00000E+00
         0.00000E+00
         0.00000E+00
         0.00000E+00
         0.00000E+00
         0.00000E+00
         0.00000E+00
         0.00000E+00
         0.00000E+00
         0.00000E+00
         0.00000E+00
         0.00000E+00
         0.00000E+00
         0.00000E+00
         0.00000E+00
         0.00000E+00
         0.00000E+00
         0.00000E+00
         0.00000E+00
         0.00000E+00
         0.00000E+00
         0.00000E+00
         0.00000E+00
         0.00000E+00
         0.00000E+00
         0.00000E+00
         0.00000E+00
         0.00000E+00
         0.00000E+00
         0.00000E+00
         0.00000E+00
         0.00000E+00
         0.00000E+00
         0.00000E+00
         0.00000E+00
         0.00000E+00
         0.00000E+00
         0.00000E+00
         0.00000E+00
         0.00000E+00
         0.00000E+00
         0.00000E+00
         0.00000E+00
         0.00000E+00
         0.00000E+00
         0.00000E+00
         0.00000E+00
         0.00000E+00
         0.00000E+00
         0.00000E+00
         0.00000E+00
         0.00000E+00
         0.00000E+00
         0.00000E+00
         0.00000E+00
         0.00000E+00
         0.00000E+00
         0.00000E+00
         0.00000E+00
         0.00000E+00
         0.00000E+00
         0.00000E+00
         0.00000E+00
         0.00000E+00
         0.00000E+00
         0.00000E+00
         0.00000E+00
         0.00000E+00
         0.00000E+00
         0.00000E+00
         0.00000E+00
         0.00000E+00
         0.00000E+00
         0.00000E+00
         0.00000E+00
         0.00000E+00
         0.00000E+00
         0.00000E+00
         0.00000E+00
         0.00000E+00
         0.00000E+00
         0.00000E+00
         0.00000E+00
         0.00000E+00
         0.00000E+00
         0.00000E+00
         0.00000E+00
         0.00000E+00
         0.00000E+00
         0.00000E+00
         0.00000E+00
         0.00000E+00
         0.00000E+00
         0.00000E+00
         0.00000E+00
         0.00000E+00
         0.00000E+00
         0.00000E+00
         0.00000E+00
         0.00000E+00
         0.00000E+00
         0.00000E+00
         0.00000E+00
         0.00000E+00
         0.00000E+00
         0.00000E+00
         0.00000E+00
         0.00000E+00
         0.00000E+00
         0.00000E+00
         0.00000E+00
         0.00000E+00
         0.00000E+00
         0.00000E+00
         0.00000E+00
         0.00000E+00
         0.00000E+00
         0.00000E+00
         0.00000E+00
         0.00000E+00
         0.00000E+00
         0.00000E+00
         0.00000E+00
         0.00000E+00
         0.00000E+00
         0.00000E+00
         0.00000E+00
         0.00000E+00
         0.00000E+00
         0.00000E+00
         0.00000E+00
         0.00000E+00
         0.00000E+00
         0.00000E+00
         0.00000E+00
         0.00000E+00
         0.00000E+00
         0.00000E+00
         0.00000E+00
         0.00000E+00
         0.00000E+00
         0.00000E+00
         0.00000E+00
         0.00000E+00
         0.00000E+00
         0.00000E+00
         0.00000E+00
         0.00000E+00
         0.00000E+00
         0.00000E+00
         0.00000E+00
         0.00000E+00
         0.00000E+00
         0.00000E+00
         0.00000E+00
         0.00000E+00
         0.00000E+00
         0.00000E+00
         0.00000E+00
         0.00000E+00
         0.00000E+00
         0.00000E+00
         0.00000E+00
         0.00000E+00
         0.00000E+00
         0.00000E+00
         0.00000E+00
         0.00000E+00
         0.00000E+00
         0.00000E+00
         0.00000E+00
         0.00000E+00
         0.00000E+00
         0.00000E+00
         0.00000E+00
         0.00000E+00
         0.00000E+00
         0.00000E+00
         0.00000E+00
         0.00000E+00
         0.00000E+00
         0.00000E+00
         0.00000E+00
         0.00000E+00
         0.00000E+00
         0.00000E+00
         0.00000E+00
         0.00000E+00
         0.00000E+00
         0.00000E+00
         0.00000E+00
         0.00000E+00
         0.00000E+00
         0.00000E+00
         0.00000E+00
         0.00000E+00
         0.00000E+00
         0.00000E+00
         0.00000E+00
         0.00000E+00
         0.00000E+00
         0.00000E+00
         0.00000E+00
         0.00000E+00
         0.00000E+00
         0.00000E+00
         0.00000E+00
         0.00000E+00
         0.00000E+00
         0.00000E+00
         0.00000E+00
         0.00000E+00
         0.00000E+00
         0.00000E+00
         0.00000E+00
         0.00000E+00
         0.00000E+00
         0.00000E+00
         0.00000E+00
         0.00000E+00
         0.00000E+00
         0.00000E+00
         0.00000E+00
         0.00000E+00
         0.00000E+00
         0.00000E+00
         0.00000E+00
         0.00000E+00
         0.00000E+00
         0.00000E+00
         0.00000E+00
         0.00000E+00
         0.00000E+00
         0.00000E+00
         0.00000E+00
         0.00000E+00
         0.00000E+00
         0.00000E+00
         0.00000E+00
         0.00000E+00
         0.00000E+00
         0.00000E+00
         0.00000E+00
         0.00000E+00
         0.00000E+00
         0.00000E+00
         0.00000E+00
         0.00000E+00
         0.00000E+00
         0.00000E+00
         0.00000E+00
         0.00000E+00
         0.00000E+00
         0.00000E+00
         0.00000E+00
         0.00000E+00
         0.00000E+00
         0.00000E+00
         0.00000E+00
         0.00000E+00
         0.00000E+00
         0.00000E+00
         0.00000E+00
         0.00000E+00
         0.00000E+00
         0.00000E+00
         0.00000E+00
         0.00000E+00
         0.00000E+00
         0.00000E+00
         0.00000E+00
         0.00000E+00
         0.00000E+00
         0.00000E+00
         0.00000E+00
         0.00000E+00
         0.00000E+00
         0.00000E+00
         0.00000E+00
         0.00000E+00
         0.00000E+00
         0.00000E+00
         0.00000E+00
         0.00000E+00
         0.00000E+00
         0.00000E+00
         0.00000E+00
         0.00000E+00
         0.00000E+00
         0.00000E+00
         0.00000E+00
         0.00000E+00
         0.00000E+00
         0.00000E+00
         0.00000E+00
         0.00000E+00
         0.00000E+00
         0.00000E+00
         0.00000E+00
         0.00000E+00
         0.00000E+00
         0.00000E+00
         0.00000E+00
         0.00000E+00
         0.00000E+00
         0.00000E+00
         0.00000E+00
         0.00000E+00
         0.00000E+00
         0.00000E+00
         0.00000E+00
         0.00000E+00
         0.00000E+00
         0.00000E+00
         0.00000E+00
         0.00000E+00
         0.00000E+00
         0.00000E+00
         0.00000E+00
         0.00000E+00
         0.00000E+00
         0.00000E+00
         0.00000E+00
         0.00000E+00
         0.00000E+00
         0.00000E+00
         0.00000E+00
         0.00000E+00
         0.00000E+00
         0.00000E+00
         0.00000E+00
         0.00000E+00
         0.00000E+00
         0.00000E+00
         0.00000E+00
         0.00000E+00
         0.00000E+00
         0.00000E+00
         0.00000E+00
         0.00000E+00
         0.00000E+00
         0.00000E+00
         0.00000E+00
         0.00000E+00
         0.00000E+00
         0.00000E+00
         0.00000E+00
         0.00000E+00
         0.00000E+00
         0.00000E+00
         0.00000E+00
         0.00000E+00
         0.00000E+00
         0.00000E+00
         0.00000E+00
         0.00000E+00
         0.00000E+00
         0.00000E+00
         0.00000E+00
         0.00000E+00
         0.00000E+00
         0.00000E+00
         0.00000E+00
         0.00000E+00
         0.00000E+00
         0.00000E+00
         0.00000E+00
         0.00000E+00
         0.00000E+00
         0.00000E+00
         0.00000E+00
         0.00000E+00
         0.00000E+00
         0.00000E+00
         0.00000E+00
         0.00000E+00
         0.00000E+00
         0.00000E+00
         0.00000E+00
         0.00000E+00
         0.00000E+00
         0.00000E+00
         0.00000E+00
         0.00000E+00
         0.00000E+00
         0.00000E+00
         0.00000E+00
         0.00000E+00
         0.00000E+00
         0.00000E+00
         0.00000E+00
         0.00000E+00
         0.00000E+00
         0.00000E+00
         0.00000E+00
         0.00000E+00
         0.00000E+00
         0.00000E+00
         0.00000E+00
         0.00000E+00
         0.00000E+00
         0.00000E+00
         0.00000E+00
         0.00000E+00
         0.00000E+00
         0.00000E+00
         0.00000E+00
         0.00000E+00
         0.00000E+00
         0.00000E+00
         0.00000E+00
         0.00000E+00
         0.00000E+00
         0.00000E+00
         0.00000E+00
         0.00000E+00
         0.00000E+00
         0.00000E+00
         0.00000E+00
         0.00000E+00
         0.00000E+00
         0.00000E+00
         0.00000E+00
         0.00000E+00
         0.00000E+00
         0.00000E+00
         0.00000E+00
         0.00000E+00
         0.00000E+00
         0.00000E+00
         0.00000E+00
         0.00000E+00
         0.00000E+00
         0.00000E+00
         0.00000E+00
         0.00000E+00
         0.00000E+00
         0.00000E+00
         0.00000E+00
         0.00000E+00
         0.00000E+00
         0.00000E+00
         0.00000E+00
         0.00000E+00
         0.00000E+00
         0.00000E+00
         0.00000E+00
         0.00000E+00
         0.00000E+00
         0.00000E+00
         0.00000E+00
         0.00000E+00
         0.00000E+00
         0.00000E+00
         0.00000E+00
         0.00000E+00
         0.00000E+00
         0.00000E+00
         0.00000E+00
         0.00000E+00
         0.00000E+00
         0.00000E+00
         0.00000E+00
         0.00000E+00
         0.00000E+00
         0.00000E+00
         0.00000E+00
         0.00000E+00
         0.00000E+00
         0.00000E+00
         0.00000E+00
         0.00000E+00
         0.00000E+00
         0.00000E+00
         0.00000E+00
         0.00000E+00
         0.00000E+00
         0.00000E+00
         0.00000E+00
         0.00000E+00
         0.00000E+00
         0.00000E+00
         0.00000E+00
         0.00000E+00
         0.00000E+00
         0.00000E+00
         0.00000E+00
         0.00000E+00
         0.00000E+00
         0.00000E+00
         0.00000E+00
         0.00000E+00
         0.00000E+00
         0.00000E+00
         0.00000E+00
         0.00000E+00
         0.00000E+00
         0.00000E+00
         0.00000E+00
         0.00000E+00
         0.00000E+00
         0.00000E+00
         0.00000E+00
         0.00000E+00
         0.00000E+00
         0.00000E+00
         0.00000E+00
         0.00000E+00
         0.00000E+00
         0.00000E+00
         0.00000E+00
         0.00000E+00
         0.00000E+00
         0.00000E+00
         0.00000E+00
         0.00000E+00
         0.00000E+00
         0.00000E+00
         0.00000E+00
         0.00000E+00
         0.00000E+00
         0.00000E+00
         0.00000E+00
         0.00000E+00
         0.00000E+00
         0.00000E+00
         0.00000E+00
         0.00000E+00
         0.00000E+00
         0.00000E+00
         0.00000E+00
         0.00000E+00
         0.00000E+00
         0.00000E+00
         0.00000E+00
         0.00000E+00
         0.00000E+00
         0.00000E+00
         0.00000E+00
         0.00000E+00
         0.00000E+00
         0.00000E+00
         0.00000E+00
         0.00000E+00
         0.00000E+00
         0.00000E+00
         0.00000E+00
         0.00000E+00
         0.00000E+00
         0.00000E+00
         0.00000E+00
         0.00000E+00
         0.00000E+00
         0.00000E+00
         0.00000E+00
         0.00000E+00
         0.00000E+00
         0.00000E+00
         0.00000E+00
         0.00000E+00
         0.00000E+00
         0.00000E+00
         0.00000E+00
         0.00000E+00
         0.00000E+00
         0.00000E+00
         0.00000E+00
         0.00000E+00
         0.00000E+00
         0.00000E+00
         0.00000E+00
         0.00000E+00
         0.00000E+00
         0.00000E+00
         0.00000E+00
         0.00000E+00
         0.00000E+00
         0.00000E+00
         0.00000E+00
         0.00000E+00
         0.00000E+00
         0.00000E+00
         0.00000E+00
         0.00000E+00
         0.00000E+00
         0.00000E+00
         0.00000E+00
         0.00000E+00
         0.00000E+00
         0.00000E+00
         0.00000E+00
         0.00000E+00
         0.00000E+00
         0.00000E+00
         0.00000E+00
         0.00000E+00
         0.00000E+00
         0.00000E+00
         0.00000E+00
         0.00000E+00
         0.00000E+00
         0.00000E+00
         0.00000E+00
         0.00000E+00
         0.00000E+00
         0.00000E+00
         0.00000E+00
         0.00000E+00
         0.00000E+00
         0.00000E+00
         0.00000E+00
         0.00000E+00
         0.00000E+00
         0.00000E+00
         0.00000E+00
         0.00000E+00
         0.00000E+00
         0.00000E+00
         0.00000E+00
         0.00000E+00
         0.00000E+00
         0.00000E+00
         0.00000E+00
         0.00000E+00
         0.00000E+00
         0.00000E+00
         0.00000E+00
         0.00000E+00
         0.00000E+00
         0.00000E+00
         0.00000E+00
         0.00000E+00
         0.00000E+00
         0.00000E+00
         0.00000E+00
         0.00000E+00
         0.00000E+00
         0.00000E+00
         0.00000E+00
         0.00000E+00
         0.00000E+00
         0.00000E+00
         0.00000E+00
         0.00000E+00
         0.00000E+00
         0.00000E+00
         0.00000E+00
         0.00000E+00
         0.00000E+00
         0.00000E+00
         0.00000E+00
         0.00000E+00
         0.00000E+00
         0.00000E+00
         0.00000E+00
         0.00000E+00
         0.00000E+00
         0.00000E+00
         0.00000E+00
         0.00000E+00
         0.00000E+00
         0.00000E+00
         0.00000E+00
         0.00000E+00
         0.00000E+00
         0.00000E+00
         0.00000E+00
         0.00000E+00
         0.00000E+00
         0.00000E+00
         0.00000E+00
         0.00000E+00
         0.00000E+00
         0.00000E+00
         0.00000E+00
         0.00000E+00
         0.00000E+00
         0.00000E+00
         0.00000E+00
         0.00000E+00
         0.00000E+00
         0.00000E+00
         0.00000E+00
         0.00000E+00
         0.00000E+00
         0.00000E+00
         0.00000E+00
         0.00000E+00
         0.00000E+00
         0.00000E+00
         0.00000E+00
         0.00000E+00
         0.00000E+00
         0.00000E+00
         0.00000E+00
         0.00000E+00
         0.00000E+00
         0.00000E+00
         0.00000E+00
         0.00000E+00
         0.00000E+00
         0.00000E+00
         0.00000E+00
         0.00000E+00
         0.00000E+00
         0.00000E+00
         0.00000E+00
         0.00000E+00
         0.00000E+00
         0.00000E+00
         0.00000E+00
         0.00000E+00
         0.00000E+00
         0.00000E+00
         0.00000E+00
         0.00000E+00
         0.00000E+00
         0.00000E+00
         0.00000E+00
         0.00000E+00
         0.00000E+00
         0.00000E+00
         0.00000E+00
         0.00000E+00
         0.00000E+00
         0.00000E+00
         0.00000E+00
         0.00000E+00
         0.00000E+00
         0.00000E+00
         0.00000E+00
         0.00000E+00
         0.00000E+00
         0.00000E+00
         0.00000E+00
         0.00000E+00
         0.00000E+00
         0.00000E+00
         0.00000E+00
         0.00000E+00
         0.00000E+00
         0.00000E+00
         0.00000E+00
         0.00000E+00
         0.00000E+00
         0.00000E+00
         0.00000E+00
         0.00000E+00
         0.00000E+00
         0.00000E+00
         0.00000E+00
         0.00000E+00
         0.00000E+00
         0.00000E+00
         0.00000E+00
         0.00000E+00
         0.00000E+00
         0.00000E+00
         0.00000E+00
         0.00000E+00
         0.00000E+00
         0.00000E+00
         0.00000E+00
         0.00000E+00
         0.00000E+00
         0.00000E+00
         0.00000E+00
         0.00000E+00
         0.00000E+00
         0.00000E+00
         0.00000E+00
         0.00000E+00
         0.00000E+00
         0.00000E+00
         0.00000E+00
         0.00000E+00
         0.00000E+00
         0.00000E+00
         0.00000E+00
         0.00000E+00
         0.00000E+00
         0.00000E+00
         0.00000E+00
         0.00000E+00
         0.00000E+00
         0.00000E+00
         0.00000E+00
         0.00000E+00
         0.00000E+00
         0.00000E+00
         0.00000E+00
         0.00000E+00
         0.00000E+00
         0.00000E+00
         0.00000E+00
         0.00000E+00
         0.00000E+00
         0.00000E+00
         0.00000E+00
         0.00000E+00
         0.00000E+00
         0.00000E+00
         0.00000E+00
         0.00000E+00
         0.00000E+00
         0.00000E+00
         0.00000E+00
         0.00000E+00
         0.00000E+00
         0.00000E+00
         0.00000E+00
         0.00000E+00
         0.00000E+00
         0.00000E+00
         0.00000E+00
         0.00000E+00
         0.00000E+00
         0.00000E+00
         0.00000E+00
         0.00000E+00
         0.00000E+00
         0.00000E+00
         0.00000E+00
         0.00000E+00
         0.00000E+00
         0.00000E+00
         0.00000E+00
         0.00000E+00
         0.00000E+00
         0.00000E+00
         0.00000E+00
         0.00000E+00
         0.00000E+00
         0.00000E+00
         0.00000E+00
         0.00000E+00
         0.00000E+00
         0.00000E+00
         0.00000E+00
         0.00000E+00
         0.00000E+00
         0.00000E+00
         0.00000E+00
         0.00000E+00
         0.00000E+00
         0.00000E+00
         0.00000E+00
         0.00000E+00
         0.00000E+00
         0.00000E+00
         0.00000E+00
         0.00000E+00
         0.00000E+00
         0.00000E+00
         0.00000E+00
         0.00000E+00
         0.00000E+00
         0.00000E+00
         0.00000E+00
         0.00000E+00
         0.00000E+00
         0.00000E+00
         0.00000E+00
         0.00000E+00
         0.00000E+00
         0.00000E+00
         0.00000E+00
         0.00000E+00
         0.00000E+00
         0.00000E+00
         0.00000E+00
         0.00000E+00
         0.00000E+00
         0.00000E+00
         0.00000E+00
         0.00000E+00
         0.00000E+00
         0.00000E+00
         0.00000E+00
         0.00000E+00
         0.00000E+00
         0.00000E+00
         0.00000E+00
         0.00000E+00
         0.00000E+00
         0.00000E+00
         0.00000E+00
         0.00000E+00
         0.00000E+00
         0.00000E+00
         0.00000E+00
         0.00000E+00
         0.00000E+00
         0.00000E+00
         0.00000E+00
         0.00000E+00
         0.00000E+00
         0.00000E+00
         0.00000E+00
         0.00000E+00
         0.00000E+00
         0.00000E+00
         0.00000E+00
         0.00000E+00
         0.00000E+00
         0.00000E+00
         0.00000E+00
         0.00000E+00
         0.00000E+00
         0.00000E+00
         0.00000E+00
         0.00000E+00
         0.00000E+00
         0.00000E+00
         0.00000E+00
         0.00000E+00
         0.00000E+00
         0.00000E+00
         0.00000E+00
         0.00000E+00
         0.00000E+00
         0.00000E+00
         0.00000E+00
         0.00000E+00
         0.00000E+00
         0.00000E+00
         0.00000E+00
         0.00000E+00
         0.00000E+00
         0.00000E+00
         0.00000E+00
         0.00000E+00
         0.00000E+00
         0.00000E+00
         0.00000E+00
         0.00000E+00
         0.00000E+00
         0.00000E+00
         0.00000E+00
         0.00000E+00
         0.00000E+00
         0.00000E+00
         0.00000E+00
         0.00000E+00
         0.00000E+00
         0.00000E+00
         0.00000E+00
         0.00000E+00
         0.00000E+00
         0.00000E+00
         0.00000E+00
         0.00000E+00
         0.00000E+00
         0.00000E+00
         0.00000E+00
         0.00000E+00
         0.00000E+00
         0.00000E+00
         0.00000E+00
         0.00000E+00
         0.00000E+00
         0.00000E+00
         0.00000E+00
         0.00000E+00
         0.00000E+00
         0.00000E+00
         0.00000E+00
         0.00000E+00
         0.00000E+00
         0.00000E+00
         0.00000E+00
         0.00000E+00
         0.00000E+00
         0.00000E+00
         0.00000E+00
         0.00000E+00
         0.00000E+00
         0.00000E+00
         0.00000E+00
         0.00000E+00
         0.00000E+00
         0.00000E+00
         0.00000E+00
         0.00000E+00
         0.00000E+00
         0.00000E+00
         0.00000E+00
         0.00000E+00
         0.00000E+00
         0.00000E+00
         0.00000E+00
         0.00000E+00
         0.00000E+00
         0.00000E+00
         0.00000E+00
         0.00000E+00
         0.00000E+00
         0.00000E+00
         0.00000E+00
         0.00000E+00
         0.00000E+00
         0.00000E+00
         0.00000E+00
         0.00000E+00
         0.00000E+00
         0.00000E+00
         0.00000E+00
         0.00000E+00
         0.00000E+00
         0.00000E+00
         0.00000E+00
         0.00000E+00
         0.00000E+00
         0.00000E+00
         0.00000E+00
         0.00000E+00
         0.00000E+00
         0.00000E+00
         0.00000E+00
         0.00000E+00
         0.00000E+00
         0.00000E+00
         0.00000E+00
         0.00000E+00
         0.00000E+00
         0.00000E+00
         0.00000E+00
         0.00000E+00
         0.00000E+00
         0.00000E+00
         0.00000E+00
         0.00000E+00
         0.00000E+00
         0.00000E+00
         0.00000E+00
         0.00000E+00
         0.00000E+00
         0.00000E+00
         0.00000E+00
         0.00000E+00
         0.00000E+00
         0.00000E+00
         0.00000E+00
         0.00000E+00
         0.00000E+00
         0.00000E+00
         0.00000E+00
         0.00000E+00
         0.00000E+00
         0.00000E+00
         0.00000E+00
         0.00000E+00
         0.00000E+00
         0.00000E+00
         0.00000E+00
         0.00000E+00
         0.00000E+00
         0.00000E+00
         0.00000E+00
         0.00000E+00
         0.00000E+00
         0.00000E+00
         0.00000E+00
         0.00000E+00
         0.00000E+00
         0.00000E+00
         0.00000E+00
         0.00000E+00
         0.00000E+00
         0.00000E+00
         0.00000E+00
         0.00000E+00
         0.00000E+00
         0.00000E+00
         0.00000E+00
         0.00000E+00
         0.00000E+00
         0.00000E+00
         0.00000E+00
         0.00000E+00
         0.00000E+00
         0.00000E+00
         0.00000E+00
         0.00000E+00
         0.00000E+00
         0.00000E+00
         0.00000E+00
         0.00000E+00
         0.00000E+00
         0.00000E+00
         0.00000E+00
         0.00000E+00
         0.00000E+00
         0.00000E+00
         0.00000E+00
         0.00000E+00
         0.00000E+00
         0.00000E+00
         0.00000E+00
         0.00000E+00
         0.00000E+00
         0.00000E+00
         0.00000E+00
         0.00000E+00
         0.00000E+00
         0.00000E+00
         0.00000E+00
         0.00000E+00
         0.00000E+00
         0.00000E+00
         0.00000E+00
         0.00000E+00
         0.00000E+00
         0.00000E+00
         0.00000E+00
         0.00000E+00
         0.00000E+00
         0.00000E+00
         0.00000E+00
         0.00000E+00
         0.00000E+00
         0.00000E+00
         0.00000E+00
         0.00000E+00
         0.00000E+00
         0.00000E+00
         0.00000E+00
         0.00000E+00
         0.00000E+00
         0.00000E+00
         0.00000E+00
         0.00000E+00
         0.00000E+00
         0.00000E+00
         0.00000E+00
         0.00000E+00
         0.00000E+00
         0.00000E+00
         0.00000E+00
         0.00000E+00
         0.00000E+00
         0.00000E+00
         0.00000E+00
         0.00000E+00
         0.00000E+00
         0.00000E+00
         0.00000E+00
         0.00000E+00
         0.00000E+00
         0.00000E+00
         0.00000E+00
         0.00000E+00
         0.00000E+00
         0.00000E+00
         0.00000E+00
         0.00000E+00
         0.00000E+00
         0.00000E+00
         0.00000E+00
         0.00000E+00
         0.00000E+00
         0.00000E+00
         0.00000E+00
         0.00000E+00
         0.00000E+00
         0.00000E+00
         0.00000E+00
         0.00000E+00
         0.00000E+00
         0.00000E+00
         0.00000E+00
         0.00000E+00
         0.00000E+00
         0.00000E+00
         0.00000E+00
         0.00000E+00
         0.00000E+00
         0.00000E+00
         0.00000E+00
         0.00000E+00
         0.00000E+00
         0.00000E+00
         0.00000E+00
         0.00000E+00
         0.00000E+00
         0.00000E+00
         0.00000E+00
         0.00000E+00
         0.00000E+00
         0.00000E+00
         0.00000E+00
         0.00000E+00
         0.00000E+00
         0.00000E+00
         0.00000E+00
         0.00000E+00
         0.00000E+00
         0.00000E+00
         0.00000E+00
         0.00000E+00
         0.00000E+00
         0.00000E+00
         0.00000E+00
         0.00000E+00
         0.00000E+00
         0.00000E+00
         0.00000E+00
         0.00000E+00
         0.00000E+00
         0.00000E+00
         0.00000E+00
         0.00000E+00
         0.00000E+00
         0.00000E+00
         0.00000E+00
         0.00000E+00
         0.00000E+00
         0.00000E+00
         0.00000E+00
         0.00000E+00
         0.00000E+00
         0.00000E+00
         0.00000E+00
         0.00000E+00
         0.00000E+00
         0.00000E+00
         0.00000E+00
         0.00000E+00
         0.00000E+00
         0.00000E+00
         0.00000E+00
         0.00000E+00
         0.00000E+00
         0.00000E+00
         0.00000E+00
         0.00000E+00
         0.00000E+00
         0.00000E+00
         0.00000E+00
         0.00000E+00
         0.00000E+00
         0.00000E+00
         0.00000E+00
         0.00000E+00
         0.00000E+00
         0.00000E+00
         0.00000E+00
         0.00000E+00
         0.00000E+00
         0.00000E+00
         0.00000E+00
         0.00000E+00
         0.00000E+00
         0.00000E+00
         0.00000E+00
         0.00000E+00
         0.00000E+00
         0.00000E+00
         0.00000E+00
         0.00000E+00
         0.00000E+00
         0.00000E+00
         0.00000E+00
         0.00000E+00
         0.00000E+00
         0.00000E+00
         0.00000E+00
         0.00000E+00
         0.00000E+00
         0.00000E+00
         0.00000E+00
         0.00000E+00
         0.00000E+00
         0.00000E+00
         0.00000E+00
         0.00000E+00
         0.00000E+00
         0.00000E+00
         0.00000E+00
         0.00000E+00
         0.00000E+00
         0.00000E+00
         0.00000E+00
         0.00000E+00
         0.00000E+00
         0.00000E+00
         0.00000E+00
         0.00000E+00
         0.00000E+00
         0.00000E+00
         0.00000E+00
         0.00000E+00
         0.00000E+00
         0.00000E+00
         0.00000E+00
         0.00000E+00
         0.00000E+00
         0.00000E+00
         0.00000E+00
         0.00000E+00
         0.00000E+00
         0.00000E+00
         0.00000E+00
         0.00000E+00
         0.00000E+00
         0.00000E+00
         0.00000E+00
         0.00000E+00
         0.00000E+00
         0.00000E+00
         0.00000E+00
         0.00000E+00
         0.00000E+00
         0.00000E+00
         0.00000E+00
         0.00000E+00
         0.00000E+00
         0.00000E+00
         0.00000E+00
         0.00000E+00
         0.00000E+00
         0.00000E+00
         0.00000E+00
         0.00000E+00
         0.00000E+00
         0.00000E+00
         0.00000E+00
         0.00000E+00
         0.00000E+00
         0.00000E+00
         0.00000E+00
         0.00000E+00
         0.00000E+00
         0.00000E+00
         0.00000E+00
         0.00000E+00
         0.00000E+00
         0.00000E+00
         0.00000E+00
         0.00000E+00
         0.00000E+00
         0.00000E+00
         0.00000E+00
         0.00000E+00
         0.00000E+00
         0.00000E+00
         0.00000E+00
         0.00000E+00
         0.00000E+00
         0.00000E+00
         0.00000E+00
         0.00000E+00
         0.00000E+00
         0.00000E+00
         0.00000E+00
         0.00000E+00
         0.00000E+00
         0.00000E+00
         0.00000E+00
         0.00000E+00
         0.00000E+00
         0.00000E+00
         0.00000E+00
         0.00000E+00
         0.00000E+00
         0.00000E+00
         0.00000E+00
         0.00000E+00
         0.00000E+00
         0.00000E+00
         0.00000E+00
         0.00000E+00
         0.00000E+00
         0.00000E+00
         0.00000E+00
         0.00000E+00
         0.00000E+00
         0.00000E+00
         0.00000E+00
         0.00000E+00
         0.00000E+00
         0.00000E+00
         0.00000E+00
         0.00000E+00
         0.00000E+00
         0.00000E+00
         0.00000E+00
         0.00000E+00
         0.00000E+00
         0.00000E+00
         0.00000E+00
         0.00000E+00
         0.00000E+00
         0.00000E+00
         0.00000E+00
         0.00000E+00
         0.00000E+00
         0.00000E+00
         0.00000E+00
         0.00000E+00
         0.00000E+00
         0.00000E+00
         0.00000E+00
         0.00000E+00
         0.00000E+00
         0.00000E+00
         0.00000E+00
         0.00000E+00
         0.00000E+00
         0.00000E+00
         0.00000E+00
         0.00000E+00
         0.00000E+00
         0.00000E+00
         0.00000E+00
         0.00000E+00
         0.00000E+00
         0.00000E+00
         0.00000E+00
         0.00000E+00
         0.00000E+00
         0.00000E+00
         0.00000E+00
         0.00000E+00
         0.00000E+00
         0.00000E+00
         0.00000E+00
         0.00000E+00
         0.00000E+00
         0.00000E+00
         0.00000E+00
         0.00000E+00
         0.00000E+00
         0.00000E+00
         0.00000E+00
         0.00000E+00
         0.00000E+00
         0.00000E+00
         0.00000E+00
         0.00000E+00
         0.00000E+00
         0.00000E+00
         0.00000E+00
         0.00000E+00
         0.00000E+00
         0.00000E+00
         0.00000E+00
         0.00000E+00
         0.00000E+00
         0.00000E+00
         0.00000E+00
         0.00000E+00
         0.00000E+00
         0.00000E+00
         0.00000E+00
         0.00000E+00
         0.00000E+00
         0.00000E+00
         0.00000E+00
         0.00000E+00
         0.00000E+00
         0.00000E+00
         0.00000E+00
         0.00000E+00
         0.00000E+00
         0.00000E+00
         0.00000E+00
         0.00000E+00
         0.00000E+00
         0.00000E+00
         0.00000E+00
         0.00000E+00
         0.00000E+00
         0.00000E+00
         0.00000E+00
         0.00000E+00
         0.00000E+00
         0.00000E+00
         0.00000E+00
         0.00000E+00
         0.00000E+00
         0.00000E+00
         0.00000E+00
         0.00000E+00
         0.00000E+00
         0.00000E+00
         0.00000E+00
         0.00000E+00
         0.00000E+00
         0.00000E+00
         0.00000E+00
         0.00000E+00
         0.00000E+00
         0.00000E+00
         0.00000E+00
         0.00000E+00
         0.00000E+00
         0.00000E+00
         0.00000E+00
         0.00000E+00
         0.00000E+00
         0.00000E+00
         0.00000E+00
         0.00000E+00
         0.00000E+00
         0.00000E+00
         0.00000E+00
         0.00000E+00
         0.00000E+00
         0.00000E+00
         0.00000E+00
         0.00000E+00
         0.00000E+00
         0.00000E+00
         0.00000E+00
         0.00000E+00
         0.00000E+00
         0.00000E+00
         0.00000E+00
         0.00000E+00
         0.00000E+00
         0.00000E+00
         0.00000E+00
         0.00000E+00
         0.00000E+00
         0.00000E+00
         0.00000E+00
         0.00000E+00
         0.00000E+00
         0.00000E+00
         0.00000E+00
         0.00000E+00
         0.00000E+00
         0.00000E+00
         0.00000E+00
         0.00000E+00
         0.00000E+00
         0.00000E+00
         0.00000E+00
         0.00000E+00
         0.00000E+00
         0.00000E+00
         0.00000E+00
         0.00000E+00
         0.00000E+00
         0.00000E+00
         0.00000E+00
         0.00000E+00
         0.00000E+00
         0.00000E+00
         0.00000E+00
         0.00000E+00
         0.00000E+00
         0.00000E+00
         0.00000E+00
         0.00000E+00
         0.00000E+00
         0.00000E+00
         0.00000E+00
         0.00000E+00
         0.00000E+00
         0.00000E+00
         0.00000E+00
         0.00000E+00
         0.00000E+00
         0.00000E+00
         0.00000E+00
         0.00000E+00
         0.00000E+00
         0.00000E+00
         0.00000E+00
         0.00000E+00
         0.00000E+00
         0.00000E+00
         0.00000E+00
         0.00000E+00
         0.00000E+00
         0.00000E+00
         0.00000E+00
         0.00000E+00
         0.00000E+00
         0.00000E+00
         0.00000E+00
         0.00000E+00
         0.00000E+00
         0.00000E+00
         0.00000E+00
         0.00000E+00
         0.00000E+00
         0.00000E+00
         0.00000E+00
         0.00000E+00
         0.00000E+00
         0.00000E+00
         0.00000E+00
         0.00000E+00
         0.00000E+00
         0.00000E+00
         0.00000E+00
         0.00000E+00
         0.00000E+00
         0.00000E+00
         0.00000E+00
         0.00000E+00
         0.00000E+00
         0.00000E+00
         0.00000E+00
         0.00000E+00
         0.00000E+00
         0.00000E+00
         0.00000E+00
         0.00000E+00
         0.00000E+00
         0.00000E+00
         0.00000E+00
         0.00000E+00
         0.00000E+00
         0.00000E+00
         0.00000E+00
         0.00000E+00
         0.00000E+00
         0.00000E+00
         0.00000E+00
         0.00000E+00
         0.00000E+00
         0.00000E+00
         0.00000E+00
         0.00000E+00
         0.00000E+00
         0.00000E+00
         0.00000E+00
         0.00000E+00
         0.00000E+00
         0.00000E+00
         0.00000E+00
         0.00000E+00
         0.00000E+00
         0.00000E+00
         0.00000E+00
         0.00000E+00
         0.00000E+00
         0.00000E+00
         0.00000E+00
         0.00000E+00
         0.00000E+00
         0.00000E+00
         0.00000E+00
         0.00000E+00
         0.00000E+00
         0.00000E+00
         0.00000E+00
         0.00000E+00
         0.00000E+00
         0.00000E+00
         0.00000E+00
         0.00000E+00
         0.00000E+00
         0.00000E+00
         0.00000E+00
         0.00000E+00
         0.00000E+00
         0.00000E+00
         0.00000E+00
         0.00000E+00
         0.00000E+00
         0.00000E+00
         0.00000E+00
         0.00000E+00
         0.00000E+00
         0.00000E+00
         0.00000E+00
         0.00000E+00
         0.00000E+00
         0.00000E+00
         0.00000E+00
         0.00000E+00
         0.00000E+00
         0.00000E+00
         0.00000E+00
         0.00000E+00
         0.00000E+00
         0.00000E+00
         0.00000E+00
         0.00000E+00
         0.00000E+00
         0.00000E+00
         0.00000E+00
         0.00000E+00
         0.00000E+00
         0.00000E+00
         0.00000E+00
         0.00000E+00
         0.00000E+00
         0.00000E+00
         0.00000E+00
         0.00000E+00
         0.00000E+00
         0.00000E+00
         0.00000E+00
         0.00000E+00
         0.00000E+00
         0.00000E+00
         0.00000E+00
         0.00000E+00
         0.00000E+00
         0.00000E+00
         0.00000E+00
         0.00000E+00
         0.00000E+00
         0.00000E+00
         0.00000E+00
         0.00000E+00
         0.00000E+00
         0.00000E+00
         0.00000E+00
         0.00000E+00
         0.00000E+00
         0.00000E+00
         0.00000E+00
         0.00000E+00
         0.00000E+00
         0.00000E+00
         0.00000E+00
         0.00000E+00
         0.00000E+00
         0.00000E+00
         0.00000E+00
         0.00000E+00
         0.00000E+00
         0.00000E+00
         0.00000E+00
         0.00000E+00
         0.00000E+00
         0.00000E+00
         0.00000E+00
         0.00000E+00
         0.00000E+00
         0.00000E+00
         0.00000E+00
         0.00000E+00
         0.00000E+00
         0.00000E+00
         0.00000E+00
         0.00000E+00
         0.00000E+00
         0.00000E+00
         0.00000E+00
         0.00000E+00
         0.00000E+00
         0.00000E+00
         0.00000E+00
         0.00000E+00
         0.00000E+00
         0.00000E+00
         0.00000E+00
         0.00000E+00
         0.00000E+00
         0.00000E+00
         0.00000E+00
         0.00000E+00
         0.00000E+00
         0.00000E+00
         0.00000E+00
         0.00000E+00
         0.00000E+00
         0.00000E+00
         0.00000E+00
         0.00000E+00
         0.00000E+00
         0.00000E+00
         0.00000E+00
         0.00000E+00
         0.00000E+00
         0.00000E+00
         0.00000E+00
         0.00000E+00
         0.00000E+00
         0.00000E+00
         0.00000E+00
         0.00000E+00
         0.00000E+00
         0.00000E+00
         0.00000E+00
         0.00000E+00
         0.00000E+00
         0.00000E+00
         0.00000E+00
  
SCALARS               pre_disp_force_z  double 1
LOOKUP_TABLE default
         0.00000E+00
         0.00000E+00
         0.00000E+00
         0.00000E+00
        -0.53380E+03
        -0.33975E+03
        -0.11535E+03
        -0.71263E+03
         0.00000E+00
         0.00000E+00
        -0.17846E+03
        -0.79497E+02
         0.00000E+00
         0.00000E+00
        -0.18510E+03
        -0.40676E+03
         0.00000E+00
         0.00000E+00
        -0.88136E+03
        -0.67680E+03
         0.00000E+00
         0.00000E+00
         0.00000E+00
        -0.95490E+02
        -0.91378E+02
        -0.66604E+02
         0.00000E+00
         0.00000E+00
        -0.16876E+03
        -0.65001E+01
         0.00000E+00
         0.00000E+00
         0.00000E+00
        -0.73456E+03
        -0.96887E+03
        -0.75307E+03
         0.00000E+00
         0.00000E+00
        -0.26788E+03
        -0.15567E+03
         0.00000E+00
         0.00000E+00
        -0.11036E+03
        -0.38043E+03
         0.00000E+00
         0.00000E+00
        -0.24370E+02
        -0.26625E+03
         0.00000E+00
        -0.30264E+03
         0.00000E+00
        -0.27217E+03
         0.00000E+00
         0.42365E+02
         0.00000E+00
        -0.35006E+03
         0.00000E+00
         0.00000E+00
        -0.23809E+02
        -0.34353E+03
         0.00000E+00
         0.00000E+00
        -0.26409E+03
        -0.21210E+03
         0.00000E+00
        -0.48476E+03
         0.00000E+00
        -0.16114E+03
         0.00000E+00
         0.00000E+00
        -0.50452E+02
        -0.59353E+02
         0.00000E+00
        -0.19616E+02
         0.00000E+00
        -0.25656E+03
         0.00000E+00
        -0.85256E+02
         0.00000E+00
        -0.15035E+02
         0.00000E+00
         0.00000E+00
        -0.73348E+02
        -0.10005E+03
         0.00000E+00
        -0.12046E+03
         0.00000E+00
        -0.28510E+02
         0.00000E+00
        -0.29975E+02
         0.00000E+00
         0.00000E+00
        -0.31358E+02
        -0.10961E+03
         0.00000E+00
        -0.90774E+02
         0.00000E+00
        -0.29637E+03
         0.00000E+00
        -0.69603E+02
         0.00000E+00
         0.00000E+00
         0.30174E+02
        -0.19663E+03
         0.00000E+00
         0.00000E+00
         0.27131E+02
        -0.21314E+02
         0.00000E+00
        -0.11517E+02
         0.00000E+00
         0.74288E+01
         0.00000E+00
        -0.30686E+02
         0.00000E+00
        -0.19649E+02
         0.00000E+00
        -0.20933E+02
         0.00000E+00
         0.86894E+01
         0.00000E+00
        -0.15573E+01
         0.00000E+00
        -0.15863E+02
         0.00000E+00
         0.18595E+02
         0.00000E+00
         0.11440E+02
         0.00000E+00
        -0.25654E+01
         0.00000E+00
         0.18890E+02
         0.00000E+00
        -0.14418E+02
         0.00000E+00
         0.71283E+01
         0.00000E+00
         0.12118E+02
         0.00000E+00
         0.68841E+00
         0.00000E+00
         0.41529E+02
         0.00000E+00
         0.32604E+02
         0.00000E+00
         0.20742E+01
         0.00000E+00
         0.10229E+02
         0.00000E+00
         0.17310E+00
         0.00000E+00
         0.36061E+02
         0.00000E+00
        -0.25376E+01
         0.00000E+00
        -0.29780E+01
         0.00000E+00
         0.00000E+00
         0.00000E+00
         0.00000E+00
         0.00000E+00
         0.00000E+00
         0.00000E+00
         0.00000E+00
         0.00000E+00
         0.00000E+00
         0.00000E+00
         0.00000E+00
         0.00000E+00
         0.00000E+00
         0.00000E+00
         0.00000E+00
         0.00000E+00
         0.00000E+00
         0.00000E+00
         0.00000E+00
         0.00000E+00
         0.00000E+00
         0.00000E+00
         0.00000E+00
         0.00000E+00
         0.00000E+00
         0.00000E+00
         0.00000E+00
         0.00000E+00
         0.00000E+00
         0.00000E+00
         0.00000E+00
         0.00000E+00
         0.00000E+00
         0.00000E+00
         0.00000E+00
         0.00000E+00
         0.00000E+00
         0.00000E+00
         0.00000E+00
         0.00000E+00
         0.00000E+00
         0.00000E+00
         0.00000E+00
         0.00000E+00
         0.00000E+00
         0.00000E+00
         0.00000E+00
         0.00000E+00
         0.00000E+00
         0.00000E+00
         0.00000E+00
         0.00000E+00
         0.00000E+00
         0.00000E+00
         0.00000E+00
         0.00000E+00
         0.00000E+00
         0.00000E+00
         0.00000E+00
         0.00000E+00
         0.00000E+00
         0.00000E+00
         0.00000E+00
         0.00000E+00
         0.00000E+00
         0.00000E+00
         0.00000E+00
         0.00000E+00
         0.00000E+00
         0.00000E+00
         0.00000E+00
         0.00000E+00
         0.00000E+00
         0.00000E+00
         0.00000E+00
         0.00000E+00
         0.00000E+00
         0.00000E+00
         0.00000E+00
         0.00000E+00
         0.00000E+00
         0.00000E+00
         0.00000E+00
         0.00000E+00
         0.00000E+00
         0.00000E+00
         0.00000E+00
         0.00000E+00
         0.00000E+00
         0.00000E+00
         0.00000E+00
         0.00000E+00
         0.00000E+00
         0.00000E+00
         0.00000E+00
         0.00000E+00
         0.00000E+00
         0.00000E+00
         0.00000E+00
         0.00000E+00
         0.00000E+00
         0.00000E+00
         0.00000E+00
         0.00000E+00
         0.00000E+00
         0.00000E+00
         0.00000E+00
         0.00000E+00
         0.00000E+00
         0.00000E+00
         0.00000E+00
         0.00000E+00
         0.00000E+00
         0.00000E+00
         0.00000E+00
         0.00000E+00
         0.00000E+00
         0.00000E+00
         0.00000E+00
         0.00000E+00
         0.00000E+00
         0.00000E+00
         0.00000E+00
         0.00000E+00
         0.00000E+00
         0.00000E+00
         0.00000E+00
         0.00000E+00
         0.00000E+00
         0.00000E+00
         0.00000E+00
         0.00000E+00
         0.00000E+00
         0.00000E+00
         0.00000E+00
         0.00000E+00
         0.00000E+00
         0.00000E+00
         0.00000E+00
         0.00000E+00
         0.00000E+00
         0.00000E+00
         0.00000E+00
         0.00000E+00
         0.00000E+00
         0.00000E+00
         0.00000E+00
         0.00000E+00
         0.00000E+00
         0.00000E+00
         0.00000E+00
         0.00000E+00
         0.00000E+00
         0.00000E+00
         0.00000E+00
         0.00000E+00
         0.00000E+00
         0.00000E+00
         0.00000E+00
         0.00000E+00
         0.00000E+00
         0.00000E+00
         0.00000E+00
         0.00000E+00
         0.00000E+00
         0.00000E+00
         0.00000E+00
         0.00000E+00
         0.00000E+00
         0.00000E+00
         0.00000E+00
         0.00000E+00
         0.00000E+00
         0.00000E+00
         0.00000E+00
         0.00000E+00
         0.00000E+00
         0.00000E+00
         0.00000E+00
         0.00000E+00
         0.00000E+00
         0.00000E+00
         0.00000E+00
         0.00000E+00
         0.00000E+00
         0.00000E+00
         0.00000E+00
         0.00000E+00
         0.00000E+00
         0.00000E+00
         0.00000E+00
         0.00000E+00
         0.00000E+00
         0.00000E+00
         0.00000E+00
         0.00000E+00
         0.00000E+00
         0.00000E+00
         0.00000E+00
         0.00000E+00
         0.00000E+00
         0.00000E+00
         0.00000E+00
         0.00000E+00
         0.00000E+00
         0.00000E+00
         0.00000E+00
         0.00000E+00
         0.00000E+00
         0.00000E+00
         0.00000E+00
         0.00000E+00
         0.00000E+00
         0.00000E+00
         0.00000E+00
         0.00000E+00
         0.00000E+00
         0.00000E+00
         0.00000E+00
         0.00000E+00
         0.00000E+00
         0.00000E+00
         0.00000E+00
         0.00000E+00
         0.00000E+00
         0.00000E+00
         0.00000E+00
         0.00000E+00
         0.00000E+00
         0.00000E+00
         0.00000E+00
         0.00000E+00
         0.00000E+00
         0.00000E+00
         0.00000E+00
         0.00000E+00
         0.00000E+00
         0.00000E+00
         0.00000E+00
         0.00000E+00
         0.00000E+00
         0.00000E+00
         0.00000E+00
         0.00000E+00
         0.00000E+00
         0.00000E+00
         0.00000E+00
         0.00000E+00
         0.00000E+00
         0.00000E+00
         0.00000E+00
         0.00000E+00
         0.00000E+00
         0.00000E+00
         0.00000E+00
         0.00000E+00
         0.00000E+00
         0.00000E+00
         0.00000E+00
         0.00000E+00
         0.00000E+00
         0.00000E+00
         0.00000E+00
         0.00000E+00
         0.00000E+00
         0.00000E+00
         0.00000E+00
         0.00000E+00
         0.00000E+00
         0.00000E+00
         0.00000E+00
         0.00000E+00
         0.00000E+00
         0.00000E+00
         0.00000E+00
         0.00000E+00
         0.00000E+00
         0.00000E+00
         0.00000E+00
         0.00000E+00
         0.00000E+00
         0.00000E+00
         0.00000E+00
         0.00000E+00
         0.00000E+00
         0.00000E+00
         0.00000E+00
         0.00000E+00
         0.00000E+00
         0.00000E+00
         0.00000E+00
         0.00000E+00
         0.00000E+00
         0.00000E+00
         0.00000E+00
         0.00000E+00
         0.00000E+00
         0.00000E+00
         0.00000E+00
         0.00000E+00
         0.00000E+00
         0.00000E+00
         0.00000E+00
         0.00000E+00
         0.00000E+00
         0.00000E+00
         0.00000E+00
         0.00000E+00
         0.00000E+00
         0.00000E+00
         0.00000E+00
         0.00000E+00
         0.00000E+00
         0.00000E+00
         0.00000E+00
         0.00000E+00
         0.00000E+00
         0.00000E+00
         0.00000E+00
         0.00000E+00
         0.00000E+00
         0.00000E+00
         0.00000E+00
         0.00000E+00
         0.00000E+00
         0.00000E+00
         0.00000E+00
         0.00000E+00
         0.00000E+00
         0.00000E+00
         0.00000E+00
         0.00000E+00
         0.00000E+00
         0.00000E+00
         0.00000E+00
         0.00000E+00
         0.00000E+00
         0.00000E+00
         0.00000E+00
         0.00000E+00
         0.00000E+00
         0.00000E+00
         0.00000E+00
         0.00000E+00
         0.00000E+00
         0.00000E+00
         0.00000E+00
         0.00000E+00
         0.00000E+00
         0.00000E+00
         0.00000E+00
         0.00000E+00
         0.00000E+00
         0.00000E+00
         0.00000E+00
         0.00000E+00
         0.00000E+00
         0.00000E+00
         0.00000E+00
         0.00000E+00
         0.00000E+00
         0.00000E+00
         0.00000E+00
         0.00000E+00
         0.00000E+00
         0.00000E+00
         0.00000E+00
         0.00000E+00
         0.00000E+00
         0.00000E+00
         0.00000E+00
         0.00000E+00
         0.00000E+00
         0.00000E+00
         0.00000E+00
         0.00000E+00
         0.00000E+00
         0.00000E+00
         0.00000E+00
         0.00000E+00
         0.00000E+00
         0.00000E+00
         0.00000E+00
         0.00000E+00
         0.00000E+00
         0.00000E+00
         0.00000E+00
         0.00000E+00
         0.00000E+00
         0.00000E+00
         0.00000E+00
         0.00000E+00
         0.00000E+00
         0.00000E+00
         0.00000E+00
         0.00000E+00
         0.00000E+00
         0.00000E+00
         0.00000E+00
         0.00000E+00
         0.00000E+00
         0.00000E+00
         0.00000E+00
         0.00000E+00
         0.00000E+00
         0.00000E+00
         0.00000E+00
         0.00000E+00
         0.00000E+00
         0.00000E+00
         0.00000E+00
         0.00000E+00
         0.00000E+00
         0.00000E+00
         0.00000E+00
         0.00000E+00
         0.00000E+00
         0.00000E+00
         0.00000E+00
         0.00000E+00
         0.00000E+00
         0.00000E+00
         0.00000E+00
         0.00000E+00
         0.00000E+00
         0.00000E+00
         0.00000E+00
         0.00000E+00
         0.00000E+00
         0.00000E+00
         0.00000E+00
         0.00000E+00
         0.00000E+00
         0.00000E+00
         0.00000E+00
         0.00000E+00
         0.00000E+00
         0.00000E+00
         0.00000E+00
         0.00000E+00
         0.00000E+00
         0.00000E+00
         0.00000E+00
         0.00000E+00
         0.00000E+00
         0.00000E+00
         0.00000E+00
         0.00000E+00
         0.00000E+00
         0.00000E+00
         0.00000E+00
         0.00000E+00
         0.00000E+00
         0.00000E+00
         0.00000E+00
         0.00000E+00
         0.00000E+00
         0.00000E+00
         0.00000E+00
         0.00000E+00
         0.00000E+00
         0.00000E+00
         0.00000E+00
         0.00000E+00
         0.00000E+00
         0.00000E+00
         0.00000E+00
         0.00000E+00
         0.00000E+00
         0.00000E+00
         0.00000E+00
         0.00000E+00
         0.00000E+00
         0.00000E+00
         0.00000E+00
         0.00000E+00
         0.00000E+00
         0.00000E+00
         0.00000E+00
         0.00000E+00
         0.00000E+00
         0.00000E+00
         0.00000E+00
         0.00000E+00
         0.00000E+00
         0.00000E+00
         0.00000E+00
         0.00000E+00
         0.00000E+00
         0.00000E+00
         0.00000E+00
         0.00000E+00
         0.00000E+00
         0.00000E+00
         0.00000E+00
         0.00000E+00
         0.00000E+00
         0.00000E+00
         0.00000E+00
         0.00000E+00
         0.00000E+00
         0.00000E+00
         0.00000E+00
         0.00000E+00
         0.00000E+00
         0.00000E+00
         0.00000E+00
         0.00000E+00
         0.00000E+00
         0.00000E+00
         0.00000E+00
         0.00000E+00
         0.00000E+00
         0.00000E+00
         0.00000E+00
         0.00000E+00
         0.00000E+00
         0.00000E+00
         0.00000E+00
         0.00000E+00
         0.00000E+00
         0.00000E+00
         0.00000E+00
         0.00000E+00
         0.00000E+00
         0.00000E+00
         0.00000E+00
         0.00000E+00
         0.00000E+00
         0.00000E+00
         0.00000E+00
         0.00000E+00
         0.00000E+00
         0.00000E+00
         0.00000E+00
         0.00000E+00
         0.00000E+00
         0.00000E+00
         0.00000E+00
         0.00000E+00
         0.00000E+00
         0.00000E+00
         0.00000E+00
         0.00000E+00
         0.00000E+00
         0.00000E+00
         0.00000E+00
         0.00000E+00
         0.00000E+00
         0.00000E+00
         0.00000E+00
         0.00000E+00
         0.00000E+00
         0.00000E+00
         0.00000E+00
         0.00000E+00
         0.00000E+00
         0.00000E+00
         0.00000E+00
         0.00000E+00
         0.00000E+00
         0.00000E+00
         0.00000E+00
         0.00000E+00
         0.00000E+00
         0.00000E+00
         0.00000E+00
         0.00000E+00
         0.00000E+00
         0.00000E+00
         0.00000E+00
         0.00000E+00
         0.00000E+00
         0.00000E+00
         0.00000E+00
         0.00000E+00
         0.00000E+00
         0.00000E+00
         0.00000E+00
         0.00000E+00
         0.00000E+00
         0.00000E+00
         0.00000E+00
         0.00000E+00
         0.00000E+00
         0.00000E+00
         0.00000E+00
         0.00000E+00
         0.00000E+00
         0.00000E+00
         0.00000E+00
         0.00000E+00
         0.00000E+00
         0.00000E+00
         0.00000E+00
         0.00000E+00
         0.00000E+00
         0.00000E+00
         0.00000E+00
         0.00000E+00
         0.00000E+00
         0.00000E+00
         0.00000E+00
         0.00000E+00
         0.00000E+00
         0.00000E+00
         0.00000E+00
         0.00000E+00
         0.00000E+00
         0.00000E+00
         0.00000E+00
         0.00000E+00
         0.00000E+00
         0.00000E+00
         0.00000E+00
         0.00000E+00
         0.00000E+00
         0.00000E+00
         0.00000E+00
         0.00000E+00
         0.00000E+00
         0.00000E+00
         0.00000E+00
         0.00000E+00
         0.00000E+00
         0.00000E+00
         0.00000E+00
         0.00000E+00
         0.00000E+00
         0.00000E+00
         0.00000E+00
         0.00000E+00
         0.00000E+00
         0.00000E+00
         0.00000E+00
         0.00000E+00
         0.00000E+00
         0.00000E+00
         0.00000E+00
         0.00000E+00
         0.00000E+00
         0.00000E+00
         0.00000E+00
         0.00000E+00
         0.00000E+00
         0.00000E+00
         0.00000E+00
         0.00000E+00
         0.00000E+00
         0.00000E+00
         0.00000E+00
         0.00000E+00
         0.00000E+00
         0.00000E+00
         0.00000E+00
         0.00000E+00
         0.00000E+00
         0.00000E+00
         0.00000E+00
         0.00000E+00
         0.00000E+00
         0.00000E+00
         0.00000E+00
         0.00000E+00
         0.00000E+00
         0.00000E+00
         0.00000E+00
         0.00000E+00
         0.00000E+00
         0.00000E+00
         0.00000E+00
         0.00000E+00
         0.00000E+00
         0.00000E+00
         0.00000E+00
         0.00000E+00
         0.00000E+00
         0.00000E+00
         0.00000E+00
         0.00000E+00
         0.00000E+00
         0.00000E+00
         0.00000E+00
         0.00000E+00
         0.00000E+00
         0.00000E+00
         0.00000E+00
         0.00000E+00
         0.00000E+00
         0.00000E+00
         0.00000E+00
         0.00000E+00
         0.00000E+00
         0.00000E+00
         0.00000E+00
         0.00000E+00
         0.00000E+00
         0.00000E+00
         0.00000E+00
         0.00000E+00
         0.00000E+00
         0.00000E+00
         0.00000E+00
         0.00000E+00
         0.00000E+00
         0.00000E+00
         0.00000E+00
         0.00000E+00
         0.00000E+00
         0.00000E+00
         0.00000E+00
         0.00000E+00
         0.00000E+00
         0.00000E+00
         0.00000E+00
         0.00000E+00
         0.00000E+00
         0.00000E+00
         0.00000E+00
         0.00000E+00
         0.00000E+00
         0.00000E+00
         0.00000E+00
         0.00000E+00
         0.00000E+00
         0.00000E+00
         0.00000E+00
         0.00000E+00
         0.00000E+00
         0.00000E+00
         0.00000E+00
         0.00000E+00
         0.00000E+00
         0.00000E+00
         0.00000E+00
         0.00000E+00
         0.00000E+00
         0.00000E+00
         0.00000E+00
         0.00000E+00
         0.00000E+00
         0.00000E+00
         0.00000E+00
         0.00000E+00
         0.00000E+00
         0.00000E+00
         0.00000E+00
         0.00000E+00
         0.00000E+00
         0.00000E+00
         0.00000E+00
         0.00000E+00
         0.00000E+00
         0.00000E+00
         0.00000E+00
         0.00000E+00
         0.00000E+00
         0.00000E+00
         0.00000E+00
         0.00000E+00
         0.00000E+00
         0.00000E+00
         0.00000E+00
         0.00000E+00
         0.00000E+00
         0.00000E+00
         0.00000E+00
         0.00000E+00
         0.00000E+00
         0.00000E+00
         0.00000E+00
         0.00000E+00
         0.00000E+00
         0.00000E+00
         0.00000E+00
         0.00000E+00
         0.00000E+00
         0.00000E+00
         0.00000E+00
         0.00000E+00
         0.00000E+00
         0.00000E+00
         0.00000E+00
         0.00000E+00
         0.00000E+00
         0.00000E+00
         0.00000E+00
         0.00000E+00
         0.00000E+00
         0.00000E+00
         0.00000E+00
         0.00000E+00
         0.00000E+00
         0.00000E+00
         0.00000E+00
         0.00000E+00
         0.00000E+00
         0.00000E+00
         0.00000E+00
         0.00000E+00
         0.00000E+00
         0.00000E+00
         0.00000E+00
         0.00000E+00
         0.00000E+00
         0.00000E+00
         0.00000E+00
         0.00000E+00
         0.00000E+00
         0.00000E+00
         0.00000E+00
         0.00000E+00
         0.00000E+00
         0.00000E+00
         0.00000E+00
         0.00000E+00
         0.00000E+00
         0.00000E+00
         0.00000E+00
         0.00000E+00
         0.00000E+00
         0.00000E+00
         0.00000E+00
         0.00000E+00
         0.00000E+00
         0.00000E+00
         0.00000E+00
         0.00000E+00
         0.00000E+00
         0.00000E+00
         0.00000E+00
         0.00000E+00
         0.00000E+00
         0.00000E+00
         0.00000E+00
         0.00000E+00
         0.00000E+00
         0.00000E+00
         0.00000E+00
         0.00000E+00
         0.00000E+00
         0.00000E+00
         0.00000E+00
         0.00000E+00
         0.00000E+00
         0.00000E+00
         0.00000E+00
         0.00000E+00
         0.00000E+00
         0.00000E+00
         0.00000E+00
         0.00000E+00
         0.00000E+00
         0.00000E+00
         0.00000E+00
         0.00000E+00
         0.00000E+00
         0.00000E+00
         0.00000E+00
         0.00000E+00
         0.00000E+00
         0.00000E+00
         0.00000E+00
         0.00000E+00
         0.00000E+00
         0.00000E+00
         0.00000E+00
         0.00000E+00
         0.00000E+00
         0.00000E+00
         0.00000E+00
         0.00000E+00
         0.00000E+00
         0.00000E+00
         0.00000E+00
         0.00000E+00
         0.00000E+00
         0.00000E+00
         0.00000E+00
         0.00000E+00
         0.00000E+00
         0.00000E+00
         0.00000E+00
         0.00000E+00
         0.00000E+00
         0.00000E+00
         0.00000E+00
         0.00000E+00
         0.00000E+00
         0.00000E+00
         0.00000E+00
         0.00000E+00
         0.00000E+00
         0.00000E+00
         0.00000E+00
         0.00000E+00
         0.00000E+00
         0.00000E+00
         0.00000E+00
         0.00000E+00
         0.00000E+00
         0.00000E+00
         0.00000E+00
         0.00000E+00
         0.00000E+00
         0.00000E+00
         0.00000E+00
         0.00000E+00
         0.00000E+00
         0.00000E+00
         0.00000E+00
         0.00000E+00
         0.00000E+00
         0.00000E+00
         0.00000E+00
         0.00000E+00
         0.00000E+00
         0.00000E+00
         0.00000E+00
         0.00000E+00
         0.00000E+00
         0.00000E+00
         0.00000E+00
         0.00000E+00
         0.00000E+00
         0.00000E+00
         0.00000E+00
         0.00000E+00
         0.00000E+00
         0.00000E+00
         0.00000E+00
         0.00000E+00
         0.00000E+00
         0.00000E+00
         0.00000E+00
         0.00000E+00
         0.00000E+00
         0.00000E+00
         0.00000E+00
         0.00000E+00
         0.00000E+00
         0.00000E+00
         0.00000E+00
         0.00000E+00
         0.00000E+00
         0.00000E+00
         0.00000E+00
         0.00000E+00
         0.00000E+00
         0.00000E+00
         0.00000E+00
         0.00000E+00
         0.00000E+00
         0.00000E+00
         0.00000E+00
         0.00000E+00
         0.00000E+00
         0.00000E+00
         0.00000E+00
         0.00000E+00
         0.00000E+00
         0.00000E+00
         0.00000E+00
         0.00000E+00
         0.00000E+00
         0.00000E+00
         0.00000E+00
         0.00000E+00
         0.00000E+00
         0.00000E+00
         0.00000E+00
         0.00000E+00
         0.00000E+00
         0.00000E+00
         0.00000E+00
         0.00000E+00
         0.00000E+00
         0.00000E+00
         0.00000E+00
         0.00000E+00
         0.00000E+00
         0.00000E+00
         0.00000E+00
         0.00000E+00
         0.00000E+00
         0.00000E+00
         0.00000E+00
         0.00000E+00
         0.00000E+00
         0.00000E+00
         0.00000E+00
         0.00000E+00
         0.00000E+00
         0.00000E+00
         0.00000E+00
         0.00000E+00
         0.00000E+00
         0.00000E+00
         0.00000E+00
         0.00000E+00
         0.00000E+00
         0.00000E+00
         0.00000E+00
         0.00000E+00
         0.00000E+00
         0.00000E+00
         0.00000E+00
         0.00000E+00
         0.00000E+00
         0.00000E+00
         0.00000E+00
         0.00000E+00
         0.00000E+00
         0.00000E+00
         0.00000E+00
         0.00000E+00
         0.00000E+00
         0.00000E+00
         0.00000E+00
         0.00000E+00
         0.00000E+00
         0.00000E+00
         0.00000E+00
         0.00000E+00
         0.00000E+00
         0.00000E+00
         0.00000E+00
         0.00000E+00
         0.00000E+00
         0.00000E+00
         0.00000E+00
         0.00000E+00
         0.00000E+00
         0.00000E+00
         0.00000E+00
         0.00000E+00
         0.00000E+00
         0.00000E+00
         0.00000E+00
         0.00000E+00
         0.00000E+00
         0.00000E+00
         0.00000E+00
         0.00000E+00
         0.00000E+00
         0.00000E+00
         0.00000E+00
         0.00000E+00
         0.00000E+00
         0.00000E+00
         0.00000E+00
         0.00000E+00
         0.00000E+00
         0.00000E+00
         0.00000E+00
         0.00000E+00
         0.00000E+00
         0.00000E+00
         0.00000E+00
         0.00000E+00
         0.00000E+00
         0.00000E+00
         0.00000E+00
         0.00000E+00
         0.00000E+00
         0.00000E+00
         0.00000E+00
         0.00000E+00
         0.00000E+00
         0.00000E+00
         0.00000E+00
         0.00000E+00
         0.00000E+00
         0.00000E+00
         0.00000E+00
         0.00000E+00
         0.00000E+00
         0.00000E+00
         0.00000E+00
         0.00000E+00
         0.00000E+00
         0.00000E+00
         0.00000E+00
         0.00000E+00
         0.00000E+00
         0.00000E+00
         0.00000E+00
         0.00000E+00
         0.00000E+00
         0.00000E+00
         0.00000E+00
         0.00000E+00
         0.00000E+00
         0.00000E+00
         0.00000E+00
         0.00000E+00
         0.00000E+00
         0.00000E+00
         0.00000E+00
         0.00000E+00
         0.00000E+00
         0.00000E+00
         0.00000E+00
         0.00000E+00
         0.00000E+00
         0.00000E+00
         0.00000E+00
         0.00000E+00
         0.00000E+00
         0.00000E+00
         0.00000E+00
         0.00000E+00
         0.00000E+00
         0.00000E+00
         0.00000E+00
         0.00000E+00
         0.00000E+00
         0.00000E+00
         0.00000E+00
         0.00000E+00
         0.00000E+00
         0.00000E+00
         0.00000E+00
         0.00000E+00
         0.00000E+00
         0.00000E+00
         0.00000E+00
         0.00000E+00
         0.00000E+00
         0.00000E+00
         0.00000E+00
         0.00000E+00
         0.00000E+00
         0.00000E+00
         0.00000E+00
         0.00000E+00
         0.00000E+00
         0.00000E+00
         0.00000E+00
         0.00000E+00
         0.00000E+00
         0.00000E+00
         0.00000E+00
         0.00000E+00
         0.00000E+00
         0.00000E+00
         0.00000E+00
         0.00000E+00
         0.00000E+00
         0.00000E+00
         0.00000E+00
         0.00000E+00
         0.00000E+00
         0.00000E+00
         0.00000E+00
         0.00000E+00
         0.00000E+00
         0.00000E+00
         0.00000E+00
         0.00000E+00
         0.00000E+00
         0.00000E+00
         0.00000E+00
         0.00000E+00
         0.00000E+00
         0.00000E+00
         0.00000E+00
         0.00000E+00
         0.00000E+00
         0.00000E+00
         0.00000E+00
         0.00000E+00
         0.00000E+00
         0.00000E+00
         0.00000E+00
         0.00000E+00
         0.00000E+00
         0.00000E+00
         0.00000E+00
         0.00000E+00
         0.00000E+00
         0.00000E+00
         0.00000E+00
         0.00000E+00
         0.00000E+00
         0.00000E+00
         0.00000E+00
         0.00000E+00
         0.00000E+00
         0.00000E+00
         0.00000E+00
         0.00000E+00
         0.00000E+00
         0.00000E+00
         0.00000E+00
         0.00000E+00
         0.00000E+00
         0.00000E+00
         0.00000E+00
         0.00000E+00
         0.00000E+00
         0.00000E+00
         0.00000E+00
         0.00000E+00
         0.00000E+00
         0.00000E+00
         0.00000E+00
         0.00000E+00
         0.00000E+00
         0.00000E+00
         0.00000E+00
         0.00000E+00
         0.00000E+00
         0.00000E+00
         0.00000E+00
         0.00000E+00
         0.00000E+00
         0.00000E+00
         0.00000E+00
         0.00000E+00
         0.00000E+00
         0.00000E+00
         0.00000E+00
         0.00000E+00
         0.00000E+00
         0.00000E+00
         0.00000E+00
         0.00000E+00
         0.00000E+00
         0.00000E+00
         0.00000E+00
         0.00000E+00
         0.00000E+00
         0.00000E+00
         0.00000E+00
         0.00000E+00
         0.00000E+00
         0.00000E+00
         0.00000E+00
         0.00000E+00
         0.00000E+00
         0.00000E+00
         0.00000E+00
         0.00000E+00
         0.00000E+00
         0.00000E+00
         0.00000E+00
         0.00000E+00
         0.00000E+00
         0.00000E+00
         0.00000E+00
         0.00000E+00
         0.00000E+00
         0.00000E+00
         0.00000E+00
         0.00000E+00
         0.00000E+00
         0.00000E+00
         0.00000E+00
         0.00000E+00
         0.00000E+00
         0.00000E+00
         0.00000E+00
         0.00000E+00
         0.00000E+00
         0.00000E+00
         0.00000E+00
         0.00000E+00
         0.00000E+00
         0.00000E+00
         0.00000E+00
         0.00000E+00
         0.00000E+00
         0.00000E+00
         0.00000E+00
         0.00000E+00
         0.00000E+00
         0.00000E+00
         0.00000E+00
         0.00000E+00
         0.00000E+00
         0.00000E+00
         0.00000E+00
         0.00000E+00
         0.00000E+00
         0.00000E+00
         0.00000E+00
         0.00000E+00
         0.00000E+00
         0.00000E+00
         0.00000E+00
         0.00000E+00
         0.00000E+00
         0.00000E+00
         0.00000E+00
         0.00000E+00
         0.00000E+00
         0.00000E+00
         0.00000E+00
         0.00000E+00
         0.00000E+00
         0.00000E+00
         0.00000E+00
         0.00000E+00
         0.00000E+00
         0.00000E+00
         0.00000E+00
         0.00000E+00
         0.00000E+00
         0.00000E+00
         0.00000E+00
         0.00000E+00
         0.00000E+00
         0.00000E+00
         0.00000E+00
         0.00000E+00
         0.00000E+00
         0.00000E+00
         0.00000E+00
         0.00000E+00
         0.00000E+00
         0.00000E+00
         0.00000E+00
         0.00000E+00
         0.00000E+00
         0.00000E+00
         0.00000E+00
         0.00000E+00
         0.00000E+00
         0.00000E+00
         0.00000E+00
         0.00000E+00
         0.00000E+00
         0.00000E+00
         0.00000E+00
         0.00000E+00
         0.00000E+00
         0.00000E+00
         0.00000E+00
         0.00000E+00
         0.00000E+00
         0.00000E+00
         0.00000E+00
         0.00000E+00
         0.00000E+00
         0.00000E+00
         0.00000E+00
         0.00000E+00
         0.00000E+00
         0.00000E+00
         0.00000E+00
         0.00000E+00
         0.00000E+00
         0.00000E+00
         0.00000E+00
         0.00000E+00
         0.00000E+00
         0.00000E+00
         0.00000E+00
         0.00000E+00
         0.00000E+00
         0.00000E+00
         0.00000E+00
         0.00000E+00
         0.00000E+00
         0.00000E+00
         0.00000E+00
         0.00000E+00
         0.00000E+00
         0.00000E+00
         0.00000E+00
         0.00000E+00
         0.00000E+00
         0.00000E+00
         0.00000E+00
         0.00000E+00
         0.00000E+00
         0.00000E+00
         0.00000E+00
         0.00000E+00
         0.00000E+00
         0.00000E+00
         0.00000E+00
         0.00000E+00
         0.00000E+00
         0.00000E+00
         0.00000E+00
         0.00000E+00
         0.00000E+00
         0.00000E+00
         0.00000E+00
         0.00000E+00
         0.00000E+00
         0.00000E+00
         0.00000E+00
         0.00000E+00
         0.00000E+00
         0.00000E+00
         0.00000E+00
         0.00000E+00
         0.00000E+00
         0.00000E+00
         0.00000E+00
         0.00000E+00
         0.00000E+00
         0.00000E+00
         0.00000E+00
         0.00000E+00
         0.00000E+00
         0.00000E+00
         0.00000E+00
         0.00000E+00
         0.00000E+00
         0.00000E+00
         0.00000E+00
         0.00000E+00
         0.00000E+00
         0.00000E+00
         0.00000E+00
         0.00000E+00
         0.00000E+00
         0.00000E+00
         0.00000E+00
         0.00000E+00
         0.00000E+00
         0.00000E+00
         0.00000E+00
         0.00000E+00
         0.00000E+00
         0.00000E+00
         0.00000E+00
         0.00000E+00
         0.00000E+00
         0.00000E+00
         0.00000E+00
         0.00000E+00
         0.00000E+00
         0.00000E+00
         0.00000E+00
         0.00000E+00
         0.00000E+00
         0.00000E+00
         0.00000E+00
         0.00000E+00
         0.00000E+00
         0.00000E+00
         0.00000E+00
         0.00000E+00
         0.00000E+00
         0.00000E+00
         0.00000E+00
         0.00000E+00
         0.00000E+00
         0.00000E+00
         0.00000E+00
         0.00000E+00
         0.00000E+00
         0.00000E+00
         0.00000E+00
         0.00000E+00
         0.00000E+00
         0.00000E+00
         0.00000E+00
         0.00000E+00
         0.00000E+00
         0.00000E+00
         0.00000E+00
         0.00000E+00
         0.00000E+00
         0.00000E+00
         0.00000E+00
         0.00000E+00
         0.00000E+00
         0.00000E+00
         0.00000E+00
         0.00000E+00
         0.00000E+00
         0.00000E+00
         0.00000E+00
         0.00000E+00
         0.00000E+00
         0.00000E+00
         0.00000E+00
         0.00000E+00
         0.00000E+00
         0.00000E+00
         0.00000E+00
         0.00000E+00
         0.00000E+00
         0.00000E+00
         0.00000E+00
         0.00000E+00
         0.00000E+00
         0.00000E+00
         0.00000E+00
         0.00000E+00
         0.00000E+00
         0.00000E+00
         0.00000E+00
         0.00000E+00
         0.00000E+00
         0.00000E+00
         0.00000E+00
         0.00000E+00
         0.00000E+00
         0.00000E+00
         0.00000E+00
         0.00000E+00
         0.00000E+00
         0.00000E+00
         0.00000E+00
         0.00000E+00
         0.00000E+00
         0.00000E+00
         0.00000E+00
         0.00000E+00
         0.00000E+00
         0.00000E+00
         0.00000E+00
         0.00000E+00
         0.00000E+00
         0.00000E+00
         0.00000E+00
         0.00000E+00
         0.00000E+00
         0.00000E+00
         0.00000E+00
         0.00000E+00
         0.00000E+00
         0.00000E+00
         0.00000E+00
         0.00000E+00
         0.00000E+00
         0.00000E+00
         0.00000E+00
         0.00000E+00
         0.00000E+00
         0.00000E+00
         0.00000E+00
         0.00000E+00
         0.00000E+00
         0.00000E+00
         0.00000E+00
         0.00000E+00
         0.00000E+00
         0.00000E+00
         0.00000E+00
         0.00000E+00
         0.00000E+00
         0.00000E+00
         0.00000E+00
         0.00000E+00
         0.00000E+00
         0.00000E+00
         0.00000E+00
         0.00000E+00
         0.00000E+00
         0.00000E+00
         0.00000E+00
         0.00000E+00
         0.00000E+00
         0.00000E+00
         0.00000E+00
         0.00000E+00
         0.00000E+00
         0.00000E+00
         0.00000E+00
         0.00000E+00
         0.00000E+00
         0.00000E+00
         0.00000E+00
         0.00000E+00
         0.00000E+00
         0.00000E+00
         0.00000E+00
         0.00000E+00
         0.00000E+00
         0.00000E+00
         0.00000E+00
         0.00000E+00
         0.00000E+00
         0.00000E+00
         0.00000E+00
         0.00000E+00
         0.00000E+00
         0.00000E+00
         0.00000E+00
         0.00000E+00
         0.00000E+00
         0.00000E+00
         0.00000E+00
         0.00000E+00
         0.00000E+00
         0.00000E+00
         0.00000E+00
         0.00000E+00
         0.00000E+00
         0.00000E+00
         0.00000E+00
         0.00000E+00
         0.00000E+00
         0.00000E+00
         0.00000E+00
         0.00000E+00
         0.00000E+00
         0.00000E+00
         0.00000E+00
         0.00000E+00
         0.00000E+00
         0.00000E+00
         0.00000E+00
         0.00000E+00
         0.00000E+00
         0.00000E+00
         0.00000E+00
         0.00000E+00
         0.00000E+00
         0.00000E+00
         0.00000E+00
         0.00000E+00
         0.00000E+00
         0.00000E+00
         0.00000E+00
         0.00000E+00
         0.00000E+00
         0.00000E+00
         0.00000E+00
         0.00000E+00
         0.00000E+00
         0.00000E+00
         0.00000E+00
         0.00000E+00
         0.00000E+00
         0.00000E+00
         0.00000E+00
         0.00000E+00
         0.00000E+00
         0.00000E+00
         0.00000E+00
         0.00000E+00
         0.00000E+00
         0.00000E+00
         0.00000E+00
         0.00000E+00
         0.00000E+00
         0.00000E+00
         0.00000E+00
         0.00000E+00
         0.00000E+00
         0.00000E+00
         0.00000E+00
         0.00000E+00
         0.00000E+00
         0.00000E+00
         0.00000E+00
         0.00000E+00
         0.00000E+00
         0.00000E+00
         0.00000E+00
         0.00000E+00
         0.00000E+00
         0.00000E+00
         0.00000E+00
         0.00000E+00
         0.00000E+00
         0.00000E+00
         0.00000E+00
         0.00000E+00
         0.00000E+00
         0.00000E+00
         0.00000E+00
         0.00000E+00
         0.00000E+00
         0.00000E+00
         0.00000E+00
         0.00000E+00
         0.00000E+00
         0.00000E+00
         0.00000E+00
         0.00000E+00
         0.00000E+00
         0.00000E+00
         0.00000E+00
         0.00000E+00
         0.00000E+00
         0.00000E+00
         0.00000E+00
         0.00000E+00
         0.00000E+00
         0.00000E+00
         0.00000E+00
         0.00000E+00
         0.00000E+00
         0.00000E+00
         0.00000E+00
         0.00000E+00
         0.00000E+00
         0.00000E+00
         0.00000E+00
         0.00000E+00
         0.00000E+00
         0.00000E+00
         0.00000E+00
         0.00000E+00
         0.00000E+00
         0.00000E+00
         0.00000E+00
         0.00000E+00
         0.00000E+00
         0.00000E+00
         0.00000E+00
         0.00000E+00
         0.00000E+00
         0.00000E+00
         0.00000E+00
         0.00000E+00
         0.00000E+00
         0.00000E+00
         0.00000E+00
         0.00000E+00
         0.00000E+00
         0.00000E+00
         0.00000E+00
         0.00000E+00
         0.00000E+00
         0.00000E+00
         0.00000E+00
         0.00000E+00
         0.00000E+00
         0.00000E+00
         0.00000E+00
         0.00000E+00
         0.00000E+00
         0.00000E+00
         0.00000E+00
         0.00000E+00
         0.00000E+00
         0.00000E+00
         0.00000E+00
         0.00000E+00
         0.00000E+00
         0.00000E+00
         0.00000E+00
         0.00000E+00
         0.00000E+00
         0.00000E+00
         0.00000E+00
         0.00000E+00
         0.00000E+00
         0.00000E+00
         0.00000E+00
         0.00000E+00
         0.00000E+00
         0.00000E+00
         0.00000E+00
         0.00000E+00
         0.00000E+00
         0.00000E+00
         0.00000E+00
         0.00000E+00
         0.00000E+00
         0.00000E+00
         0.00000E+00
         0.00000E+00
         0.00000E+00
         0.00000E+00
         0.00000E+00
         0.00000E+00
         0.00000E+00
         0.00000E+00
         0.00000E+00
         0.00000E+00
         0.00000E+00
         0.00000E+00
         0.00000E+00
         0.00000E+00
         0.00000E+00
         0.00000E+00
         0.00000E+00
         0.00000E+00
         0.00000E+00
         0.00000E+00
         0.00000E+00
         0.00000E+00
         0.00000E+00
         0.00000E+00
         0.00000E+00
         0.00000E+00
         0.00000E+00
         0.00000E+00
         0.00000E+00
         0.00000E+00
         0.00000E+00
  
SCALARS                      stress_xx  double 1
LOOKUP_TABLE default
        -0.79656E+08
         0.39363E+08
         0.61945E+09
        -0.35555E+09
         0.14374E+09
        -0.49947E+09
         0.61644E+09
        -0.12329E+09
        -0.31015E+09
         0.39579E+09
        -0.57564E+09
         0.77203E+08
        -0.92783E+08
         0.73485E+08
        -0.49930E+08
        -0.31758E+09
         0.14073E+09
        -0.25386E+09
        -0.34597E+07
        -0.32875E+09
        -0.10627E+09
        -0.44755E+08
         0.13286E+09
         0.30067E+09
        -0.26740E+09
         0.25951E+09
         0.29325E+09
         0.84127E+08
        -0.49323E+07
         0.11684E+09
        -0.25300E+09
        -0.60231E+08
         0.16721E+09
        -0.11119E+09
        -0.29275E+09
        -0.13606E+09
         0.10984E+09
        -0.74481E+08
        -0.10439E+08
         0.72479E+08
        -0.13619E+09
        -0.20308E+08
         0.18710E+09
        -0.81627E+08
         0.34151E+09
         0.35239E+09
         0.38457E+09
        -0.86320E+09
         0.23058E+09
         0.24927E+09
         0.40609E+08
        -0.23535E+09
         0.59085E+09
         0.71984E+09
         0.10192E+09
        -0.35591E+09
        -0.94520E+08
        -0.17262E+09
         0.11640E+09
        -0.29379E+09
         0.72652E+08
         0.40702E+09
         0.41566E+08
        -0.34884E+09
         0.18516E+08
         0.18880E+09
         0.46722E+09
        -0.98043E+07
        -0.38581E+09
        -0.83804E+08
        -0.28375E+09
         0.10729E+08
         0.67778E+07
         0.34363E+09
        -0.16642E+09
        -0.65203E+08
         0.24717E+09
         0.49981E+08
        -0.21455E+08
         0.40040E+09
         0.36066E+09
        -0.20324E+08
        -0.30504E+09
         0.25608E+09
         0.14286E+09
        -0.30622E+09
        -0.24607E+09
         0.41044E+09
        -0.10356E+09
         0.33091E+09
         0.46528E+09
        -0.17665E+09
        -0.32451E+09
         0.10849E+09
         0.34333E+09
        -0.16580E+08
         0.22677E+09
        -0.76001E+08
        -0.29397E+09
        -0.24610E+09
         0.36377E+09
        -0.65486E+09
         0.25856E+09
        -0.31640E+09
         0.54345E+09
        -0.78776E+08
         0.17183E+09
         0.39522E+09
        -0.22938E+09
         0.28129E+09
         0.10534E+09
        -0.77595E+08
         0.43866E+08
        -0.72705E+08
         0.37133E+08
         0.30293E+09
         0.18685E+08
         0.21623E+08
         0.18362E+09
         0.13113E+09
         0.22336E+09
         0.21376E+09
         0.14354E+09
        -0.21544E+09
        -0.26403E+09
         0.38560E+09
         0.46287E+08
        -0.40432E+08
        -0.30155E+07
        -0.57075E+08
        -0.78298E+08
         0.43222E+08
        -0.20475E+09
        -0.15322E+08
         0.16522E+09
        -0.15228E+09
        -0.73614E+08
        -0.21338E+09
        -0.12956E+09
        -0.22022E+08
        -0.13959E+09
         0.35194E+09
         0.35230E+09
         0.14923E+09
         0.69951E+08
         0.21949E+09
         0.16450E+09
         0.10973E+09
         0.18360E+09
         0.22701E+09
         0.33955E+09
        -0.20693E+08
         0.31671E+08
         0.22089E+09
         0.58483E+08
        -0.26221E+09
         0.43709E+08
         0.13413E+09
         0.32658E+09
        -0.16148E+09
         0.29111E+09
        -0.77785E+08
         0.11139E+09
         0.18460E+09
         0.31887E+09
        -0.26908E+09
        -0.86381E+08
         0.23960E+09
        -0.36332E+08
        -0.96227E+08
         0.25325E+09
         0.81135E+08
        -0.13018E+09
         0.92702E+08
        -0.24100E+08
        -0.83355E+06
         0.46771E+08
         0.90755E+08
         0.36570E+09
         0.30021E+09
         0.22796E+09
        -0.35382E+09
         0.61722E+09
         0.38652E+09
        -0.37389E+09
         0.18114E+09
         0.49170E+08
         0.13644E+09
         0.89716E+08
         0.29409E+09
        -0.78204E+09
        -0.18027E+09
         0.22982E+09
        -0.17340E+09
         0.79537E+08
         0.19479E+09
         0.26048E+09
         0.23884E+09
        -0.95404E+08
         0.13700E+09
         0.33262E+08
        -0.13693E+09
        -0.84645E+08
         0.29817E+09
         0.25376E+09
        -0.15080E+09
        -0.21115E+09
        -0.21177E+09
         0.20543E+09
        -0.47020E+08
         0.38377E+09
         0.89694E+08
        -0.18513E+08
         0.18140E+09
        -0.12894E+09
         0.24377E+09
         0.57811E+08
         0.31892E+07
        -0.19956E+09
        -0.14734E+09
         0.12560E+09
         0.19106E+09
         0.22366E+09
        -0.43707E+08
         0.16637E+08
         0.26043E+09
         0.12928E+09
         0.15548E+09
         0.66637E+08
         0.10213E+09
         0.20180E+09
         0.41374E+09
         0.25148E+09
         0.67075E+08
        -0.34324E+08
         0.46600E+08
         0.52759E+09
        -0.21051E+09
         0.27454E+09
        -0.90134E+08
         0.19470E+09
        -0.17803E+09
         0.43012E+09
        -0.44600E+09
         0.12045E+09
         0.30316E+07
         0.33236E+09
         0.29216E+09
        -0.19447E+09
        -0.28336E+09
         0.10205E+09
         0.49312E+08
        -0.11254E+09
        -0.93607E+08
        -0.26064E+09
         0.12281E+09
         0.32789E+09
         0.71504E+09
        -0.77356E+08
         0.11790E+08
         0.56150E+09
         0.34814E+09
        -0.73933E+08
         0.18761E+09
         0.22380E+09
         0.12266E+09
         0.12149E+09
         0.12182E+09
        -0.65474E+09
        -0.27819E+09
         0.36335E+08
        -0.22908E+08
         0.11022E+09
         0.87717E+08
         0.31138E+09
        -0.15956E+08
        -0.18195E+09
        -0.13337E+09
        -0.50193E+07
         0.94807E+08
         0.43813E+08
         0.19685E+09
         0.37530E+09
        -0.28540E+08
        -0.18376E+09
         0.14243E+09
         0.27516E+09
         0.93674E+08
         0.23704E+09
         0.74357E+08
        -0.30956E+08
        -0.67234E+08
         0.17927E+09
         0.88617E+08
         0.17210E+09
         0.32964E+09
         0.10209E+09
         0.26073E+09
        -0.81477E+08
        -0.18722E+09
        -0.12087E+09
        -0.32029E+09
        -0.16450E+09
         0.20624E+09
        -0.89309E+07
         0.30331E+09
         0.17574E+09
        -0.15386E+09
         0.71341E+08
         0.59177E+08
         0.11666E+09
        -0.16157E+09
        -0.76756E+08
         0.52387E+08
         0.10752E+09
        -0.57997E+08
         0.14837E+09
        -0.47494E+08
        -0.49536E+08
        -0.21326E+09
         0.66881E+09
        -0.13268E+09
         0.14761E+09
         0.21294E+09
         0.15322E+09
         0.24588E+09
         0.56687E+07
        -0.17039E+09
         0.21275E+09
        -0.62800E+08
        -0.10137E+09
         0.10250E+09
         0.15210E+08
         0.26831E+09
         0.25692E+09
         0.33887E+09
        -0.43877E+09
         0.99373E+08
         0.54692E+09
         0.31648E+09
         0.19864E+09
         0.20466E+09
         0.66535E+08
         0.34466E+08
         0.17862E+09
         0.18309E+08
        -0.69496E+09
        -0.30804E+09
         0.51943E+07
        -0.70939E+08
        -0.10793E+09
         0.32446E+08
         0.25682E+08
        -0.10409E+09
        -0.18674E+09
        -0.18141E+09
         0.90648E+08
         0.90030E+08
        -0.19093E+09
        -0.15750E+09
         0.27465E+09
        -0.95960E+08
        -0.26625E+09
         0.88656E+08
         0.39154E+09
         0.18424E+09
         0.49607E+08
         0.92120E+08
         0.64801E+08
         0.76608E+08
         0.76525E+08
         0.14498E+09
         0.91844E+08
        -0.84475E+08
         0.10462E+09
        -0.21715E+09
         0.21949E+09
        -0.96224E+08
        -0.31392E+08
        -0.28845E+08
         0.10840E+09
         0.25842E+09
        -0.41147E+08
         0.14872E+09
         0.16185E+09
        -0.71177E+08
         0.11772E+09
         0.44211E+09
         0.12252E+09
         0.99556E+07
        -0.10388E+09
         0.11659E+09
         0.30918E+09
         0.26144E+08
         0.14276E+09
        -0.31619E+09
         0.27210E+09
        -0.29687E+09
         0.33353E+09
        -0.18290E+09
         0.39518E+09
        -0.63929E+04
         0.86272E+08
         0.21697E+09
        -0.27505E+09
        -0.32329E+09
         0.24527E+09
        -0.34955E+08
        -0.11607E+08
         0.43499E+08
        -0.44722E+08
         0.68395E+08
         0.31157E+08
         0.38986E+09
        -0.30525E+09
         0.17635E+09
         0.31512E+09
         0.34533E+08
         0.15634E+09
         0.90487E+08
         0.23254E+09
         0.54320E+08
         0.23726E+09
         0.14457E+09
        -0.50182E+09
        -0.16764E+09
        -0.14341E+09
         0.12586E+09
         0.17497E+09
        -0.74743E+08
         0.10448E+09
         0.20624E+09
         0.43076E+08
        -0.38746E+09
        -0.50135E+08
         0.22058E+09
         0.40605E+08
        -0.74469E+08
         0.90230E+08
        -0.23630E+08
        -0.61775E+08
         0.55220E+08
         0.17516E+09
        -0.62224E+08
        -0.78473E+08
        -0.95988E+07
         0.18635E+08
        -0.11454E+09
         0.21224E+09
        -0.12505E+09
         0.16403E+08
        -0.50159E+08
         0.10279E+09
        -0.28160E+09
        -0.86312E+08
        -0.91502E+08
        -0.26847E+09
        -0.36375E+08
         0.40877E+08
         0.21494E+09
        -0.20616E+09
         0.13597E+09
         0.20070E+09
         0.80550E+08
         0.13848E+09
         0.12989E+09
        -0.44043E+08
        -0.36414E+07
         0.96184E+08
        -0.88436E+08
        -0.22492E+09
         0.34550E+08
         0.12823E+09
        -0.32725E+08
         0.91678E+08
        -0.28457E+08
         0.15923E+09
         0.52353E+08
         0.12343E+09
        -0.53839E+08
         0.95479E+08
         0.33731E+09
        -0.25974E+09
        -0.25059E+09
         0.38617E+09
         0.10725E+09
         0.15353E+09
         0.12208E+09
        -0.26133E+08
         0.55650E+08
        -0.22968E+08
         0.28138E+09
        -0.26850E+09
         0.11336E+09
         0.31353E+09
        -0.25023E+09
         0.12641E+09
        -0.10441E+07
         0.19246E+09
        -0.28118E+09
         0.38517E+09
        -0.57274E+08
        -0.27469E+09
        -0.84062E+08
         0.11122E+09
         0.14610E+09
         0.10978E+08
         0.84094E+07
         0.12462E+09
         0.95683E+08
        -0.11760E+09
        -0.19860E+09
         0.58634E+08
         0.11682E+09
        -0.12049E+09
        -0.87409E+08
        -0.29728E+08
        -0.26354E+09
        -0.53244E+08
         0.21222E+09
        -0.22358E+08
        -0.15442E+09
        -0.10448E+09
        -0.15331E+09
         0.48007E+08
        -0.21975E+08
         0.76751E+08
         0.71736E+08
         0.96092E+08
        -0.24754E+09
         0.61858E+08
        -0.35125E+09
         0.16704E+09
        -0.16282E+08
         0.14873E+09
         0.82851E+08
         0.66838E+08
         0.17508E+09
        -0.24168E+09
         0.17513E+09
         0.16104E+09
         0.68012E+08
         0.19432E+09
         0.16935E+09
        -0.55417E+08
        -0.98550E+08
         0.18387E+09
         0.13838E+08
        -0.16020E+09
         0.12299E+09
         0.15656E+09
        -0.91554E+08
         0.25892E+09
        -0.52405E+08
        -0.12908E+09
        -0.11484E+09
         0.22301E+09
         0.44423E+08
         0.82961E+08
         0.12394E+09
        -0.20893E+09
        -0.25345E+09
         0.23888E+09
        -0.53753E+08
         0.44689E+08
        -0.54166E+08
         0.32291E+08
         0.46556E+08
        -0.16693E+09
         0.31189E+09
         0.82659E+08
         0.35491E+09
        -0.51046E+08
        -0.18192E+09
         0.10158E+09
         0.21644E+08
         0.37530E+09
        -0.10118E+09
         0.28970E+09
        -0.17201E+08
         0.59740E+08
         0.25539E+08
        -0.55350E+08
         0.20733E+09
         0.60158E+08
        -0.14547E+09
         0.20331E+08
        -0.33975E+08
        -0.17009E+09
        -0.28209E+09
        -0.63421E+08
         0.68579E+08
        -0.86670E+08
         0.10413E+08
        -0.93650E+08
        -0.11659E+09
         0.13524E+09
         0.25225E+09
         0.16461E+09
        -0.17679E+09
         0.79064E+08
         0.76135E+07
        -0.10252E+09
        -0.47052E+08
         0.12425E+09
        -0.13587E+09
         0.15784E+09
        -0.13262E+09
         0.13599E+09
        -0.28986E+09
         0.97752E+08
        -0.11484E+09
        -0.18325E+09
        -0.23393E+09
         0.15639E+09
         0.23977E+09
        -0.12086E+09
         0.16798E+09
         0.66176E+08
         0.46042E+08
         0.12286E+09
        -0.18458E+09
        -0.32744E+09
        -0.19417E+09
         0.35266E+09
         0.56520E+06
        -0.36494E+09
         0.16260E+08
        -0.24252E+08
        -0.86937E+08
         0.66024E+08
         0.89158E+08
        -0.21184E+09
         0.36248E+08
        -0.57213E+07
        -0.75833E+07
         0.49127E+08
         0.88856E+07
        -0.76473E+08
        -0.22191E+09
         0.14628E+09
        -0.80717E+07
        -0.31704E+08
         0.10124E+08
         0.10760E+09
         0.10623E+09
        -0.28616E+08
         0.31985E+09
         0.29021E+09
         0.39515E+09
        -0.22045E+09
        -0.41147E+09
         0.65199E+08
         0.11172E+09
         0.40841E+09
        -0.19787E+09
         0.25874E+09
        -0.16519E+09
        -0.68330E+08
        -0.17637E+09
        -0.65758E+08
         0.28822E+09
        -0.12125E+09
        -0.14752E+09
         0.28561E+09
        -0.37305E+08
        -0.78249E+08
        -0.17412E+09
        -0.13372E+09
         0.26390E+08
        -0.15698E+09
        -0.56726E+08
        -0.14661E+09
        -0.14375E+09
         0.15151E+09
         0.21309E+09
         0.10741E+09
        -0.13762E+09
         0.89563E+08
        -0.16793E+09
        -0.14182E+09
        -0.49283E+08
         0.20824E+08
        -0.12428E+09
        -0.12819E+08
        -0.13710E+09
        -0.63227E+08
        -0.22276E+09
         0.31112E+09
        -0.18672E+09
         0.15961E+09
        -0.17623E+07
         0.98498E+08
         0.28763E+09
        -0.12665E+09
         0.27679E+08
        -0.23139E+08
        -0.78327E+08
        -0.65805E+08
        -0.17762E+09
        -0.10163E+09
        -0.27179E+09
         0.24339E+09
         0.10367E+09
        -0.89653E+08
        -0.41922E+08
         0.12225E+09
        -0.21061E+09
         0.50936E+08
        -0.18351E+08
        -0.13657E+09
         0.14640E+09
        -0.11197E+09
         0.83760E+06
        -0.48872E+08
        -0.18943E+09
        -0.16519E+09
        -0.20413E+09
         0.61309E+08
        -0.65528E+08
        -0.18665E+09
        -0.33229E+08
         0.10148E+09
         0.18341E+09
        -0.21036E+09
         0.12818E+09
         0.40219E+09
         0.38943E+09
        -0.19990E+09
        -0.21944E+09
        -0.58179E+08
         0.33469E+08
         0.39488E+09
         0.77396E+08
         0.16731E+09
        -0.80637E+08
         0.27244E+09
         0.45200E+08
        -0.94299E+08
         0.24386E+09
         0.19665E+08
        -0.10644E+09
         0.16170E+09
        -0.25445E+09
        -0.13189E+09
        -0.20082E+09
        -0.93190E+08
         0.12463E+09
        -0.64774E+08
        -0.20223E+09
        -0.31147E+09
         0.13718E+08
         0.33229E+09
         0.10470E+09
        -0.13957E+09
         0.21324E+09
        -0.27730E+08
        -0.90168E+08
         0.18954E+08
        -0.68571E+08
        -0.14155E+08
        -0.99683E+08
        -0.11237E+09
        -0.82747E+07
         0.10958E+09
         0.24761E+08
        -0.32270E+08
        -0.51926E+09
        -0.92010E+08
         0.55930E+07
         0.50132E+08
         0.46374E+08
        -0.25600E+09
         0.90113E+08
         0.51566E+08
         0.19685E+08
         0.71568E+08
        -0.25213E+09
        -0.11228E+09
        -0.10108E+09
         0.17708E+09
        -0.75710E+08
        -0.19797E+09
        -0.44275E+08
         0.33033E+08
        -0.21567E+08
        -0.10983E+09
         0.54581E+07
        -0.13859E+09
         0.78795E+08
        -0.22200E+09
        -0.29303E+08
        -0.47336E+08
        -0.73176E+08
        -0.94446E+08
        -0.89712E+08
        -0.55302E+08
         0.39811E+08
        -0.22033E+09
        -0.42535E+08
         0.58746E+08
         0.76162E+08
        -0.18532E+09
         0.69433E+08
         0.14757E+09
         0.30547E+09
        -0.14788E+09
        -0.33161E+09
         0.24354E+08
         0.70321E+08
         0.25742E+09
        -0.99265E+08
         0.44809E+08
        -0.22098E+09
         0.63687E+08
        -0.73828E+08
        -0.34661E+08
         0.95973E+08
        -0.16222E+09
        -0.27889E+08
         0.44953E+09
        -0.15939E+08
        -0.17784E+09
        -0.13179E+09
        -0.16478E+09
        -0.85613E+08
        -0.26700E+09
        -0.19442E+09
        -0.17148E+09
        -0.61043E+08
         0.16687E+09
         0.11739E+09
        -0.13431E+09
         0.58524E+08
         0.23016E+09
        -0.97338E+08
        -0.45872E+08
         0.13624E+09
         0.29574E+08
        -0.97936E+08
         0.11693E+09
        -0.17044E+09
        -0.22209E+09
        -0.94210E+08
         0.26022E+09
         0.36042E+08
         0.91737E+08
         0.13331E+08
        -0.71004E+07
         0.19343E+09
         0.29598E+08
         0.27795E+08
         0.46134E+08
         0.10576E+08
        -0.78925E+07
        -0.21855E+09
        -0.10076E+09
        -0.22811E+09
         0.12853E+09
        -0.31298E+08
        -0.60210E+08
        -0.77152E+08
         0.13958E+09
         0.64864E+08
        -0.14470E+08
         0.13631E+09
        -0.13527E+09
         0.10175E+09
        -0.10274E+09
        -0.16606E+08
        -0.48729E+08
        -0.29635E+08
        -0.59787E+08
        -0.80802E+08
        -0.76991E+08
        -0.97866E+08
         0.99831E+07
         0.45580E+08
         0.24575E+08
         0.17185E+08
        -0.15804E+09
         0.24071E+09
         0.54117E+08
         0.28214E+09
        -0.53606E+08
        -0.19176E+09
        -0.73060E+08
         0.28567E+08
         0.10061E+09
         0.22948E+08
        -0.83734E+08
        -0.10178E+09
         0.18141E+09
         0.11184E+08
        -0.92694E+08
         0.16085E+09
        -0.27763E+08
        -0.14166E+09
         0.11007E+09
        -0.12569E+09
        -0.10032E+09
        -0.22311E+09
        -0.16791E+09
         0.15282E+09
         0.61572E+08
        -0.69923E+08
        -0.82338E+08
         0.19601E+09
         0.33886E+09
         0.17892E+09
        -0.30550E+09
        -0.65968E+08
         0.14009E+09
        -0.32471E+08
        -0.65584E+08
        -0.14340E+09
         0.33000E+07
        -0.61311E+08
        -0.30338E+08
         0.29956E+08
         0.13390E+09
         0.93379E+08
         0.10258E+08
        -0.15273E+09
        -0.26501E+09
        -0.14286E+09
        -0.10892E+08
         0.58100E+08
        -0.25326E+08
         0.25636E+07
         0.17495E+08
         0.12046E+09
        -0.49517E+08
        -0.36701E+09
        -0.13446E+09
        -0.81304E+08
         0.10328E+08
        -0.99979E+08
        -0.19573E+09
        -0.16762E+09
        -0.31369E+08
        -0.10224E+09
        -0.27817E+08
        -0.11185E+08
        -0.82779E+08
        -0.11911E+08
        -0.12829E+09
         0.60288E+08
         0.87465E+08
        -0.20746E+09
        -0.12300E+09
        -0.17325E+09
        -0.19872E+09
         0.32533E+08
        -0.32465E+09
        -0.22620E+09
         0.62873E+08
        -0.46518E+08
         0.46168E+08
        -0.56362E+08
        -0.69014E+08
        -0.53651E+08
        -0.19527E+09
        -0.20246E+09
        -0.26026E+08
        -0.70534E+08
         0.38846E+08
        -0.12070E+09
        -0.57952E+08
        -0.18829E+09
         0.88102E+08
         0.15926E+08
         0.31746E+08
         0.54241E+08
         0.32794E+08
         0.27975E+08
         0.16874E+09
         0.84959E+07
        -0.54014E+08
        -0.40541E+08
        -0.60601E+08
         0.98303E+08
        -0.35357E+08
        -0.11495E+09
        -0.15538E+09
        -0.71322E+07
         0.13698E+09
        -0.13568E+08
        -0.12028E+09
         0.25492E+08
         0.18360E+09
         0.50082E+08
         0.25560E+08
         0.17288E+09
         0.94378E+08
        -0.67729E+07
         0.37452E+08
        -0.84889E+08
         0.24617E+08
         0.46467E+06
         0.18695E+09
         0.14637E+09
         0.96787E+08
         0.12626E+08
         0.56607E+08
         0.20278E+09
         0.10635E+08
         0.11395E+09
         0.24374E+09
         0.55899E+08
        -0.12991E+09
        -0.74300E+08
         0.13658E+08
        -0.42554E+08
        -0.28010E+07
         0.11282E+08
         0.43058E+08
        -0.10643E+09
         0.10497E+09
        -0.16173E+08
        -0.34143E+08
        -0.26279E+08
        -0.75877E+08
         0.11020E+09
        -0.54820E+08
         0.75105E+08
        -0.46162E+08
        -0.61875E+08
         0.43145E+07
        -0.66922E+08
        -0.13478E+08
        -0.92308E+08
        -0.86896E+08
        -0.19272E+08
         0.46789E+08
        -0.70930E+07
        -0.74169E+08
         0.46293E+08
         0.16010E+09
         0.11823E+09
         0.33501E+08
         0.87507E+08
         0.91502E+07
        -0.75473E+07
         0.95050E+08
         0.20207E+08
        -0.31740E+07
        -0.77897E+08
         0.12890E+09
         0.58811E+08
        -0.89918E+08
         0.31557E+08
         0.31988E+08
         0.16626E+08
         0.74574E+08
        -0.12644E+09
        -0.14474E+09
        -0.83268E+08
        -0.33664E+08
         0.13147E+09
        -0.32037E+08
        -0.87606E+08
         0.50568E+08
         0.17779E+09
         0.15422E+09
         0.23785E+08
        -0.23580E+09
        -0.20491E+08
        -0.18660E+08
         0.53830E+08
         0.35076E+08
        -0.58530E+07
         0.60868E+08
        -0.21932E+08
         0.69328E+08
         0.22045E+08
         0.58404E+08
         0.10194E+09
        -0.20511E+09
        -0.28316E+09
        -0.28496E+09
        -0.71325E+08
        -0.68064E+07
         0.85662E+08
         0.14299E+09
         0.31095E+08
         0.95860E+08
         0.16754E+09
        -0.88364E+08
        -0.28894E+09
        -0.43742E+08
         0.55458E+08
        -0.36072E+08
        -0.38454E+08
        -0.10813E+09
        -0.87817E+08
         0.16976E+08
        -0.64411E+07
         0.98361E+07
        -0.93368E+08
        -0.26283E+09
        -0.18850E+09
        -0.55503E+08
         0.42902E+08
         0.75534E+08
        -0.16232E+09
        -0.69510E+08
        -0.14863E+09
        -0.21636E+09
        -0.94799E+08
        -0.12677E+09
        -0.11440E+09
         0.69995E+07
         0.16707E+08
         0.34950E+08
         0.43889E+08
        -0.15373E+09
        -0.27487E+08
        -0.48360E+08
        -0.85725E+08
        -0.11379E+09
        -0.65634E+08
        -0.53288E+07
        -0.10257E+09
        -0.91372E+08
        -0.16828E+09
         0.38008E+08
        -0.88266E+08
        -0.41900E+08
         0.74922E+08
         0.52776E+08
        -0.97071E+08
        -0.14454E+08
         0.34414E+08
         0.10004E+09
        -0.55116E+08
        -0.51342E+08
         0.12347E+09
         0.68562E+08
         0.64746E+06
        -0.48110E+08
        -0.43231E+08
         0.46320E+08
         0.13400E+08
         0.66719E+08
        -0.18258E+09
         0.14019E+09
         0.65566E+08
         0.10798E+08
         0.70382E+08
         0.12264E+09
        -0.67528E+06
         0.18593E+09
        -0.33981E+07
         0.24382E+09
        -0.21569E+08
         0.13314E+09
         0.26830E+08
         0.10667E+09
         0.13399E+09
        -0.24249E+08
         0.37465E+08
         0.15735E+09
         0.11774E+09
         0.46092E+08
         0.18924E+06
        -0.64627E+07
         0.84065E+08
         0.99178E+08
        -0.20865E+09
        -0.25133E+08
        -0.34149E+08
        -0.13842E+09
        -0.13745E+09
        -0.50825E+08
        -0.85322E+08
         0.10139E+07
         0.93833E+07
         0.20056E+08
        -0.26773E+08
        -0.45253E+08
        -0.52471E+08
         0.13652E+08
        -0.42159E+08
        -0.10112E+09
         0.58691E+08
         0.12380E+09
         0.19953E+08
        -0.55635E+08
        -0.47777E+08
        -0.50182E+08
        -0.80405E+08
        -0.10443E+09
        -0.73628E+08
        -0.24918E+08
        -0.50822E+08
        -0.32773E+08
        -0.58153E+08
        -0.28288E+08
        -0.61306E+08
        -0.10167E+08
        -0.51160E+08
        -0.21247E+08
        -0.26037E+08
         0.12376E+08
        -0.47666E+08
         0.78894E+07
         0.74132E+07
         0.51981E+08
         0.41175E+08
         0.59995E+08
        -0.56845E+08
        -0.10512E+09
        -0.86386E+08
         0.98100E+07
         0.10240E+09
         0.96350E+07
        -0.61888E+08
        -0.11162E+08
         0.10121E+09
         0.76527E+08
        -0.24033E+08
         0.30148E+08
         0.14936E+08
         0.60535E+08
         0.59769E+08
         0.84058E+08
         0.97823E+08
         0.12165E+09
        -0.54809E+08
         0.79869E+08
        -0.92666E+08
        -0.22755E+09
        -0.13714E+09
        -0.15219E+09
        -0.30483E+08
        -0.59210E+06
        -0.10664E+09
        -0.37235E+08
        -0.21457E+08
        -0.91018E+07
         0.36136E+08
         0.18578E+09
         0.13226E+09
        -0.10346E+09
        -0.13888E+09
        -0.95614E+08
         0.65809E+08
        -0.31749E+08
         0.72497E+08
         0.26622E+08
        -0.28713E+08
         0.35280E+08
        -0.97909E+06
         0.38638E+08
        -0.77957E+08
        -0.18633E+09
        -0.14079E+09
        -0.13750E+07
         0.93774E+07
         0.64106E+08
         0.13350E+08
         0.74342E+08
        -0.30874E+08
        -0.89453E+08
        -0.24387E+08
        -0.22516E+08
         0.20736E+07
         0.63466E+08
         0.12272E+08
         0.57220E+08
         0.14811E+08
        -0.44742E+08
        -0.17872E+08
         0.66356E+08
        -0.89163E+07
         0.62057E+08
         0.30517E+08
         0.84852E+07
        -0.15507E+08
        -0.16419E+08
        -0.58891E+08
         0.31475E+08
         0.29689E+08
         0.69922E+08
         0.94899E+08
        -0.68143E+08
        -0.11898E+08
         0.60666E+08
         0.43907E+08
        -0.14421E+08
         0.47093E+08
         0.42993E+08
         0.10411E+09
         0.64302E+08
         0.29700E+08
        -0.13408E+08
         0.87762E+07
        -0.12058E+08
        -0.52559E+08
        -0.12843E+08
        -0.10949E+09
        -0.92451E+08
        -0.16058E+09
         0.45486E+08
        -0.42425E+08
         0.22560E+08
         0.88761E+08
        -0.75779E+08
         0.76533E+08
        -0.30848E+08
         0.76800E+07
        -0.55400E+08
         0.87043E+08
        -0.67929E+08
        -0.98833E+08
         0.11496E+09
         0.29441E+08
         0.64526E+08
         0.28136E+08
        -0.18211E+08
         0.84322E+08
         0.59034E+08
        -0.11837E+08
        -0.61334E+08
        -0.51758E+07
         0.76799E+07
        -0.50823E+08
        -0.10026E+09
        -0.78256E+07
        -0.73074E+08
        -0.14750E+08
        -0.46371E+08
        -0.16171E+08
         0.11176E+09
         0.75371E+08
        -0.90254E+08
        -0.83602E+08
         0.24724E+07
        -0.48239E+08
        -0.14628E+09
         0.11517E+09
         0.10695E+09
         0.15602E+09
        -0.32511E+08
        -0.22473E+08
        -0.32604E+08
        -0.58117E+08
        -0.59211E+08
        -0.70520E+08
         0.38807E+08
        -0.53796E+08
         0.10744E+09
         0.54843E+08
        -0.38289E+08
        -0.54610E+08
        -0.57860E+07
        -0.63595E+08
         0.27960E+08
         0.51281E+08
        -0.56328E+08
        -0.58023E+08
         0.78918E+06
        -0.28760E+08
         0.11580E+08
        -0.49168E+08
        -0.11696E+09
        -0.93557E+08
        -0.61255E+08
        -0.80224E+08
        -0.60231E+08
        -0.36313E+08
        -0.44870E+08
        -0.37581E+08
        -0.51564E+08
         0.17278E+08
        -0.38185E+07
        -0.81372E+07
         0.37526E+07
        -0.10661E+09
         0.89919E+08
        -0.16563E+08
         0.67722E+08
         0.13044E+09
        -0.66614E+08
        -0.11685E+09
         0.27448E+08
        -0.11208E+09
        -0.19778E+09
        -0.69636E+08
         0.23235E+09
         0.70542E+08
         0.84392E+08
        -0.75790E+08
        -0.15263E+09
        -0.11013E+09
         0.45428E+08
         0.67307E+08
        -0.49650E+08
         0.12831E+08
        -0.38429E+08
        -0.72536E+08
        -0.81304E+08
         0.79820E+07
         0.10834E+09
         0.67889E+08
         0.41079E+08
         0.10334E+09
         0.96239E+08
         0.51737E+08
         0.17484E+09
         0.17300E+09
         0.41607E+08
        -0.13359E+08
         0.15253E+09
         0.11038E+09
         0.98270E+08
         0.56962E+08
         0.16071E+08
         0.43014E+08
        -0.71045E+07
         0.13416E+09
         0.70128E+08
         0.11713E+09
         0.14695E+09
         0.21074E+09
         0.56388E+08
         0.36924E+06
        -0.89023E+07
        -0.66016E+08
        -0.45753E+08
        -0.23462E+08
         0.89182E+08
         0.11587E+09
        -0.46684E+08
        -0.55765E+08
         0.34091E+08
         0.50631E+08
         0.88114E+08
         0.21274E+08
         0.14415E+08
        -0.60412E+08
        -0.10000E+09
        -0.72149E+07
         0.68603E+08
         0.81257E+08
         0.14022E+09
         0.43070E+08
         0.45820E+08
         0.61606E+08
         0.65329E+07
        -0.11973E+08
        -0.36031E+08
        -0.11682E+08
        -0.38276E+08
        -0.20292E+08
         0.79451E+08
        -0.51950E+08
         0.36298E+08
        -0.39000E+08
        -0.11235E+09
        -0.16652E+09
         0.94541E+07
         0.32369E+07
        -0.15995E+09
        -0.73369E+08
         0.21050E+09
        -0.86458E+08
        -0.15666E+09
        -0.12507E+09
        -0.14112E+09
        -0.28649E+08
         0.13947E+09
         0.49072E+08
         0.30402E+08
        -0.32570E+08
        -0.41773E+07
         0.10535E+08
        -0.65075E+08
         0.16503E+08
         0.40732E+08
         0.31887E+08
         0.59843E+08
         0.57623E+08
         0.92672E+08
         0.79404E+08
         0.51476E+08
         0.58421E+08
        -0.65683E+08
         0.27305E+08
         0.53904E+08
         0.14146E+09
        -0.17219E+09
        -0.11825E+09
        -0.33023E+08
        -0.68113E+08
        -0.75709E+08
         0.88531E+08
         0.77127E+08
         0.26086E+08
         0.12318E+08
         0.64649E+07
         0.19413E+08
         0.62078E+07
         0.36852E+07
        -0.99213E+07
         0.17581E+09
         0.51130E+08
         0.10081E+09
         0.13037E+09
         0.67947E+07
         0.24591E+07
         0.12498E+09
         0.91137E+08
        -0.16337E+08
        -0.53691E+08
        -0.99104E+08
        -0.82022E+08
         0.56661E+07
         0.28119E+08
        -0.85288E+07
        -0.83576E+08
        -0.80217E+08
        -0.54025E+08
        -0.15888E+08
        -0.38798E+08
        -0.85379E+08
        -0.10017E+09
         0.34628E+08
         0.58463E+08
        -0.83669E+08
        -0.92404E+08
        -0.57948E+08
        -0.29280E+08
        -0.26410E+09
        -0.13255E+09
        -0.18835E+09
        -0.35353E+08
        -0.62453E+08
        -0.35426E+08
        -0.58775E+07
        -0.11673E+09
        -0.81078E+08
         0.56831E+07
         0.95740E+08
         0.34364E+08
         0.16272E+09
         0.68678E+08
         0.93019E+08
        -0.12919E+08
        -0.15481E+09
        -0.20315E+09
        -0.23484E+09
        -0.99371E+08
        -0.15438E+09
        -0.18756E+09
        -0.13341E+09
        -0.23968E+08
        -0.17588E+09
        -0.68012E+08
         0.11766E+09
         0.64386E+08
         0.12187E+07
         0.69943E+08
         0.59790E+08
         0.63001E+08
         0.95290E+08
         0.14356E+09
         0.11699E+09
         0.79389E+08
         0.73173E+08
         0.36600E+08
         0.19421E+08
         0.10484E+09
         0.79945E+08
         0.13707E+09
         0.58982E+08
         0.11894E+09
         0.74993E+08
         0.79154E+08
         0.13104E+09
         0.15263E+09
         0.43618E+08
         0.70546E+08
         0.53423E+08
         0.97995E+08
         0.24869E+08
         0.25559E+08
         0.10711E+09
         0.11599E+09
        -0.43480E+08
        -0.32111E+08
        -0.33570E+08
         0.37065E+08
         0.86524E+08
         0.69444E+08
         0.55445E+08
         0.56704E+07
        -0.44703E+08
         0.11183E+08
         0.77230E+05
         0.59146E+08
         0.12164E+09
         0.91009E+08
         0.55741E+08
        -0.20935E+08
        -0.14624E+09
        -0.16174E+09
        -0.12380E+09
         0.10658E+08
         0.91778E+08
         0.85580E+08
         0.13599E+09
         0.65963E+08
         0.11897E+09
        -0.55806E+08
        -0.10350E+09
        -0.56210E+08
        -0.12090E+09
        -0.57523E+08
         0.98271E+07
        -0.37902E+08
        -0.83093E+08
        -0.64271E+07
        -0.10957E+09
        -0.10834E+09
         0.17921E+08
        -0.14863E+09
        -0.61927E+08
         0.18501E+09
         0.20692E+09
         0.13440E+09
         0.17813E+08
         0.14543E+09
         0.20002E+08
         0.62258E+08
         0.94796E+08
         0.11755E+09
        -0.71037E+08
        -0.35032E+07
         0.57348E+08
         0.86263E+07
        -0.32358E+08
        -0.25569E+08
        -0.83799E+08
        -0.55147E+08
        -0.11184E+09
        -0.37626E+08
        -0.12724E+09
        -0.91426E+08
        -0.65536E+08
        -0.59204E+08
        -0.10030E+09
        -0.63250E+08
        -0.74157E+08
        -0.11159E+09
        -0.79111E+08
        -0.15348E+08
        -0.76796E+08
         0.13826E+08
        -0.85788E+08
        -0.11944E+09
        -0.56214E+08
        -0.22984E+08
        -0.19875E+08
        -0.13896E+08
        -0.70058E+08
        -0.29207E+08
         0.81215E+07
         0.40272E+08
        -0.43076E+08
         0.52323E+07
        -0.41166E+08
         0.90442E+07
        -0.23442E+08
        -0.37805E+08
        -0.21646E+08
        -0.70414E+08
        -0.78285E+08
        -0.61376E+08
         0.42012E+08
        -0.62789E+08
        -0.32451E+08
        -0.14601E+08
        -0.19624E+08
        -0.86994E+08
        -0.11821E+09
        -0.63845E+08
        -0.26650E+08
        -0.23342E+08
        -0.21590E+09
        -0.16404E+09
        -0.29877E+09
        -0.23539E+09
         0.45378E+07
         0.64765E+08
        -0.42832E+08
         0.46138E+08
        -0.12430E+08
         0.46424E+08
         0.10172E+09
         0.42558E+08
        -0.59263E+07
        -0.47716E+08
         0.84409E+08
         0.14195E+09
         0.68059E+08
        -0.73862E+08
        -0.78446E+08
         0.10310E+08
        -0.90330E+08
        -0.20782E+08
        -0.11018E+09
        -0.44652E+08
        -0.38754E+08
        -0.10484E+09
         0.61069E+08
         0.86415E+07
         0.21470E+08
         0.24445E+08
         0.80731E+08
         0.69554E+08
         0.43841E+08
         0.30578E+08
         0.72185E+08
         0.43996E+08
         0.57925E+08
         0.10639E+09
         0.72698E+08
        -0.18916E+08
        -0.22495E+08
        -0.42466E+06
         0.13548E+09
        -0.16827E+08
         0.10088E+09
         0.87414E+08
         0.55581E+08
        -0.33132E+08
         0.37067E+08
         0.35204E+08
         0.61640E+08
        -0.27334E+08
        -0.46490E+08
         0.13091E+08
         0.29230E+08
         0.42610E+08
        -0.18985E+08
        -0.35400E+08
        -0.24823E+07
         0.27335E+07
         0.90829E+08
         0.65059E+08
         0.53954E+08
        -0.45843E+08
        -0.62982E+06
         0.17508E+08
         0.77747E+08
         0.11727E+08
        -0.66481E+08
        -0.11795E+08
         0.15083E+08
         0.12165E+08
         0.48137E+07
         0.11501E+08
         0.10339E+08
        -0.15179E+08
         0.37475E+08
         0.67464E+08
         0.91042E+08
         0.20386E+09
         0.13060E+09
         0.38863E+08
        -0.68959E+08
        -0.40098E+08
        -0.69309E+08
        -0.13278E+09
        -0.36172E+07
        -0.11795E+09
         0.12709E+08
        -0.57415E+08
        -0.15357E+09
         0.18553E+08
         0.72327E+07
        -0.11862E+09
        -0.81812E+08
         0.72005E+08
         0.56664E+07
        -0.24783E+08
         0.61562E+08
        -0.30172E+08
        -0.79953E+08
         0.39467E+08
         0.46923E+08
         0.83592E+08
        -0.67899E+08
        -0.10228E+09
        -0.72116E+08
        -0.53139E+08
        -0.30372E+07
        -0.28234E+08
        -0.75173E+08
        -0.38617E+08
        -0.99201E+08
        -0.47573E+08
        -0.59063E+08
        -0.44458E+08
        -0.77090E+08
        -0.40575E+08
        -0.53559E+08
        -0.10771E+09
        -0.34489E+08
        -0.78431E+08
        -0.33020E+08
        -0.43129E+08
         0.79828E+07
        -0.59908E+08
         0.14785E+08
         0.10974E+08
         0.12606E+08
        -0.88781E+07
        -0.82366E+08
        -0.83389E+08
        -0.49366E+08
        -0.50157E+08
        -0.54681E+08
        -0.23396E+08
        -0.43970E+08
        -0.19496E+08
        -0.82728E+07
        -0.81580E+08
        -0.92217E+08
        -0.92857E+08
        -0.13825E+09
        -0.45794E+08
        -0.16856E+08
        -0.11347E+09
        -0.10415E+09
        -0.49915E+08
         0.54482E+07
         0.44321E+08
        -0.20365E+08
        -0.42930E+08
        -0.53994E+08
        -0.35696E+08
         0.14929E+08
        -0.39775E+07
         0.34353E+08
         0.86659E+08
         0.12053E+09
         0.11929E+09
         0.36880E+08
         0.27370E+08
         0.84528E+08
         0.67578E+07
        -0.15848E+08
         0.10390E+09
         0.30406E+07
        -0.35643E+08
         0.24148E+09
         0.24491E+08
         0.31417E+08
         0.54975E+08
         0.74935E+07
         0.72013E+08
         0.13499E+09
        -0.30839E+08
        -0.11122E+08
         0.66887E+08
         0.63023E+07
         0.26595E+08
         0.41638E+08
         0.39163E+08
         0.34617E+08
         0.72133E+08
         0.61275E+08
        -0.37464E+08
         0.14720E+09
         0.25892E+08
        -0.27125E+08
        -0.10177E+09
        -0.11761E+09
        -0.12041E+09
        -0.18055E+09
        -0.16802E+09
         0.17035E+08
        -0.75109E+08
        -0.10755E+09
         0.26362E+08
        -0.42298E+08
        -0.88976E+07
         0.30892E+08
         0.86299E+08
         0.47168E+08
         0.16058E+09
        -0.55499E+08
         0.11123E+08
        -0.35915E+08
         0.17965E+09
         0.35299E+08
        -0.27994E+08
         0.73230E+07
         0.23722E+08
         0.44836E+08
         0.11335E+09
        -0.85677E+08
         0.36924E+08
         0.14496E+09
         0.58139E+08
         0.63541E+08
         0.80831E+08
         0.41793E+08
        -0.28564E+08
         0.93017E+08
         0.99380E+08
         0.58994E+08
         0.65293E+08
         0.15214E+09
         0.14093E+09
         0.77696E+08
         0.77930E+08
        -0.11394E+08
         0.87668E+07
         0.13727E+09
         0.10288E+09
         0.10927E+09
         0.22086E+09
         0.58947E+08
        -0.44287E+08
         0.64103E+08
         0.50639E+08
        -0.25379E+09
        -0.31715E+09
        -0.18470E+09
        -0.18128E+09
        -0.92468E+08
        -0.21440E+09
        -0.28832E+09
         0.12510E+09
         0.84011E+08
        -0.13484E+09
        -0.59916E+07
         0.22025E+07
         0.27263E+09
         0.25137E+09
         0.25544E+09
         0.19508E+09
         0.10513E+09
         0.16703E+09
        -0.97815E+07
         0.95714E+08
  
SCALARS                      stress_yy  double 1
LOOKUP_TABLE default
        -0.18290E+09
         0.59810E+08
         0.69109E+09
        -0.40226E+09
        -0.33227E+08
        -0.57020E+09
         0.62750E+09
        -0.45749E+09
        -0.81685E+08
         0.61291E+09
        -0.29966E+09
         0.31140E+09
        -0.61013E+08
        -0.92566E+08
        -0.91489E+08
        -0.57309E+09
        -0.14315E+09
        -0.50300E+09
        -0.10180E+08
        -0.36349E+09
        -0.19029E+09
        -0.79536E+08
         0.56623E+08
         0.79804E+08
        -0.25395E+09
         0.58856E+08
         0.16842E+09
         0.37985E+08
        -0.19730E+09
         0.83256E+08
        -0.28687E+09
        -0.26124E+09
        -0.19304E+08
        -0.27198E+09
        -0.29912E+09
        -0.15556E+09
         0.68795E+08
         0.33660E+08
        -0.20278E+09
        -0.91102E+08
        -0.11142E+09
         0.17011E+09
         0.13850E+09
         0.75754E+08
         0.31168E+09
         0.24828E+09
         0.41861E+09
        -0.82267E+09
         0.15685E+09
         0.23947E+09
         0.12055E+09
        -0.25580E+09
         0.40898E+09
         0.42191E+09
        -0.29818E+08
        -0.57881E+09
        -0.11279E+09
         0.19122E+08
         0.37863E+08
        -0.40086E+09
        -0.71232E+08
         0.38898E+09
        -0.22288E+09
        -0.26769E+09
        -0.24727E+09
        -0.24145E+09
         0.54771E+09
         0.19570E+08
        -0.17891E+09
         0.78102E+08
        -0.13976E+09
         0.91054E+08
         0.20007E+07
         0.35683E+09
        -0.95988E+08
        -0.15881E+09
         0.82858E+08
        -0.18844E+09
        -0.16645E+09
         0.30637E+09
         0.27758E+09
        -0.20895E+08
        -0.29008E+09
         0.31974E+09
         0.38011E+09
        -0.99662E+07
        -0.13991E+09
         0.46757E+09
        -0.84641E+08
         0.45342E+09
         0.34120E+09
        -0.40168E+09
        -0.47958E+09
        -0.98577E+08
         0.33500E+09
        -0.12771E+09
         0.57064E+08
        -0.32016E+09
        -0.37187E+09
        -0.42155E+09
         0.59806E+09
        -0.38452E+09
         0.35234E+09
        -0.69991E+08
         0.60414E+09
         0.52677E+08
         0.24139E+09
         0.50238E+09
        -0.14996E+09
         0.19673E+09
        -0.39084E+08
         0.23554E+09
        -0.22559E+09
         0.33166E+08
        -0.38583E+08
         0.21630E+09
        -0.98958E+08
        -0.16334E+09
         0.28938E+08
         0.12886E+08
         0.12315E+09
         0.96102E+08
         0.21640E+09
        -0.20155E+09
        -0.59568E+08
         0.32117E+09
         0.37853E+09
        -0.15294E+09
         0.82852E+08
         0.27255E+08
         0.29384E+09
         0.25133E+09
         0.15033E+09
         0.88612E+08
         0.69821E+07
        -0.15404E+09
         0.97382E+08
        -0.24766E+09
        -0.19983E+09
        -0.12171E+09
         0.51723E+07
         0.34163E+09
         0.11305E+09
        -0.74271E+08
        -0.87804E+08
        -0.17494E+09
         0.76224E+08
         0.35832E+08
         0.18221E+08
         0.10568E+09
         0.38951E+09
         0.59949E+08
        -0.10723E+09
         0.91559E+08
         0.34542E+09
        -0.92728E+08
         0.59273E+08
         0.15720E+09
         0.36753E+09
        -0.14862E+09
         0.42114E+09
         0.15920E+09
         0.64047E+08
         0.63513E+08
         0.34435E+09
        -0.46654E+09
        -0.20413E+09
         0.18692E+09
        -0.62679E+08
        -0.27574E+09
         0.27942E+09
         0.17566E+09
        -0.15670E+09
         0.14162E+09
        -0.29995E+08
         0.14647E+09
         0.55769E+08
         0.27833E+09
         0.35061E+09
         0.22122E+09
         0.24296E+09
        -0.22495E+09
         0.47781E+09
         0.30661E+09
        -0.37228E+09
         0.42912E+09
        -0.59539E+08
         0.14995E+09
        -0.12815E+09
         0.28446E+09
        -0.63350E+09
        -0.49292E+08
         0.17951E+09
        -0.16375E+09
        -0.37963E+07
         0.25078E+09
        -0.90673E+07
         0.14226E+09
         0.11493E+09
         0.24414E+09
         0.51040E+08
        -0.28494E+09
        -0.25152E+09
         0.26430E+09
         0.12864E+09
        -0.24490E+09
         0.96673E+08
         0.76041E+08
         0.15195E+09
        -0.13420E+09
         0.31630E+09
         0.15965E+09
        -0.20686E+09
         0.23198E+09
         0.70669E+08
         0.16702E+09
        -0.13018E+09
         0.11931E+09
        -0.12058E+09
        -0.27691E+08
         0.48113E+08
         0.18364E+09
         0.43858E+09
        -0.30854E+09
        -0.75143E+08
         0.58237E+08
         0.45466E+09
        -0.26853E+08
         0.65404E+08
         0.23375E+09
         0.17512E+09
         0.41269E+09
         0.44692E+07
         0.25408E+09
        -0.36267E+08
         0.48920E+08
         0.64705E+09
        -0.18259E+09
         0.42861E+09
         0.16216E+09
         0.10789E+09
        -0.25228E+09
         0.45588E+09
        -0.59458E+09
        -0.15014E+08
        -0.37046E+08
         0.32975E+09
         0.24192E+08
        -0.33576E+09
        -0.22020E+09
         0.11800E+09
         0.93253E+08
        -0.16694E+09
        -0.44919E+07
        -0.30008E+09
         0.31932E+09
         0.26007E+09
         0.63751E+09
        -0.77551E+08
         0.99736E+08
         0.28429E+09
         0.27962E+09
        -0.59803E+08
         0.28495E+09
         0.15102E+09
         0.10108E+09
        -0.10797E+09
         0.57516E+08
        -0.53300E+09
        -0.93960E+08
         0.10339E+09
        -0.15115E+09
         0.27395E+08
         0.18102E+09
         0.30066E+09
         0.10389E+08
         0.10775E+09
         0.42212E+08
        -0.25608E+08
        -0.41223E+08
        -0.11759E+09
         0.87632E+08
         0.14403E+09
        -0.22001E+09
         0.48801E+08
         0.40531E+09
         0.20913E+09
         0.15058E+09
         0.24780E+09
         0.11308E+09
        -0.17715E+09
        -0.16567E+09
         0.53236E+08
        -0.77112E+07
         0.13903E+08
         0.24597E+09
        -0.95394E+08
         0.23788E+09
         0.14214E+09
        -0.61971E+08
         0.23773E+09
        -0.26240E+09
         0.46551E+08
         0.18197E+07
         0.51608E+08
         0.17470E+09
        -0.48690E+08
        -0.11819E+09
         0.13772E+09
         0.17544E+09
        -0.18488E+09
         0.13939E+09
        -0.10714E+09
         0.33001E+08
         0.19063E+09
        -0.22700E+08
         0.21521E+09
         0.88018E+08
        -0.85100E+08
        -0.24191E+09
         0.64755E+09
        -0.21086E+09
        -0.92895E+07
         0.16315E+09
         0.21171E+09
         0.13442E+09
        -0.57617E+08
        -0.10337E+09
         0.26267E+09
         0.35569E+07
        -0.47923E+08
         0.16353E+09
        -0.36657E+06
         0.31416E+09
         0.15115E+09
         0.28440E+09
        -0.40041E+09
         0.14993E+09
         0.36061E+09
         0.28564E+09
         0.12311E+09
         0.23798E+09
        -0.46263E+08
        -0.18756E+08
         0.33764E+08
        -0.15706E+08
        -0.68691E+09
        -0.97122E+08
         0.10720E+09
        -0.16957E+09
        -0.21232E+09
         0.18505E+09
         0.13168E+09
        -0.62179E+08
        -0.11674E+08
        -0.59087E+08
         0.48444E+07
        -0.15879E+09
        -0.24550E+09
        -0.10981E+09
         0.12983E+09
        -0.32922E+09
        -0.27422E+09
         0.14510E+09
         0.21331E+09
         0.15559E+09
         0.19298E+09
         0.27458E+09
         0.95542E+08
         0.12794E+09
         0.12555E+09
         0.29832E+09
        -0.17814E+09
        -0.59844E+08
         0.53891E+08
        -0.97912E+08
         0.13139E+09
        -0.15777E+09
         0.32934E+09
        -0.11437E+09
         0.15309E+09
         0.92153E+07
        -0.72075E+07
         0.16932E+09
        -0.41941E+08
        -0.19748E+09
         0.25382E+08
         0.58848E+09
         0.59803E+08
         0.90280E+08
        -0.11643E+09
         0.40544E+08
         0.34318E+09
        -0.11814E+07
         0.33711E+09
        -0.25057E+08
         0.25297E+09
        -0.22999E+09
         0.35195E+09
        -0.28685E+09
         0.45277E+09
        -0.23883E+07
         0.58492E+08
         0.11244E+09
        -0.38693E+09
        -0.22400E+09
         0.17984E+09
         0.34618E+08
         0.84614E+07
         0.56053E+08
        -0.11351E+09
         0.18279E+09
        -0.16077E+08
         0.40635E+09
        -0.23741E+09
         0.29734E+09
         0.19666E+09
         0.17704E+09
         0.23509E+08
         0.93869E+08
         0.71209E+08
         0.42183E+07
         0.14425E+09
         0.16571E+09
        -0.42336E+09
         0.26034E+08
        -0.34934E+08
        -0.19450E+09
         0.11552E+09
         0.13392E+08
        -0.11495E+09
         0.65783E+08
         0.22384E+09
        -0.28717E+09
        -0.98813E+08
         0.86207E+08
        -0.39356E+07
        -0.12196E+09
        -0.42291E+06
        -0.79568E+08
        -0.12643E+09
         0.14764E+09
        -0.47685E+07
         0.10116E+09
         0.98306E+07
         0.13872E+09
        -0.83168E+08
        -0.29021E+09
         0.16407E+09
         0.61313E+07
        -0.32514E+09
         0.17185E+08
         0.36795E+09
         0.41507E+08
        -0.10025E+09
        -0.53077E+08
         0.35297E+08
        -0.11840E+09
         0.15223E+09
         0.19913E+09
         0.12247E+08
         0.22043E+09
        -0.62871E+08
        -0.88025E+08
         0.90733E+07
         0.52982E+08
         0.13512E+09
         0.11790E+09
         0.93112E+08
        -0.60681E+08
        -0.18174E+09
        -0.50172E+07
         0.11126E+09
         0.13379E+09
         0.18511E+09
        -0.71279E+07
         0.14313E+09
        -0.53643E+08
         0.32566E+09
        -0.61701E+08
        -0.48957E+08
         0.34000E+09
        -0.25444E+09
        -0.11692E+09
         0.20333E+09
         0.23521E+09
         0.17774E+09
         0.48334E+08
        -0.87382E+08
         0.10862E+09
        -0.52187E+08
         0.31327E+09
        -0.21079E+09
         0.17422E+09
         0.19146E+09
         0.82569E+08
         0.14773E+09
         0.90289E+08
        -0.31111E+07
        -0.33842E+09
         0.25684E+09
        -0.10385E+09
        -0.41821E+09
         0.39079E+08
         0.13485E+09
        -0.22129E+09
         0.58795E+08
         0.10102E+09
        -0.24684E+09
        -0.13369E+09
         0.83188E+08
        -0.14044E+09
        -0.31317E+08
         0.27587E+07
        -0.16261E+09
        -0.12661E+09
        -0.60310E+08
        -0.23810E+09
        -0.15532E+09
         0.24077E+09
        -0.10146E+09
         0.45889E+08
         0.11810E+09
         0.54492E+08
         0.59993E+08
         0.71091E+08
         0.28357E+09
         0.23431E+09
        -0.22909E+09
        -0.18538E+09
         0.24142E+09
        -0.11987E+08
         0.11691E+09
        -0.96111E+08
         0.13148E+09
         0.82859E+08
         0.62640E+08
         0.31874E+08
        -0.13722E+09
         0.17753E+09
         0.22259E+08
        -0.67888E+07
         0.12273E+09
         0.21518E+09
         0.95379E+07
        -0.59785E+08
         0.17201E+08
         0.83128E+08
         0.32708E+08
         0.90488E+08
         0.12426E+09
        -0.26274E+08
         0.31502E+09
        -0.15469E+09
        -0.16450E+09
        -0.22368E+09
         0.57747E+09
         0.10651E+09
        -0.18637E+09
         0.29439E+09
        -0.13339E+09
        -0.10585E+09
         0.10208E+09
         0.11242E+09
         0.59125E+08
        -0.23550E+09
        -0.17596E+08
         0.68435E+08
        -0.12971E+09
         0.27254E+09
         0.29433E+08
         0.30118E+09
        -0.10858E+08
         0.11784E+09
         0.10775E+09
        -0.14279E+08
         0.22145E+09
        -0.51957E+08
         0.15747E+09
        -0.29191E+08
        -0.78098E+08
         0.20770E+09
        -0.18674E+08
        -0.12812E+09
         0.13779E+09
        -0.12544E+09
        -0.33153E+09
        -0.20035E+08
         0.34610E+08
        -0.18086E+09
        -0.20052E+08
         0.18162E+09
         0.73674E+08
        -0.12058E+08
        -0.10307E+09
         0.19142E+08
         0.36802E+08
         0.22591E+09
        -0.20749E+09
         0.75757E+08
         0.62019E+07
         0.74406E+08
        -0.20487E+09
        -0.16521E+09
         0.10585E+09
        -0.24685E+08
        -0.71588E+08
        -0.11142E+09
         0.38936E+09
         0.47359E+08
         0.10736E+08
        -0.82411E+08
        -0.22200E+08
        -0.75185E+08
        -0.32912E+08
         0.53968E+08
        -0.90141E+08
         0.20682E+09
        -0.10793E+09
         0.29045E+08
         0.76437E+08
        -0.23467E+09
        -0.20232E+09
         0.40358E+08
         0.13725E+09
         0.13179E+09
        -0.16907E+09
         0.77117E+08
        -0.18144E+09
        -0.12480E+09
         0.69059E+08
        -0.20422E+09
        -0.19061E+09
         0.39495E+07
         0.27456E+09
         0.17528E+09
        -0.14145E+09
         0.12151E+09
        -0.47541E+08
        -0.65028E+08
         0.12798E+09
         0.10588E+09
         0.11577E+09
        -0.27561E+09
         0.16681E+07
         0.41248E+07
        -0.12800E+09
         0.30714E+09
         0.25919E+09
         0.22855E+09
        -0.11033E+09
        -0.24304E+08
         0.20078E+08
        -0.90534E+08
         0.87254E+08
        -0.33388E+09
         0.64017E+08
        -0.16000E+09
        -0.14327E+09
         0.36910E+08
         0.18409E+08
         0.38018E+08
         0.33594E+08
        -0.32415E+08
         0.59552E+08
        -0.54920E+08
         0.20332E+08
        -0.11468E+09
        -0.38835E+08
         0.15414E+09
         0.48691E+08
         0.19367E+08
        -0.11093E+09
        -0.55699E+08
         0.62412E+08
         0.19422E+09
        -0.62792E+08
         0.58945E+07
         0.49780E+08
        -0.77450E+08
        -0.19453E+09
         0.22574E+09
        -0.89711E+08
         0.12393E+09
         0.28709E+08
        -0.29358E+09
         0.14204E+08
        -0.83599E+08
         0.13690E+09
        -0.12278E+09
         0.16963E+09
        -0.91566E+08
        -0.38355E+08
         0.21099E+09
        -0.19233E+09
         0.89529E+08
        -0.27445E+09
        -0.29648E+08
         0.37779E+08
        -0.25257E+09
        -0.17137E+08
        -0.17788E+09
         0.72099E+08
         0.25590E+09
         0.96786E+08
         0.85861E+08
        -0.54505E+08
        -0.24550E+09
         0.10842E+08
        -0.27316E+09
        -0.14442E+09
         0.39856E+08
         0.17462E+09
         0.88858E+08
        -0.38774E+09
        -0.17378E+08
         0.50841E+05
        -0.82657E+08
         0.10171E+09
        -0.70166E+07
        -0.47517E+07
        -0.26649E+09
        -0.11302E+09
         0.60143E+08
        -0.73526E+08
         0.21136E+09
         0.34520E+09
         0.25682E+09
        -0.14097E+09
         0.11442E+08
        -0.10866E+09
        -0.90311E+08
         0.82269E+08
        -0.12616E+09
        -0.13583E+08
        -0.68221E+08
         0.14761E+09
         0.15473E+09
        -0.99843E+08
        -0.63448E+08
         0.36102E+08
        -0.38357E+08
        -0.11965E+07
        -0.15088E+09
         0.12437E+09
        -0.12438E+09
         0.32240E+08
         0.27841E+09
         0.22245E+09
         0.46303E+06
        -0.22278E+09
         0.82044E+08
         0.23943E+09
         0.74655E+08
        -0.24464E+09
         0.18682E+09
        -0.16474E+09
         0.68816E+08
         0.35460E+08
         0.56241E+08
        -0.17561E+09
         0.56381E+08
        -0.68374E+08
         0.21795E+08
         0.19684E+09
         0.57204E+08
        -0.14865E+09
        -0.30699E+09
         0.71059E+08
        -0.53239E+08
        -0.14850E+09
         0.25005E+08
        -0.19738E+09
         0.53183E+08
        -0.15977E+09
         0.31808E+08
         0.17684E+09
        -0.41115E+09
        -0.35130E+08
        -0.44946E+08
         0.37435E+08
         0.96476E+08
        -0.14247E+09
        -0.16471E+08
        -0.12540E+09
        -0.93730E+08
        -0.18762E+08
        -0.16720E+09
        -0.13389E+09
         0.22173E+08
         0.72129E+08
         0.70063E+08
        -0.20555E+09
         0.95734E+07
         0.37499E+07
        -0.61699E+08
        -0.30948E+08
         0.12709E+09
        -0.55845E+08
        -0.22883E+09
        -0.53186E+08
         0.22258E+08
        -0.16060E+09
        -0.11060E+08
         0.12346E+09
         0.49210E+08
        -0.55094E+08
        -0.57465E+08
        -0.42874E+08
        -0.12749E+09
         0.63750E+08
        -0.20781E+09
        -0.54429E+08
        -0.22461E+09
        -0.33260E+08
        -0.61784E+08
        -0.36060E+08
        -0.99558E+08
        -0.91756E+08
         0.85358E+08
         0.30367E+09
        -0.10235E+09
        -0.78517E+08
        -0.64715E+08
        -0.70553E+07
         0.68981E+08
         0.37639E+08
        -0.53470E+07
        -0.14329E+09
        -0.24576E+08
         0.16493E+09
         0.11059E+09
        -0.11047E+09
         0.68785E+08
         0.15861E+09
        -0.58574E+08
         0.11559E+08
         0.17578E+09
        -0.10197E+09
         0.68123E+08
         0.83550E+07
        -0.25329E+09
        -0.18724E+09
        -0.47975E+08
         0.86523E+08
        -0.12259E+08
         0.91444E+08
         0.73583E+08
        -0.16355E+09
         0.69675E+08
        -0.12135E+09
        -0.70531E+08
        -0.30089E+09
        -0.11786E+09
         0.14644E+09
        -0.29908E+09
        -0.44154E+08
        -0.17046E+09
         0.30515E+08
         0.10774E+09
        -0.83413E+06
        -0.90589E+08
         0.61030E+08
        -0.27439E+08
         0.34732E+08
        -0.77200E+08
        -0.10990E+09
         0.51006E+08
         0.81232E+08
         0.41194E+07
        -0.22533E+09
        -0.22352E+07
        -0.29471E+08
        -0.37838E+07
        -0.58105E+08
         0.28205E+08
         0.13173E+09
        -0.86910E+08
        -0.10445E+09
         0.38684E+08
        -0.12426E+09
         0.19847E+09
         0.28077E+08
         0.12662E+09
        -0.30004E+08
        -0.29000E+08
        -0.12240E+09
        -0.42453E+08
         0.28986E+08
        -0.91217E+08
        -0.80221E+08
        -0.97717E+08
         0.14798E+09
         0.39804E+08
        -0.51354E+08
        -0.82334E+08
        -0.92450E+08
        -0.75028E+08
         0.25529E+08
        -0.65648E+08
         0.12226E+09
        -0.11695E+09
        -0.64580E+08
         0.16051E+09
         0.17436E+09
         0.74354E+08
         0.21153E+08
         0.25721E+09
         0.32633E+09
         0.13492E+09
        -0.25781E+09
         0.12552E+09
        -0.48897E+07
        -0.77646E+08
        -0.98652E+08
        -0.10914E+09
        -0.23693E+09
         0.94907E+07
         0.45741E+08
         0.39338E+08
         0.16665E+09
         0.53139E+08
        -0.42976E+08
         0.28696E+08
        -0.82809E+08
        -0.17742E+08
        -0.10592E+09
         0.76044E+08
        -0.16185E+09
        -0.61919E+08
        -0.21130E+09
        -0.49846E+08
         0.96665E+08
        -0.44188E+09
        -0.15167E+09
         0.30945E+07
        -0.25870E+08
         0.36709E+08
        -0.15946E+09
        -0.99051E+08
        -0.95724E+08
        -0.57478E+08
         0.43145E+08
        -0.11549E+09
        -0.12948E+09
        -0.63456E+08
         0.37834E+08
         0.70505E+08
        -0.69080E+08
        -0.85341E+08
         0.35773E+08
        -0.17452E+09
        -0.13567E+09
         0.28739E+08
        -0.16165E+09
        -0.21548E+09
        -0.55744E+08
        -0.56953E+08
         0.92984E+08
        -0.48970E+08
        -0.65994E+08
        -0.12790E+09
        -0.11622E+09
        -0.73571E+08
        -0.92161E+08
        -0.11102E+09
        -0.71015E+08
        -0.14849E+09
        -0.11191E+09
        -0.13650E+09
         0.88767E+07
         0.35336E+08
         0.72561E+08
        -0.50204E+08
        -0.38537E+08
         0.22341E+08
         0.66062E+08
        -0.40521E+08
         0.53816E+08
         0.52801E+08
         0.68015E+08
         0.11968E+09
         0.94588E+07
        -0.41775E+08
        -0.16379E+09
        -0.10676E+08
         0.15612E+09
         0.81763E+08
        -0.89833E+08
         0.14673E+09
         0.99660E+08
         0.30379E+08
        -0.12819E+08
         0.18055E+09
         0.18426E+09
         0.16239E+08
        -0.36332E+08
         0.17524E+08
        -0.53798E+07
        -0.15745E+09
         0.95967E+08
         0.84669E+08
         0.91882E+08
         0.18333E+09
        -0.72791E+08
         0.14626E+09
        -0.19459E+09
        -0.13922E+09
        -0.14432E+08
        -0.77596E+08
        -0.55756E+08
        -0.15427E+09
         0.54607E+08
         0.41206E+08
        -0.52106E+07
         0.75268E+08
        -0.41952E+07
        -0.56275E+08
         0.50857E+08
        -0.16027E+08
         0.58562E+08
        -0.85027E+08
        -0.46245E+08
         0.65247E+07
         0.10044E+09
         0.55548E+08
        -0.11355E+09
        -0.11077E+08
         0.75282E+08
        -0.90649E+08
         0.27583E+08
        -0.57976E+08
         0.52617E+08
         0.30582E+08
         0.74796E+08
         0.12337E+09
        -0.32969E+08
         0.24436E+08
         0.10546E+09
         0.11041E+08
        -0.87534E+08
         0.77201E+08
         0.33759E+08
        -0.11702E+08
         0.46207E+08
         0.44457E+08
        -0.36251E+08
        -0.28629E+08
         0.80550E+08
         0.55579E+08
        -0.28570E+08
        -0.13956E+09
        -0.97035E+08
         0.94055E+08
         0.14323E+09
        -0.52637E+08
         0.27371E+08
        -0.57969E+08
         0.33965E+08
         0.10915E+09
         0.82438E+08
         0.10625E+08
         0.91653E+07
         0.15461E+09
         0.17092E+09
         0.83001E+08
        -0.54570E+08
         0.62643E+08
         0.12914E+09
         0.11129E+09
        -0.72770E+08
        -0.27304E+09
        -0.16701E+09
        -0.10670E+09
         0.82287E+08
        -0.28989E+08
         0.90625E+08
         0.94720E+08
        -0.54512E+08
         0.24362E+08
        -0.70136E+08
         0.13822E+09
        -0.37578E+08
        -0.40247E+08
        -0.38466E+08
         0.85316E+07
         0.12973E+08
        -0.19035E+08
        -0.28708E+08
        -0.26656E+09
        -0.82183E+08
         0.57503E+08
        -0.89018E+08
        -0.61518E+08
        -0.99786E+08
        -0.83052E+08
         0.70894E+08
         0.42470E+08
        -0.12426E+08
        -0.12045E+09
        -0.19878E+09
        -0.12045E+09
         0.27664E+08
         0.74329E+08
         0.27153E+08
        -0.86210E+08
        -0.15122E+08
        -0.94365E+08
        -0.14270E+09
        -0.80085E+08
        -0.10492E+08
        -0.17286E+09
        -0.71789E+08
        -0.93127E+08
        -0.21821E+08
         0.44607E+08
        -0.11674E+09
        -0.71759E+08
        -0.41048E+08
        -0.23762E+08
        -0.98609E+08
        -0.14742E+09
        -0.51403E+08
        -0.13116E+09
        -0.11138E+09
        -0.17839E+09
         0.59617E+08
        -0.43500E+08
         0.62196E+07
        -0.52007E+08
        -0.29336E+08
        -0.30286E+08
        -0.23990E+08
         0.13655E+08
         0.79011E+08
        -0.83159E+08
         0.14583E+08
         0.71458E+08
        -0.41834E+08
        -0.10473E+08
        -0.61381E+08
        -0.74985E+08
        -0.19717E+08
        -0.10977E+08
         0.14133E+09
         0.44644E+08
         0.19822E+09
         0.20167E+09
         0.93343E+08
        -0.10566E+08
         0.11458E+09
         0.10468E+09
         0.27139E+09
         0.86604E+08
         0.17424E+09
        -0.10894E+09
         0.21317E+09
         0.14646E+09
         0.12000E+09
         0.15339E+09
        -0.63944E+08
        -0.54864E+07
        -0.77488E+08
        -0.97140E+08
        -0.14390E+09
        -0.10512E+09
         0.64062E+08
        -0.11122E+08
         0.88528E+08
        -0.17180E+08
         0.60168E+08
         0.12736E+08
        -0.65607E+08
        -0.56762E+08
        -0.34127E+08
        -0.56755E+08
        -0.53490E+08
        -0.18746E+08
         0.58172E+08
         0.22153E+08
        -0.97726E+08
        -0.98430E+08
        -0.12630E+09
        -0.10054E+09
        -0.82937E+08
        -0.31128E+08
         0.99902E+08
        -0.18278E+08
         0.86860E+08
         0.22058E+08
         0.37054E+08
         0.30386E+08
        -0.95198E+08
        -0.82635E+08
        -0.27642E+08
        -0.14520E+09
        -0.56248E+08
        -0.39883E+07
        -0.62750E+08
        -0.83450E+08
        -0.10523E+09
        -0.94185E+08
        -0.98720E+08
        -0.41886E+08
         0.30787E+08
         0.17426E+08
        -0.16761E+08
        -0.12604E+09
        -0.26664E+08
         0.58631E+08
         0.17999E+08
        -0.36444E+08
         0.33664E+08
        -0.78001E+08
         0.71885E+08
         0.10717E+09
        -0.22615E+07
        -0.43513E+08
        -0.44454E+08
         0.66179E+08
         0.94780E+08
         0.13187E+08
         0.42845E+08
         0.87479E+08
         0.11804E+09
        -0.52970E+08
        -0.79317E+08
         0.67958E+08
         0.18081E+09
        -0.93388E+08
        -0.20705E+09
        -0.64829E+08
        -0.11899E+09
         0.86991E+08
         0.59045E+07
        -0.21266E+08
         0.10498E+09
         0.57480E+08
         0.11735E+09
         0.71919E+08
        -0.10964E+09
        -0.34351E+08
         0.14597E+09
         0.74320E+08
         0.24760E+07
         0.36054E+08
         0.73841E+08
         0.13784E+09
        -0.71567E+07
         0.59813E+08
        -0.20535E+08
        -0.37634E+08
        -0.31668E+08
        -0.18489E+08
         0.13986E+08
        -0.67217E+08
        -0.14380E+09
        -0.13511E+09
        -0.48730E+07
        -0.76245E+07
         0.17700E+08
         0.67769E+07
         0.11320E+09
        -0.56584E+08
        -0.98703E+08
        -0.47075E+08
         0.40083E+08
         0.38936E+08
         0.42964E+08
         0.32275E+08
         0.20173E+08
        -0.92625E+07
        -0.78656E+08
        -0.78081E+08
         0.34086E+08
         0.13931E+08
         0.21899E+08
        -0.56042E+07
         0.54824E+07
        -0.39616E+08
        -0.37647E+08
        -0.75202E+08
         0.32805E+08
         0.80552E+08
         0.11479E+09
         0.63982E+08
        -0.32567E+08
         0.32702E+08
         0.39567E+08
        -0.31868E+08
        -0.34261E+07
        -0.44272E+08
        -0.23933E+08
         0.50283E+08
         0.69900E+08
         0.66812E+08
        -0.43337E+08
        -0.63711E+08
         0.93593E+07
         0.32663E+07
         0.93464E+08
        -0.44706E+08
         0.20656E+09
         0.17371E+08
        -0.56177E+08
        -0.16279E+09
         0.19200E+08
         0.44383E+08
        -0.13467E+09
         0.10784E+09
         0.62391E+08
        -0.34993E+08
        -0.37647E+08
         0.12549E+09
         0.42179E+08
         0.48546E+08
        -0.11004E+08
        -0.11379E+09
        -0.11148E+09
         0.15772E+08
        -0.81179E+08
        -0.21449E+08
        -0.26593E+08
         0.94866E+08
         0.76868E+08
         0.33207E+08
         0.18786E+08
        -0.43025E+08
        -0.63103E+08
         0.49203E+08
        -0.27039E+08
         0.57189E+07
        -0.73492E+08
        -0.35481E+08
         0.10304E+09
         0.60342E+07
        -0.41269E+08
        -0.75636E+06
        -0.35598E+08
        -0.43851E+08
        -0.69146E+07
         0.55048E+08
         0.10916E+09
         0.10211E+09
        -0.13495E+08
         0.51948E+08
        -0.13190E+09
        -0.72932E+08
        -0.19380E+08
        -0.48462E+08
         0.14193E+08
        -0.55514E+08
        -0.42406E+07
         0.18910E+08
        -0.14515E+08
         0.14805E+08
        -0.60182E+08
        -0.57853E+08
        -0.13968E+08
         0.34270E+08
        -0.34250E+08
        -0.60652E+08
        -0.14991E+08
        -0.50953E+08
        -0.52298E+07
        -0.66141E+07
        -0.13471E+09
        -0.11249E+09
        -0.26717E+08
        -0.20928E+08
        -0.25883E+08
        -0.30863E+08
        -0.53485E+08
        -0.12711E+08
        -0.22304E+08
         0.10902E+08
         0.14654E+07
         0.42089E+07
         0.46054E+08
        -0.75815E+08
         0.86523E+07
        -0.65983E+08
        -0.11437E+09
        -0.87122E+07
        -0.91807E+07
        -0.90495E+08
         0.31922E+08
        -0.11980E+09
        -0.20723E+09
        -0.78154E+08
         0.85624E+08
        -0.80799E+08
         0.69545E+08
         0.75749E+08
        -0.37910E+08
        -0.67636E+08
        -0.17383E+08
         0.42921E+08
         0.30735E+08
         0.48759E+08
         0.33921E+08
        -0.80516E+07
        -0.99400E+08
        -0.91713E+08
        -0.10520E+08
        -0.33394E+08
        -0.18558E+08
         0.67907E+08
         0.74634E+08
         0.51518E+08
         0.68719E+08
         0.86337E+08
        -0.16613E+08
         0.71791E+07
         0.82055E+08
         0.88194E+08
         0.97915E+08
         0.48573E+08
         0.87042E+08
         0.14437E+09
        -0.17469E+08
         0.99020E+08
         0.13049E+09
         0.50552E+08
         0.62712E+08
         0.12762E+09
         0.26398E+08
         0.31926E+08
        -0.21106E+08
         0.23450E+08
         0.27637E+08
         0.78897E+08
         0.26305E+08
        -0.11954E+08
         0.12399E+08
        -0.81093E+07
         0.63894E+08
         0.76047E+08
         0.67431E+08
        -0.16186E+08
         0.36597E+08
        -0.15099E+07
         0.67152E+07
         0.34366E+08
        -0.40777E+08
        -0.84360E+08
         0.21929E+08
         0.25995E+08
         0.37364E+08
         0.66983E+08
         0.41546E+08
         0.34973E+08
         0.95407E+07
         0.74573E+07
        -0.22675E+08
         0.18856E+08
         0.30553E+08
        -0.60852E+08
        -0.87629E+08
         0.12320E+09
         0.27724E+08
        -0.16806E+09
        -0.13548E+09
        -0.79827E+08
        -0.87757E+08
        -0.29239E+08
         0.17507E+09
        -0.26195E+08
        -0.88417E+08
         0.84139E+08
        -0.11552E+09
        -0.12580E+09
         0.48310E+08
        -0.31326E+08
         0.12941E+08
         0.32022E+08
        -0.31763E+08
        -0.54831E+08
        -0.10391E+09
        -0.19419E+08
         0.44853E+08
        -0.46725E+08
         0.12410E+09
         0.63049E+08
         0.61274E+08
         0.99832E+08
         0.30132E+08
         0.43013E+08
        -0.12167E+09
         0.52449E+08
         0.10039E+09
         0.18299E+09
        -0.26354E+09
        -0.17386E+09
        -0.12496E+09
        -0.16865E+09
        -0.10055E+09
        -0.98717E+07
         0.90632E+08
        -0.52071E+08
        -0.31132E+08
         0.60781E+08
        -0.86388E+08
         0.12825E+08
        -0.57882E+08
        -0.51883E+08
         0.20185E+09
         0.24829E+08
        -0.13652E+08
         0.67460E+08
         0.43192E+08
         0.99926E+08
         0.67539E+08
         0.83619E+08
        -0.25131E+08
        -0.28466E+08
        -0.84928E+08
        -0.12468E+09
        -0.61743E+08
        -0.71904E+08
        -0.99621E+08
        -0.81923E+08
        -0.68132E+08
        -0.70561E+08
         0.15135E+08
        -0.97022E+07
        -0.28859E+07
        -0.37627E+08
         0.24387E+08
         0.61493E+08
         0.14844E+07
        -0.32701E+08
        -0.49569E+08
        -0.22665E+08
        -0.14376E+09
        -0.91649E+08
        -0.22800E+09
        -0.58636E+08
        -0.51350E+07
         0.81455E+08
         0.14624E+09
         0.19329E+08
        -0.36137E+07
         0.13121E+09
         0.76458E+08
        -0.71995E+08
         0.30129E+08
        -0.76138E+08
        -0.81828E+07
         0.90356E+08
        -0.86160E+08
        -0.87536E+08
        -0.19240E+09
        -0.23171E+09
        -0.15105E+09
        -0.60933E+08
        -0.87737E+07
        -0.42060E+08
        -0.12735E+09
        -0.85475E+08
         0.21129E+08
         0.47133E+08
        -0.31544E+08
         0.37258E+08
        -0.63034E+08
        -0.67665E+08
         0.10052E+09
         0.93912E+08
         0.49925E+08
         0.70275E+08
         0.90905E+08
         0.69208E+08
         0.59298E+08
         0.10107E+09
         0.13296E+09
         0.15034E+09
         0.62640E+08
         0.10779E+09
         0.45428E+08
         0.27973E+08
         0.22777E+08
         0.29863E+08
         0.53285E+07
         0.47362E+08
         0.72876E+08
         0.72285E+08
         0.45356E+08
         0.65517E+08
         0.83280E+08
         0.77751E+08
         0.33207E+08
         0.51342E+07
         0.29932E+08
         0.18868E+08
         0.56619E+08
         0.67528E+08
         0.10146E+09
         0.88965E+08
         0.12370E+08
        -0.19065E+08
        -0.25629E+08
         0.12072E+08
         0.21101E+08
         0.17410E+08
         0.19749E+08
         0.30058E+08
         0.51290E+07
         0.31149E+06
        -0.35551E+07
         0.22915E+08
         0.24793E+08
        -0.84542E+07
         0.20617E+09
        -0.20770E+08
         0.11004E+09
        -0.83657E+08
        -0.10741E+09
        -0.14847E+08
        -0.18949E+09
        -0.55554E+08
         0.18494E+08
        -0.16202E+08
        -0.87263E+08
        -0.30848E+08
        -0.91436E+08
        -0.15589E+09
        -0.33981E+08
        -0.13218E+09
        -0.51113E+08
         0.10073E+09
         0.15701E+09
         0.20656E+09
         0.11585E+09
         0.15696E+09
         0.38458E+08
         0.34505E+08
         0.66623E+08
        -0.45391E+08
        -0.56455E+08
        -0.30045E+07
        -0.20255E+08
        -0.36270E+08
        -0.67284E+08
        -0.54067E+08
        -0.42910E+08
        -0.52821E+08
        -0.12491E+09
        -0.86203E+08
        -0.89065E+08
        -0.69820E+08
        -0.70157E+08
        -0.55427E+08
         0.39164E+08
        -0.11670E+09
        -0.94584E+08
        -0.12565E+09
        -0.12234E+09
        -0.37165E+08
        -0.15202E+09
        -0.76224E+08
        -0.76866E+08
        -0.11683E+09
        -0.51895E+08
        -0.25671E+08
        -0.34770E+08
         0.36133E+07
        -0.15460E+08
         0.44576E+06
         0.35997E+08
         0.47572E+08
         0.12013E+08
         0.85715E+07
        -0.61299E+08
        -0.59078E+08
        -0.46590E+08
         0.42273E+08
         0.40857E+08
         0.85959E+07
        -0.43999E+08
        -0.86282E+08
        -0.35494E+08
        -0.44426E+08
        -0.21746E+08
        -0.13316E+08
         0.21076E+08
        -0.30554E+08
        -0.41438E+08
        -0.31017E+08
        -0.53203E+08
        -0.40576E+08
        -0.92266E+08
        -0.75434E+08
        -0.26531E+09
        -0.12798E+09
        -0.20434E+08
         0.63369E+08
         0.14775E+09
         0.15433E+08
        -0.40141E+08
         0.15548E+09
         0.75818E+08
        -0.72539E+07
        -0.13929E+08
        -0.81727E+08
        -0.38487E+08
         0.96449E+08
        -0.18755E+07
        -0.15305E+09
        -0.60918E+08
        -0.52026E+08
        -0.10470E+09
         0.12981E+08
        -0.86918E+08
        -0.11251E+09
        -0.32809E+08
        -0.63201E+08
         0.29533E+08
        -0.16882E+08
        -0.32637E+08
         0.17909E+07
        -0.45606E+08
         0.20635E+08
         0.11838E+08
         0.68282E+07
         0.92625E+08
         0.51845E+08
         0.47434E+08
         0.82765E+08
         0.17227E+08
         0.15625E+08
         0.50661E+08
         0.40961E+08
         0.13870E+09
         0.54887E+07
         0.95598E+08
         0.20653E+08
         0.36587E+08
        -0.90203E+08
         0.33143E+08
         0.45267E+08
         0.26210E+08
         0.92155E+07
         0.90431E+07
         0.11982E+08
        -0.53860E+08
        -0.65808E+08
         0.14764E+08
         0.27917E+08
         0.19514E+08
         0.24427E+08
         0.51570E+07
         0.19163E+08
         0.24619E+07
         0.26211E+08
         0.54090E+08
         0.37138E+08
         0.41800E+08
        -0.28013E+08
        -0.10699E+09
         0.32715E+08
         0.45394E+08
         0.21057E+08
         0.73654E+08
         0.78878E+08
         0.71802E+08
         0.47094E+08
         0.70800E+08
         0.87442E+08
         0.16286E+08
         0.14624E+08
         0.17592E+09
         0.87994E+08
        -0.25822E+08
         0.13880E+08
        -0.42227E+08
        -0.15868E+09
        -0.52953E+08
        -0.13391E+09
        -0.11558E+09
        -0.37006E+08
        -0.11657E+09
        -0.39080E+08
        -0.17292E+08
        -0.12969E+09
        -0.70551E+08
         0.24492E+07
         0.28681E+08
         0.50393E+08
         0.40707E+08
         0.16822E+08
        -0.88276E+08
         0.16446E+08
         0.63446E+08
        -0.26044E+08
        -0.10743E+09
        -0.44105E+08
        -0.34238E+08
        -0.74775E+08
        -0.58411E+08
        -0.10416E+09
        -0.14811E+08
        -0.26873E+08
        -0.67987E+08
        -0.16181E+07
        -0.30433E+08
        -0.96643E+08
        -0.91134E+08
        -0.37542E+08
        -0.13109E+09
        -0.70533E+08
         0.44580E+08
        -0.31052E+08
        -0.57514E+08
         0.18962E+08
        -0.12664E+08
        -0.15384E+08
        -0.15806E+08
        -0.95611E+08
         0.26362E+08
        -0.39293E+08
        -0.94596E+08
        -0.12487E+09
        -0.11202E+09
        -0.36954E+08
        -0.19431E+08
         0.23594E+08
        -0.11826E+08
        -0.20682E+08
         0.15938E+08
        -0.29781E+08
        -0.62697E+08
        -0.16410E+09
        -0.14103E+09
        -0.70142E+08
         0.11396E+08
        -0.78781E+08
        -0.75235E+08
         0.27313E+07
         0.80796E+08
         0.85974E+08
         0.31540E+08
         0.44008E+07
        -0.20359E+08
        -0.28071E+08
         0.72590E+06
        -0.15415E+08
         0.43175E+08
        -0.16897E+07
         0.12597E+09
         0.81673E+08
        -0.32975E+08
        -0.77543E+08
         0.95639E+07
         0.21129E+08
         0.12158E+09
         0.84364E+08
         0.81130E+08
        -0.10951E+09
         0.41094E+08
         0.11603E+09
         0.12617E+09
         0.15305E+09
         0.67198E+08
         0.67103E+08
         0.15685E+09
        -0.50924E+08
        -0.76916E+08
         0.44018E+08
         0.47642E+08
         0.17138E+08
         0.11508E+09
         0.69246E+07
         0.90038E+08
         0.12908E+09
         0.98389E+08
        -0.37626E+08
        -0.31543E+08
        -0.81860E+08
        -0.26050E+08
        -0.72631E+08
        -0.41486E+08
        -0.13367E+09
        -0.70266E+08
         0.52552E+06
        -0.11233E+08
        -0.75461E+08
         0.28799E+07
         0.76588E+08
         0.96970E+08
         0.72734E+07
         0.37191E+08
         0.10352E+09
        -0.12333E+09
         0.10889E+09
         0.32130E+08
         0.89185E+05
        -0.12421E+09
         0.18278E+09
        -0.77675E+08
        -0.10071E+09
         0.15296E+08
         0.22361E+08
         0.63970E+08
         0.16834E+09
        -0.13436E+09
         0.46287E+08
         0.11107E+09
         0.73794E+08
         0.53458E+08
        -0.16501E+08
         0.60111E+07
         0.42924E+08
         0.44864E+08
         0.65289E+08
         0.81209E+08
         0.14692E+09
         0.94503E+08
         0.29313E+08
         0.12693E+09
         0.22449E+09
         0.35039E+08
        -0.22424E+07
         0.10525E+09
         0.10838E+09
         0.16421E+09
         0.12978E+09
         0.10617E+09
        -0.57779E+08
        -0.66265E+08
        -0.21554E+08
        -0.12197E+09
        -0.34782E+09
        -0.29234E+09
        -0.24948E+09
        -0.20070E+09
        -0.17865E+09
        -0.91168E+08
         0.11927E+09
         0.11692E+09
         0.75662E+08
        -0.47124E+08
        -0.13786E+09
         0.17090E+09
         0.18691E+09
         0.22950E+09
         0.13956E+09
         0.33090E+08
        -0.85678E+08
        -0.35024E+08
         0.16658E+09
  
SCALARS                      stress_zz  double 1
LOOKUP_TABLE default
        -0.10710E+09
        -0.18798E+09
         0.20561E+09
        -0.43947E+09
         0.18640E+09
        -0.52713E+09
         0.44497E+09
        -0.17180E+09
        -0.18065E+09
         0.34674E+09
        -0.57063E+09
         0.25542E+09
        -0.14077E+09
         0.98120E+07
        -0.85072E+08
        -0.24984E+09
        -0.20935E+09
        -0.41716E+09
         0.14380E+08
        -0.29698E+09
        -0.41478E+09
        -0.25598E+08
        -0.13235E+09
         0.18402E+09
        -0.11963E+09
         0.16873E+09
        -0.20035E+09
         0.21298E+09
        -0.32779E+09
         0.19704E+09
        -0.40292E+09
        -0.28072E+09
         0.81023E+08
         0.33709E+07
        -0.26201E+09
        -0.12857E+09
         0.10720E+09
         0.96612E+08
         0.16620E+08
         0.26196E+09
        -0.12900E+09
        -0.37274E+09
         0.14706E+09
        -0.40883E+09
         0.10257E+09
        -0.76950E+08
         0.14783E+09
        -0.11766E+10
         0.11517E+09
         0.23483E+09
        -0.14048E+08
        -0.38919E+08
         0.12646E+09
         0.72196E+09
        -0.15370E+09
        -0.60967E+09
        -0.13935E+09
        -0.39457E+09
         0.41765E+09
        -0.24246E+09
         0.49311E+08
         0.14469E+09
         0.18200E+09
        -0.38151E+09
        -0.40294E+09
        -0.46391E+08
         0.48431E+09
         0.10188E+09
        -0.19771E+09
         0.42201E+08
        -0.32775E+09
        -0.48404E+08
        -0.10058E+08
         0.20143E+09
        -0.34463E+09
        -0.34433E+09
         0.33066E+08
        -0.14182E+09
        -0.12471E+09
         0.60913E+09
         0.95133E+08
        -0.75734E+08
        -0.64762E+09
         0.53790E+08
         0.26663E+09
        -0.10780E+09
        -0.81851E+08
         0.12059E+09
        -0.13059E+09
         0.16927E+09
         0.24387E+09
        -0.63045E+09
        -0.52329E+09
        -0.83281E+08
         0.35133E+09
        -0.61548E+08
        -0.27784E+09
        -0.38376E+09
        -0.13360E+09
        -0.12413E+08
         0.78606E+09
        -0.87229E+09
         0.44080E+09
        -0.29943E+09
         0.57441E+09
        -0.25664E+09
         0.41073E+09
         0.45474E+09
        -0.32835E+09
        -0.11457E+09
         0.23634E+09
         0.18954E+09
        -0.13860E+09
        -0.11782E+09
         0.24896E+08
         0.61415E+08
        -0.16621E+09
         0.12704E+09
        -0.31317E+07
         0.77837E+08
         0.57815E+08
         0.29245E+09
         0.88459E+08
        -0.38875E+09
         0.27113E+08
         0.70889E+08
         0.24628E+09
        -0.33984E+09
        -0.19267E+09
         0.13021E+09
         0.12943E+09
         0.17815E+09
        -0.97495E+08
         0.91048E+08
         0.57842E+08
        -0.14169E+09
         0.14371E+09
        -0.22630E+09
        -0.10326E+09
         0.98649E+08
         0.20989E+09
         0.51369E+09
         0.23548E+09
        -0.91748E+08
        -0.16162E+09
         0.16576E+09
         0.96584E+08
         0.13975E+09
        -0.13275E+09
         0.69445E+08
         0.22489E+09
        -0.21345E+09
         0.46003E+08
        -0.13771E+09
         0.13313E+09
        -0.15636E+09
         0.95324E+08
        -0.20394E+09
         0.68263E+08
        -0.37979E+09
         0.59698E+09
        -0.87733E+08
        -0.49409E+08
         0.10220E+09
        -0.16252E+09
        -0.37226E+09
        -0.33045E+09
        -0.70321E+08
         0.89071E+07
        -0.42370E+09
         0.29176E+09
        -0.17261E+08
        -0.21009E+09
         0.15406E+09
         0.53488E+08
        -0.20476E+09
        -0.36400E+09
         0.60548E+08
         0.10330E+09
         0.33631E+09
         0.30052E+09
        -0.52351E+09
         0.40356E+09
        -0.77830E+08
        -0.48676E+09
        -0.43069E+08
        -0.91568E+08
        -0.24996E+09
        -0.18781E+09
         0.32323E+08
        -0.68677E+09
        -0.36908E+09
         0.94638E+08
        -0.75920E+08
        -0.16668E+09
         0.27846E+09
         0.66812E+08
         0.88295E+08
        -0.24606E+08
         0.35530E+09
         0.76747E+08
        -0.98506E+08
        -0.25033E+09
         0.38690E+09
        -0.11724E+09
        -0.13899E+09
         0.21525E+09
        -0.81937E+08
        -0.18648E+09
        -0.46038E+09
         0.12623E+09
        -0.51647E+08
        -0.43195E+08
         0.10389E+09
        -0.17902E+09
        -0.23040E+08
         0.38815E+08
        -0.17862E+09
        -0.14162E+09
        -0.29364E+09
        -0.18936E+09
        -0.72758E+08
         0.41243E+09
        -0.22776E+09
        -0.13368E+09
        -0.11520E+09
         0.20707E+09
        -0.86800E+08
        -0.22271E+09
        -0.20960E+09
         0.14227E+08
        -0.23544E+08
         0.11959E+08
        -0.11979E+09
        -0.48975E+08
        -0.13264E+09
         0.55571E+09
        -0.47623E+09
         0.34012E+09
         0.10827E+08
        -0.20205E+09
        -0.24898E+09
         0.45398E+08
        -0.78748E+09
        -0.15082E+09
        -0.27439E+09
         0.16455E+09
         0.11188E+09
        -0.33303E+09
        -0.30133E+09
        -0.10596E+07
        -0.12564E+09
        -0.40536E+09
        -0.31825E+09
        -0.61690E+09
         0.28957E+09
         0.88913E+08
         0.64581E+09
        -0.23714E+09
        -0.15251E+09
         0.32199E+09
        -0.72425E+08
        -0.99273E+08
         0.12831E+09
        -0.12335E+09
        -0.29107E+09
        -0.82937E+08
        -0.22279E+09
        -0.60831E+09
        -0.32139E+09
        -0.21870E+09
        -0.50739E+08
        -0.31499E+09
         0.13409E+09
         0.21741E+09
        -0.33093E+09
        -0.55329E+08
        -0.19004E+09
        -0.95343E+08
         0.31175E+09
        -0.38581E+08
         0.25886E+08
         0.25238E+09
        -0.17815E+09
        -0.10641E+09
         0.36041E+09
        -0.19625E+07
        -0.23438E+09
         0.32393E+09
        -0.22761E+09
        -0.82624E+08
        -0.19381E+09
         0.14298E+09
        -0.26088E+09
         0.52377E+08
        -0.93915E+08
        -0.71166E+08
         0.10196E+09
        -0.19021E+09
        -0.25337E+09
         0.20307E+09
        -0.14406E+09
        -0.13812E+08
        -0.82064E+08
        -0.99404E+08
        -0.67456E+08
        -0.26425E+09
        -0.16779E+09
         0.11646E+09
        -0.10988E+09
        -0.61560E+08
        -0.28395E+09
        -0.29019E+09
        -0.86444E+08
         0.28529E+09
        -0.93357E+08
        -0.14210E+09
        -0.26556E+09
        -0.26671E+09
        -0.33946E+09
         0.47939E+09
        -0.48791E+09
         0.40183E+08
         0.22519E+09
        -0.87744E+08
        -0.93457E+08
        -0.19248E+09
        -0.37842E+07
         0.23456E+09
        -0.31191E+09
        -0.51534E+09
        -0.29862E+08
        -0.12201E+09
         0.97544E+07
        -0.10157E+08
         0.18620E+09
        -0.63949E+09
        -0.17790E+08
         0.37422E+09
         0.17087E+09
        -0.23021E+09
         0.14567E+09
        -0.63682E+08
        -0.85242E+08
         0.30928E+08
        -0.49621E+07
        -0.70251E+09
        -0.12236E+09
        -0.20275E+09
        -0.13713E+09
         0.44682E+08
        -0.65281E+08
         0.24636E+08
        -0.12309E+09
        -0.96021E+08
        -0.48697E+09
        -0.16391E+09
         0.24402E+09
        -0.16960E+09
        -0.37745E+09
         0.51828E+08
        -0.21620E+09
        -0.44774E+09
        -0.92420E+08
         0.24445E+09
        -0.13014E+09
         0.11870E+09
         0.90524E+08
        -0.28979E+09
         0.37314E+08
        -0.55129E+07
        -0.52449E+08
         0.53522E+08
        -0.28109E+09
        -0.16617E+09
        -0.10462E+09
        -0.90014E+08
        -0.24524E+09
         0.13407E+09
         0.48223E+08
         0.14758E+09
        -0.23642E+08
        -0.14757E+09
         0.12509E+09
        -0.10342E+07
        -0.18379E+08
        -0.11542E+09
         0.21864E+09
         0.79872E+08
        -0.91425E+08
        -0.33462E+09
        -0.61994E+08
         0.35368E+09
        -0.17095E+09
         0.76315E+08
        -0.23676E+09
         0.91777E+07
        -0.55118E+09
         0.24072E+09
        -0.46622E+09
         0.27486E+09
        -0.72331E+08
        -0.11427E+09
        -0.10389E+09
        -0.44426E+09
        -0.39112E+09
         0.59101E+08
        -0.46316E+09
        -0.20774E+09
        -0.30745E+09
        -0.19855E+09
        -0.72107E+07
        -0.29918E+09
         0.46703E+09
        -0.61552E+09
         0.32325E+09
        -0.12680E+09
        -0.10590E+09
        -0.12019E+09
         0.21975E+08
         0.14137E+09
         0.17365E+08
         0.14000E+09
        -0.12080E+09
        -0.56414E+09
        -0.11937E+09
        -0.28887E+09
         0.28583E+08
         0.12455E+09
        -0.13328E+09
        -0.69300E+08
         0.22547E+09
        -0.72991E+08
        -0.62547E+09
        -0.17900E+09
         0.35683E+08
        -0.12686E+09
        -0.29121E+09
        -0.65498E+07
        -0.17733E+09
        -0.24075E+09
        -0.27403E+08
         0.14839E+09
        -0.10787E+08
        -0.15517E+09
         0.54292E+08
        -0.82900E+08
        -0.20786E+09
         0.13197E+09
        -0.19252E+09
        -0.17363E+09
        -0.37340E+08
         0.32068E+08
        -0.32831E+08
        -0.31891E+09
        -0.96352E+08
        -0.33671E+09
        -0.24643E+08
         0.20714E+09
         0.17450E+09
        -0.42482E+09
         0.26268E+09
        -0.26932E+08
         0.17581E+09
        -0.13304E+09
        -0.19140E+09
         0.73138E+07
         0.87002E+08
        -0.51120E+08
        -0.12267E+09
        -0.18452E+09
        -0.22561E+09
         0.71161E+06
        -0.45676E+08
        -0.23398E+09
        -0.36162E+09
         0.52075E+09
        -0.14584E+09
        -0.10785E+09
        -0.20770E+09
        -0.25311E+09
         0.50517E+08
        -0.10233E+09
        -0.41112E+09
         0.28530E+09
        -0.23931E+09
         0.32747E+08
        -0.13043E+09
        -0.18905E+09
        -0.13520E+08
        -0.27224E+09
         0.23095E+09
        -0.53484E+09
        -0.16375E+08
        -0.38938E+08
        -0.11629E+09
        -0.56867E+06
        -0.81244E+08
         0.58155E+07
        -0.28983E+09
         0.19851E+09
        -0.23361E+09
        -0.40928E+09
        -0.12928E+09
        -0.11371E+09
        -0.12419E+09
        -0.23605E+09
         0.22024E+07
        -0.22383E+09
        -0.18059E+09
        -0.25034E+09
        -0.38003E+09
        -0.51695E+08
         0.17337E+09
        -0.28056E+09
        -0.42305E+09
        -0.10937E+09
        -0.40205E+09
        -0.30471E+09
        -0.63893E+07
         0.16653E+09
        -0.16253E+09
        -0.17631E+09
        -0.10401E+09
        -0.55832E+08
        -0.82052E+08
        -0.10875E+07
        -0.46129E+08
        -0.21063E+08
        -0.14529E+09
        -0.17956E+09
        -0.17004E+09
        -0.20643E+08
        -0.98116E+08
        -0.17223E+09
        -0.11502E+08
         0.16421E+08
         0.20824E+08
        -0.39409E+09
         0.21940E+09
        -0.35560E+08
         0.64643E+08
         0.13473E+08
         0.14868E+09
        -0.25087E+09
        -0.18812E+09
        -0.77615E+08
        -0.56049E+08
        -0.10813E+09
        -0.16501E+09
         0.66272E+08
         0.33004E+07
        -0.53598E+08
        -0.48921E+09
         0.29828E+08
        -0.45747E+09
         0.10892E+09
        -0.81771E+08
        -0.20491E+09
        -0.47504E+08
        -0.19148E+09
        -0.45741E+09
         0.87475E+08
        -0.32188E+09
        -0.24635E+09
        -0.36717E+09
        -0.11268E+09
        -0.47771E+07
        -0.22520E+09
         0.12860E+09
        -0.28401E+09
         0.25070E+09
        -0.21942E+09
        -0.22129E+09
        -0.21830E+09
        -0.30544E+09
         0.14582E+09
        -0.21151E+09
         0.20887E+08
        -0.22685E+09
        -0.13386E+09
        -0.28989E+08
        -0.14491E+09
         0.61679E+07
        -0.26831E+08
        -0.21964E+09
        -0.12339E+09
        -0.44331E+08
        -0.21859E+09
        -0.25180E+09
        -0.15421E+09
        -0.45433E+08
        -0.24081E+09
        -0.14701E+09
        -0.62948E+08
        -0.31854E+09
        -0.99228E+08
         0.69668E+08
        -0.61233E+08
        -0.15682E+09
        -0.34234E+09
         0.18010E+09
        -0.12392E+09
        -0.28334E+09
         0.96677E+08
        -0.40363E+09
         0.11080E+09
         0.45942E+08
         0.22657E+09
        -0.21053E+08
        -0.30196E+08
        -0.14777E+09
        -0.28648E+09
        -0.87202E+08
        -0.20329E+08
         0.15385E+09
        -0.38307E+09
         0.16695E+09
        -0.51298E+08
         0.12434E+09
        -0.13042E+09
        -0.16095E+09
        -0.38590E+09
         0.64028E+08
         0.97555E+08
        -0.95164E+08
        -0.43209E+09
        -0.77410E+08
        -0.23316E+09
        -0.19128E+09
        -0.22989E+09
        -0.20180E+09
         0.56483E+08
        -0.40013E+08
        -0.12546E+09
        -0.19833E+09
        -0.30211E+09
        -0.89152E+08
        -0.20636E+09
        -0.22987E+09
         0.17605E+09
        -0.98384E+08
        -0.13214E+09
        -0.28839E+09
        -0.23730E+09
         0.41012E+08
        -0.39679E+09
         0.16409E+09
         0.14372E+09
         0.35545E+09
        -0.30673E+09
        -0.21261E+09
        -0.16516E+09
        -0.22879E+09
         0.11308E+09
        -0.32853E+09
         0.14420E+09
        -0.22962E+09
        -0.25193E+09
        -0.20382E+09
        -0.82363E+08
        -0.33029E+08
        -0.17233E+09
        -0.59208E+08
        -0.55170E+08
        -0.29866E+09
        -0.25285E+09
        -0.26698E+09
        -0.20231E+09
        -0.82034E+08
        -0.38963E+09
        -0.37491E+09
        -0.31140E+09
        -0.30141E+09
        -0.34907E+08
         0.13545E+08
        -0.27971E+08
        -0.11448E+09
        -0.21140E+09
        -0.28581E+09
        -0.15954E+09
        -0.32848E+08
        -0.17326E+09
        -0.15365E+09
         0.21556E+08
        -0.15970E+09
        -0.20111E+09
        -0.24898E+09
         0.10703E+09
        -0.27760E+09
        -0.15852E+09
         0.28882E+07
        -0.27281E+07
         0.12022E+09
        -0.22740E+09
         0.20927E+09
        -0.10957E+09
         0.36466E+08
        -0.23085E+09
        -0.61218E+08
        -0.21551E+09
        -0.20458E+09
        -0.15418E+09
         0.11621E+09
        -0.28461E+08
         0.15358E+08
        -0.84016E+08
        -0.29221E+09
        -0.11993E+08
        -0.30680E+09
        -0.46992E+09
        -0.14514E+09
         0.14195E+09
         0.79743E+07
        -0.37380E+09
        -0.15319E+09
        -0.12308E+09
        -0.46953E+09
        -0.31481E+08
        -0.35881E+09
        -0.23221E+09
        -0.43061E+09
        -0.61197E+08
         0.50899E+07
        -0.11570E+09
         0.16494E+09
         0.17871E+09
         0.25029E+09
        -0.41839E+09
        -0.28019E+09
        -0.32702E+09
        -0.27984E+09
         0.16492E+09
        -0.96721E+08
         0.80667E+08
        -0.49936E+08
         0.13165E+09
         0.93950E+07
        -0.27802E+09
        -0.10096E+09
        -0.10921E+09
        -0.16636E+09
        -0.13399E+09
        -0.20742E+09
        -0.25636E+08
        -0.28379E+09
        -0.29483E+09
        -0.28873E+08
        -0.10992E+09
        -0.32435E+09
        -0.42367E+09
        -0.11537E+09
         0.18397E+09
         0.70311E+08
        -0.26317E+09
         0.32827E+08
        -0.31618E+09
         0.11013E+08
         0.26253E+08
        -0.26181E+09
        -0.16141E+09
        -0.82495E+08
        -0.22650E+09
         0.22473E+08
         0.14231E+09
        -0.10745E+08
        -0.19327E+09
        -0.30932E+09
        -0.24833E+09
        -0.21237E+09
         0.10781E+08
        -0.16009E+07
        -0.35365E+09
         0.18973E+09
        -0.80083E+08
         0.14671E+09
        -0.15116E+09
        -0.51966E+09
        -0.17831E+09
        -0.11218E+09
        -0.40851E+08
        -0.27594E+08
        -0.31898E+09
        -0.20707E+09
        -0.20081E+09
        -0.17172E+09
        -0.21046E+09
        -0.20420E+09
        -0.26136E+09
        -0.10407E+09
        -0.18281E+09
        -0.18077E+09
        -0.27616E+09
        -0.91702E+08
        -0.71969E+08
        -0.20398E+09
        -0.42067E+08
        -0.17946E+09
        -0.20486E+09
        -0.20447E+09
        -0.15004E+09
        -0.16001E+09
        -0.23469E+09
        -0.81673E+08
        -0.10503E+09
         0.70187E+08
        -0.24956E+09
        -0.39326E+09
        -0.17796E+09
        -0.23061E+09
        -0.23900E+08
        -0.25376E+09
        -0.14127E+09
        -0.37746E+09
        -0.18188E+09
        -0.23244E+09
        -0.13133E+09
        -0.17494E+09
        -0.27150E+09
        -0.27460E+08
         0.21354E+09
        -0.15783E+09
        -0.29120E+09
        -0.24864E+09
        -0.21438E+09
        -0.80675E+08
        -0.30103E+09
        -0.26983E+09
        -0.35381E+09
        -0.22332E+09
         0.26695E+08
        -0.15794E+08
        -0.20771E+09
         0.91521E+08
         0.41078E+07
        -0.20460E+09
        -0.82307E+08
         0.36467E+07
        -0.18882E+09
        -0.23213E+09
         0.17779E+09
        -0.18338E+09
        -0.56991E+09
        -0.84894E+08
        -0.16456E+08
        -0.21281E+09
        -0.39195E+08
         0.20215E+08
        -0.48261E+08
         0.10387E+09
        -0.12773E+09
         0.11267E+09
        -0.14466E+09
        -0.44353E+08
        -0.70868E+08
        -0.36286E+09
        -0.87454E+08
        -0.32622E+09
         0.25121E+08
        -0.73330E+08
        -0.16489E+09
        -0.42055E+08
        -0.15004E+08
        -0.19703E+09
        -0.12176E+09
        -0.11801E+09
        -0.27883E+09
        -0.14176E+09
        -0.16428E+09
        -0.17343E+09
        -0.20555E+09
        -0.22168E+09
        -0.16787E+09
        -0.15863E+09
        -0.27083E+09
        -0.84641E+08
        -0.67036E+08
        -0.20380E+09
        -0.13119E+09
        -0.70469E+08
        -0.22625E+09
         0.12212E+09
        -0.91955E+08
         0.70281E+08
        -0.17996E+09
        -0.96164E+08
        -0.10869E+09
        -0.94628E+08
        -0.67495E+08
        -0.15275E+09
        -0.17786E+08
        -0.12351E+09
         0.57897E+08
        -0.13730E+09
        -0.23259E+09
        -0.72998E+08
        -0.13097E+09
        -0.17019E+09
        -0.97111E+08
        -0.22456E+09
        -0.12362E+09
        -0.31947E+09
        -0.20380E+09
         0.61236E+08
        -0.13648E+09
        -0.26431E+09
        -0.23927E+09
         0.56923E+08
         0.17451E+09
        -0.51728E+08
        -0.31262E+09
        -0.22554E+08
         0.10329E+08
        -0.12176E+09
        -0.37684E+08
        -0.16435E+09
        -0.18291E+09
        -0.46138E+08
        -0.28102E+09
        -0.18679E+09
        -0.52280E+08
        -0.51790E+08
        -0.24413E+09
        -0.49408E+08
        -0.11545E+09
        -0.51051E+08
        -0.14806E+08
         0.85275E+07
        -0.31722E+09
         0.60798E+08
        -0.10761E+07
        -0.87045E+08
        -0.14065E+09
        -0.39281E+09
        -0.16155E+09
        -0.20309E+09
        -0.27560E+09
        -0.16873E+09
        -0.26543E+09
        -0.28598E+09
        -0.17220E+09
        -0.29057E+09
        -0.46878E+08
        -0.16476E+09
        -0.36874E+09
        -0.21203E+09
        -0.37110E+08
        -0.92769E+08
        -0.12773E+09
        -0.20460E+09
        -0.20304E+09
        -0.43359E+09
        -0.25468E+09
        -0.20940E+09
        -0.29756E+09
        -0.24763E+09
         0.15967E+07
        -0.18638E+09
         0.10456E+09
        -0.66799E+08
        -0.14822E+09
        -0.14178E+09
        -0.28450E+09
        -0.26393E+09
        -0.27567E+09
        -0.16740E+09
        -0.51497E+08
        -0.21073E+09
        -0.14117E+09
        -0.33447E+09
        -0.71683E+08
        -0.94672E+08
        -0.14024E+09
        -0.12273E+09
        -0.13106E+09
        -0.20049E+09
        -0.11668E+09
        -0.18861E+09
        -0.10925E+09
        -0.20415E+09
        -0.19453E+09
         0.58356E+08
        -0.12027E+09
        -0.31508E+09
        -0.47714E+09
        -0.27812E+09
        -0.36874E+08
        -0.15425E+09
        -0.30667E+09
        -0.90597E+08
        -0.12082E+09
        -0.23409E+09
        -0.20616E+09
        -0.96010E+08
        -0.16697E+09
        -0.17489E+09
        -0.13165E+09
        -0.12757E+09
        -0.16627E+09
        -0.25715E+09
        -0.11177E+09
        -0.22285E+09
        -0.19000E+09
        -0.69823E+08
        -0.14854E+09
         0.23172E+08
        -0.21973E+09
        -0.61929E+08
        -0.89567E+08
        -0.20589E+08
        -0.13482E+09
        -0.23475E+09
        -0.14204E+09
        -0.25290E+09
        -0.39894E+08
        -0.74807E+08
         0.13896E+08
        -0.16151E+09
        -0.37550E+08
        -0.13533E+09
        -0.12315E+09
        -0.10510E+09
        -0.16821E+09
        -0.11877E+09
        -0.79353E+08
        -0.11566E+09
        -0.35740E+09
        -0.18627E+09
        -0.75153E+08
        -0.12270E+09
        -0.18043E+09
        -0.13064E+09
        -0.12897E+09
        -0.20464E+09
        -0.76910E+08
        -0.82647E+08
        -0.27420E+09
        -0.22546E+08
        -0.15024E+09
        -0.82730E+07
        -0.19593E+09
        -0.16138E+09
        -0.11328E+09
        -0.23693E+09
        -0.36965E+08
        -0.11496E+09
        -0.13501E+09
        -0.15164E+09
         0.35526E+08
        -0.88373E+08
        -0.30081E+09
        -0.22665E+09
        -0.22948E+09
        -0.39063E+08
        -0.27054E+08
        -0.15936E+09
        -0.18990E+09
        -0.36602E+09
        -0.21861E+09
         0.10854E+07
        -0.21602E+09
        -0.25566E+09
        -0.22522E+09
         0.42349E+08
         0.17408E+09
        -0.23674E+08
        -0.24201E+09
        -0.16478E+09
        -0.85876E+08
        -0.15113E+09
         0.17293E+08
        -0.12205E+09
        -0.17751E+09
        -0.12861E+09
        -0.11259E+09
        -0.17656E+09
        -0.29102E+09
        -0.61387E+08
        -0.24464E+09
        -0.17828E+09
        -0.18189E+09
        -0.52349E+08
         0.14026E+08
        -0.43416E+08
        -0.12065E+09
        -0.41562E+08
        -0.61806E+08
         0.10962E+08
        -0.14558E+09
        -0.34595E+09
        -0.14543E+09
        -0.15391E+09
        -0.16795E+09
        -0.19591E+09
        -0.22317E+09
        -0.19318E+09
        -0.91272E+08
        -0.17296E+09
        -0.16330E+09
        -0.19351E+09
        -0.30558E+09
        -0.18837E+09
        -0.19004E+09
        -0.16947E+09
        -0.12816E+09
        -0.17201E+09
        -0.23239E+09
        -0.21488E+09
        -0.30475E+09
        -0.23197E+09
        -0.19864E+09
        -0.30390E+09
        -0.21937E+09
        -0.24939E+09
        -0.62384E+08
        -0.11431E+08
        -0.21915E+09
        -0.12140E+09
        -0.65943E+08
        -0.10796E+09
        -0.21541E+09
        -0.20585E+09
        -0.20905E+09
        -0.27972E+09
        -0.16875E+09
        -0.34947E+09
        -0.12761E+09
        -0.26865E+09
        -0.22650E+09
        -0.10424E+09
        -0.14241E+09
        -0.31032E+09
        -0.22747E+09
        -0.18526E+09
        -0.10509E+09
        -0.17105E+09
        -0.21876E+09
        -0.60332E+08
        -0.19201E+09
        -0.19588E+09
        -0.24476E+09
        -0.26318E+09
        -0.23165E+09
        -0.26256E+09
        -0.14569E+09
        -0.21866E+09
        -0.12841E+09
        -0.69765E+08
        -0.42136E+08
        -0.23233E+09
        -0.12321E+09
        -0.46145E+08
         0.26117E+07
        -0.25165E+09
         0.10198E+09
        -0.21917E+09
         0.39178E+08
        -0.65042E+08
        -0.10033E+09
        -0.76740E+08
        -0.14818E+09
        -0.10835E+09
        -0.17954E+09
        -0.47423E+08
        -0.15614E+09
        -0.26576E+09
        -0.11754E+09
        -0.17023E+09
        -0.16415E+09
        -0.28486E+09
        -0.11261E+09
        -0.15213E+09
        -0.19961E+09
        -0.24108E+09
        -0.14661E+09
        -0.19333E+09
        -0.95998E+08
        -0.93729E+08
        -0.49724E+07
        -0.13122E+09
        -0.12722E+09
        -0.12959E+09
        -0.12946E+09
        -0.20015E+09
        -0.18243E+09
        -0.65040E+08
        -0.11090E+08
        -0.15174E+08
        -0.12987E+09
        -0.15092E+09
        -0.11959E+09
        -0.83941E+08
        -0.26011E+09
        -0.15680E+09
        -0.19702E+09
        -0.16547E+09
        -0.22000E+09
        -0.24800E+09
        -0.21325E+09
        -0.26239E+09
        -0.20953E+09
        -0.20006E+09
        -0.12195E+09
        -0.65191E+08
        -0.80182E+08
        -0.97619E+08
        -0.12558E+09
        -0.18916E+09
        -0.11989E+09
        -0.65702E+08
        -0.16290E+09
        -0.80138E+08
        -0.84995E+08
        -0.23657E+09
        -0.12790E+09
        -0.52104E+08
        -0.20152E+09
        -0.30465E+09
        -0.30323E+09
        -0.55845E+08
         0.85130E+08
        -0.41498E+08
        -0.14329E+09
        -0.14511E+09
        -0.76184E+08
        -0.16567E+09
        -0.20895E+09
        -0.11935E+09
        -0.13256E+08
        -0.26444E+09
        -0.15892E+09
        -0.22398E+09
        -0.36180E+09
        -0.11068E+09
        -0.28079E+09
        -0.23092E+09
        -0.70296E+08
        -0.17372E+09
        -0.12644E+09
        -0.10559E+09
        -0.25384E+09
        -0.91879E+08
         0.87177E+08
         0.23258E+08
        -0.18177E+09
        -0.21878E+09
        -0.89323E+08
        -0.20394E+08
        -0.18205E+09
        -0.11092E+09
        -0.15825E+09
        -0.10601E+09
        -0.10802E+09
        -0.13146E+09
        -0.14794E+09
        -0.25243E+09
        -0.31595E+09
        -0.26945E+09
        -0.15151E+09
        -0.14835E+09
        -0.85991E+08
        -0.10911E+09
        -0.47138E+08
        -0.17922E+09
        -0.27599E+09
        -0.10227E+09
        -0.20481E+09
        -0.20627E+09
        -0.10444E+09
        -0.13578E+09
        -0.10895E+09
        -0.13565E+09
        -0.27472E+09
        -0.17467E+09
        -0.62590E+08
        -0.10017E+09
        -0.16488E+09
        -0.18172E+09
        -0.11706E+09
        -0.18073E+09
        -0.16596E+09
        -0.23999E+09
        -0.10386E+09
        -0.19020E+09
        -0.11436E+09
        -0.87009E+08
        -0.24211E+09
        -0.22640E+09
        -0.17472E+09
        -0.22315E+09
        -0.21073E+09
        -0.16187E+09
        -0.15031E+09
        -0.50535E+08
        -0.58700E+08
        -0.94472E+08
        -0.25019E+09
        -0.27572E+09
        -0.22746E+09
        -0.19749E+09
         0.32482E+07
        -0.16914E+09
        -0.14944E+09
        -0.16018E+09
         0.38592E+07
        -0.15718E+09
        -0.12699E+09
         0.31321E+08
        -0.18095E+09
        -0.26245E+08
        -0.11348E+08
        -0.10549E+09
        -0.58705E+08
         0.44412E+08
        -0.95240E+08
        -0.15465E+08
        -0.52303E+08
        -0.17022E+09
        -0.12202E+09
        -0.15800E+09
        -0.17340E+09
        -0.13249E+09
        -0.66770E+08
        -0.17487E+09
        -0.18741E+09
        -0.18623E+09
        -0.17171E+08
        -0.94957E+08
        -0.18192E+09
        -0.61819E+08
        -0.16325E+09
        -0.12959E+09
        -0.62150E+08
        -0.80108E+07
        -0.33013E+08
        -0.39220E+08
        -0.12399E+09
        -0.19546E+09
        -0.16627E+09
        -0.53816E+08
        -0.16300E+09
         0.60728E+08
        -0.19014E+07
         0.62568E+08
        -0.27797E+08
        -0.31108E+08
        -0.13229E+09
        -0.11854E+09
        -0.19461E+09
        -0.11344E+09
        -0.14397E+09
        -0.13096E+09
         0.38531E+06
        -0.55233E+08
        -0.70084E+08
        -0.75734E+08
        -0.16086E+09
        -0.27389E+09
        -0.11392E+09
        -0.13170E+09
        -0.20913E+09
        -0.22666E+09
        -0.16483E+09
        -0.15195E+09
        -0.14285E+09
        -0.10834E+09
        -0.13307E+09
        -0.12611E+09
        -0.99343E+08
        -0.18703E+09
        -0.23643E+09
        -0.21903E+09
        -0.24942E+09
        -0.22998E+09
        -0.22723E+09
        -0.14788E+09
        -0.11010E+09
        -0.14019E+09
        -0.19780E+09
        -0.18465E+09
        -0.14520E+09
        -0.15652E+09
        -0.20214E+09
        -0.13529E+09
        -0.19309E+09
        -0.27433E+09
        -0.13036E+09
        -0.26314E+09
        -0.15513E+09
        -0.20895E+09
        -0.10008E+09
        -0.23080E+09
        -0.12138E+09
        -0.14990E+09
        -0.17064E+09
        -0.17205E+09
        -0.17404E+09
        -0.23502E+08
         0.26192E+08
        -0.12990E+09
        -0.12370E+09
        -0.14964E+09
        -0.22131E+09
        -0.15936E+09
        -0.13415E+09
        -0.15814E+09
        -0.18088E+09
        -0.10877E+09
        -0.48379E+08
        -0.15631E+09
        -0.32202E+08
        -0.11708E+09
        -0.21602E+09
        -0.21720E+09
        -0.56266E+08
        -0.10674E+09
        -0.71729E+08
        -0.13658E+09
        -0.10175E+09
        -0.44509E+08
        -0.10536E+09
        -0.29850E+07
        -0.95149E+08
        -0.99425E+08
        -0.89927E+08
        -0.57676E+08
        -0.16277E+09
        -0.13861E+09
        -0.15064E+09
        -0.19183E+09
        -0.21283E+09
        -0.14248E+09
        -0.49313E+08
        -0.91371E+08
        -0.20373E+09
        -0.23507E+09
        -0.10089E+09
        -0.82784E+08
         0.43263E+08
        -0.71948E+08
        -0.75031E+08
        -0.17316E+09
        -0.16536E+09
        -0.10063E+09
        -0.12371E+09
        -0.13423E+09
        -0.97357E+08
        -0.15139E+09
        -0.11541E+09
        -0.74386E+08
        -0.12507E+09
        -0.17632E+09
        -0.21411E+09
        -0.14517E+09
        -0.14468E+09
        -0.18356E+09
         0.21448E+08
        -0.21338E+09
        -0.99841E+08
        -0.24440E+08
        -0.11926E+09
        -0.25126E+09
         0.90963E+08
         0.54480E+08
        -0.90438E+08
        -0.31802E+08
         0.83934E+08
         0.28542E+08
        -0.46190E+08
        -0.17915E+08
        -0.13474E+09
        -0.94154E+08
        -0.15545E+08
        -0.15475E+09
        -0.98003E+08
        -0.16215E+09
        -0.59592E+08
        -0.29434E+08
        -0.12649E+09
        -0.94096E+08
        -0.13970E+09
        -0.22460E+09
         0.43815E+08
        -0.62905E+08
        -0.12974E+09
        -0.37842E+07
        -0.12414E+09
        -0.73121E+08
        -0.13797E+09
        -0.13574E+08
        -0.92022E+08
         0.42357E+08
        -0.31135E+09
        -0.29039E+09
        -0.14087E+09
        -0.15422E+09
        -0.22791E+09
         0.35200E+08
        -0.41115E+08
        -0.72896E+08
        -0.64793E+08
        -0.86695E+08
        -0.20734E+09
        -0.16235E+09
        -0.18857E+09
        -0.10493E+09
        -0.44628E+08
        -0.35099E+08
         0.14264E+08
         0.39396E+07
        -0.77693E+08
        -0.10665E+09
        -0.87577E+08
        -0.84245E+08
        -0.15319E+09
        -0.10266E+09
        -0.28271E+09
        -0.30245E+09
        -0.12312E+09
        -0.10517E+09
        -0.10044E+09
        -0.93120E+08
        -0.17721E+09
        -0.15869E+09
        -0.14547E+09
        -0.15808E+09
        -0.17749E+09
        -0.23543E+09
        -0.13611E+09
        -0.77592E+08
        -0.24365E+09
        -0.24457E+09
        -0.20207E+09
        -0.16456E+09
        -0.26054E+09
        -0.18817E+09
        -0.25044E+09
        -0.99406E+08
        -0.11012E+09
        -0.51723E+08
        -0.14294E+09
        -0.18571E+09
        -0.15793E+09
        -0.34480E+08
        -0.14083E+08
        -0.81942E+08
        -0.81194E+08
        -0.18603E+09
        -0.81098E+08
        -0.31101E+08
        -0.95544E+08
        -0.16739E+09
        -0.31282E+09
        -0.28672E+09
        -0.78865E+08
        -0.16450E+09
        -0.20968E+09
        -0.23171E+09
        -0.30978E+09
        -0.21229E+09
         0.18010E+08
        -0.19037E+07
        -0.65573E+08
         0.98236E+07
        -0.85576E+08
        -0.69718E+08
        -0.53853E+07
         0.26115E+08
         0.20091E+08
        -0.40127E+07
        -0.51174E+08
        -0.76974E+08
        -0.16479E+08
        -0.26792E+07
        -0.10858E+08
         0.10865E+09
         0.82930E+07
         0.98192E+08
        -0.95577E+08
        -0.75860E+08
        -0.62768E+08
        -0.45876E+08
        -0.58031E+08
        -0.23952E+08
         0.46594E+07
         0.37338E+08
        -0.60589E+08
        -0.55242E+08
        -0.10671E+07
        -0.36572E+08
        -0.46373E+08
        -0.86634E+08
        -0.36861E+08
         0.18453E+08
        -0.63788E+08
        -0.10992E+09
        -0.81729E+07
        -0.87819E+08
        -0.17376E+09
        -0.93486E+08
        -0.98138E+08
        -0.41880E+08
        -0.19262E+08
        -0.42823E+08
        -0.83193E+08
        -0.85745E+08
        -0.14081E+09
        -0.20218E+09
        -0.25163E+09
        -0.15321E+09
        -0.57737E+08
        -0.12284E+08
         0.50347E+08
        -0.14904E+09
        -0.21016E+08
        -0.14868E+09
        -0.22149E+09
        -0.88639E+08
        -0.16257E+09
        -0.38179E+08
        -0.51298E+08
        -0.11751E+09
        -0.13406E+09
        -0.56021E+08
        -0.13910E+09
        -0.24757E+09
        -0.59127E+08
        -0.17458E+09
        -0.15716E+09
         0.49470E+08
         0.48418E+08
         0.12637E+09
         0.13616E+09
         0.47435E+08
        -0.65417E+08
        -0.47666E+08
         0.38996E+08
        -0.50343E+08
        -0.51768E+08
        -0.67751E+08
        -0.76481E+08
        -0.59240E+08
        -0.97195E+08
        -0.16484E+09
        -0.11725E+09
        -0.24176E+08
        -0.14671E+09
        -0.67902E+08
        -0.14155E+09
        -0.18981E+09
        -0.18673E+09
        -0.11420E+09
        -0.13138E+09
        -0.69823E+08
        -0.78780E+08
        -0.14480E+09
        -0.12633E+09
        -0.19373E+08
        -0.11234E+09
        -0.70468E+08
        -0.14215E+09
        -0.14671E+09
        -0.72954E+08
        -0.99903E+08
        -0.83478E+08
        -0.63074E+08
        -0.13208E+09
        -0.35722E+08
        -0.43194E+08
        -0.30079E+08
        -0.42891E+08
        -0.16628E+08
        -0.77078E+08
        -0.75357E+08
        -0.87489E+08
        -0.14938E+09
        -0.11745E+09
        -0.13263E+09
        -0.21665E+09
        -0.16465E+09
        -0.90333E+08
        -0.14302E+09
        -0.92723E+08
        -0.61588E+08
        -0.63261E+08
        -0.13510E+09
        -0.15943E+09
        -0.11941E+09
        -0.13634E+09
        -0.14853E+09
        -0.10605E+09
        -0.16518E+09
        -0.28101E+09
        -0.17474E+09
        -0.16892E+09
        -0.10513E+09
         0.49417E+08
         0.16035E+08
        -0.11405E+09
         0.88453E+08
        -0.47449E+08
        -0.23875E+08
        -0.15912E+09
        -0.47023E+08
        -0.39700E+08
         0.98047E+08
         0.63760E+08
        -0.22107E+09
        -0.18354E+09
        -0.18626E+09
        -0.15130E+09
        -0.51771E+08
        -0.16755E+09
        -0.12418E+09
        -0.18134E+09
        -0.19594E+09
         0.12584E+09
        -0.69981E+07
        -0.23365E+08
         0.50113E+07
         0.61941E+08
         0.92528E+08
         0.60980E+08
         0.16431E+09
         0.17527E+09
         0.72634E+08
         0.70785E+08
         0.23391E+08
         0.22007E+08
         0.81992E+08
        -0.37609E+08
         0.11633E+09
         0.18140E+09
         0.12289E+09
         0.14178E+09
         0.99904E+08
        -0.13961E+08
        -0.88044E+08
        -0.25493E+08
         0.46539E+08
         0.62707E+08
        -0.23005E+08
         0.62137E+08
         0.57752E+08
         0.74592E+08
         0.36747E+08
         0.25796E+08
        -0.20234E+08
         0.53844E+08
         0.38006E+08
        -0.74340E+07
        -0.25656E+08
        -0.57302E+08
        -0.27947E+08
         0.16848E+08
         0.16974E+08
         0.78287E+08
         0.21644E+08
        -0.78147E+08
        -0.58250E+08
        -0.33806E+07
         0.46466E+08
        -0.24043E+08
        -0.26145E+08
        -0.16918E+08
        -0.60708E+07
         0.50512E+08
         0.81467E+08
        -0.14029E+08
         0.11851E+09
         0.51825E+08
         0.57709E+08
        -0.47235E+08
        -0.47870E+08
        -0.99162E+08
        -0.21008E+09
        -0.23555E+08
        -0.24820E+09
        -0.11533E+09
        -0.98767E+08
        -0.19236E+09
        -0.88448E+08
        -0.14717E+09
        -0.32110E+09
        -0.10671E+09
         0.55046E+08
         0.40447E+08
         0.12457E+08
         0.13935E+09
        -0.68637E+07
         0.29740E+08
         0.11851E+09
         0.84057E+08
         0.79379E+08
        -0.74952E+08
        -0.16115E+09
        -0.80131E+08
        -0.36494E+08
        -0.48696E+08
        -0.86994E+08
        -0.15254E+09
        -0.10005E+09
        -0.19619E+09
        -0.41874E+08
        -0.18040E+09
        -0.14392E+09
        -0.10399E+09
        -0.11716E+09
        -0.13378E+09
        -0.86975E+07
        -0.93778E+08
         0.21697E+08
        -0.35783E+08
        -0.56088E+08
        -0.19620E+08
        -0.69244E+08
         0.58530E+07
        -0.97641E+07
         0.11598E+08
        -0.43082E+07
        -0.64076E+08
        -0.81408E+08
        -0.15084E+09
        -0.70637E+08
        -0.73233E+07
        -0.22027E+08
        -0.29806E+08
        -0.66566E+08
        -0.66099E+08
        -0.12431E+09
        -0.17714E+09
        -0.10082E+09
        -0.19163E+09
        -0.18923E+09
        -0.98830E+08
        -0.16130E+09
        -0.90623E+08
        -0.37627E+08
        -0.83545E+08
        -0.47653E+08
        -0.28545E+08
        -0.29275E+08
        -0.55662E+08
        -0.10339E+09
        -0.75348E+08
        -0.85266E+08
        -0.91504E+08
        -0.10900E+09
         0.12324E+09
         0.61984E+08
         0.29071E+08
         0.91286E+08
         0.83513E+08
         0.11364E+09
         0.47390E+08
        -0.10467E+07
         0.81220E+08
        -0.75127E+08
         0.13792E+09
        -0.83306E+08
         0.13215E+09
         0.20263E+09
        -0.32217E+08
        -0.64115E+08
         0.10567E+09
        -0.77758E+08
        -0.82834E+08
        -0.30120E+07
        -0.25401E+08
        -0.58584E+07
         0.21565E+08
        -0.10894E+09
         0.25440E+07
         0.13371E+09
         0.68508E+08
        -0.85179E+08
         0.19864E+09
         0.66720E+08
         0.14386E+09
         0.35613E+08
        -0.17646E+09
        -0.54556E+08
        -0.33612E+08
        -0.10452E+08
         0.15981E+09
        -0.84235E+08
        -0.54178E+08
         0.27371E+09
         0.35803E+08
         0.48701E+08
         0.11239E+09
         0.10235E+09
         0.95793E+08
         0.20101E+09
        -0.51763E+08
         0.64640E+08
        -0.19953E+08
         0.27219E+09
        -0.91173E+08
        -0.11000E+09
        -0.79079E+07
         0.53797E+08
         0.69846E+08
         0.22132E+09
        -0.10067E+09
         0.12350E+09
         0.22656E+09
         0.68412E+08
         0.15400E+09
         0.36443E+08
         0.51393E+08
         0.45577E+08
         0.68244E+08
         0.12751E+09
         0.16957E+09
         0.11968E+09
         0.18258E+09
         0.18126E+09
         0.19329E+09
         0.16663E+09
         0.31204E+08
         0.18423E+09
         0.25906E+09
         0.17086E+09
         0.10210E+09
         0.19887E+09
         0.35125E+08
        -0.53600E+08
         0.42222E+08
        -0.16712E+08
        -0.28522E+09
        -0.23094E+09
        -0.10652E+09
        -0.17023E+09
        -0.70555E+08
        -0.22964E+09
        -0.31173E+09
        -0.52353E+08
         0.62168E+08
        -0.69258E+08
         0.35318E+08
         0.33876E+08
         0.16482E+09
         0.19261E+09
         0.35429E+09
         0.30419E+09
         0.12815E+09
        -0.53507E+08
        -0.41896E+08
         0.20475E+09
  
SCALARS                      stress_yz  double 1
LOOKUP_TABLE default
         0.15447E+09
        -0.58906E+08
         0.37047E+08
         0.54079E+08
         0.19895E+09
         0.11109E+09
         0.35570E+08
         0.14333E+09
         0.34077E+08
         0.47569E+08
         0.47012E+08
        -0.45365E+07
        -0.45669E+08
         0.69696E+08
         0.21013E+07
         0.21572E+09
         0.17454E+09
         0.12022E+09
         0.28446E+09
         0.25222E+09
         0.11202E+09
        -0.26758E+08
        -0.75312E+08
         0.96317E+08
         0.16044E+09
         0.12831E+09
         0.64347E+07
         0.70886E+08
         0.95119E+07
         0.61174E+08
         0.90812E+08
         0.12044E+09
         0.14539E+09
         0.17232E+09
         0.28113E+09
         0.26978E+09
         0.27489E+07
         0.12125E+09
         0.60058E+08
         0.16340E+09
        -0.66979E+08
         0.12043E+07
         0.82713E+08
         0.24574E+08
         0.12381E+08
         0.82067E+08
         0.10844E+09
         0.77819E+08
         0.13361E+09
         0.22623E+09
         0.37334E+08
         0.15099E+09
         0.71766E+08
         0.10628E+09
         0.84975E+08
         0.10571E+09
        -0.54842E+08
         0.12933E+09
         0.82601E+08
         0.91591E+08
         0.19557E+08
         0.51158E+08
         0.12369E+09
         0.55341E+08
         0.78075E+08
         0.11617E+09
        -0.42527E+08
         0.10253E+09
        -0.65885E+08
         0.87037E+08
        -0.21772E+08
         0.61143E+08
        -0.39963E+07
         0.69564E+08
         0.64205E+08
         0.54997E+08
         0.26783E+08
        -0.19086E+08
        -0.11520E+09
         0.97801E+08
        -0.17391E+09
        -0.10169E+09
        -0.29951E+08
         0.81959E+08
         0.17460E+08
         0.36127E+08
        -0.83200E+07
         0.10401E+09
         0.34920E+08
        -0.95484E+08
         0.13436E+09
         0.66757E+08
        -0.42962E+08
         0.11333E+07
        -0.27731E+08
         0.38263E+08
         0.43359E+08
         0.33377E+07
         0.11748E+08
         0.50957E+08
        -0.66275E+08
        -0.77585E+07
         0.84073E+08
         0.32923E+08
        -0.10987E+09
         0.81969E+08
        -0.84697E+08
         0.16550E+09
        -0.12207E+09
        -0.11994E+09
         0.11602E+09
        -0.73066E+08
        -0.10550E+08
        -0.17127E+09
         0.13753E+09
        -0.13264E+09
        -0.10464E+09
        -0.80808E+08
        -0.15509E+08
        -0.41778E+08
        -0.75225E+08
         0.38520E+07
         0.28975E+08
        -0.28489E+08
         0.19543E+09
         0.28922E+08
        -0.24393E+08
         0.14799E+09
        -0.10874E+09
         0.29668E+08
         0.10603E+09
         0.10231E+09
         0.57439E+08
        -0.46392E+08
        -0.13093E+08
         0.89180E+07
         0.46395E+08
        -0.10285E+09
         0.15133E+08
         0.49268E+08
        -0.10534E+09
         0.12202E+09
         0.17607E+09
        -0.73362E+08
         0.10582E+09
        -0.39680E+08
         0.57841E+07
         0.82822E+08
         0.87421E+08
         0.42569E+08
        -0.64929E+08
         0.10222E+09
         0.18144E+09
         0.15346E+09
        -0.14921E+09
         0.90210E+08
         0.26864E+08
         0.10937E+09
         0.29440E+08
        -0.20645E+08
        -0.87211E+07
         0.43850E+08
        -0.29446E+08
        -0.26974E+08
         0.16890E+07
        -0.29008E+08
         0.24513E+08
         0.33678E+08
        -0.10089E+09
         0.82028E+07
         0.79897E+08
         0.53823E+08
        -0.44611E+08
        -0.81510E+08
        -0.55294E+08
        -0.74572E+08
         0.54777E+08
         0.42641E+08
        -0.41450E+08
         0.11730E+09
         0.71409E+08
         0.64678E+08
        -0.57963E+08
        -0.93988E+08
        -0.80161E+08
         0.90490E+08
         0.37376E+08
         0.47018E+08
         0.10937E+09
        -0.79702E+08
         0.21950E+08
         0.73699E+08
         0.13457E+08
         0.10849E+09
         0.49296E+08
         0.68423E+08
         0.32619E+08
         0.18452E+08
         0.50203E+08
        -0.19321E+09
        -0.24973E+08
         0.10947E+09
        -0.50597E+08
        -0.24401E+09
        -0.87055E+08
         0.46118E+08
        -0.82053E+08
         0.14916E+08
         0.10331E+09
         0.23859E+07
        -0.19417E+09
        -0.63767E+08
        -0.86980E+08
         0.19390E+08
        -0.15160E+09
        -0.31604E+08
         0.19877E+08
        -0.55493E+08
         0.79112E+08
        -0.59496E+08
         0.23714E+08
        -0.55696E+08
         0.44767E+08
        -0.13455E+08
         0.12233E+09
         0.32240E+08
        -0.15426E+09
         0.11326E+09
         0.11173E+09
        -0.11257E+09
        -0.33441E+07
        -0.16575E+08
         0.13467E+09
        -0.10906E+09
         0.69379E+07
        -0.31563E+07
        -0.10706E+09
        -0.28769E+08
        -0.23609E+07
         0.57116E+07
        -0.38103E+08
        -0.30752E+08
         0.28374E+08
        -0.43302E+08
        -0.80314E+08
         0.19716E+08
         0.35380E+08
        -0.80123E+08
         0.81026E+08
        -0.55466E+08
        -0.50806E+07
        -0.26374E+08
        -0.94290E+08
         0.46538E+08
         0.86755E+08
        -0.29319E+08
        -0.16514E+08
        -0.27575E+08
         0.54760E+08
         0.26819E+08
         0.26115E+08
        -0.13091E+09
        -0.10093E+09
         0.11920E+08
         0.10064E+09
         0.58761E+08
         0.12142E+09
        -0.61997E+08
         0.32306E+08
         0.28318E+08
         0.14251E+09
         0.10291E+09
         0.11647E+09
         0.13340E+09
         0.12083E+09
         0.16118E+09
        -0.58253E+08
        -0.15284E+09
        -0.14646E+09
         0.42696E+08
        -0.14039E+08
        -0.19713E+09
        -0.81981E+08
         0.67592E+08
        -0.11703E+09
        -0.59634E+08
         0.40849E+08
        -0.11281E+09
         0.16416E+08
        -0.54453E+08
        -0.17673E+09
         0.46630E+08
         0.37226E+08
        -0.50050E+08
         0.90164E+08
        -0.12318E+09
        -0.19796E+09
        -0.94979E+07
         0.16828E+09
        -0.87325E+08
         0.48697E+08
        -0.20921E+08
         0.18912E+09
         0.12972E+09
         0.69750E+08
         0.13432E+09
         0.34338E+08
        -0.11216E+09
        -0.51458E+08
         0.77452E+08
         0.12100E+09
         0.28681E+08
        -0.29299E+08
        -0.61624E+08
        -0.55566E+08
        -0.24192E+08
         0.40195E+08
        -0.16499E+08
         0.43341E+08
        -0.22539E+08
         0.52959E+08
        -0.71246E+08
        -0.38558E+08
         0.25514E+08
         0.91533E+08
        -0.13152E+08
        -0.34495E+08
        -0.81399E+08
        -0.37259E+08
        -0.19244E+08
        -0.16242E+08
         0.47379E+08
        -0.87048E+07
        -0.69759E+08
         0.87738E+08
         0.57120E+08
        -0.33541E+08
         0.45064E+08
         0.83652E+08
         0.39806E+08
        -0.19104E+08
         0.40208E+08
         0.47078E+08
         0.80551E+08
         0.18773E+07
         0.32403E+06
         0.92811E+08
         0.40005E+08
         0.11551E+09
        -0.79401E+08
         0.25748E+08
         0.54568E+08
         0.21186E+07
         0.10191E+09
        -0.17991E+08
        -0.53424E+08
        -0.17839E+09
        -0.75939E+07
         0.31115E+08
        -0.33094E+08
        -0.19842E+08
         0.90037E+08
        -0.10055E+09
        -0.39364E+08
        -0.14891E+08
        -0.12232E+09
        -0.71182E+06
         0.56719E+08
        -0.58177E+08
        -0.50949E+08
         0.14219E+09
         0.11870E+09
         0.21317E+09
        -0.60350E+08
         0.85895E+08
        -0.12676E+09
         0.49832E+08
        -0.81785E+07
         0.71447E+08
        -0.57444E+08
         0.11044E+08
        -0.23718E+08
         0.40980E+07
        -0.46942E+07
        -0.16966E+09
        -0.10818E+09
        -0.11549E+09
        -0.23345E+08
         0.78234E+07
         0.72562E+08
        -0.60705E+08
        -0.13262E+08
        -0.19139E+08
        -0.47290E+08
         0.68072E+08
         0.29275E+08
         0.12666E+09
         0.59800E+08
         0.74516E+08
        -0.40633E+08
         0.33323E+08
        -0.99130E+08
         0.42066E+08
         0.88031E+07
        -0.70369E+08
        -0.10727E+09
         0.13812E+08
         0.12781E+08
        -0.37900E+08
         0.59166E+08
        -0.86824E+08
        -0.72101E+07
         0.57149E+08
        -0.10348E+09
        -0.10284E+09
        -0.66318E+07
         0.77597E+08
         0.49671E+08
        -0.52658E+08
         0.59444E+08
         0.62141E+08
         0.42926E+08
        -0.38381E+08
        -0.42272E+08
         0.84462E+08
         0.59846E+06
         0.23994E+08
        -0.10198E+09
         0.27036E+08
         0.48641E+08
        -0.10173E+08
        -0.37679E+08
         0.78157E+08
         0.25511E+08
        -0.77803E+08
        -0.89900E+08
        -0.43385E+08
         0.19303E+08
         0.12636E+09
         0.49236E+08
        -0.14248E+09
         0.10910E+08
        -0.38788E+08
        -0.13985E+09
        -0.66236E+08
         0.14576E+09
         0.23820E+08
        -0.75678E+06
         0.25242E+09
         0.11214E+09
        -0.24687E+08
        -0.13335E+08
         0.19018E+09
        -0.86212E+08
         0.11185E+09
        -0.21891E+07
         0.95452E+08
        -0.11099E+09
        -0.83248E+08
        -0.10751E+09
         0.16322E+07
        -0.19370E+09
        -0.18818E+09
        -0.19552E+09
         0.11185E+08
        -0.22212E+08
         0.34030E+08
        -0.50059E+08
        -0.30547E+08
         0.91450E+08
         0.68944E+07
        -0.40881E+08
        -0.31566E+08
        -0.59030E+07
         0.87730E+08
         0.42517E+08
         0.12773E+09
         0.67217E+07
         0.29033E+08
        -0.21523E+09
         0.81918E+08
         0.77230E+08
        -0.70888E+08
        -0.12389E+09
         0.64837E+08
        -0.71880E+06
        -0.13087E+09
        -0.12805E+07
        -0.46059E+08
         0.59774E+08
         0.59629E+08
        -0.19701E+09
        -0.10126E+08
        -0.52716E+08
         0.15757E+09
         0.44256E+08
        -0.15405E+08
         0.10861E+08
         0.12630E+08
         0.85472E+08
        -0.89708E+08
        -0.97534E+08
         0.52792E+08
        -0.15034E+08
         0.84498E+08
        -0.97004E+08
        -0.10583E+09
        -0.14232E+08
         0.86244E+08
        -0.26673E+08
        -0.95456E+08
         0.16019E+08
         0.12410E+08
        -0.97064E+08
        -0.75446E+08
         0.10071E+09
         0.18379E+09
         0.19293E+08
        -0.15784E+09
         0.18981E+08
         0.10027E+09
        -0.46005E+08
        -0.73272E+08
         0.12124E+09
         0.10542E+09
         0.38693E+08
         0.15348E+09
         0.91750E+08
         0.11844E+09
         0.13925E+09
         0.13126E+09
        -0.41966E+08
         0.95636E+08
        -0.47778E+08
        -0.16854E+08
        -0.14555E+08
        -0.28643E+08
        -0.20288E+09
         0.50375E+08
        -0.22324E+09
        -0.22369E+09
        -0.23349E+09
        -0.10079E+08
        -0.45231E+08
        -0.73858E+08
         0.53515E+07
        -0.76473E+08
         0.76249E+08
         0.12485E+09
         0.47959E+08
         0.48969E+08
        -0.16853E+08
         0.94803E+08
        -0.71890E+08
        -0.27813E+08
        -0.48580E+08
         0.26520E+08
        -0.51293E+08
         0.51751E+08
         0.13631E+09
         0.13504E+09
        -0.70443E+08
         0.75869E+07
        -0.79853E+08
         0.51795E+07
         0.93758E+08
        -0.10019E+09
         0.90577E+08
        -0.22769E+08
        -0.10937E+09
         0.56526E+08
        -0.24071E+08
         0.15288E+09
         0.75739E+08
        -0.87663E+07
         0.73829E+08
         0.30025E+07
         0.61966E+08
        -0.10060E+09
        -0.88066E+08
         0.15405E+09
         0.10622E+07
        -0.23752E+08
        -0.47937E+08
        -0.17418E+09
         0.20048E+08
         0.82535E+08
        -0.86992E+08
        -0.31417E+07
         0.38691E+08
        -0.31834E+08
        -0.79578E+08
         0.91661E+07
         0.11398E+09
         0.11069E+09
        -0.48678E+08
        -0.20034E+09
        -0.45186E+08
         0.70877E+08
        -0.11270E+09
        -0.69155E+08
         0.12740E+09
         0.11953E+09
         0.80567E+08
         0.11646E+09
         0.94177E+08
         0.14606E+09
         0.10348E+09
        -0.25645E+08
         0.48069E+08
         0.73590E+08
        -0.60560E+08
        -0.28263E+08
         0.29219E+08
        -0.40499E+08
        -0.18065E+09
         0.10563E+09
        -0.22201E+09
        -0.24697E+09
        -0.19230E+09
         0.80774E+08
        -0.56095E+08
         0.62137E+08
        -0.25254E+08
        -0.51873E+08
         0.15658E+08
         0.51261E+08
         0.60142E+08
        -0.40931E+08
        -0.89762E+08
         0.13413E+09
         0.53998E+08
        -0.16145E+08
         0.61716E+08
         0.10753E+09
        -0.85424E+08
        -0.54551E+07
         0.18561E+09
        -0.15103E+08
        -0.37188E+08
        -0.22378E+08
         0.53052E+08
         0.25666E+08
        -0.69818E+07
        -0.12700E+09
        -0.42125E+08
        -0.68205E+08
        -0.13616E+09
         0.10835E+09
        -0.11221E+09
         0.21446E+09
         0.15147E+09
         0.86070E+07
         0.69908E+08
        -0.12113E+09
        -0.87326E+08
        -0.16557E+09
        -0.63309E+08
         0.12272E+09
        -0.31888E+08
        -0.12969E+09
        -0.13419E+09
        -0.15970E+09
        -0.75682E+08
         0.21898E+08
         0.41751E+08
         0.40933E+08
         0.69379E+08
        -0.45896E+08
        -0.60310E+08
        -0.50282E+08
         0.90901E+08
         0.12326E+09
        -0.46330E+08
        -0.14963E+09
         0.10293E+08
         0.13426E+09
        -0.91368E+08
        -0.13374E+08
         0.13003E+09
         0.81476E+08
         0.27281E+08
         0.91783E+08
         0.10090E+09
         0.17514E+09
         0.12500E+09
        -0.53225E+08
         0.64349E+08
        -0.13834E+08
        -0.10385E+07
        -0.50668E+08
         0.12034E+09
         0.20769E+06
        -0.13202E+09
         0.57355E+08
        -0.21615E+09
        -0.21158E+09
        -0.15068E+09
         0.33058E+08
        -0.12247E+09
         0.40400E+08
         0.52637E+08
        -0.31906E+08
         0.10153E+08
         0.14385E+09
         0.87541E+08
         0.81974E+08
        -0.95332E+08
         0.11349E+09
         0.21521E+08
        -0.41401E+08
        -0.12801E+09
         0.15823E+09
         0.18983E+08
         0.79650E+08
         0.14342E+09
        -0.33205E+07
         0.25488E+08
        -0.14361E+09
         0.15656E+09
         0.39868E+08
        -0.90101E+08
         0.43983E+08
         0.58190E+08
         0.14192E+08
        -0.10479E+09
        -0.15876E+07
        -0.80130E+08
         0.11127E+09
         0.83170E+08
         0.74452E+08
         0.57736E+08
        -0.11328E+09
        -0.79649E+08
        -0.17437E+09
        -0.12806E+09
         0.20392E+09
        -0.12848E+08
        -0.15962E+09
        -0.13176E+09
        -0.15773E+09
        -0.37446E+08
         0.83220E+08
         0.46690E+08
         0.39268E+08
         0.99766E+08
        -0.48966E+08
        -0.68642E+08
        -0.28323E+08
         0.10462E+09
         0.79672E+08
        -0.82663E+08
        -0.11817E+09
         0.25128E+07
         0.72010E+08
        -0.74753E+08
        -0.83109E+08
         0.20137E+09
         0.16267E+09
         0.17769E+09
         0.11406E+09
         0.19252E+09
         0.19052E+09
         0.19504E+08
        -0.55557E+07
         0.51460E+08
        -0.68911E+07
        -0.82295E+08
         0.26173E+08
        -0.62173E+08
        -0.13371E+09
        -0.11877E+09
         0.63291E+08
        -0.19805E+09
        -0.15399E+09
        -0.10688E+09
         0.82044E+08
        -0.37762E+08
         0.44527E+08
         0.30528E+08
        -0.68046E+08
        -0.41519E+08
         0.96008E+08
         0.78867E+08
        -0.32880E+08
        -0.13318E+09
         0.41368E+08
         0.62219E+08
        -0.31797E+08
        -0.34049E+08
         0.95884E+08
        -0.58064E+08
         0.19283E+08
         0.15469E+09
        -0.86397E+08
         0.80228E+08
        -0.25793E+07
         0.15737E+09
         0.85982E+08
        -0.15899E+08
        -0.59522E+08
         0.50648E+08
        -0.13495E+09
        -0.22622E+09
         0.35260E+08
        -0.18359E+09
         0.18621E+09
         0.12396E+09
         0.18781E+08
         0.71566E+08
        -0.13433E+09
        -0.78329E+08
        -0.20208E+09
        -0.13252E+09
         0.14147E+09
         0.32559E+08
        -0.13137E+09
        -0.90140E+08
        -0.46845E+08
         0.35936E+07
         0.54015E+08
        -0.64952E+07
         0.22786E+08
         0.11711E+09
         0.23269E+08
        -0.25395E+08
         0.46029E+08
         0.14587E+09
         0.66824E+08
        -0.39957E+08
        -0.48720E+08
         0.18609E+08
         0.96648E+07
        -0.84386E+08
        -0.58877E+08
         0.19186E+09
         0.70003E+08
         0.95312E+08
         0.66795E+08
         0.17737E+09
         0.19046E+09
        -0.68024E+07
         0.48407E+07
         0.69108E+08
        -0.85760E+08
        -0.12676E+08
         0.52417E+08
         0.50781E+08
        -0.65568E+08
        -0.84886E+08
        -0.72631E+08
        -0.20418E+09
        -0.10353E+09
        -0.16657E+09
         0.14497E+08
        -0.10117E+09
         0.12404E+09
         0.44107E+08
        -0.65261E+08
        -0.29154E+08
         0.13598E+09
         0.91909E+08
         0.34413E+07
        -0.14084E+09
         0.96405E+08
         0.23298E+08
        -0.63183E+08
        -0.11656E+09
         0.10850E+09
        -0.22897E+08
         0.28768E+08
         0.11235E+09
        -0.59084E+08
         0.12295E+09
        -0.71838E+08
         0.17633E+09
         0.14126E+09
        -0.70005E+08
         0.21985E+08
         0.18311E+08
        -0.41437E+08
        -0.19461E+09
        -0.35702E+08
        -0.16950E+09
         0.12055E+09
         0.11547E+09
         0.86773E+07
         0.18800E+08
        -0.14839E+09
        -0.10681E+09
        -0.23065E+09
        -0.18394E+09
         0.14619E+09
         0.28592E+08
        -0.13532E+09
        -0.12083E+09
        -0.13269E+09
        -0.16927E+08
         0.85871E+08
         0.75977E+08
        -0.19448E+06
         0.11229E+09
         0.19474E+08
         0.81673E+07
         0.93676E+08
         0.12309E+09
         0.62664E+08
        -0.23853E+08
        -0.42366E+08
        -0.10391E+08
         0.13086E+09
        -0.57716E+08
        -0.39652E+08
         0.85634E+08
         0.10845E+09
         0.15107E+09
         0.32562E+08
         0.12875E+09
         0.16064E+09
         0.10389E+08
        -0.15437E+09
         0.51600E+08
        -0.24507E+08
        -0.47034E+06
         0.24806E+08
         0.53722E+08
        -0.38280E+08
        -0.77795E+08
        -0.47194E+08
        -0.18197E+09
        -0.87038E+08
        -0.96203E+08
         0.87335E+08
        -0.13818E+08
         0.49697E+08
         0.58743E+08
        -0.91847E+08
        -0.41851E+07
         0.11148E+09
         0.63427E+08
         0.15554E+08
        -0.75700E+08
         0.20578E+09
         0.84723E+08
        -0.46353E+08
        -0.10995E+09
         0.18702E+09
        -0.16852E+08
         0.59957E+08
         0.17064E+09
        -0.55917E+08
         0.10111E+09
        -0.25994E+06
         0.94943E+08
         0.42308E+08
        -0.17247E+08
        -0.93099E+08
         0.43899E+08
        -0.74830E+08
        -0.20394E+09
        -0.46546E+08
        -0.15372E+09
         0.14028E+09
         0.10372E+09
        -0.26721E+08
         0.56677E+08
        -0.15336E+09
        -0.65490E+08
        -0.22016E+09
        -0.13463E+09
         0.10728E+09
         0.33120E+08
        -0.92670E+08
        -0.68088E+08
        -0.23092E+08
         0.43265E+08
         0.75190E+08
         0.48403E+07
         0.40827E+08
         0.12115E+09
         0.37623E+08
        -0.16241E+08
         0.14291E+09
         0.13306E+09
         0.56400E+08
        -0.99795E+06
        -0.76071E+07
         0.64728E+08
         0.26617E+08
        -0.11269E+09
        -0.82390E+08
         0.85697E+08
         0.44762E+08
         0.46025E+08
         0.55618E+08
         0.21846E+09
         0.42939E+08
        -0.49312E+08
         0.21030E+08
         0.42242E+08
        -0.91175E+08
        -0.18674E+08
         0.98286E+08
         0.24655E+08
        -0.83889E+08
        -0.35963E+08
         0.45133E+08
        -0.19721E+09
        -0.99340E+08
        -0.18017E+09
        -0.67132E+08
        -0.85004E+08
         0.48346E+07
         0.54097E+07
        -0.65131E+08
        -0.77215E+08
         0.78093E+08
         0.65996E+08
        -0.26062E+08
        -0.12560E+09
         0.54458E+08
         0.17531E+08
        -0.16487E+08
        -0.10216E+09
         0.87164E+08
        -0.39119E+08
         0.19627E+07
         0.13675E+09
        -0.40601E+08
         0.15423E+09
         0.15797E+08
         0.21139E+09
         0.14406E+09
        -0.22501E+08
        -0.67502E+08
        -0.69035E+07
        -0.99230E+08
        -0.20629E+09
        -0.53112E+08
        -0.19194E+09
         0.15619E+09
         0.16447E+09
         0.16733E+08
        -0.37783E+07
        -0.14265E+09
        -0.47931E+08
        -0.16307E+09
        -0.15015E+09
         0.93389E+08
         0.13817E+08
        -0.13589E+09
        -0.65089E+08
        -0.11161E+08
         0.10050E+09
         0.74574E+08
         0.74367E+07
        -0.31828E+08
         0.45704E+08
        -0.80669E+07
         0.31624E+08
         0.13611E+09
         0.12713E+09
         0.95598E+08
         0.42669E+08
         0.18125E+08
        -0.61774E+07
         0.82339E+08
        -0.23885E+08
         0.16542E+07
         0.88240E+08
         0.14573E+09
         0.16216E+09
        -0.16573E+08
         0.17287E+09
        -0.32911E+08
         0.97789E+08
        -0.11326E+07
         0.42785E+08
        -0.32021E+08
        -0.19531E+08
         0.33578E+08
         0.41964E+08
        -0.41414E+08
        -0.11575E+09
        -0.36082E+08
        -0.21836E+09
        -0.13077E+09
        -0.18800E+09
        -0.14284E+08
         0.43204E+08
         0.59540E+08
         0.85113E+08
        -0.11594E+09
        -0.24198E+08
         0.11475E+09
         0.84730E+08
        -0.12729E+08
        -0.98223E+08
         0.13396E+09
         0.20602E+08
        -0.12862E+09
        -0.12979E+09
         0.11802E+09
        -0.10814E+09
         0.11322E+08
         0.16167E+09
        -0.77972E+08
         0.47965E+08
        -0.45520E+08
         0.90011E+08
         0.54182E+08
         0.17753E+08
        -0.45132E+08
         0.28612E+08
        -0.27912E+07
        -0.14757E+09
        -0.32372E+08
        -0.98709E+08
         0.14122E+09
         0.68522E+08
        -0.21649E+08
         0.69398E+08
        -0.13339E+09
         0.43542E+08
        -0.17963E+09
        -0.10591E+09
         0.96217E+08
         0.45950E+08
        -0.75008E+08
        -0.26438E+08
        -0.69949E+08
        -0.22081E+08
         0.64912E+07
        -0.78111E+06
         0.20759E+08
         0.19107E+09
         0.13266E+09
         0.32566E+08
         0.11619E+09
         0.95870E+08
         0.72220E+08
         0.40454E+08
         0.13833E+08
         0.19161E+08
         0.71014E+08
        -0.53597E+08
        -0.67359E+08
         0.68025E+08
         0.85724E+08
         0.40460E+08
        -0.49406E+08
         0.18452E+09
         0.51086E+08
         0.70390E+07
        -0.88135E+08
         0.66319E+08
        -0.55589E+08
        -0.13037E+08
         0.11663E+09
         0.43318E+08
        -0.11388E+09
        -0.11862E+09
         0.76171E+07
        -0.15934E+09
        -0.12858E+08
        -0.80009E+08
        -0.18838E+08
        -0.26968E+08
        -0.30719E+08
         0.49166E+08
        -0.69997E+08
        -0.69433E+08
         0.70383E+08
         0.13389E+09
        -0.18143E+08
        -0.44010E+08
         0.10822E+09
        -0.98437E+07
         0.60487E+07
        -0.11829E+09
         0.96944E+08
        -0.25168E+08
         0.64162E+08
         0.71924E+08
        -0.58135E+08
         0.16280E+09
        -0.29929E+07
         0.20802E+09
         0.86335E+08
        -0.59259E+07
        -0.10245E+09
         0.38074E+08
        -0.64162E+08
        -0.17345E+09
        -0.46153E+08
        -0.12419E+09
         0.10155E+09
         0.84163E+08
        -0.33290E+08
         0.23073E+08
        -0.10050E+09
         0.43923E+08
        -0.16774E+09
        -0.11411E+09
         0.45622E+08
        -0.20409E+08
        -0.14230E+09
        -0.15937E+09
        -0.91970E+08
         0.49743E+08
         0.11195E+09
        -0.11627E+08
         0.20095E+08
         0.91437E+08
         0.76710E+08
         0.39581E+08
         0.11936E+09
         0.84102E+08
         0.54405E+08
        -0.17780E+08
        -0.16975E+08
         0.44224E+08
         0.79048E+08
        -0.93000E+08
        -0.24628E+08
         0.71297E+08
         0.11664E+09
         0.14478E+09
        -0.29442E+08
         0.10930E+09
         0.17172E+08
         0.50822E+08
         0.13287E+09
         0.44950E+08
        -0.57882E+08
         0.15828E+08
        -0.18787E+08
         0.57722E+08
        -0.10452E+09
        -0.18818E+09
        -0.16372E+08
        -0.20290E+09
        -0.10353E+09
        -0.12500E+09
         0.27483E+08
        -0.16261E+08
         0.44773E+08
         0.73849E+08
        -0.10489E+09
        -0.61090E+08
         0.67483E+08
         0.99383E+08
         0.28953E+08
        -0.72337E+08
         0.83287E+08
        -0.29267E+08
        -0.10917E+09
        -0.12521E+09
         0.95034E+08
        -0.42005E+08
         0.52055E+08
         0.12998E+09
        -0.67954E+08
         0.11437E+09
        -0.76815E+08
         0.19068E+09
         0.37299E+08
        -0.44262E+08
        -0.46288E+08
         0.21392E+08
        -0.20426E+08
        -0.16227E+09
        -0.30643E+08
        -0.93447E+08
         0.15228E+09
         0.13777E+09
        -0.11105E+08
         0.44333E+08
        -0.63713E+08
         0.46390E+08
        -0.91318E+08
        -0.71063E+08
         0.96864E+08
         0.31116E+07
        -0.76418E+08
        -0.82095E+08
        -0.81104E+08
        -0.40988E+08
        -0.61660E+08
        -0.34966E+08
         0.34585E+08
         0.11846E+09
         0.82998E+08
         0.27893E+08
         0.97608E+08
         0.12024E+09
         0.64743E+08
         0.23989E+08
         0.45962E+07
         0.17980E+08
         0.94259E+08
        -0.67766E+08
        -0.48284E+08
         0.90034E+08
         0.14930E+08
        -0.66663E+08
        -0.22645E+08
         0.11563E+09
         0.11294E+08
        -0.39775E+08
        -0.21763E+08
         0.74151E+07
        -0.57723E+08
        -0.18458E+08
         0.13352E+09
         0.54524E+08
         0.32353E+07
        -0.25051E+08
         0.76231E+08
        -0.10505E+09
         0.40397E+08
        -0.13467E+09
         0.22045E+08
         0.69713E+08
         0.63367E+08
         0.39127E+08
        -0.51509E+08
        -0.88497E+08
         0.67122E+08
         0.10106E+09
         0.30654E+07
        -0.77384E+08
        -0.69447E+07
        -0.55707E+08
         0.79481E+07
        -0.11110E+09
         0.97278E+07
        -0.81075E+08
        -0.16265E+08
         0.61419E+08
        -0.52155E+08
         0.86693E+08
        -0.56733E+07
         0.16417E+09
         0.10165E+09
         0.18361E+08
        -0.23869E+08
         0.45448E+08
        -0.20574E+08
        -0.13336E+09
        -0.36649E+08
        -0.72786E+08
         0.15035E+09
         0.10771E+09
        -0.72890E+08
         0.25464E+08
        -0.10875E+09
         0.64202E+08
        -0.15764E+09
        -0.78099E+08
         0.72716E+08
         0.13489E+08
        -0.10277E+09
        -0.83512E+08
        -0.11745E+09
        -0.48535E+08
         0.11866E+08
        -0.43268E+08
         0.24854E+08
         0.13602E+09
         0.86518E+08
         0.35009E+08
         0.10789E+09
         0.76036E+08
         0.68310E+08
         0.37751E+08
        -0.10093E+08
         0.12054E+08
         0.58086E+08
        -0.10560E+09
        -0.27402E+08
         0.93767E+08
         0.95423E+08
         0.23387E+08
         0.15249E+08
         0.10983E+09
         0.40938E+08
         0.29683E+08
         0.70303E+08
         0.78022E+08
        -0.48212E+08
        -0.23041E+08
         0.28741E+08
         0.34410E+08
        -0.50046E+08
        -0.16323E+09
         0.10743E+09
        -0.15449E+09
        -0.66250E+08
        -0.15665E+09
         0.22953E+07
        -0.37621E+08
         0.65344E+08
         0.67147E+08
        -0.69942E+08
        -0.33037E+08
         0.50009E+08
         0.77351E+08
         0.13563E+08
        -0.54408E+08
         0.93743E+08
        -0.19451E+08
        -0.10617E+09
        -0.10787E+09
         0.83826E+08
        -0.35377E+08
         0.75264E+08
         0.89096E+08
        -0.59435E+08
         0.12800E+09
        -0.93590E+08
         0.14355E+09
         0.58825E+08
        -0.13893E+08
        -0.65862E+08
        -0.35031E+07
        -0.83621E+08
        -0.11622E+09
        -0.53698E+08
        -0.72006E+08
         0.10725E+09
         0.10366E+09
         0.30101E+08
         0.88724E+08
        -0.54672E+08
         0.47301E+08
        -0.12069E+09
        -0.76709E+08
         0.54469E+08
         0.40760E+07
        -0.57889E+08
        -0.69368E+08
        -0.98322E+08
         0.17639E+07
         0.13916E+08
         0.16742E+08
         0.32019E+08
         0.10656E+09
         0.59551E+08
        -0.30619E+08
         0.41982E+08
         0.60497E+08
         0.50308E+08
         0.26708E+08
        -0.69212E+08
        -0.55423E+07
         0.18629E+08
        -0.71957E+08
        -0.64443E+08
         0.89145E+08
         0.59943E+08
        -0.25263E+07
        -0.36293E+08
         0.18142E+09
         0.71152E+08
         0.46828E+08
        -0.18689E+08
        -0.47678E+08
        -0.65379E+08
        -0.34830E+08
         0.63960E+08
         0.31190E+08
        -0.64393E+08
        -0.11271E+09
         0.65201E+08
        -0.13589E+09
         0.34822E+08
        -0.13410E+09
         0.31188E+08
        -0.83500E+08
        -0.13018E+08
         0.79960E+08
        -0.72826E+08
        -0.61000E+08
         0.46793E+08
         0.87599E+08
         0.85885E+07
        -0.66283E+08
         0.42498E+08
        -0.26088E+08
        -0.25371E+08
        -0.10724E+09
        -0.20363E+07
        -0.11159E+09
         0.37613E+08
         0.51117E+08
        -0.12744E+09
         0.42110E+08
        -0.21185E+08
         0.14070E+09
         0.59591E+08
        -0.44156E+08
        -0.27516E+08
         0.16765E+08
        -0.74925E+08
        -0.14367E+09
        -0.19851E+08
        -0.86675E+08
         0.97505E+08
         0.13168E+09
        -0.20861E+08
         0.44930E+08
        -0.68501E+08
         0.29491E+08
        -0.91439E+08
        -0.10195E+09
         0.45356E+08
        -0.55656E+07
        -0.51779E+08
        -0.12606E+09
        -0.13513E+09
        -0.40467E+08
        -0.13046E+08
        -0.25728E+08
        -0.65884E+07
         0.10406E+09
         0.25150E+08
        -0.35881E+08
         0.68936E+08
         0.48551E+08
         0.48108E+08
         0.31220E+08
        -0.16291E+08
         0.11267E+08
         0.65041E+08
        -0.57196E+08
         0.13114E+08
         0.96797E+08
        -0.11900E+08
        -0.12188E+08
         0.31243E+08
         0.13343E+09
         0.44992E+08
        -0.99409E+07
         0.44073E+08
         0.74689E+08
        -0.21112E+08
         0.12494E+08
         0.10122E+09
         0.15219E+08
        -0.69921E+08
        -0.15883E+09
         0.12503E+09
        -0.83656E+08
         0.36214E+08
        -0.10272E+09
         0.68608E+08
         0.25354E+08
         0.25501E+08
         0.95860E+08
        -0.52953E+08
        -0.42579E+08
         0.48805E+07
         0.41248E+08
        -0.26584E+08
        -0.93038E+08
         0.50256E+08
        -0.30610E+08
        -0.47548E+08
        -0.94087E+08
         0.74647E+08
         0.44649E+08
         0.83213E+08
         0.80905E+08
        -0.21050E+08
         0.77079E+08
        -0.11410E+09
         0.17015E+09
         0.62941E+08
        -0.39295E+08
        -0.76460E+08
         0.19111E+08
        -0.13111E+09
        -0.14883E+09
        -0.19836E+08
        -0.93137E+08
         0.10761E+09
         0.12709E+09
         0.16403E+08
         0.41499E+08
        -0.74716E+08
        -0.20222E+07
        -0.13232E+09
        -0.13036E+09
         0.12197E+08
        -0.22349E+08
        -0.56451E+08
        -0.52750E+08
        -0.47833E+08
         0.18828E+08
         0.68250E+07
         0.12435E+08
         0.37619E+08
         0.90028E+08
        -0.10346E+08
        -0.70673E+08
         0.73871E+07
         0.90254E+07
        -0.70756E+07
        -0.21561E+08
        -0.12197E+09
        -0.60240E+08
         0.54541E+08
        -0.66578E+08
        -0.57948E+07
         0.34709E+08
        -0.10234E+08
         0.10557E+08
        -0.88759E+08
         0.15203E+09
         0.48916E+08
        -0.58237E+08
         0.76363E+06
        -0.73390E+06
        -0.10530E+09
        -0.48126E+08
         0.27120E+08
         0.34509E+08
        -0.54742E+08
        -0.15949E+09
         0.10002E+07
        -0.82552E+08
         0.46955E+08
        -0.12198E+09
         0.63090E+08
        -0.31396E+08
         0.18789E+08
         0.87383E+08
        -0.49855E+08
        -0.57452E+07
         0.10540E+09
         0.73648E+08
         0.71159E+08
        -0.56854E+08
         0.82281E+08
         0.43337E+08
        -0.60369E+08
        -0.88366E+08
         0.59470E+08
        -0.54223E+08
         0.44472E+08
         0.11176E+09
        -0.80602E+08
         0.54505E+08
        -0.68587E+08
         0.15119E+09
         0.66896E+08
         0.12938E+08
        -0.49679E+08
         0.38768E+08
        -0.11702E+09
        -0.14317E+09
        -0.88947E+07
        -0.87778E+08
         0.11541E+09
         0.95631E+08
        -0.29729E+08
         0.66709E+08
        -0.48009E+08
         0.25560E+08
        -0.69908E+08
        -0.11155E+09
         0.68713E+08
         0.11520E+08
        -0.53776E+08
        -0.79762E+08
        -0.10069E+09
        -0.20063E+08
        -0.64627E+07
        -0.32857E+08
         0.15872E+08
         0.13601E+09
         0.49946E+08
        -0.28383E+08
         0.55175E+08
         0.28900E+08
         0.27374E+08
         0.29303E+08
        -0.71131E+08
        -0.61621E+08
         0.16733E+08
        -0.57026E+08
        -0.98000E+08
         0.23692E+08
        -0.51063E+08
         0.13810E+08
         0.24511E+08
         0.16176E+09
         0.51262E+08
         0.11779E+08
         0.91151E+08
         0.53147E+08
        -0.36152E+08
        -0.42518E+08
         0.37127E+08
         0.39966E+08
        -0.57302E+08
        -0.17086E+09
         0.77936E+08
        -0.84182E+08
         0.86829E+08
        -0.12032E+09
         0.70252E+08
         0.61301E+08
         0.37450E+08
         0.74826E+08
        -0.13847E+08
        -0.13247E+08
         0.84866E+08
         0.81515E+08
         0.26906E+08
        -0.47785E+08
         0.74870E+08
         0.14062E+08
        -0.26790E+08
        -0.77070E+08
         0.48600E+08
        -0.36004E+08
         0.55452E+08
         0.15077E+09
        -0.35191E+08
         0.39992E+08
        -0.80628E+08
         0.14834E+09
         0.77291E+08
        -0.15373E+08
        -0.52289E+08
         0.37430E+08
        -0.12528E+09
        -0.16559E+09
        -0.20302E+08
        -0.11267E+09
         0.15518E+09
         0.14189E+09
        -0.26739E+08
         0.53593E+08
        -0.10490E+09
        -0.25210E+08
        -0.11425E+09
        -0.11286E+09
         0.31830E+08
        -0.17976E+08
        -0.62137E+08
        -0.66058E+08
        -0.95661E+08
         0.43314E+07
        -0.59343E+07
         0.34502E+07
         0.41894E+08
         0.10391E+09
         0.19604E+08
        -0.43584E+08
         0.32212E+08
         0.18729E+08
         0.51655E+08
         0.60896E+08
        -0.73404E+08
        -0.18331E+08
         0.63854E+07
        -0.80302E+08
        -0.48140E+08
         0.68607E+08
         0.42438E+07
         0.44794E+08
        -0.19771E+08
         0.16570E+09
        -0.10933E+08
        -0.45081E+08
         0.93298E+07
         0.33607E+08
        -0.56996E+08
        -0.11544E+08
         0.10045E+09
         0.21849E+08
        -0.93974E+08
        -0.14645E+09
         0.11097E+09
        -0.42843E+08
         0.77905E+08
        -0.16885E+09
         0.46108E+08
        -0.22654E+08
         0.28693E+08
         0.89488E+08
        -0.84909E+08
        -0.18775E+08
         0.60502E+08
         0.48519E+08
         0.31622E+08
        -0.78702E+08
         0.79387E+08
         0.85261E+07
        -0.44934E+08
        -0.89894E+08
         0.51042E+08
        -0.62312E+08
         0.68899E+08
         0.11318E+09
        -0.60648E+08
         0.67145E+08
        -0.78863E+08
         0.16235E+09
         0.91944E+08
        -0.63153E+08
        -0.55277E+08
         0.20538E+08
        -0.62170E+08
        -0.12966E+09
        -0.22137E+08
        -0.61667E+08
         0.15103E+09
         0.15356E+09
         0.12048E+08
         0.42360E+08
        -0.80378E+08
         0.47627E+07
        -0.11269E+09
        -0.12019E+09
         0.43476E+08
        -0.13454E+08
        -0.46212E+08
        -0.79726E+08
        -0.91179E+08
         0.18375E+08
         0.53769E+08
         0.13484E+08
         0.34697E+08
         0.15664E+09
         0.47840E+08
        -0.28090E+08
         0.48361E+08
         0.25303E+08
         0.52061E+08
         0.51900E+08
        -0.55190E+08
        -0.35105E+08
         0.68620E+08
        -0.38513E+08
        -0.37867E+08
         0.39127E+08
        -0.11848E+08
         0.25273E+08
         0.69378E+08
         0.13590E+09
         0.11595E+09
         0.34687E+08
         0.50191E+08
         0.15575E+08
        -0.70063E+08
        -0.28621E+08
         0.63335E+08
         0.33451E+08
        -0.41393E+08
        -0.13764E+09
         0.71397E+08
        -0.10274E+09
         0.36935E+08
        -0.16827E+09
         0.45905E+07
        -0.53032E+08
        -0.31731E+08
         0.38330E+08
        -0.33898E+08
        -0.47014E+07
         0.99076E+07
         0.37712E+08
         0.47790E+07
        -0.50606E+08
         0.48941E+08
        -0.14169E+08
         0.39178E+08
        -0.98001E+08
         0.43992E+08
         0.55353E+08
         0.75117E+08
         0.44148E+08
         0.29398E+08
         0.34160E+08
         0.84784E+07
         0.13385E+09
         0.12845E+09
         0.32549E+08
        -0.88026E+06
         0.19923E+08
        -0.15283E+09
        -0.18705E+09
        -0.50068E+08
        -0.15475E+09
         0.73988E+08
         0.78768E+08
        -0.57292E+08
         0.51732E+08
        -0.20362E+08
         0.35618E+08
        -0.55698E+08
        -0.10545E+09
        -0.30421E+08
        -0.26111E+08
        -0.28036E+08
        -0.75257E+08
        -0.49508E+08
         0.29076E+07
        -0.38962E+08
        -0.36663E+08
         0.18801E+08
         0.17583E+08
        -0.77026E+07
        -0.21861E+08
         0.40174E+08
         0.57392E+08
         0.39354E+08
        -0.18948E+08
        -0.15746E+09
        -0.23123E+08
        -0.93285E+07
        -0.86571E+08
        -0.37593E+08
         0.87184E+08
        -0.78090E+08
        -0.18347E+08
        -0.53301E+08
         0.77065E+08
         0.41057E+08
        -0.16286E+08
        -0.19367E+08
         0.17444E+08
         0.21597E+08
         0.50154E+08
         0.27523E+08
         0.48947E+08
        -0.83923E+08
        -0.11448E+09
         0.73728E+08
        -0.68423E+08
         0.88201E+08
        -0.79995E+08
         0.13470E+08
        -0.63402E+08
        -0.44328E+07
         0.55841E+08
  
SCALARS                      stress_xz  double 1
LOOKUP_TABLE default
         0.46182E+08
         0.31948E+08
        -0.34357E+08
         0.36776E+08
         0.11923E+09
        -0.41512E+08
         0.86180E+08
         0.44895E+08
         0.11937E+08
         0.81925E+07
         0.30025E+08
         0.86809E+08
         0.26319E+07
         0.34374E+08
         0.16429E+08
         0.57790E+08
         0.41472E+08
         0.77104E+08
         0.12369E+09
         0.15080E+09
         0.38394E+08
        -0.20069E+08
        -0.10819E+09
         0.32365E+08
        -0.26260E+08
         0.57924E+08
         0.17562E+08
         0.80112E+08
         0.57522E+08
         0.29096E+08
         0.81560E+08
         0.71785E+08
         0.42867E+08
         0.63859E+08
         0.11748E+09
         0.13424E+09
         0.56072E+08
         0.75516E+08
         0.10399E+08
         0.66622E+08
        -0.11646E+09
        -0.80652E+07
        -0.20086E+07
        -0.24186E+08
        -0.18861E+08
         0.11633E+09
         0.96903E+08
         0.99582E+08
        -0.54727E+08
         0.18940E+09
         0.63948E+08
        -0.35111E+08
        -0.23678E+08
         0.63046E+08
         0.32851E+08
        -0.11282E+08
         0.15788E+09
        -0.19231E+08
        -0.34723E+08
         0.73273E+08
        -0.44845E+08
         0.48714E+07
         0.47848E+08
         0.58823E+08
         0.13065E+07
         0.10481E+09
         0.61832E+08
         0.10727E+09
        -0.33285E+08
         0.11539E+09
        -0.54337E+08
         0.66760E+08
        -0.99737E+06
         0.71749E+08
         0.24246E+07
         0.27582E+07
        -0.64397E+08
         0.12332E+09
         0.10374E+09
         0.52667E+08
         0.13633E+09
         0.17953E+08
         0.59209E+07
        -0.60464E+08
        -0.11121E+08
        -0.64604E+07
         0.39957E+08
        -0.69161E+08
        -0.15099E+08
        -0.16260E+08
         0.16179E+09
         0.54415E+08
        -0.43359E+08
        -0.91177E+08
         0.41178E+08
        -0.41318E+06
         0.30601E+08
         0.58885E+08
         0.50253E+08
        -0.63168E+08
        -0.13970E+09
        -0.88866E+08
        -0.24859E+08
         0.72547E+08
        -0.77996E+08
         0.22314E+08
         0.12895E+08
         0.22647E+08
        -0.85810E+08
        -0.18372E+07
        -0.81589E+08
        -0.83068E+08
         0.20073E+09
        -0.11353E+09
         0.90905E+06
        -0.47752E+08
         0.46571E+07
        -0.45806E+08
        -0.55540E+08
         0.25812E+08
         0.12709E+09
        -0.16586E+09
        -0.24579E+08
        -0.99630E+08
        -0.82480E+08
        -0.13477E+08
        -0.44933E+08
        -0.64627E+08
         0.12990E+09
         0.12813E+09
        -0.81333E+08
         0.11109E+09
         0.13981E+09
         0.14991E+08
        -0.87183E+08
         0.31154E+08
        -0.13178E+08
         0.51534E+08
        -0.29307E+08
         0.80511E+08
         0.80859E+08
         0.12517E+09
        -0.36944E+08
         0.34187E+07
         0.39706E+08
        -0.28149E+08
         0.99226E+07
        -0.27908E+07
        -0.21663E+08
        -0.10109E+09
         0.54557E+08
        -0.16045E+09
         0.14282E+09
        -0.13670E+09
        -0.42906E+08
        -0.15253E+09
        -0.58632E+08
         0.75488E+08
         0.62130E+07
         0.35958E+07
         0.16811E+09
         0.75327E+08
        -0.32074E+08
        -0.53794E+08
         0.36295E+08
         0.44178E+07
         0.56236E+08
        -0.71488E+07
        -0.76036E+08
         0.93131E+08
         0.62368E+08
        -0.10148E+08
         0.54855E+08
         0.15885E+08
         0.13376E+08
        -0.31900E+08
        -0.35282E+08
         0.73266E+08
        -0.43902E+08
         0.39185E+08
         0.72281E+07
         0.39699E+08
         0.47397E+08
         0.58481E+08
         0.46600E+08
        -0.85074E+08
        -0.78312E+08
         0.78758E+07
         0.19521E+08
        -0.49663E+08
         0.99277E+08
         0.73316E+08
         0.37640E+08
        -0.36129E+08
        -0.17243E+09
        -0.13605E+09
         0.46501E+08
        -0.82818E+08
        -0.52722E+08
        -0.77549E+07
        -0.29471E+08
         0.23947E+08
         0.24872E+08
        -0.25799E+07
         0.95266E+08
         0.16000E+09
        -0.12832E+09
        -0.18317E+09
        -0.11486E+09
        -0.14854E+09
        -0.10821E+09
        -0.19333E+08
         0.46152E+08
        -0.36328E+08
        -0.16811E+08
        -0.15910E+08
         0.78694E+08
         0.62832E+08
         0.81882E+08
         0.96315E+08
        -0.27366E+08
        -0.82057E+08
         0.69419E+08
        -0.50644E+08
         0.83068E+08
        -0.42605E+08
        -0.80545E+08
        -0.41188E+08
         0.11274E+08
        -0.78141E+08
        -0.64112E+08
        -0.18005E+07
         0.17118E+09
        -0.82782E+08
         0.47932E+08
        -0.60654E+08
        -0.33973E+08
        -0.15798E+08
         0.14421E+09
         0.11536E+09
        -0.72848E+08
        -0.66745E+08
        -0.14380E+08
        -0.95997E+08
         0.79329E+08
         0.15202E+09
        -0.13398E+08
         0.79283E+08
         0.37405E+07
        -0.61271E+08
        -0.60943E+08
         0.10941E+09
        -0.82680E+08
         0.44514E+07
         0.68881E+08
        -0.48930E+08
         0.36246E+08
         0.54495E+07
         0.12068E+09
         0.43433E+08
        -0.29656E+08
         0.36239E+08
        -0.33103E+07
         0.11843E+09
         0.52890E+08
         0.61151E+08
        -0.10556E+07
        -0.85112E+08
         0.11133E+09
         0.58651E+08
         0.11633E+08
        -0.20240E+08
        -0.88727E+08
        -0.22464E+09
         0.41835E+08
        -0.37285E+08
        -0.81504E+08
        -0.41626E+08
        -0.72451E+07
         0.35082E+08
        -0.36903E+07
        -0.84149E+08
         0.53716E+08
         0.12516E+09
        -0.82136E+08
        -0.44594E+08
        -0.69354E+08
        -0.10990E+09
         0.14286E+09
         0.44298E+08
        -0.84822E+08
         0.32490E+08
        -0.14024E+09
         0.10512E+09
        -0.31238E+08
        -0.14565E+08
         0.49405E+08
        -0.48005E+08
        -0.11180E+09
        -0.17872E+08
        -0.14441E+09
        -0.43981E+07
         0.12608E+09
        -0.32682E+08
        -0.83349E+07
         0.11711E+09
        -0.62359E+08
        -0.87337E+07
        -0.33793E+08
        -0.17928E+09
         0.94462E+08
        -0.12276E+09
        -0.16507E+08
        -0.41655E+08
        -0.16310E+09
         0.21883E+08
         0.49920E+08
         0.67277E+08
        -0.12326E+09
         0.69274E+08
         0.23090E+08
         0.92817E+08
        -0.19996E+08
         0.65318E+08
        -0.12262E+08
         0.11929E+09
         0.23573E+08
        -0.92427E+08
        -0.37214E+08
         0.18105E+08
        -0.55239E+08
        -0.10833E+09
         0.21518E+08
        -0.14327E+09
         0.76350E+08
         0.56282E+08
         0.22081E+08
         0.19509E+08
        -0.28211E+08
        -0.89947E+08
        -0.36515E+07
         0.91591E+08
         0.63985E+08
         0.29054E+08
         0.12781E+09
         0.43042E+07
         0.12010E+09
         0.22031E+08
         0.31744E+08
         0.45272E+08
         0.58484E+08
        -0.19529E+09
        -0.56837E+08
         0.21556E+08
         0.56613E+08
        -0.64017E+08
        -0.12869E+08
        -0.20704E+08
        -0.75651E+08
        -0.13318E+09
        -0.54891E+07
        -0.20672E+08
        -0.25283E+08
         0.49203E+07
         0.12534E+09
         0.97607E+08
         0.13454E+09
         0.10611E+09
        -0.18032E+08
         0.13286E+09
        -0.73251E+08
         0.72654E+08
        -0.29774E+08
        -0.63317E+08
        -0.32904E+08
        -0.17687E+09
        -0.17527E+09
         0.95116E+08
        -0.33768E+08
         0.60331E+08
        -0.44650E+08
        -0.13998E+09
         0.86720E+07
         0.80569E+08
         0.43017E+08
        -0.45782E+08
         0.74064E+08
         0.11687E+08
         0.26670E+08
         0.27464E+08
        -0.86869E+08
         0.93891E+07
        -0.11037E+09
        -0.12078E+08
         0.53018E+08
        -0.28834E+08
        -0.66494E+08
         0.11075E+09
         0.59534E+08
        -0.64156E+08
        -0.10539E+08
        -0.21920E+08
        -0.11463E+09
         0.12156E+09
        -0.22476E+08
        -0.43249E+08
         0.60897E+08
         0.47650E+08
        -0.72084E+08
        -0.10365E+09
        -0.10181E+09
        -0.63436E+08
        -0.72057E+06
        -0.47772E+08
        -0.22837E+08
        -0.13950E+08
        -0.12329E+09
        -0.39976E+08
         0.13339E+09
         0.11496E+09
         0.32513E+08
         0.29356E+08
         0.12996E+09
         0.54460E+08
         0.18647E+09
         0.87536E+08
         0.76331E+08
        -0.11580E+08
         0.10188E+09
        -0.43765E+08
        -0.13895E+09
        -0.92782E+08
         0.53233E+08
         0.12669E+08
         0.11023E+09
         0.20489E+08
        -0.10183E+09
        -0.10854E+09
        -0.37879E+08
         0.14998E+07
        -0.39259E+08
        -0.57483E+08
         0.12804E+09
         0.16816E+09
        -0.12218E+09
         0.13010E+09
         0.62114E+08
         0.19641E+09
        -0.63947E+08
        -0.33064E+08
        -0.11191E+09
        -0.55387E+08
         0.12089E+08
         0.35742E+08
        -0.12505E+09
        -0.78470E+08
         0.90781E+07
         0.29853E+08
        -0.10945E+09
        -0.12660E+09
         0.33011E+08
         0.10633E+09
         0.70289E+08
         0.40525E+08
         0.95833E+08
        -0.14776E+08
         0.12543E+09
         0.19568E+09
         0.82894E+08
         0.13947E+09
        -0.35003E+08
         0.97007E+08
         0.19717E+08
         0.26714E+08
        -0.54155E+07
         0.90367E+08
        -0.28394E+08
        -0.37540E+08
        -0.27196E+08
        -0.30871E+08
        -0.10947E+09
         0.10660E+09
        -0.64360E+08
        -0.80444E+08
        -0.22088E+08
         0.32204E+08
        -0.55450E+08
        -0.11382E+09
        -0.31728E+08
         0.12217E+09
         0.22285E+08
        -0.11470E+09
        -0.79305E+08
        -0.10242E+09
         0.35872E+08
         0.96051E+08
         0.30804E+08
        -0.19127E+09
         0.32319E+08
         0.66915E+07
        -0.93810E+07
        -0.12647E+08
         0.67157E+08
        -0.10202E+09
        -0.59767E+08
         0.52457E+08
         0.17045E+09
         0.40955E+08
        -0.36114E+08
        -0.13018E+08
         0.11940E+09
         0.65292E+08
         0.17635E+09
        -0.40086E+08
        -0.12894E+09
         0.21722E+08
         0.43382E+08
        -0.12770E+08
         0.56258E+07
         0.12977E+08
         0.20017E+09
         0.81094E+08
        -0.25658E+08
         0.55506E+08
         0.45204E+08
         0.20575E+09
         0.55190E+08
        -0.21735E+08
        -0.85998E+08
        -0.10830E+09
        -0.31920E+08
        -0.12963E+09
        -0.20956E+09
        -0.18120E+09
        -0.47912E+08
        -0.64855E+08
        -0.17098E+09
        -0.11838E+09
         0.53088E+08
         0.30753E+08
        -0.47416E+07
         0.64468E+08
         0.14961E+09
         0.54226E+08
         0.89538E+08
         0.56728E+08
         0.10638E+08
         0.82811E+08
        -0.17918E+08
         0.73557E+08
         0.35409E+08
        -0.25556E+08
        -0.58375E+08
        -0.14689E+07
        -0.30155E+08
        -0.18678E+08
         0.20604E+08
         0.14124E+09
        -0.12084E+09
         0.14569E+08
         0.50927E+08
        -0.79417E+08
         0.79388E+08
         0.96831E+07
        -0.21439E+07
        -0.34982E+08
        -0.12030E+09
        -0.14939E+08
        -0.56720E+07
        -0.78149E+08
         0.51810E+08
        -0.84059E+08
        -0.12138E+09
         0.99646E+08
        -0.62281E+07
        -0.12945E+09
         0.48974E+07
        -0.58089E+08
         0.35637E+08
         0.45727E+08
         0.81178E+08
        -0.41632E+08
        -0.44764E+08
        -0.71224E+08
         0.10991E+09
        -0.23573E+08
        -0.13438E+09
         0.52456E+08
         0.14319E+09
         0.12088E+09
         0.93397E+08
        -0.12667E+09
        -0.20205E+09
        -0.25080E+08
         0.37903E+08
         0.54282E+08
         0.32560E+08
         0.37460E+08
         0.86543E+08
         0.29855E+08
         0.71365E+08
         0.13315E+09
         0.18032E+09
         0.47110E+08
         0.20024E+08
        -0.10087E+08
        -0.49401E+08
        -0.14572E+09
         0.10285E+09
         0.64987E+08
        -0.19688E+09
        -0.15253E+09
        -0.27024E+08
         0.16580E+07
        -0.14227E+09
        -0.11021E+09
         0.10194E+09
         0.83941E+08
        -0.15486E+07
        -0.24243E+08
         0.21376E+08
        -0.16748E+08
         0.25452E+08
         0.61104E+08
         0.18932E+08
         0.14538E+09
         0.31856E+08
         0.10470E+09
         0.67367E+08
         0.70538E+08
        -0.22398E+08
         0.55295E+08
         0.35834E+06
         0.51187E+08
         0.23729E+08
         0.68814E+08
        -0.12897E+09
         0.12775E+08
         0.54737E+07
        -0.99039E+08
        -0.33255E+08
         0.42192E+08
        -0.72201E+08
        -0.12192E+09
        -0.83650E+08
        -0.38289E+08
        -0.49671E+08
        -0.10641E+09
        -0.92006E+08
        -0.96354E+08
        -0.40219E+08
        -0.19726E+08
        -0.10384E+09
        -0.17184E+09
         0.56021E+08
        -0.30516E+08
         0.38132E+08
         0.52362E+08
         0.96451E+08
         0.10508E+08
        -0.15509E+06
         0.10279E+08
         0.11925E+09
        -0.65575E+08
        -0.10922E+09
         0.24848E+08
         0.93031E+08
         0.11526E+09
         0.98331E+08
        -0.97521E+08
        -0.91927E+08
         0.36929E+08
        -0.45938E+08
        -0.77993E+08
         0.53154E+08
         0.10593E+09
         0.14741E+09
        -0.50913E+08
        -0.19767E+08
         0.35341E+08
         0.58863E+08
        -0.58581E+08
         0.78814E+08
        -0.64807E+07
         0.37576E+08
        -0.49303E+08
         0.10021E+09
        -0.11160E+09
        -0.22913E+09
        -0.94029E+08
        -0.45354E+08
        -0.10254E+09
        -0.18815E+09
        -0.10426E+09
         0.82575E+08
         0.16366E+08
        -0.15409E+07
         0.43308E+08
         0.11600E+09
         0.54593E+08
        -0.31019E+08
        -0.14749E+08
        -0.46599E+08
         0.16102E+09
         0.63104E+08
         0.65048E+08
         0.72100E+08
         0.11507E+09
        -0.26465E+08
         0.71407E+08
         0.44394E+08
         0.65235E+08
        -0.43402E+07
        -0.69383E+08
        -0.10940E+09
         0.37364E+08
        -0.47596E+07
        -0.10498E+09
         0.18597E+08
        -0.29463E+07
        -0.51175E+08
        -0.75350E+08
        -0.86461E+08
         0.16809E+08
        -0.20290E+08
        -0.12422E+09
        -0.66257E+08
        -0.10839E+09
        -0.52849E+08
        -0.53291E+08
        -0.65377E+08
        -0.12884E+09
        -0.13007E+08
        -0.77825E+08
         0.51755E+08
         0.71571E+08
         0.50144E+08
         0.27761E+08
         0.86830E+08
         0.31403E+07
         0.12650E+09
        -0.21971E+08
        -0.80607E+08
         0.40744E+07
         0.33755E+08
         0.14078E+09
         0.10210E+09
        -0.10656E+09
        -0.14419E+09
         0.41327E+08
         0.22144E+07
        -0.70667E+08
         0.36374E+08
         0.10788E+09
         0.12020E+09
        -0.46148E+08
        -0.22120E+07
         0.51058E+08
         0.14154E+09
         0.81940E+08
         0.24290E+08
         0.21656E+08
        -0.85760E+08
        -0.10254E+09
         0.11395E+09
        -0.74256E+08
        -0.24933E+08
        -0.12422E+08
        -0.13698E+09
        -0.22275E+09
        -0.16341E+09
        -0.65899E+08
         0.32706E+08
        -0.66084E+08
         0.63280E+07
         0.33875E+08
         0.55484E+08
         0.76640E+08
        -0.56979E+08
         0.55677E+07
        -0.24472E+07
         0.17970E+09
         0.14195E+08
         0.63686E+08
         0.77707E+08
         0.74758E+08
         0.56108E+08
         0.40139E+08
        -0.28386E+08
        -0.45830E+08
         0.43346E+08
         0.60437E+08
        -0.68857E+08
        -0.70354E+07
        -0.20442E+08
        -0.46827E+08
         0.47566E+08
        -0.19014E+08
        -0.31354E+08
        -0.33121E+08
        -0.14148E+09
        -0.77924E+08
         0.95564E+07
        -0.45041E+08
        -0.36698E+08
        -0.44782E+08
        -0.97213E+08
        -0.32655E+08
        -0.23303E+08
        -0.62433E+08
         0.12825E+08
        -0.10123E+08
        -0.77860E+07
         0.59174E+08
         0.12915E+09
        -0.27026E+06
         0.35571E+08
        -0.89712E+08
         0.10794E+09
        -0.22995E+07
        -0.10616E+09
        -0.65296E+08
        -0.55553E+08
         0.10780E+09
         0.53666E+08
        -0.94197E+08
        -0.53317E+08
         0.63093E+08
        -0.43544E+08
        -0.62805E+08
         0.11433E+09
         0.13736E+09
         0.19627E+09
        -0.34569E+08
        -0.47955E+08
         0.26212E+08
         0.79607E+08
        -0.22279E+08
         0.29419E+08
         0.57408E+08
        -0.16778E+08
        -0.10493E+09
         0.90639E+08
        -0.60918E+08
        -0.67117E+08
        -0.32041E+08
        -0.26017E+08
        -0.15541E+09
        -0.11381E+09
        -0.93446E+08
         0.91236E+08
         0.32188E+08
        -0.55741E+08
         0.40519E+08
         0.16108E+09
         0.14286E+09
        -0.13981E+09
        -0.74615E+07
         0.12580E+08
         0.17547E+09
         0.10451E+08
         0.12320E+09
         0.55670E+08
         0.11757E+09
        -0.10283E+08
         0.44767E+08
        -0.12537E+08
         0.84006E+07
        -0.52070E+08
        -0.37080E+08
        -0.10323E+09
        -0.15344E+08
        -0.18812E+08
        -0.98765E+08
        -0.11503E+08
        -0.21380E+08
         0.90874E+07
         0.84758E+06
        -0.38460E+08
        -0.43190E+08
         0.11922E+09
        -0.17234E+08
        -0.89552E+08
        -0.90281E+08
        -0.81303E+08
         0.20324E+07
        -0.25682E+08
        -0.58063E+07
        -0.29506E+08
        -0.74013E+08
         0.94870E+06
         0.65785E+08
         0.32887E+08
        -0.49863E+08
         0.60107E+08
        -0.28602E+08
         0.10509E+09
        -0.36590E+08
        -0.55107E+08
        -0.13071E+08
        -0.25894E+08
         0.15576E+09
         0.49375E+08
        -0.14797E+09
        -0.71338E+08
         0.11012E+09
        -0.25834E+08
        -0.12550E+09
         0.16217E+08
         0.13312E+09
         0.17973E+09
         0.27833E+08
        -0.41215E+08
         0.10813E+09
         0.10461E+09
        -0.29143E+05
         0.55222E+08
         0.84695E+08
        -0.88233E+08
        -0.68422E+08
         0.30494E+08
        -0.15007E+09
        -0.98553E+07
        -0.60853E+08
        -0.68473E+08
        -0.22711E+09
        -0.12317E+09
         0.33302E+06
         0.13279E+08
        -0.59561E+08
        -0.33340E+08
         0.39963E+08
         0.87139E+08
         0.27437E+08
        -0.10525E+09
         0.17657E+08
        -0.69357E+07
         0.14407E+09
        -0.69944E+08
         0.20938E+08
         0.52841E+06
         0.43097E+08
         0.47100E+08
         0.71628E+08
        -0.22018E+08
        -0.12220E+08
         0.70385E+08
         0.16409E+08
        -0.10533E+09
         0.78845E+08
         0.16117E+07
        -0.85013E+08
         0.34995E+08
         0.88934E+08
        -0.66500E+08
         0.33767E+08
        -0.47658E+08
        -0.35978E+08
         0.63964E+08
        -0.11713E+09
        -0.79533E+08
        -0.16419E+09
        -0.42250E+08
        -0.35039E+08
        -0.15993E+08
         0.20893E+08
         0.24677E+08
        -0.22983E+08
         0.29868E+08
         0.13520E+08
         0.36206E+08
        -0.48584E+08
         0.14628E+08
        -0.31260E+08
         0.92015E+08
        -0.23855E+08
        -0.87481E+08
        -0.11750E+08
        -0.20608E+08
         0.78425E+08
         0.11055E+09
        -0.65677E+08
        -0.52711E+08
         0.25450E+08
        -0.39436E+08
        -0.12501E+09
         0.80923E+08
         0.12604E+09
         0.19721E+09
         0.24190E+07
        -0.11141E+08
         0.46075E+08
         0.84849E+08
         0.27406E+08
        -0.65058E+08
         0.40413E+08
        -0.11683E+08
        -0.60029E+08
         0.38573E+08
        -0.77506E+08
        -0.85211E+08
        -0.96119E+08
        -0.18605E+08
        -0.12004E+09
        -0.84650E+08
         0.40636E+07
         0.50863E+08
        -0.21863E+08
        -0.20967E+08
         0.99542E+08
         0.11291E+09
         0.15954E+09
        -0.49481E+08
        -0.51612E+08
        -0.13954E+09
         0.14338E+09
        -0.19994E+08
        -0.11809E+08
         0.70817E+08
         0.71360E+08
         0.66664E+07
        -0.46192E+07
        -0.50017E+08
         0.22167E+08
         0.49075E+07
         0.22359E+08
        -0.25851E+08
         0.22047E+08
        -0.18003E+08
         0.23919E+07
         0.73834E+08
        -0.46704E+08
        -0.56337E+07
         0.49595E+08
        -0.94932E+08
        -0.61386E+08
         0.38550E+08
        -0.47342E+08
        -0.32514E+08
        -0.55219E+08
        -0.61105E+08
        -0.25752E+08
        -0.26875E+08
         0.53456E+07
         0.54274E+08
         0.19484E+08
        -0.19806E+08
         0.15817E+07
         0.31933E+08
         0.86574E+07
         0.11036E+09
        -0.94837E+08
         0.10798E+08
        -0.40330E+08
        -0.38858E+07
        -0.44933E+08
        -0.48639E+08
         0.86770E+08
         0.92431E+08
        -0.10324E+09
        -0.63615E+08
         0.52849E+08
        -0.31696E+08
        -0.11295E+09
         0.17834E+08
         0.71173E+08
         0.17838E+09
         0.77249E+08
        -0.94783E+07
         0.81582E+08
         0.43019E+08
         0.54078E+08
        -0.18246E+08
         0.75480E+08
        -0.24573E+08
        -0.35776E+08
         0.92673E+07
        -0.20654E+09
        -0.31360E+08
         0.23109E+08
         0.74447E+08
        -0.15594E+09
        -0.15944E+09
        -0.60544E+08
         0.45379E+08
        -0.47715E+08
        -0.62055E+08
         0.51601E+08
         0.85835E+08
         0.10939E+09
        -0.37138E+08
         0.47014E+08
         0.16977E+08
         0.10981E+09
        -0.11088E+09
         0.16201E+08
        -0.25344E+08
         0.58636E+08
         0.48732E+06
         0.47170E+08
         0.50226E+08
        -0.22227E+08
        -0.67884E+07
        -0.71431E+08
        -0.15585E+09
         0.19156E+08
         0.13263E+08
        -0.29359E+08
         0.62379E+08
         0.57373E+08
        -0.61684E+08
         0.20256E+07
        -0.67237E+08
        -0.22227E+08
         0.82820E+08
        -0.71553E+08
        -0.74006E+08
        -0.12595E+09
        -0.72109E+08
        -0.59117E+07
         0.24064E+08
         0.30273E+08
         0.23752E+08
        -0.27245E+08
         0.15211E+07
         0.18766E+08
        -0.77011E+08
        -0.14637E+09
        -0.42870E+08
         0.11872E+08
         0.11402E+09
         0.44118E+08
         0.45387E+08
         0.48180E+08
         0.50404E+08
         0.94518E+08
         0.45953E+08
        -0.14445E+09
        -0.64277E+08
         0.70562E+08
        -0.21770E+08
        -0.10044E+09
         0.30192E+08
         0.11778E+09
         0.11197E+09
        -0.33048E+08
        -0.12406E+08
         0.45547E+08
         0.27280E+08
         0.82977E+08
        -0.60479E+08
         0.53237E+08
        -0.28741E+08
        -0.51555E+08
         0.13764E+09
        -0.85323E+08
        -0.34114E+08
        -0.96143E+08
         0.10332E+08
        -0.26875E+08
        -0.11970E+09
        -0.15241E+08
         0.43721E+08
        -0.43655E+08
         0.88598E+07
         0.99038E+08
         0.56893E+08
         0.88497E+08
        -0.28245E+08
        -0.60483E+08
        -0.11142E+09
         0.10951E+09
        -0.83943E+08
        -0.48390E+08
         0.29117E+08
         0.55248E+08
        -0.12305E+08
        -0.12648E+08
         0.17412E+07
         0.42710E+08
        -0.18000E+08
        -0.17230E+08
        -0.74662E+08
        -0.15090E+08
        -0.14307E+08
        -0.49709E+08
         0.95499E+08
        -0.14123E+08
        -0.20583E+08
         0.64586E+08
        -0.25621E+08
         0.57420E+08
         0.69489E+08
        -0.85348E+08
        -0.18692E+08
        -0.13126E+09
        -0.59679E+08
         0.41615E+08
         0.21458E+08
         0.23596E+08
         0.42175E+08
         0.34854E+08
        -0.11974E+08
        -0.26188E+08
         0.30576E+08
        -0.29773E+08
         0.55749E+08
        -0.64415E+08
         0.96242E+08
         0.62001E+08
        -0.68089E+08
        -0.27664E+08
         0.43857E+08
         0.10100E+09
         0.10039E+09
        -0.99495E+08
        -0.46608E+08
         0.30531E+08
        -0.43164E+08
        -0.87213E+08
         0.80813E+07
         0.68584E+08
         0.17195E+09
         0.49746E+08
         0.92448E+07
         0.12481E+09
         0.61218E+08
         0.27755E+08
         0.36254E+08
         0.55309E+08
        -0.80447E+08
        -0.12196E+09
         0.14152E+08
        -0.14022E+09
         0.11110E+08
         0.94549E+08
        -0.25470E+08
        -0.16884E+09
        -0.13822E+09
        -0.23839E+08
         0.17127E+08
        -0.43506E+08
        -0.10690E+09
         0.17366E+08
         0.60866E+08
         0.47348E+08
        -0.10982E+09
         0.22882E+07
        -0.81824E+08
         0.53058E+08
        -0.56476E+08
        -0.53100E+08
         0.16258E+07
         0.38975E+08
        -0.46776E+08
         0.43950E+08
         0.55838E+08
         0.57724E+08
        -0.12841E+08
        -0.54039E+08
        -0.16360E+09
         0.56674E+08
         0.20994E+08
         0.39301E+08
         0.12896E+09
        -0.81064E+06
         0.51968E+08
         0.48713E+08
        -0.42533E+08
        -0.24897E+08
         0.85437E+08
        -0.25951E+08
        -0.52535E+08
        -0.84061E+08
        -0.33106E+08
        -0.36395E+08
        -0.16571E+08
        -0.28428E+08
         0.45474E+08
        -0.85602E+07
        -0.22086E+08
        -0.34038E+08
        -0.13919E+08
        -0.75237E+08
        -0.34629E+08
        -0.14068E+08
         0.78827E+08
         0.80927E+08
         0.69213E+08
         0.45936E+08
         0.20638E+08
         0.82090E+08
         0.64866E+08
        -0.10988E+09
        -0.54668E+08
         0.59953E+08
        -0.82051E+07
        -0.76068E+08
        -0.14941E+08
         0.57811E+08
         0.10148E+09
        -0.16182E+09
        -0.11735E+08
        -0.42935E+08
        -0.21977E+08
         0.38758E+08
        -0.18806E+08
         0.58439E+08
        -0.12406E+08
         0.43059E+07
         0.18817E+08
        -0.35476E+08
        -0.45097E+08
        -0.11797E+08
         0.16514E+08
        -0.62407E+08
        -0.53005E+08
         0.43576E+08
         0.69962E+08
        -0.22427E+08
        -0.46462E+08
         0.30394E+08
         0.19750E+08
         0.15804E+07
        -0.48711E+08
        -0.58257E+08
        -0.71812E+08
         0.48701E+08
        -0.10631E+09
         0.55498E+07
        -0.21356E+08
         0.42746E+08
        -0.22695E+08
        -0.17125E+07
        -0.17427E+07
         0.19187E+08
        -0.40130E+08
        -0.52236E+08
        -0.78917E+08
        -0.27411E+08
        -0.28008E+08
        -0.40047E+08
         0.65017E+08
        -0.25686E+08
         0.22433E+08
         0.35488E+08
        -0.66597E+07
         0.26434E+08
         0.89570E+08
        -0.14230E+08
        -0.37603E+08
        -0.65547E+08
        -0.58092E+08
         0.52986E+08
         0.56071E+08
         0.14939E+08
         0.17770E+08
         0.17482E+08
        -0.14542E+08
         0.36313E+07
        -0.54576E+08
        -0.10194E+09
         0.39025E+07
        -0.24678E+08
         0.12755E+09
         0.11872E+09
         0.63723E+07
         0.57696E+08
         0.62251E+08
         0.86626E+08
         0.72406E+08
        -0.75531E+08
        -0.17083E+08
         0.39954E+08
        -0.58698E+08
        -0.96558E+08
        -0.32216E+08
         0.47914E+08
         0.66838E+08
        -0.88202E+08
         0.70350E+08
         0.12423E+09
         0.13343E+08
         0.68304E+08
         0.42973E+08
         0.75531E+08
        -0.71179E+08
        -0.11976E+09
         0.44548E+08
        -0.90409E+08
         0.64059E+08
         0.11912E+09
         0.48014E+08
        -0.13244E+09
        -0.18080E+09
        -0.13320E+08
         0.30197E+08
         0.47839E+06
        -0.56182E+08
         0.47987E+08
         0.96027E+08
         0.68604E+07
        -0.74687E+08
        -0.13911E+08
        -0.99223E+08
         0.74823E+08
        -0.33093E+07
        -0.63329E+08
         0.68674E+08
         0.67888E+08
        -0.14063E+08
         0.36171E+08
         0.16518E+08
         0.74672E+08
         0.17105E+08
         0.17121E+07
        -0.52491E+08
         0.60427E+08
         0.86306E+07
         0.14563E+08
         0.14829E+09
        -0.32115E+08
         0.60425E+08
         0.78704E+08
        -0.69494E+08
        -0.35113E+08
         0.49176E+08
        -0.15348E+08
        -0.14863E+08
        -0.54621E+08
        -0.40784E+08
        -0.34613E+08
         0.11228E+08
         0.23854E+08
         0.28397E+08
        -0.24378E+08
         0.10596E+08
        -0.14101E+08
         0.57694E+08
         0.19378E+08
         0.84747E+08
        -0.24999E+08
         0.35064E+08
         0.65705E+08
         0.32430E+08
         0.34811E+08
         0.26354E+08
         0.74841E+08
         0.42989E+08
        -0.13942E+09
        -0.69920E+08
         0.60378E+08
        -0.23032E+07
        -0.45983E+08
         0.30559E+08
         0.52098E+08
        -0.14539E+08
        -0.92186E+08
        -0.86660E+08
         0.35008E+08
        -0.19091E+08
         0.51214E+08
         0.10893E+07
         0.46048E+08
        -0.10009E+08
        -0.21114E+08
         0.28084E+08
        -0.14074E+09
        -0.25950E+08
         0.97373E+07
         0.47396E+08
        -0.10872E+09
        -0.13395E+09
         0.27322E+08
         0.56175E+08
        -0.22517E+08
        -0.72361E+08
        -0.26780E+08
         0.85913E+08
         0.65185E+08
        -0.69153E+07
         0.83686E+07
        -0.69252E+08
         0.41237E+08
        -0.67972E+08
        -0.79012E+07
         0.25297E+08
         0.46246E+08
        -0.87198E+08
         0.39518E+08
         0.41230E+08
         0.13562E+08
        -0.24893E+08
        -0.12308E+08
        -0.11255E+09
         0.53866E+08
        -0.15756E+08
        -0.29037E+08
         0.66341E+08
         0.11142E+08
         0.37913E+08
         0.66153E+08
        -0.15754E+08
         0.48359E+08
         0.94663E+08
        -0.15010E+08
        -0.84902E+08
        -0.69334E+08
        -0.86688E+08
        -0.54762E+08
        -0.15206E+07
         0.75537E+07
        -0.33560E+07
         0.12310E+08
        -0.14393E+08
         0.49306E+07
         0.81164E+07
        -0.45264E+08
         0.70719E+06
        -0.38515E+08
         0.72673E+08
         0.52066E+08
         0.33666E+08
         0.77268E+08
         0.84935E+08
         0.67682E+08
         0.10682E+09
        -0.94271E+08
        -0.29218E+08
         0.58932E+08
        -0.45686E+08
        -0.48156E+08
        -0.48012E+08
         0.19309E+08
         0.51546E+08
        -0.12392E+09
         0.11838E+08
         0.89585E+08
         0.39542E+08
         0.69712E+08
         0.42573E+07
         0.47627E+08
        -0.32051E+08
        -0.13927E+09
        -0.36384E+08
        -0.12045E+09
        -0.59049E+08
         0.75141E+08
         0.54563E+08
        -0.48549E+08
        -0.95642E+08
         0.19859E+08
        -0.57553E+07
         0.19493E+07
        -0.21205E+08
        -0.63212E+08
         0.49763E+08
        -0.52507E+08
        -0.60981E+07
         0.97966E+07
        -0.70480E+08
         0.80856E+08
         0.55251E+07
         0.18712E+08
         0.10852E+09
         0.96912E+08
        -0.10789E+08
         0.81659E+08
         0.59455E+08
         0.69747E+08
        -0.90320E+07
         0.25530E+08
        -0.72764E+07
         0.22806E+08
        -0.27091E+08
        -0.48139E+08
         0.60055E+08
        -0.52440E+08
         0.52221E+08
         0.43287E+08
        -0.66242E+08
        -0.67867E+08
         0.68121E+08
         0.28401E+08
        -0.11016E+09
        -0.51054E+08
        -0.76066E+08
        -0.76232E+08
        -0.35701E+08
        -0.23389E+08
        -0.24492E+08
        -0.29908E+08
        -0.27693E+07
         0.59619E+08
         0.93798E+08
         0.18178E+08
         0.46644E+08
        -0.67384E+08
         0.53689E+08
         0.37301E+08
        -0.73755E+07
        -0.24591E+08
        -0.45670E+08
         0.10892E+09
         0.60200E+08
        -0.10179E+09
        -0.14099E+08
         0.99140E+08
        -0.13418E+08
        -0.52104E+07
         0.41011E+08
         0.68189E+08
         0.96057E+08
        -0.76565E+08
         0.80368E+07
         0.12077E+08
        -0.12522E+08
         0.10985E+09
         0.56649E+08
         0.41019E+08
        -0.73014E+07
        -0.41507E+08
         0.66600E+07
        -0.75608E+08
        -0.54555E+08
         0.22176E+08
        -0.33428E+08
        -0.13309E+09
        -0.13778E+09
        -0.37412E+08
         0.52092E+07
         0.46357E+08
        -0.49085E+08
        -0.69329E+08
         0.12124E+09
         0.13926E+07
         0.23542E+06
         0.81354E+08
        -0.72844E+08
         0.71463E+08
        -0.43303E+08
        -0.18692E+07
         0.51642E+08
         0.75129E+07
        -0.48775E+08
         0.10427E+09
         0.68694E+08
         0.53057E+08
        -0.22510E+08
        -0.27334E+08
        -0.77798E+08
         0.61352E+08
        -0.38148E+08
        -0.54749E+08
         0.39983E+08
        -0.16156E+08
         0.13238E+08
        -0.19447E+08
        -0.93715E+08
        -0.43486E+08
         0.72417E+08
        -0.10903E+08
        -0.11762E+09
        -0.79510E+08
        -0.47108E+08
        -0.23277E+08
        -0.58081E+07
        -0.40039E+08
        -0.19264E+08
        -0.54550E+08
         0.19341E+08
         0.33748E+08
         0.61662E+08
        -0.14016E+08
         0.22912E+08
        -0.33668E+08
         0.88136E+08
         0.60585E+08
         0.54036E+08
         0.45103E+08
         0.18813E+08
         0.69419E+08
         0.75548E+08
        -0.12879E+09
        -0.67257E+08
         0.94477E+08
         0.36340E+08
         0.22173E+08
        -0.49269E+08
        -0.10380E+08
         0.30882E+08
        -0.16224E+09
        -0.12730E+08
         0.75907E+08
         0.14036E+08
         0.11957E+09
         0.23600E+08
         0.78750E+08
        -0.62993E+08
        -0.14931E+09
        -0.14076E+08
        -0.11704E+09
        -0.60186E+08
         0.42999E+08
         0.13883E+08
        -0.10865E+09
        -0.61788E+08
         0.61839E+08
         0.72619E+08
         0.20077E+08
        -0.43645E+08
        -0.70641E+08
         0.84015E+07
        -0.46790E+08
         0.52024E+07
        -0.32454E+07
        -0.62703E+08
         0.12119E+09
        -0.28377E+08
         0.41377E+08
         0.65716E+08
         0.56547E+08
        -0.13296E+08
         0.94815E+08
         0.35898E+08
         0.64165E+08
        -0.25376E+08
         0.97282E+06
        -0.43389E+08
         0.64437E+08
        -0.40144E+08
        -0.67460E+08
         0.42569E+08
        -0.76768E+07
         0.78082E+07
         0.91379E+07
        -0.11071E+09
        -0.42263E+08
         0.36709E+08
        -0.35922E+07
        -0.83926E+08
        -0.39470E+08
        -0.56344E+08
        -0.44342E+08
        -0.86152E+07
        -0.36797E+08
        -0.26812E+08
        -0.34022E+08
         0.14965E+06
         0.34132E+08
         0.33637E+08
        -0.64699E+08
         0.33865E+08
        -0.65621E+08
         0.64550E+08
         0.65944E+08
         0.13438E+08
        -0.20904E+08
         0.12702E+08
         0.79870E+08
         0.10950E+09
        -0.10376E+09
        -0.84465E+08
         0.30475E+08
        -0.16058E+08
        -0.32163E+08
         0.36066E+07
         0.34880E+08
         0.69058E+08
        -0.12287E+09
        -0.55694E+08
         0.17578E+08
        -0.39508E+08
         0.68060E+08
         0.19397E+08
         0.61649E+07
        -0.85171E+08
        -0.47038E+08
         0.11309E+07
        -0.10778E+09
         0.41332E+07
         0.25331E+08
         0.22726E+08
        -0.93919E+08
        -0.16068E+09
        -0.40872E+08
         0.75258E+08
         0.21122E+08
        -0.73412E+08
        -0.56298E+08
         0.84037E+08
         0.12774E+08
         0.76207E+08
         0.13495E+09
        -0.71488E+08
         0.67061E+08
         0.45975E+07
         0.35175E+08
         0.11097E+09
         0.60191E+08
        -0.42386E+08
         0.10641E+09
         0.37655E+08
         0.62941E+08
        -0.15135E+08
        -0.31089E+08
        -0.90767E+08
         0.63618E+08
        -0.38426E+08
        -0.68956E+08
         0.26890E+08
         0.18069E+08
        -0.29939E+07
        -0.48477E+06
        -0.37736E+08
        -0.18137E+08
         0.74561E+08
        -0.31380E+08
        -0.10085E+09
        -0.95386E+08
        -0.33018E+08
        -0.30534E+08
        -0.20099E+08
        -0.48815E+08
         0.15554E+08
        -0.16299E+08
         0.13232E+08
         0.49089E+07
         0.77946E+08
        -0.22860E+08
        -0.35935E+07
        -0.54636E+08
         0.76509E+08
         0.55801E+08
         0.17732E+08
         0.56739E+08
         0.21016E+08
         0.58466E+08
         0.10142E+09
        -0.14472E+09
        -0.68809E+08
         0.67663E+08
         0.47487E+07
        -0.16346E+08
        -0.50976E+08
         0.11445E+08
         0.19070E+08
        -0.14954E+09
        -0.30448E+08
         0.68214E+08
        -0.21095E+08
         0.82491E+08
         0.32068E+08
         0.67535E+08
        -0.41219E+08
        -0.61844E+08
         0.19048E+07
        -0.12836E+09
        -0.72892E+08
         0.36109E+08
         0.57270E+08
        -0.55608E+08
        -0.11801E+09
         0.52251E+08
         0.39577E+08
         0.39624E+08
         0.20215E+08
         0.18540E+08
         0.15684E+09
         0.50102E+08
        -0.11399E+08
         0.29741E+07
        -0.13713E+09
         0.23626E+08
        -0.57757E+08
         0.32939E+08
         0.56884E+08
         0.20546E+08
        -0.43729E+08
         0.49607E+08
         0.29553E+08
         0.55332E+08
        -0.21769E+08
         0.21322E+08
        -0.69726E+07
        -0.12089E+08
        -0.24103E+08
        -0.26991E+08
         0.21931E+08
         0.12669E+08
         0.22261E+08
         0.14234E+08
        -0.51963E+08
        -0.15990E+08
         0.37139E+08
        -0.22347E+08
        -0.26792E+08
        -0.81076E+08
        -0.69339E+08
         0.23805E+08
         0.56032E+08
         0.35123E+08
        -0.21590E+06
        -0.63330E+07
         0.14999E+08
         0.64356E+08
         0.79847E+08
        -0.41135E+08
         0.25952E+08
        -0.14548E+08
         0.55876E+08
         0.99831E+08
         0.73761E+08
         0.37980E+08
        -0.14112E+08
         0.79949E+08
         0.97420E+08
        -0.50980E+08
        -0.85875E+07
         0.99489E+08
         0.45802E+08
         0.40952E+08
         0.67257E+08
         0.45406E+08
         0.30190E+08
        -0.14678E+09
        -0.13664E+08
         0.31066E+08
        -0.11645E+08
        -0.34091E+07
         0.62294E+07
         0.61381E+08
         0.24164E+07
        -0.38584E+08
         0.52766E+08
         0.55160E+08
         0.72824E+08
         0.74988E+08
         0.71706E+08
        -0.16692E+08
        -0.10133E+09
         0.78751E+08
         0.11173E+09
         0.14680E+07
        -0.58073E+07
        -0.74628E+08
         0.75703E+08
         0.77416E+08
         0.11443E+09
         0.82449E+08
  
SCALARS                      stress_xy  double 1
LOOKUP_TABLE default
        -0.50675E+08
        -0.81330E+08
        -0.28215E+08
        -0.34449E+08
        -0.57949E+08
        -0.32954E+08
        -0.35302E+08
        -0.89794E+08
         0.25462E+08
         0.11043E+09
         0.12331E+08
         0.94588E+08
        -0.14244E+09
        -0.32696E+08
        -0.16893E+09
        -0.60030E+08
        -0.63494E+08
        -0.16664E+08
        -0.10679E+07
        -0.87407E+07
         0.29130E+07
        -0.89933E+08
        -0.18675E+09
        -0.38853E+08
        -0.97874E+08
        -0.22088E+09
         0.49082E+08
         0.14085E+09
         0.31960E+08
         0.73314E+08
        -0.59809E+08
        -0.48606E+08
        -0.61008E+08
        -0.82838E+08
        -0.84889E+07
        -0.81793E+07
        -0.24364E+08
        -0.27364E+08
        -0.28035E+08
        -0.66379E+08
         0.14938E+08
         0.37105E+08
        -0.13451E+06
        -0.23554E+08
        -0.81928E+08
        -0.91138E+08
        -0.17306E+09
        -0.12136E+09
        -0.39396E+08
        -0.19352E+08
        -0.15859E+09
        -0.17292E+09
        -0.38761E+08
        -0.10237E+09
         0.29222E+08
        -0.70786E+08
         0.14880E+09
         0.35356E+08
         0.17428E+09
        -0.11367E+09
         0.14479E+08
        -0.89104E+08
        -0.44695E+08
        -0.14666E+09
        -0.46720E+07
        -0.10690E+09
         0.16353E+08
        -0.71285E+08
        -0.15693E+08
        -0.10200E+08
        -0.36143E+08
        -0.10958E+09
        -0.45815E+08
        -0.99970E+08
        -0.13729E+08
        -0.13528E+08
        -0.53681E+08
         0.38696E+08
         0.17535E+09
         0.20611E+09
         0.84545E+08
         0.59639E+08
         0.89074E+08
         0.11548E+09
         0.71928E+07
         0.53719E+08
        -0.14595E+08
        -0.17446E+08
         0.67238E+07
        -0.11900E+09
        -0.11898E+09
        -0.65501E+08
        -0.10388E+09
        -0.12539E+09
         0.59475E+08
         0.33439E+07
         0.70553E+08
         0.96352E+08
         0.14148E+09
         0.16264E+09
         0.74349E+08
         0.94471E+08
         0.22142E+07
         0.11306E+09
        -0.61611E+08
        -0.10076E+08
        -0.57339E+08
         0.31496E+08
        -0.15537E+09
        -0.69003E+08
        -0.16427E+09
         0.30296E+07
        -0.37723E+07
         0.11726E+09
        -0.31953E+08
         0.12698E+09
        -0.91533E+08
         0.39360E+08
        -0.12430E+09
        -0.44576E+08
         0.11383E+09
         0.77851E+08
         0.56173E+08
         0.78691E+07
        -0.11321E+08
        -0.64332E+08
         0.11442E+09
         0.30805E+08
         0.75150E+08
         0.13869E+09
        -0.10968E+09
        -0.67304E+08
        -0.11672E+09
        -0.43584E+08
        -0.14051E+08
         0.24013E+08
         0.30707E+07
        -0.86498E+08
        -0.97639E+08
        -0.37633E+08
        -0.88352E+08
         0.81292E+08
        -0.31247E+08
         0.11341E+09
        -0.24622E+08
        -0.71094E+08
        -0.51752E+07
         0.11695E+09
         0.59794E+08
         0.40383E+08
         0.14690E+09
         0.10753E+09
         0.98592E+08
         0.54888E+08
         0.16864E+08
        -0.20721E+08
         0.15871E+08
        -0.71142E+08
        -0.45537E+08
        -0.24955E+08
        -0.15953E+08
         0.12002E+09
        -0.21702E+09
        -0.56748E+07
         0.34338E+08
         0.39355E+08
        -0.13728E+08
        -0.78582E+08
        -0.23747E+09
         0.68102E+08
         0.11995E+09
        -0.10556E+08
         0.21231E+08
        -0.24400E+07
        -0.36352E+08
        -0.36975E+08
         0.21573E+08
         0.65760E+08
        -0.84065E+08
        -0.12408E+09
         0.11984E+08
        -0.14812E+09
        -0.23897E+08
         0.73333E+08
         0.10877E+09
         0.76095E+08
         0.22595E+08
        -0.84090E+08
         0.44427E+07
        -0.27266E+08
        -0.67260E+08
         0.25652E+08
         0.66303E+07
        -0.43689E+08
        -0.53746E+08
         0.10050E+09
         0.16726E+09
         0.72831E+08
         0.44219E+07
        -0.15261E+08
         0.36957E+08
        -0.13969E+09
        -0.54173E+08
         0.50211E+08
         0.66879E+08
         0.11354E+09
         0.28875E+08
         0.98354E+08
        -0.17089E+08
         0.11193E+08
         0.48758E+08
        -0.16096E+08
         0.12282E+08
         0.85320E+08
         0.10077E+09
        -0.30132E+08
         0.12570E+09
        -0.50098E+08
         0.10733E+09
        -0.90788E+08
         0.26842E+08
         0.96160E+08
         0.30369E+07
        -0.57003E+08
        -0.91680E+08
         0.17164E+09
        -0.33846E+08
        -0.40152E+08
        -0.50119E+07
         0.10061E+08
        -0.67200E+08
        -0.29139E+08
         0.57317E+07
        -0.64927E+08
         0.19743E+08
        -0.11230E+09
        -0.88273E+08
        -0.10054E+08
        -0.54112E+08
         0.97717E+08
        -0.15149E+09
         0.42239E+08
         0.35798E+08
         0.49885E+08
        -0.43278E+08
        -0.27274E+08
        -0.22565E+09
         0.42262E+08
         0.68186E+08
         0.19563E+08
         0.20800E+08
         0.40033E+07
        -0.14481E+06
        -0.54138E+08
        -0.41138E+08
        -0.11432E+08
        -0.31183E+08
        -0.22525E+08
         0.14240E+08
        -0.15361E+09
         0.50813E+07
         0.90924E+08
         0.76032E+08
         0.25162E+08
         0.27961E+08
        -0.11070E+09
        -0.31478E+07
        -0.39937E+08
        -0.10728E+09
         0.20699E+07
        -0.15455E+08
        -0.42035E+08
        -0.35597E+08
         0.35792E+08
         0.13143E+09
         0.39574E+08
         0.19958E+08
        -0.47704E+08
        -0.61252E+08
        -0.12656E+09
        -0.53380E+08
         0.35475E+08
         0.93209E+08
         0.10169E+09
         0.79045E+08
         0.15189E+09
        -0.55276E+07
        -0.12051E+08
         0.54717E+08
        -0.25343E+08
         0.45373E+08
        -0.93114E+08
         0.97172E+06
        -0.22127E+07
         0.12850E+09
        -0.54122E+08
         0.70288E+08
        -0.36280E+08
         0.95061E+07
         0.73760E+08
        -0.69372E+08
        -0.12302E+09
        -0.71280E+08
         0.33654E+08
         0.91998E+08
         0.40825E+08
        -0.22858E+08
         0.14194E+09
         0.88088E+08
         0.32956E+08
         0.11553E+09
        -0.73925E+08
         0.32099E+08
        -0.73100E+08
        -0.58612E+08
        -0.10594E+08
        -0.40579E+08
         0.21661E+08
        -0.95909E+08
         0.30621E+08
         0.39524E+08
         0.21037E+08
        -0.52411E+08
         0.19919E+08
        -0.10057E+09
         0.23794E+08
         0.14552E+09
         0.26939E+08
         0.30521E+08
        -0.41080E+06
         0.91228E+07
        -0.36034E+08
         0.13658E+08
        -0.12138E+08
         0.91669E+08
        -0.11676E+08
        -0.23398E+08
        -0.10930E+09
        -0.60572E+07
         0.13087E+09
         0.54173E+08
         0.31937E+07
         0.23937E+08
        -0.10084E+09
         0.14998E+07
        -0.44765E+08
        -0.37949E+08
        -0.42356E+08
         0.35295E+08
        -0.67261E+08
         0.23632E+08
         0.95707E+08
         0.46803E+07
         0.55192E+08
         0.65787E+08
         0.62064E+07
        -0.11547E+09
        -0.11639E+09
        -0.19527E+08
         0.46986E+07
         0.42482E+08
         0.86780E+08
        -0.53590E+07
         0.42271E+08
         0.79300E+08
        -0.50982E+07
        -0.49401E+08
         0.36614E+08
         0.12375E+09
        -0.54264E+08
         0.35280E+08
        -0.76277E+08
         0.37294E+08
         0.49747E+08
         0.11203E+09
         0.13282E+09
         0.33122E+07
        -0.24300E+08
        -0.86554E+08
        -0.79533E+07
         0.78116E+06
         0.10920E+08
         0.20338E+08
         0.25592E+08
        -0.18114E+08
        -0.13071E+08
         0.79647E+08
        -0.35420E+08
         0.42230E+08
        -0.68535E+08
         0.42018E+08
        -0.59331E+07
        -0.75431E+07
        -0.33920E+08
        -0.59906E+08
         0.20206E+08
        -0.68334E+08
         0.26368E+08
         0.94842E+08
         0.24595E+08
        -0.41778E+08
         0.85541E+08
        -0.10524E+09
        -0.14062E+06
         0.13191E+09
         0.17594E+08
         0.75048E+08
        -0.23580E+08
        -0.69049E+08
        -0.28148E+08
        -0.24069E+08
         0.24494E+07
         0.90630E+08
        -0.60673E+08
        -0.81859E+08
        -0.76444E+08
        -0.10076E+08
         0.48520E+08
         0.18823E+08
        -0.42769E+08
         0.18306E+08
        -0.44417E+08
        -0.28166E+07
        -0.19554E+08
        -0.21467E+08
         0.64557E+07
        -0.61092E+08
        -0.29190E+08
         0.10788E+09
         0.18351E+09
        -0.35531E+08
         0.73342E+07
         0.66336E+08
         0.14041E+08
        -0.50692E+08
        -0.41408E+08
        -0.45521E+08
         0.25279E+08
         0.77254E+08
         0.10884E+09
         0.39700E+08
         0.78213E+08
         0.44313E+07
        -0.29767E+08
        -0.10206E+09
        -0.25073E+08
        -0.39209E+08
        -0.45547E+08
        -0.11747E+08
        -0.14781E+09
        -0.42466E+08
        -0.12549E+07
        -0.46068E+08
         0.57321E+08
        -0.36379E+08
        -0.28045E+08
         0.27695E+08
        -0.26641E+08
        -0.89924E+08
         0.27821E+08
         0.32488E+08
        -0.48072E+08
        -0.87757E+08
        -0.49699E+08
         0.91643E+08
        -0.64579E+08
         0.94305E+08
         0.12338E+08
         0.28378E+08
         0.16186E+08
         0.32274E+08
        -0.45262E+08
        -0.21377E+06
         0.13550E+08
        -0.42401E+08
         0.35045E+08
         0.73920E+08
         0.35123E+08
        -0.23381E+08
         0.73680E+08
        -0.52558E+08
        -0.29568E+08
         0.66821E+08
         0.31149E+08
         0.74225E+08
        -0.32672E+08
        -0.57822E+08
        -0.45603E+08
        -0.35055E+08
        -0.59131E+07
         0.47742E+08
        -0.10159E+09
        -0.11754E+09
        -0.72817E+08
        -0.10039E+08
        -0.59902E+08
         0.80098E+08
        -0.34746E+08
         0.17796E+08
         0.79143E+07
         0.30166E+07
        -0.20292E+08
         0.56529E+08
         0.30527E+08
        -0.51070E+08
        -0.15254E+08
         0.61025E+08
         0.15966E+09
         0.84207E+08
         0.93663E+08
         0.23501E+08
        -0.11213E+08
         0.78647E+07
        -0.15768E+08
        -0.40325E+07
         0.80534E+08
         0.94027E+08
         0.51436E+08
        -0.38611E+08
         0.51491E+08
        -0.15700E+08
        -0.98327E+08
        -0.97943E+08
         0.62707E+08
        -0.18793E+08
         0.53586E+08
         0.36864E+08
        -0.10620E+09
        -0.13467E+08
         0.16168E+08
        -0.72414E+08
        -0.17360E+08
        -0.50650E+08
         0.16161E+08
         0.96270E+08
         0.10914E+09
         0.45811E+07
        -0.37956E+08
        -0.28544E+06
        -0.49536E+08
        -0.94951E+08
        -0.51389E+08
         0.45015E+08
        -0.15951E+09
         0.24828E+08
        -0.96748E+08
         0.10014E+08
         0.46744E+08
        -0.17085E+08
        -0.30945E+07
        -0.43879E+08
         0.55002E+06
         0.28809E+08
         0.80330E+08
         0.58536E+08
         0.10694E+09
         0.75862E+07
        -0.93048E+08
        -0.78898E+07
        -0.91425E+05
        -0.46730E+08
         0.20053E+08
         0.68132E+08
        -0.52570E+08
         0.21652E+08
        -0.51496E+08
        -0.96692E+08
        -0.36646E+08
        -0.13605E+08
        -0.28302E+08
        -0.96364E+08
        -0.34834E+08
         0.53557E+08
        -0.11435E+09
        -0.56255E+08
        -0.47490E+08
        -0.23391E+08
         0.26461E+07
        -0.13462E+08
         0.39861E+08
        -0.31860E+08
        -0.57097E+08
        -0.37181E+08
         0.74754E+08
         0.24829E+08
         0.73990E+08
         0.83440E+08
         0.11831E+09
         0.38411E+08
         0.18779E+08
         0.49967E+08
        -0.67037E+07
        -0.31979E+08
         0.54210E+08
         0.63194E+08
         0.32479E+07
        -0.32918E+08
         0.59406E+08
         0.13040E+09
        -0.21766E+08
         0.36541E+08
         0.31876E+08
        -0.14235E+09
         0.41310E+07
         0.10431E+09
        -0.94457E+08
        -0.16289E+08
         0.20873E+08
        -0.94751E+08
        -0.88519E+08
        -0.63903E+08
         0.14969E+09
         0.94275E+08
        -0.40160E+08
        -0.12913E+09
         0.55835E+08
        -0.15060E+07
        -0.44773E+08
        -0.17078E+08
         0.33625E+08
         0.78104E+08
        -0.16284E+09
         0.97718E+08
        -0.16679E+08
        -0.30662E+08
         0.66651E+08
         0.35752E+08
         0.65822E+08
         0.93482E+07
        -0.18206E+08
         0.99952E+08
         0.59216E+08
        -0.26386E+08
         0.74486E+08
         0.32033E+07
        -0.83466E+08
         0.12322E+09
        -0.23520E+08
        -0.71077E+08
        -0.44863E+08
         0.60969E+08
        -0.45002E+08
         0.50100E+08
        -0.33709E+08
        -0.72246E+08
        -0.14848E+08
         0.39572E+08
         0.47954E+08
        -0.21415E+08
        -0.18354E+08
         0.12204E+08
        -0.52833E+08
        -0.29270E+08
        -0.13203E+07
        -0.64045E+06
         0.22082E+08
         0.49246E+08
         0.30671E+08
        -0.98926E+07
        -0.19939E+08
         0.54515E+08
         0.93528E+08
        -0.35006E+08
        -0.25929E+08
        -0.20968E+08
         0.65685E+08
         0.79107E+08
         0.64947E+08
         0.13991E+09
         0.54256E+08
         0.15092E+08
         0.53314E+08
        -0.28889E+07
        -0.12916E+09
        -0.14729E+09
        -0.64633E+08
         0.58399E+08
        -0.62310E+08
        -0.39358E+07
         0.91786E+08
        -0.17663E+09
        -0.52647E+08
         0.12406E+08
         0.19547E+08
        -0.84141E+07
         0.11480E+09
        -0.83748E+08
        -0.12289E+09
        -0.32984E+08
         0.66681E+08
         0.13968E+08
        -0.46952E+07
        -0.55066E+08
         0.86699E+07
        -0.80529E+08
        -0.10928E+09
        -0.63550E+08
         0.69093E+08
         0.98371E+08
        -0.40711E+08
         0.68366E+08
        -0.10857E+08
        -0.85558E+08
        -0.28800E+08
        -0.85338E+07
         0.79200E+08
        -0.21383E+08
        -0.42137E+07
        -0.98859E+07
         0.16264E+08
         0.18244E+08
         0.68799E+08
        -0.65855E+08
        -0.27601E+08
         0.97746E+08
        -0.41547E+08
        -0.36753E+08
        -0.77075E+08
         0.71050E+08
        -0.21119E+08
         0.64640E+08
        -0.57945E+08
        -0.31525E+08
        -0.11012E+08
        -0.12943E+07
         0.23950E+08
         0.12795E+08
        -0.67014E+08
         0.28524E+08
        -0.29457E+08
        -0.85321E+07
        -0.23277E+08
        -0.41592E+08
        -0.10011E+08
         0.10218E+09
         0.10729E+09
        -0.13191E+08
        -0.11386E+08
         0.26469E+08
         0.97243E+08
        -0.57548E+08
        -0.56438E+08
         0.24339E+08
         0.81570E+08
         0.27244E+08
         0.58573E+08
         0.15438E+09
         0.89897E+08
         0.14350E+08
         0.60947E+08
         0.17636E+08
        -0.87499E+08
        -0.11136E+09
        -0.29779E+08
         0.88681E+08
        -0.86677E+07
         0.11833E+09
         0.94040E+07
        -0.97164E+08
        -0.58740E+06
         0.27671E+08
        -0.67597E+08
         0.25943E+08
         0.60405E+08
        -0.43876E+08
        -0.80615E+08
         0.59520E+07
         0.47133E+08
         0.43488E+08
         0.17089E+08
        -0.85946E+08
         0.32551E+08
        -0.54319E+08
        -0.76321E+08
        -0.15060E+08
        -0.53608E+08
         0.11880E+08
        -0.23668E+08
         0.28910E+08
         0.57225E+08
        -0.70846E+08
         0.10074E+08
         0.13035E+08
         0.28037E+08
         0.77868E+07
        -0.14940E+08
         0.30664E+08
         0.54525E+08
        -0.36013E+08
         0.61350E+08
        -0.44311E+08
        -0.97989E+08
         0.80732E+08
         0.69710E+07
        -0.67485E+08
        -0.83812E+08
         0.60579E+08
        -0.29213E+07
         0.10408E+09
        -0.40256E+08
         0.22360E+08
        -0.19149E+08
        -0.32676E+08
         0.38459E+08
        -0.44570E+08
        -0.63456E+08
         0.52310E+08
        -0.35593E+08
        -0.37182E+08
        -0.10252E+09
        -0.63639E+07
        -0.28162E+07
         0.64160E+08
         0.15700E+08
        -0.21628E+08
        -0.41818E+08
         0.15567E+08
         0.12719E+09
        -0.47147E+08
        -0.29338E+08
         0.65360E+08
         0.80368E+08
        -0.28263E+08
         0.34283E+06
         0.10716E+09
         0.62950E+08
         0.96939E+07
         0.63072E+08
         0.63473E+07
        -0.94767E+08
        -0.95130E+08
        -0.72542E+08
         0.25065E+08
        -0.62357E+08
         0.10159E+09
        -0.35233E+08
        -0.69240E+08
         0.10985E+09
         0.14939E+08
        -0.85501E+08
        -0.76415E+07
         0.12008E+09
        -0.69851E+08
         0.74710E+07
         0.21292E+08
         0.84257E+08
        -0.40395E+07
         0.15359E+08
        -0.38852E+08
         0.89949E+08
        -0.74939E+08
        -0.12396E+09
        -0.56774E+08
        -0.86647E+08
         0.45417E+08
         0.84590E+08
         0.89518E+08
         0.28053E+08
        -0.40352E+08
         0.42781E+07
        -0.40230E+07
         0.18913E+08
         0.13141E+08
        -0.12557E+08
         0.56611E+08
        -0.36548E+08
        -0.11247E+08
         0.87362E+07
        -0.41290E+08
        -0.33558E+08
         0.97925E+08
        -0.65807E+08
        -0.45844E+08
        -0.91703E+08
         0.17036E+08
        -0.24308E+07
         0.45625E+08
        -0.52265E+08
         0.45115E+08
         0.59779E+07
        -0.16442E+08
         0.40281E+08
         0.25159E+08
        -0.24420E+08
        -0.26023E+07
        -0.37044E+08
         0.83612E+07
        -0.46163E+08
        -0.22309E+08
         0.11676E+08
         0.30875E+08
        -0.81253E+07
        -0.33811E+08
        -0.59326E+08
         0.16531E+07
         0.78852E+08
        -0.34818E+08
        -0.43472E+08
         0.33913E+07
         0.79119E+08
        -0.22186E+08
         0.99516E+07
         0.10167E+09
         0.10299E+08
        -0.28956E+08
         0.45069E+08
         0.27725E+08
        -0.68515E+08
        -0.77456E+08
        -0.61885E+08
        -0.94529E+07
         0.15689E+08
         0.81855E+08
        -0.71149E+08
        -0.11165E+09
        -0.58180E+08
        -0.11747E+08
        -0.46195E+08
         0.20619E+08
         0.37120E+08
        -0.98627E+08
        -0.23924E+08
        -0.50768E+08
        -0.16017E+08
        -0.56738E+08
        -0.70512E+08
        -0.10848E+09
         0.42406E+08
        -0.12396E+09
        -0.11468E+09
         0.52908E+08
        -0.19591E+08
         0.42557E+08
         0.13556E+09
         0.11506E+09
         0.10072E+09
        -0.28584E+08
        -0.32017E+08
         0.54133E+07
         0.50220E+08
         0.91759E+07
        -0.28004E+08
         0.11058E+08
        -0.21838E+08
         0.21082E+07
         0.18376E+08
        -0.50045E+06
        -0.40252E+07
         0.51440E+08
         0.67845E+07
        -0.18364E+07
        -0.41689E+08
         0.24203E+08
         0.35875E+08
         0.37051E+08
        -0.18377E+08
         0.26253E+08
         0.18418E+08
        -0.26931E+08
         0.11770E+08
        -0.43837E+07
        -0.48300E+08
         0.29969E+08
        -0.40824E+08
        -0.42049E+08
        -0.57116E+08
        -0.38769E+08
        -0.34501E+08
         0.28096E+08
         0.47934E+07
        -0.37335E+08
        -0.78635E+08
        -0.54688E+08
         0.84876E+08
        -0.12950E+08
        -0.17692E+08
         0.32580E+08
         0.37321E+08
         0.30040E+07
        -0.38157E+08
         0.17522E+07
        -0.16416E+08
        -0.24108E+08
         0.31222E+08
        -0.13146E+07
        -0.38150E+08
        -0.52944E+08
        -0.65950E+08
        -0.24766E+08
        -0.24083E+08
         0.36390E+08
        -0.10709E+08
        -0.96948E+07
         0.55089E+08
         0.40318E+08
        -0.14078E+08
        -0.11632E+08
         0.85690E+08
        -0.19686E+08
         0.52932E+08
         0.11762E+08
        -0.79392E+07
        -0.30735E+08
         0.12355E+08
        -0.31538E+08
         0.10683E+08
        -0.47867E+08
        -0.44080E+08
        -0.55213E+08
        -0.53830E+08
         0.87945E+08
         0.12030E+09
        -0.10593E+07
        -0.17519E+07
        -0.16336E+08
        -0.17931E+08
         0.19625E+08
         0.32574E+08
         0.21799E+08
         0.11322E+08
         0.11250E+08
        -0.29154E+08
         0.50658E+08
         0.15378E+08
        -0.22211E+07
        -0.20102E+08
         0.37220E+07
        -0.29097E+08
        -0.76914E+07
        -0.22563E+08
         0.39688E+08
         0.40353E+08
         0.15422E+08
        -0.40136E+08
         0.16745E+08
        -0.23258E+08
        -0.43428E+08
         0.97652E+07
         0.34699E+08
        -0.27817E+08
        -0.39560E+08
        -0.24838E+08
         0.15773E+08
        -0.23658E+08
        -0.28537E+08
        -0.13723E+08
         0.54800E+07
        -0.12211E+08
        -0.29080E+08
        -0.36378E+08
        -0.31731E+08
         0.98205E+07
        -0.29909E+08
         0.17339E+08
        -0.44831E+07
         0.69527E+08
         0.59076E+07
        -0.76425E+08
        -0.20323E+08
         0.29656E+07
         0.79542E+07
         0.41013E+08
         0.34284E+08
         0.22867E+07
         0.28680E+08
        -0.13333E+08
        -0.80140E+08
        -0.50824E+08
         0.26617E+08
        -0.24780E+08
        -0.64169E+08
        -0.45578E+07
         0.64158E+08
        -0.10462E+08
         0.28171E+08
         0.92280E+08
        -0.83675E+08
         0.27699E+08
         0.32117E+08
        -0.21091E+08
         0.36769E+08
        -0.30541E+08
        -0.68271E+08
         0.17388E+08
         0.33755E+08
        -0.42840E+08
         0.15454E+08
         0.19016E+08
         0.12150E+09
         0.19584E+09
         0.88446E+08
         0.19202E+08
        -0.80716E+07
         0.13004E+08
         0.10203E+08
         0.42418E+07
         0.22275E+08
         0.24810E+07
         0.31726E+08
        -0.11635E+08
         0.24794E+08
        -0.93487E+07
         0.16627E+08
        -0.12240E+08
         0.79218E+07
         0.59617E+07
         0.19216E+08
        -0.15241E+06
         0.24687E+08
         0.15153E+08
         0.12164E+08
         0.48332E+07
        -0.21346E+08
         0.10754E+08
        -0.39792E+08
         0.14246E+08
        -0.20645E+08
         0.10493E+08
        -0.20833E+08
        -0.47713E+08
        -0.27364E+08
         0.10328E+08
        -0.32095E+08
        -0.62149E+07
        -0.39098E+07
         0.50110E+07
        -0.52001E+07
        -0.19838E+08
        -0.21975E+08
         0.55370E+08
        -0.19475E+08
        -0.27484E+08
        -0.15356E+08
         0.63705E+08
         0.58853E+08
        -0.40280E+08
        -0.29520E+08
        -0.41827E+08
        -0.35460E+08
         0.10142E+08
         0.37530E+08
         0.23442E+08
         0.16450E+08
        -0.94712E+07
         0.44045E+07
         0.57324E+08
         0.34738E+08
        -0.79786E+08
        -0.10569E+09
         0.18282E+08
         0.17067E+07
        -0.36527E+08
         0.43586E+08
         0.81484E+08
        -0.77342E+08
         0.16573E+08
         0.34711E+07
        -0.99333E+08
         0.20245E+08
        -0.14948E+08
        -0.91351E+08
        -0.54893E+08
        -0.42285E+08
        -0.36070E+08
         0.94649E+07
         0.54547E+08
         0.69249E+08
         0.53364E+08
         0.51582E+08
         0.67687E+08
        -0.10568E+08
        -0.85753E+07
        -0.15173E+08
         0.26988E+08
        -0.11890E+08
         0.90998E+06
         0.27931E+08
        -0.80911E+07
         0.44852E+07
        -0.19045E+08
         0.95512E+07
        -0.35201E+08
        -0.15984E+08
        -0.14666E+08
        -0.33811E+08
        -0.30715E+08
         0.76462E+07
         0.19552E+08
        -0.34002E+08
        -0.31089E+07
        -0.19564E+08
         0.20715E+08
        -0.77373E+08
        -0.28855E+08
         0.27234E+08
        -0.42964E+08
        -0.14557E+08
         0.14572E+08
         0.34795E+08
         0.20947E+08
        -0.37559E+08
        -0.38973E+08
         0.28340E+08
         0.45441E+08
        -0.22726E+08
        -0.25989E+08
        -0.42725E+08
         0.81772E+07
         0.15041E+08
         0.50026E+08
         0.13824E+08
         0.13273E+08
         0.16061E+08
        -0.79103E+08
        -0.41004E+08
        -0.20494E+08
        -0.35654E+08
        -0.10416E+08
         0.47154E+08
         0.51817E+08
         0.18411E+08
         0.72743E+07
         0.17452E+08
        -0.73840E+07
         0.60768E+08
        -0.27125E+08
        -0.55998E+08
         0.53425E+08
        -0.16306E+08
        -0.26228E+08
         0.31740E+07
         0.45311E+08
         0.28406E+08
        -0.42606E+07
         0.91071E+06
        -0.12359E+07
         0.70130E+08
         0.48376E+08
        -0.65756E+08
         0.19490E+07
         0.19236E+08
        -0.51076E+08
         0.18066E+07
         0.39319E+08
         0.18689E+08
         0.32710E+08
         0.71568E+08
         0.40386E+08
        -0.56488E+07
        -0.10613E+08
        -0.68939E+07
         0.13172E+08
         0.34410E+08
         0.99120E+07
         0.42771E+08
         0.32440E+08
         0.25317E+08
        -0.74331E+07
         0.74781E+08
         0.15795E+08
        -0.51708E+08
         0.59380E+08
         0.60368E+08
         0.24303E+08
         0.16767E+08
         0.26470E+07
         0.20095E+08
        -0.79902E+07
         0.17639E+08
         0.17548E+08
        -0.46276E+08
         0.14416E+08
        -0.29574E+08
         0.28324E+08
        -0.18726E+08
        -0.39713E+08
        -0.17587E+08
        -0.37822E+08
        -0.72244E+07
         0.14751E+08
         0.45480E+07
         0.97635E+07
         0.12912E+08
        -0.38277E+08
        -0.66194E+08
         0.26472E+08
        -0.12786E+07
         0.22066E+08
         0.47728E+08
         0.22861E+08
        -0.62482E+07
        -0.45377E+08
        -0.11246E+08
        -0.31394E+07
        -0.10287E+08
        -0.13738E+08
         0.13830E+08
         0.14405E+08
        -0.55318E+07
        -0.12284E+08
         0.50521E+08
         0.46306E+08
         0.13959E+08
        -0.58925E+08
        -0.15064E+09
        -0.27546E+08
        -0.24614E+07
        -0.14416E+08
        -0.96888E+07
        -0.15594E+07
         0.61511E+08
         0.94735E+08
         0.91276E+07
         0.11210E+08
        -0.33759E+07
        -0.63758E+08
        -0.43787E+08
        -0.20054E+08
         0.95464E+07
        -0.93451E+05
         0.17166E+08
         0.45082E+08
         0.35425E+08
        -0.15832E+08
        -0.35874E+06
         0.83575E+06
        -0.32374E+08
         0.15632E+07
        -0.22863E+08
         0.28195E+07
        -0.14352E+08
        -0.12548E+08
         0.39537E+07
        -0.47115E+08
         0.13962E+08
        -0.98171E+07
         0.33476E+07
         0.16571E+08
         0.20805E+08
        -0.21792E+08
        -0.81555E+07
        -0.11937E+08
        -0.78985E+07
         0.30349E+08
        -0.52351E+08
        -0.42556E+08
        -0.10804E+08
        -0.23125E+06
        -0.32762E+08
        -0.34885E+08
         0.18229E+08
        -0.11178E+08
         0.12449E+08
         0.49777E+08
         0.17413E+08
        -0.57809E+07
         0.39445E+07
         0.21068E+08
         0.18719E+08
         0.18988E+08
        -0.29199E+08
        -0.22140E+08
         0.18449E+08
         0.11524E+08
         0.43813E+08
         0.12397E+08
        -0.43343E+08
        -0.56581E+07
         0.98209E+07
        -0.34877E+08
        -0.22865E+07
         0.16060E+08
         0.48743E+07
        -0.20764E+08
        -0.26646E+07
         0.11362E+08
         0.77350E+07
        -0.55078E+07
         0.62887E+06
        -0.12177E+08
         0.22345E+08
         0.76818E+08
         0.51754E+08
         0.88312E+08
        -0.13981E+08
        -0.82116E+08
        -0.12985E+08
        -0.47265E+08
        -0.12095E+09
        -0.32111E+08
         0.14701E+08
        -0.16755E+08
         0.10476E+09
         0.72556E+08
         0.41235E+07
        -0.83395E+07
         0.10626E+08
         0.34853E+08
         0.25009E+08
        -0.11849E+08
        -0.15432E+08
        -0.51447E+07
        -0.14861E+07
        -0.27176E+08
         0.95454E+07
         0.53470E+08
         0.89733E+07
        -0.15550E+08
        -0.62858E+07
        -0.26741E+08
         0.37560E+08
         0.32864E+08
         0.18451E+08
         0.32431E+08
         0.11556E+08
        -0.71348E+07
         0.46022E+07
         0.61976E+07
         0.53834E+07
        -0.91666E+07
         0.72805E+07
        -0.18324E+08
         0.35190E+06
        -0.15494E+08
         0.38349E+08
         0.15212E+08
         0.12349E+08
         0.12779E+07
         0.75349E+07
         0.25547E+08
         0.26088E+07
        -0.26101E+08
        -0.53257E+08
        -0.45225E+08
        -0.78505E+07
         0.32444E+08
        -0.20589E+08
        -0.15649E+08
        -0.84905E+07
         0.10496E+08
         0.50491E+08
        -0.26509E+07
        -0.23172E+08
        -0.68160E+08
        -0.32662E+08
        -0.42149E+08
        -0.28858E+08
         0.16168E+08
         0.46475E+08
         0.12539E+08
        -0.12526E+08
        -0.20276E+08
        -0.11796E+08
        -0.45229E+07
        -0.22593E+08
        -0.40227E+08
        -0.15513E+08
        -0.49152E+07
        -0.21390E+07
        -0.32288E+08
        -0.78427E+08
        -0.22751E+08
         0.16551E+08
         0.32112E+08
         0.22829E+08
         0.48768E+08
         0.27592E+08
         0.57084E+08
         0.34994E+08
        -0.25369E+08
        -0.68348E+07
        -0.22417E+08
        -0.46453E+07
         0.33521E+08
        -0.11126E+08
        -0.16238E+08
         0.15060E+08
         0.73932E+07
         0.72916E+07
        -0.29012E+08
        -0.12283E+08
        -0.32238E+07
         0.18816E+08
         0.29767E+08
         0.86879E+07
         0.87912E+07
         0.23534E+08
         0.16538E+08
         0.15388E+08
        -0.67487E+07
         0.19782E+08
         0.14017E+08
        -0.36144E+08
        -0.10405E+08
         0.29965E+08
        -0.53472E+08
        -0.62049E+08
        -0.13707E+08
        -0.13828E+08
         0.82075E+07
        -0.25414E+08
        -0.30593E+08
         0.21310E+08
         0.15091E+08
         0.16185E+08
         0.29947E+07
         0.11645E+08
         0.21514E+08
        -0.15960E+08
         0.47867E+07
         0.31940E+07
        -0.87703E+07
         0.39265E+08
         0.59570E+08
         0.24091E+08
        -0.14038E+06
        -0.19382E+08
        -0.18472E+08
         0.27279E+08
        -0.28060E+08
        -0.11494E+08
        -0.38620E+08
        -0.58971E+07
         0.12617E+08
         0.45262E+07
         0.80712E+07
         0.57281E+07
        -0.18089E+08
         0.32873E+08
         0.29354E+08
         0.13904E+08
        -0.38909E+07
        -0.39876E+08
        -0.27651E+08
        -0.36486E+08
         0.14076E+08
        -0.40148E+08
        -0.50450E+08
         0.15503E+08
         0.64745E+08
        -0.21685E+07
         0.31592E+08
         0.33472E+08
        -0.90995E+08
        -0.27436E+08
         0.68723E+08
        -0.73027E+07
        -0.28276E+08
        -0.91409E+07
         0.32641E+08
         0.51086E+08
        -0.59045E+08
        -0.96539E+08
        -0.38661E+08
         0.57770E+07
        -0.49100E+08
        -0.64208E+07
        -0.63387E+08
        -0.37525E+08
         0.33880E+08
         0.41494E+06
         0.15988E+08
        -0.27850E+08
        -0.25464E+08
        -0.14327E+08
        -0.26038E+08
         0.44447E+08
         0.19210E+08
        -0.11189E+07
        -0.54105E+07
         0.22723E+08
         0.13724E+08
         0.12843E+08
         0.14708E+08
         0.43951E+07
         0.30890E+08
         0.22074E+08
         0.51945E+03
         0.51417E+08
         0.15289E+08
         0.49044E+08
        -0.49038E+07
         0.11762E+08
         0.15386E+08
        -0.25701E+08
         0.70916E+07
        -0.49709E+07
        -0.50246E+08
        -0.57115E+08
        -0.52134E+08
         0.32330E+08
         0.14429E+08
         0.35109E+08
         0.15996E+08
         0.35970E+08
         0.44809E+08
         0.44557E+08
        -0.86438E+07
        -0.37427E+08
        -0.44627E+08
        -0.12755E+08
        -0.52943E+08
        -0.50200E+08
         0.19939E+07
         0.39113E+08
         0.62638E+08
         0.39238E+08
         0.14941E+08
        -0.46513E+07
        -0.27810E+08
        -0.33591E+08
        -0.18935E+08
         0.11153E+09
         0.22323E+08
         0.13147E+09
         0.21954E+08
        -0.14892E+08
         0.35702E+08
        -0.16287E+08
        -0.26271E+08
         0.57783E+07
        -0.21023E+08
         0.41902E+08
        -0.29027E+08
        -0.46415E+08
         0.13277E+08
         0.25410E+07
         0.26359E+08
         0.42541E+08
         0.80765E+08
         0.11376E+09
         0.55884E+07
        -0.36374E+08
        -0.65317E+08
        -0.74406E+08
        -0.79790E+08
        -0.44100E+08
        -0.24656E+08
        -0.33676E+07
        -0.23468E+08
        -0.62968E+07
        -0.15974E+07
         0.32453E+08
         0.15057E+07
        -0.83265E+07
        -0.43271E+07
        -0.16154E+08
        -0.11855E+08
        -0.18301E+07
         0.83903E+06
         0.41401E+07
         0.42808E+07
        -0.11057E+08
         0.13289E+08
        -0.21662E+08
        -0.23638E+07
         0.11100E+08
        -0.34223E+07
        -0.69260E+07
        -0.21404E+08
         0.37497E+08
         0.26037E+08
        -0.14409E+08
         0.21181E+08
        -0.26180E+08
        -0.23384E+08
         0.22844E+07
         0.35672E+06
         0.10479E+06
         0.11057E+08
        -0.16895E+08
        -0.11734E+08
         0.23748E+08
        -0.89309E+07
        -0.65786E+07
        -0.36528E+08
        -0.34711E+08
         0.79126E+07
         0.28942E+08
         0.18739E+07
        -0.55286E+07
         0.16700E+08
         0.18292E+08
         0.21097E+08
         0.16362E+08
        -0.44006E+07
        -0.21803E+08
        -0.10156E+08
        -0.80774E+07
        -0.10476E+08
         0.28381E+08
         0.42978E+08
        -0.45729E+08
         0.95015E+07
         0.49680E+08
         0.59065E+07
        -0.14165E+08
         0.99273E+07
        -0.33313E+08
         0.18400E+08
         0.26565E+08
         0.52723E+07
         0.86792E+07
        -0.67279E+08
        -0.57702E+07
         0.51486E+08
         0.48518E+08
         0.52708E+07
         0.16112E+08
         0.88627E+07
         0.19526E+08
        -0.42265E+08
        -0.13941E+08
        -0.61382E+07
        -0.55977E+07
        -0.15529E+08
         0.25908E+07
        -0.61145E+07
        -0.65019E+07
        -0.15857E+08
        -0.62600E+07
        -0.16378E+08
         0.84233E+06
         0.47617E+07
        -0.71825E+06
        -0.27517E+07
         0.17963E+08
         0.13338E+08
         0.67401E+07
        -0.26436E+07
         0.16141E+07
         0.15364E+08
         0.21463E+07
         0.64334E+07
        -0.16047E+08
         0.38751E+07
         0.14618E+08
         0.34651E+07
         0.24749E+08
        -0.62306E+06
         0.94415E+06
         0.10181E+08
        -0.90903E+07
         0.23148E+08
         0.32629E+08
         0.20501E+08
         0.76486E+07
         0.18176E+08
        -0.16311E+08
        -0.20226E+08
         0.18207E+08
         0.28701E+08
         0.35724E+08
        -0.18789E+08
         0.62905E+07
         0.25631E+08
         0.52433E+07
         0.24155E+07
         0.33249E+06
         0.23770E+08
         0.22586E+08
         0.61420E+07
         0.10251E+08
         0.10084E+08
        -0.12859E+08
        -0.19189E+08
        -0.16312E+08
        -0.16012E+08
         0.24285E+07
        -0.96755E+07
         0.35499E+08
         0.72563E+08
         0.32391E+08
        -0.17575E+08
        -0.95619E+07
        -0.38869E+07
        -0.45084E+08
         0.44753E+08
        -0.22288E+08
        -0.47573E+08
        -0.57660E+08
         0.37745E+08
         0.23089E+08
        -0.18535E+07
         0.22502E+08
         0.28598E+08
         0.38639E+07
         0.22094E+08
        -0.54956E+07
         0.15086E+08
         0.24041E+08
         0.21939E+07
        -0.20348E+08
        -0.27376E+08
        -0.27439E+07
        -0.79457E+07
        -0.14181E+08
         0.29994E+07
        -0.12430E+08
        -0.16252E+08
        -0.17673E+08
        -0.82841E+07
         0.43069E+06
        -0.14594E+08
        -0.37741E+08
        -0.49090E+08
        -0.35393E+08
        -0.33578E+08
        -0.11771E+08
        -0.16976E+08
         0.85446E+07
        -0.48169E+06
        -0.21965E+08
        -0.17277E+08
         0.31218E+07
        -0.21209E+08
         0.45753E+07
        -0.93050E+07
         0.11240E+08
        -0.14174E+08
        -0.10774E+08
         0.19713E+08
        -0.79917E+07
         0.11475E+08
        -0.34261E+07
        -0.16850E+08
         0.10877E+08
         0.14046E+08
         0.11701E+08
         0.11154E+08
        -0.11662E+08
         0.58830E+07
        -0.14445E+07
        -0.23695E+08
        -0.41697E+08
        -0.29744E+08
        -0.19689E+08
         0.10244E+07
        -0.10986E+08
        -0.57619E+07
        -0.15017E+08
         0.48572E+07
         0.39372E+07
        -0.11787E+07
        -0.17698E+08
        -0.21312E+08
         0.32576E+08
        -0.37631E+07
         0.83556E+08
        -0.26627E+08
         0.45539E+07
         0.20956E+08
         0.43585E+07
         0.61586E+07
        -0.30990E+08
         0.28331E+07
        -0.54936E+08
         0.75226E+08
        -0.26328E+08
         0.13041E+08
         0.50656E+08
         0.28238E+08
         0.70098E+08
         0.35892E+08
         0.44329E+08
         0.31467E+08
         0.70785E+07
        -0.22103E+08
        -0.30312E+08
        -0.67252E+08
        -0.71560E+08
        -0.26297E+08
         0.19110E+08
        -0.34017E+07
        -0.20033E+08
         0.35114E+07
         0.19888E+08
        -0.26740E+08
         0.32587E+08
         0.37927E+08
         0.66815E+07
        -0.16947E+08
        -0.20472E+08
        -0.79502E+08
        -0.26445E+08
         0.76768E+07
        -0.34592E+08
         0.11463E+08
         0.19006E+08
        -0.86022E+07
        -0.71173E+07
         0.22948E+08
        -0.11946E+08
        -0.18042E+08
        -0.90141E+07
         0.34067E+07
         0.75438E+07
         0.12423E+08
         0.24423E+06
        -0.35304E+08
        -0.26672E+08
         0.66643E+08
         0.27843E+08
        -0.90380E+07
         0.20172E+08
         0.28516E+08
        -0.57683E+07
        -0.27984E+08
        -0.32615E+08
         0.13424E+08
        -0.63855E+08
        -0.39309E+08
        -0.29579E+08
        -0.37318E+07
         0.16273E+08
        -0.33208E+08
        -0.10651E+08
         0.30748E+07
        -0.42701E+08
         0.70312E+07
         0.13938E+07
        -0.45894E+08
        -0.24749E+08
        -0.48175E+08
        -0.44277E+08
         0.38304E+07
         0.56696E+08
        -0.72715E+08
         0.74989E+07
        -0.42297E+08
        -0.69055E+08
         0.17441E+08
         0.50125E+08
         0.11566E+09
         0.43987E+08
        -0.19534E+07
        -0.15307E+08
        -0.38644E+08
         0.20278E+08
         0.72204E+08
        -0.90072E+07
        -0.41947E+07
         0.13363E+09
        -0.36266E+07
        -0.38663E+08
        -0.27953E+08
        -0.95261E+08
         0.91864E+07
        -0.10377E+09
        -0.11115E+08
  
SCALARS                      strain_xx  double 1
LOOKUP_TABLE default
         0.90759E+00
         0.68318E+00
         0.55961E+00
         0.78386E+00
         0.92263E+00
         0.70550E+00
         0.53981E+00
         0.85219E+00
         0.33951E+00
         0.42536E+00
         0.33792E+00
         0.55969E+00
         0.69492E+00
         0.89690E+00
         0.66995E+00
         0.92708E+00
         0.10292E+01
         0.10144E+01
         0.11167E+01
         0.11314E+01
         0.70703E+00
         0.61469E+00
         0.53237E+00
         0.64040E+00
         0.60397E+00
         0.52823E+00
         0.86948E+00
         0.78328E+00
         0.88513E+00
         0.89016E+00
         0.90342E+00
         0.95506E+00
         0.10013E+01
         0.95944E+00
         0.10025E+01
         0.10893E+01
         0.70461E+00
         0.71732E+00
         0.71770E+00
         0.76926E+00
         0.41858E+00
         0.39470E+00
         0.45663E+00
         0.41745E+00
         0.45946E+00
         0.63602E+00
         0.53234E+00
         0.64729E+00
         0.95925E+00
         0.10419E+01
         0.71286E+00
         0.69302E+00
         0.96416E+00
         0.11044E+01
         0.88913E+00
         0.97407E+00
         0.65747E+00
         0.69506E+00
         0.64185E+00
         0.74113E+00
         0.91428E+00
         0.74214E+00
         0.10214E+01
         0.73587E+00
         0.92236E+00
         0.10463E+01
         0.71331E+00
         0.69183E+00
         0.31497E+00
         0.38319E+00
         0.45758E+00
         0.45407E+00
         0.47955E+00
         0.55389E+00
         0.86965E+00
         0.10011E+01
         0.80316E+00
         0.88598E+00
         0.59225E+00
         0.64391E+00
         0.42318E+00
         0.39337E+00
         0.49823E+00
         0.38575E+00
         0.40679E+00
         0.47623E+00
         0.50706E+00
         0.56205E+00
         0.53174E+00
         0.53187E+00
         0.59716E+00
         0.73239E+00
         0.58967E+00
         0.79018E+00
         0.84136E+00
         0.98460E+00
         0.81263E+00
         0.93027E+00
         0.62732E+00
         0.71492E+00
         0.45875E+00
         0.40796E+00
         0.52893E+00
         0.34219E+00
         0.24013E+00
         0.19021E+00
         0.41016E+00
         0.34251E+00
         0.25172E+00
         0.41640E+00
         0.35815E+00
         0.48118E+00
         0.40449E+00
         0.48611E+00
         0.53485E+00
         0.60372E+00
         0.67960E+00
         0.76998E+00
         0.68162E+00
         0.75685E+00
         0.60289E+00
         0.72820E+00
         0.47985E+00
         0.61686E+00
         0.33543E+00
         0.45234E+00
         0.21622E+00
         0.32019E+00
         0.21901E+00
         0.37791E+00
         0.18551E+00
         0.36470E+00
         0.20287E+00
         0.35654E+00
         0.30607E+00
         0.43900E+00
         0.39757E+00
         0.53531E+00
         0.38274E+00
         0.49208E+00
         0.54750E+00
         0.61526E+00
         0.67082E+00
         0.76399E+00
         0.65236E+00
         0.72522E+00
         0.62008E+00
         0.66795E+00
         0.49645E+00
         0.61457E+00
         0.35276E+00
         0.48779E+00
         0.24193E+00
         0.33524E+00
         0.25983E+00
         0.43481E+00
         0.87070E+00
         0.67180E+00
         0.53811E+00
         0.75666E+00
         0.28641E+00
         0.35739E+00
         0.67711E+00
         0.83844E+00
         0.94910E+00
         0.94138E+00
         0.65846E+00
         0.56430E+00
         0.52983E+00
         0.78844E+00
         0.69777E+00
         0.84961E+00
         0.90067E+00
         0.94497E+00
         0.67291E+00
         0.68155E+00
         0.38442E+00
         0.35299E+00
         0.42670E+00
         0.60659E+00
         0.89334E+00
         0.66959E+00
         0.88499E+00
         0.81966E+00
         0.60641E+00
         0.65385E+00
         0.84484E+00
         0.68403E+00
         0.85825E+00
         0.66315E+00
         0.21777E+00
         0.33094E+00
         0.46358E+00
         0.78240E+00
         0.71234E+00
         0.51334E+00
         0.32918E+00
         0.33576E+00
         0.33966E+00
         0.47995E+00
         0.50053E+00
         0.53563E+00
         0.66689E+00
         0.77180E+00
         0.73292E+00
         0.54651E+00
         0.37442E+00
         0.37074E+00
         0.51315E-01
         0.11746E-01
         0.10614E+00
         0.26174E+00
         0.34981E+00
         0.45473E+00
         0.59551E+00
         0.61433E+00
         0.51218E+00
         0.34857E+00
         0.21517E+00
         0.87413E-01
         0.46397E-01
         0.13194E-01
         0.40945E-01
         0.16264E+00
         0.27335E+00
         0.31630E+00
         0.47179E+00
         0.59809E+00
         0.59074E+00
         0.55137E+00
         0.40113E+00
         0.25310E+00
         0.14990E+00
         0.81287E-01
         0.79891E+00
         0.62984E+00
         0.50056E+00
         0.70377E+00
         0.22794E+00
         0.30461E+00
         0.62551E+00
         0.75577E+00
         0.83910E+00
         0.83737E+00
         0.59599E+00
         0.50445E+00
         0.48382E+00
         0.69932E+00
         0.61283E+00
         0.77221E+00
         0.82095E+00
         0.84445E+00
         0.62894E+00
         0.64323E+00
         0.34510E+00
         0.31783E+00
         0.37491E+00
         0.55517E+00
         0.81572E+00
         0.60723E+00
         0.77997E+00
         0.73642E+00
         0.54619E+00
         0.60838E+00
         0.75300E+00
         0.60560E+00
         0.76613E+00
         0.60072E+00
         0.14643E+00
         0.27419E+00
         0.41833E+00
         0.68629E+00
         0.62234E+00
         0.43577E+00
         0.25363E+00
         0.27524E+00
         0.29398E+00
         0.42411E+00
         0.43683E+00
         0.45896E+00
         0.58232E+00
         0.68108E+00
         0.64438E+00
         0.46991E+00
         0.30462E+00
         0.31333E+00
        -0.72189E-01
        -0.12531E+00
        -0.16593E-01
         0.18595E+00
         0.30668E+00
         0.38684E+00
         0.50669E+00
         0.53717E+00
         0.41416E+00
         0.23533E+00
         0.13310E+00
         0.17896E-01
        -0.42841E-01
        -0.90139E-01
        -0.70393E-01
         0.49096E-01
         0.19353E+00
         0.26283E+00
         0.39463E+00
         0.50910E+00
         0.51882E+00
         0.46548E+00
         0.28875E+00
         0.17079E+00
         0.38636E-01
        -0.83530E-01
         0.69093E+00
         0.55669E+00
         0.43678E+00
         0.62147E+00
         0.17567E+00
         0.25238E+00
         0.54932E+00
         0.64718E+00
         0.70563E+00
         0.71584E+00
         0.51821E+00
         0.44098E+00
         0.42822E+00
         0.59942E+00
         0.52416E+00
         0.66519E+00
         0.71310E+00
         0.72917E+00
         0.55050E+00
         0.57765E+00
         0.29336E+00
         0.27848E+00
         0.30532E+00
         0.47282E+00
         0.71502E+00
         0.51851E+00
         0.67034E+00
         0.63286E+00
         0.46540E+00
         0.54110E+00
         0.65006E+00
         0.51595E+00
         0.66353E+00
         0.51986E+00
         0.86821E-01
         0.21295E+00
         0.36092E+00
         0.58178E+00
         0.52140E+00
         0.35120E+00
         0.18756E+00
         0.21965E+00
         0.25096E+00
         0.35203E+00
         0.36876E+00
         0.38696E+00
         0.49686E+00
         0.58710E+00
         0.55023E+00
         0.39144E+00
         0.24757E+00
         0.26239E+00
        -0.13293E+00
        -0.16621E+00
        -0.92886E-01
         0.13722E+00
         0.27403E+00
         0.33396E+00
         0.43372E+00
         0.45782E+00
         0.34311E+00
         0.16329E+00
         0.94090E-01
        -0.16962E-01
        -0.85468E-01
        -0.12560E+00
        -0.98285E-01
         0.35238E-02
         0.14132E+00
         0.22931E+00
         0.33327E+00
         0.43308E+00
         0.45281E+00
         0.39820E+00
         0.20836E+00
         0.12557E+00
         0.30316E-02
        -0.13529E+00
         0.57310E+00
         0.47175E+00
         0.35807E+00
         0.51872E+00
         0.11826E+00
         0.19034E+00
         0.46515E+00
         0.53279E+00
         0.57407E+00
         0.58547E+00
         0.43287E+00
         0.37231E+00
         0.36714E+00
         0.49406E+00
         0.43348E+00
         0.55127E+00
         0.58724E+00
         0.60247E+00
         0.45870E+00
         0.48637E+00
         0.23001E+00
         0.22215E+00
         0.23193E+00
         0.38298E+00
         0.58620E+00
         0.42478E+00
         0.55467E+00
         0.51765E+00
         0.37389E+00
         0.44873E+00
         0.54189E+00
         0.42658E+00
         0.55453E+00
         0.42996E+00
         0.29641E-01
         0.14986E+00
         0.29772E+00
         0.48064E+00
         0.42384E+00
         0.27312E+00
         0.14648E+00
         0.17592E+00
         0.20235E+00
         0.27666E+00
         0.30365E+00
         0.32226E+00
         0.41069E+00
         0.48530E+00
         0.45172E+00
         0.31285E+00
         0.18987E+00
         0.20178E+00
        -0.17383E+00
        -0.18386E+00
        -0.13593E+00
         0.91713E-01
         0.22654E+00
         0.28350E+00
         0.36473E+00
         0.38579E+00
         0.29713E+00
         0.15414E+00
         0.12423E+00
         0.57709E-02
        -0.91306E-01
        -0.13441E+00
        -0.10477E+00
        -0.19051E-01
         0.10275E+00
         0.19918E+00
         0.28538E+00
         0.36487E+00
         0.38145E+00
         0.33148E+00
         0.15988E+00
         0.93547E-01
        -0.22833E-01
        -0.16304E+00
         0.45461E+00
         0.38394E+00
         0.28583E+00
         0.41027E+00
         0.10630E+00
         0.16425E+00
         0.38634E+00
         0.42662E+00
         0.45496E+00
         0.46264E+00
         0.35768E+00
         0.31967E+00
         0.32205E+00
         0.39408E+00
         0.35193E+00
         0.43406E+00
         0.46280E+00
         0.47654E+00
         0.36575E+00
         0.38859E+00
         0.19707E+00
         0.19149E+00
         0.19685E+00
         0.30524E+00
         0.45403E+00
         0.33797E+00
         0.43701E+00
         0.39725E+00
         0.29208E+00
         0.35464E+00
         0.43256E+00
         0.34490E+00
         0.44210E+00
         0.34549E+00
         0.32611E-01
         0.12215E+00
         0.25152E+00
         0.38302E+00
         0.33421E+00
         0.22068E+00
         0.14417E+00
         0.16386E+00
         0.17865E+00
         0.23389E+00
         0.26170E+00
         0.27737E+00
         0.33537E+00
         0.38679E+00
         0.35989E+00
         0.25751E+00
         0.16966E+00
         0.17666E+00
        -0.10549E+00
        -0.96550E-01
        -0.94525E-01
         0.86703E-01
         0.20828E+00
         0.25771E+00
         0.31768E+00
         0.31928E+00
         0.26105E+00
         0.16509E+00
         0.16415E+00
         0.38637E-01
        -0.51787E-01
        -0.76898E-01
        -0.40989E-01
         0.24473E-01
         0.11998E+00
         0.20465E+00
         0.26321E+00
         0.31222E+00
         0.31465E+00
         0.28431E+00
         0.15304E+00
         0.10725E+00
         0.16898E-01
        -0.91631E-01
         0.35028E+00
         0.30262E+00
         0.22208E+00
         0.30846E+00
         0.10477E+00
         0.14439E+00
         0.31650E+00
         0.33779E+00
         0.34804E+00
         0.34971E+00
         0.29474E+00
         0.27325E+00
         0.27831E+00
         0.31022E+00
         0.28592E+00
         0.33281E+00
         0.35130E+00
         0.35993E+00
         0.28804E+00
         0.30369E+00
         0.17677E+00
         0.17101E+00
         0.17812E+00
         0.24600E+00
         0.33623E+00
         0.26857E+00
         0.32957E+00
         0.29425E+00
         0.23534E+00
         0.27816E+00
         0.33195E+00
         0.27409E+00
         0.33753E+00
         0.26916E+00
         0.53641E-01
         0.11153E+00
         0.21400E+00
         0.30034E+00
         0.25959E+00
         0.19201E+00
         0.15925E+00
         0.16528E+00
         0.16499E+00
         0.20684E+00
         0.22961E+00
         0.23952E+00
         0.26817E+00
         0.29907E+00
         0.27957E+00
         0.20965E+00
         0.15575E+00
         0.15802E+00
        -0.25762E-01
        -0.14966E-01
        -0.29686E-01
         0.97527E-01
         0.19133E+00
         0.22937E+00
         0.27347E+00
         0.27065E+00
         0.23337E+00
         0.18358E+00
         0.19751E+00
         0.87995E-01
         0.18506E-01
         0.24474E-02
         0.31210E-01
         0.73674E-01
         0.13686E+00
         0.20623E+00
         0.24302E+00
         0.26488E+00
         0.25914E+00
         0.24343E+00
         0.14601E+00
         0.12279E+00
         0.55720E-01
        -0.26260E-01
         0.25468E+00
         0.23168E+00
         0.18235E+00
         0.22264E+00
         0.14389E+00
         0.16081E+00
         0.24918E+00
         0.25458E+00
         0.25655E+00
         0.25406E+00
         0.23644E+00
         0.23315E+00
         0.24264E+00
         0.23669E+00
         0.23146E+00
         0.24451E+00
         0.25709E+00
         0.25767E+00
         0.22519E+00
         0.23421E+00
         0.18254E+00
         0.17348E+00
         0.18719E+00
         0.20563E+00
         0.24281E+00
         0.21547E+00
         0.23721E+00
         0.21539E+00
         0.19971E+00
         0.22000E+00
         0.24091E+00
         0.21734E+00
         0.24278E+00
         0.21018E+00
         0.11874E+00
         0.13587E+00
         0.19818E+00
         0.22961E+00
         0.20540E+00
         0.18401E+00
         0.18060E+00
         0.17603E+00
         0.16858E+00
         0.20325E+00
         0.21595E+00
         0.21724E+00
         0.21402E+00
         0.22320E+00
         0.21573E+00
         0.18652E+00
         0.17228E+00
         0.17124E+00
         0.11183E+00
         0.13012E+00
         0.81258E-01
         0.13906E+00
         0.19414E+00
         0.21131E+00
         0.23713E+00
         0.22921E+00
         0.21321E+00
         0.20503E+00
         0.22651E+00
         0.15424E+00
         0.10986E+00
         0.10328E+00
         0.13438E+00
         0.16177E+00
         0.19001E+00
         0.22717E+00
         0.23621E+00
         0.22702E+00
         0.21912E+00
         0.22244E+00
         0.16736E+00
         0.17264E+00
         0.13837E+00
         0.99763E-01
         0.18405E+00
         0.18199E+00
         0.15287E+00
         0.16367E+00
         0.15838E+00
         0.15962E+00
         0.19838E+00
         0.18761E+00
         0.18309E+00
         0.18081E+00
         0.18746E+00
         0.19632E+00
         0.21188E+00
         0.17645E+00
         0.18335E+00
         0.17722E+00
         0.18307E+00
         0.18201E+00
         0.17619E+00
         0.18016E+00
         0.17716E+00
         0.16709E+00
         0.18154E+00
         0.17196E+00
         0.17476E+00
         0.17436E+00
         0.17211E+00
         0.16196E+00
         0.16880E+00
         0.17380E+00
         0.17674E+00
         0.17605E+00
         0.17435E+00
         0.16428E+00
         0.15320E+00
         0.14676E+00
         0.18192E+00
         0.17983E+00
         0.16963E+00
         0.17067E+00
         0.18312E+00
         0.17376E+00
         0.16297E+00
         0.18926E+00
         0.19598E+00
         0.19450E+00
         0.17495E+00
         0.16798E+00
         0.16502E+00
         0.16110E+00
         0.17018E+00
         0.16684E+00
         0.18359E+00
         0.19376E+00
         0.13970E+00
         0.15153E+00
         0.17906E+00
         0.18462E+00
         0.20330E+00
         0.19945E+00
         0.19573E+00
         0.20298E+00
         0.23249E+00
         0.19635E+00
         0.17055E+00
         0.16328E+00
         0.17517E+00
         0.18387E+00
         0.19761E+00
         0.21735E+00
         0.21885E+00
         0.19712E+00
         0.18473E+00
         0.19628E+00
         0.17187E+00
         0.18821E+00
         0.16801E+00
         0.15479E+00
         0.13297E+00
         0.14927E+00
         0.14347E+00
         0.12837E+00
         0.18043E+00
         0.16945E+00
         0.16067E+00
         0.13912E+00
         0.12607E+00
         0.12771E+00
         0.15420E+00
         0.17112E+00
         0.18631E+00
         0.13626E+00
         0.15147E+00
         0.13128E+00
         0.13256E+00
         0.12537E+00
         0.15057E+00
         0.15160E+00
         0.18258E+00
         0.17424E+00
         0.18249E+00
         0.15576E+00
         0.13074E+00
         0.14962E+00
         0.12810E+00
         0.12963E+00
         0.15228E+00
         0.14980E+00
         0.13189E+00
         0.14772E+00
         0.12791E+00
         0.13722E+00
         0.19001E+00
         0.16739E+00
         0.17400E+00
         0.14537E+00
         0.14629E+00
         0.16141E+00
         0.17998E+00
         0.17239E+00
         0.16718E+00
         0.18176E+00
         0.18209E+00
         0.17667E+00
         0.14731E+00
         0.13209E+00
         0.13484E+00
         0.14873E+00
         0.17281E+00
         0.17083E+00
         0.23829E+00
         0.24047E+00
         0.19470E+00
         0.17160E+00
         0.17253E+00
         0.16970E+00
         0.17751E+00
         0.17402E+00
         0.17574E+00
         0.18914E+00
         0.21686E+00
         0.20126E+00
         0.20212E+00
         0.20489E+00
         0.21095E+00
         0.20694E+00
         0.20486E+00
         0.20985E+00
         0.20095E+00
         0.17015E+00
         0.16000E+00
         0.17614E+00
         0.17404E+00
         0.20048E+00
         0.19627E+00
         0.20236E+00
         0.10433E+00
         0.12700E+00
         0.13062E+00
         0.10929E+00
         0.16580E+00
         0.15354E+00
         0.13211E+00
         0.10807E+00
         0.89971E-01
         0.94616E-01
         0.12718E+00
         0.14172E+00
         0.15443E+00
         0.10899E+00
         0.12509E+00
         0.10281E+00
         0.10087E+00
         0.92139E-01
         0.12978E+00
         0.12844E+00
         0.16550E+00
         0.15991E+00
         0.16151E+00
         0.13697E+00
         0.10334E+00
         0.12848E+00
         0.10115E+00
         0.10783E+00
         0.12988E+00
         0.12668E+00
         0.10623E+00
         0.12610E+00
         0.10033E+00
         0.11568E+00
         0.17835E+00
         0.15686E+00
         0.15258E+00
         0.12003E+00
         0.12481E+00
         0.13951E+00
         0.15764E+00
         0.15417E+00
         0.15322E+00
         0.15627E+00
         0.15407E+00
         0.15003E+00
         0.12606E+00
         0.10934E+00
         0.11043E+00
         0.12747E+00
         0.15316E+00
         0.15250E+00
         0.22508E+00
         0.22329E+00
         0.19308E+00
         0.16650E+00
         0.15319E+00
         0.14042E+00
         0.14690E+00
         0.14653E+00
         0.15147E+00
         0.16446E+00
         0.19074E+00
         0.19235E+00
         0.19860E+00
         0.19847E+00
         0.19511E+00
         0.18440E+00
         0.17722E+00
         0.17411E+00
         0.16745E+00
         0.14185E+00
         0.13254E+00
         0.14897E+00
         0.15650E+00
         0.18282E+00
         0.18615E+00
         0.19491E+00
         0.85690E-01
         0.10406E+00
         0.11148E+00
         0.92852E-01
         0.14266E+00
         0.13122E+00
         0.10511E+00
         0.86267E-01
         0.72691E-01
         0.75814E-01
         0.10102E+00
         0.11311E+00
         0.12318E+00
         0.86393E-01
         0.98914E-01
         0.83781E-01
         0.81687E-01
         0.76043E-01
         0.10579E+00
         0.10564E+00
         0.13847E+00
         0.13681E+00
         0.13178E+00
         0.11070E+00
         0.84978E-01
         0.10392E+00
         0.82068E-01
         0.90888E-01
         0.10849E+00
         0.10509E+00
         0.87348E-01
         0.10229E+00
         0.84365E-01
         0.98643E-01
         0.15453E+00
         0.13559E+00
         0.12645E+00
         0.97624E-01
         0.10522E+00
         0.11650E+00
         0.12942E+00
         0.12821E+00
         0.13056E+00
         0.12624E+00
         0.12425E+00
         0.12035E+00
         0.10256E+00
         0.91476E-01
         0.94041E-01
         0.10885E+00
         0.12897E+00
         0.12898E+00
         0.19295E+00
         0.19173E+00
         0.17114E+00
         0.14776E+00
         0.13215E+00
         0.11935E+00
         0.11750E+00
         0.11932E+00
         0.12644E+00
         0.13232E+00
         0.15447E+00
         0.15935E+00
         0.17303E+00
         0.17840E+00
         0.17505E+00
         0.16229E+00
         0.15084E+00
         0.14422E+00
         0.13286E+00
         0.11502E+00
         0.11328E+00
         0.12440E+00
         0.13196E+00
         0.15173E+00
         0.15857E+00
         0.17114E+00
         0.70295E-01
         0.82685E-01
         0.88411E-01
         0.77258E-01
         0.10557E+00
         0.98896E-01
         0.82779E-01
         0.69915E-01
         0.61750E-01
         0.65383E-01
         0.80669E-01
         0.89140E-01
         0.93897E-01
         0.70350E-01
         0.78631E-01
         0.68885E-01
         0.68943E-01
         0.64231E-01
         0.82832E-01
         0.82600E-01
         0.10259E+00
         0.10165E+00
         0.98200E-01
         0.86094E-01
         0.72367E-01
         0.82042E-01
         0.69159E-01
         0.75482E-01
         0.84793E-01
         0.82343E-01
         0.70911E-01
         0.79914E-01
         0.70602E-01
         0.80419E-01
         0.11294E+00
         0.10232E+00
         0.95945E-01
         0.77720E-01
         0.83658E-01
         0.90177E-01
         0.99274E-01
         0.98017E-01
         0.98585E-01
         0.94427E-01
         0.92766E-01
         0.90549E-01
         0.78976E-01
         0.72529E-01
         0.76097E-01
         0.85826E-01
         0.96712E-01
         0.97096E-01
         0.13560E+00
         0.13354E+00
         0.12644E+00
         0.11256E+00
         0.10074E+00
         0.92893E-01
         0.90600E-01
         0.89988E-01
         0.96744E-01
         0.10299E+00
         0.12038E+00
         0.12251E+00
         0.12983E+00
         0.13059E+00
         0.12870E+00
         0.12014E+00
         0.10916E+00
         0.10476E+00
         0.10023E+00
         0.86972E-01
         0.84702E-01
         0.94755E-01
         0.99293E-01
         0.10891E+00
         0.11496E+00
         0.12381E+00
         0.54583E-01
         0.61263E-01
         0.64659E-01
         0.57404E-01
         0.80591E-01
         0.75549E-01
         0.62938E-01
         0.54331E-01
         0.48410E-01
         0.49122E-01
         0.60996E-01
         0.65606E-01
         0.68699E-01
         0.52422E-01
         0.56687E-01
         0.51858E-01
         0.51879E-01
         0.49625E-01
         0.60041E-01
         0.59722E-01
         0.76007E-01
         0.76038E-01
         0.72025E-01
         0.62245E-01
         0.52917E-01
         0.59671E-01
         0.50374E-01
         0.54778E-01
         0.61836E-01
         0.59839E-01
         0.53519E-01
         0.59191E-01
         0.53171E-01
         0.60354E-01
         0.86833E-01
         0.76033E-01
         0.69466E-01
         0.56807E-01
         0.62027E-01
         0.65964E-01
         0.72730E-01
         0.73230E-01
         0.74070E-01
         0.68169E-01
         0.67120E-01
         0.66463E-01
         0.59636E-01
         0.55422E-01
         0.57897E-01
         0.66296E-01
         0.76701E-01
         0.75677E-01
         0.10771E+00
         0.10578E+00
         0.98567E-01
         0.83594E-01
         0.73073E-01
         0.68611E-01
         0.65537E-01
         0.65582E-01
         0.72683E-01
         0.74647E-01
         0.86422E-01
         0.93087E-01
         0.10378E+00
         0.10792E+00
         0.10429E+00
         0.94116E-01
         0.81020E-01
         0.75746E-01
         0.72212E-01
         0.63918E-01
         0.64202E-01
         0.73102E-01
         0.80081E-01
         0.91006E-01
         0.95726E-01
         0.99147E-01
         0.37462E-01
         0.41886E-01
         0.43905E-01
         0.39336E-01
         0.53478E-01
         0.50354E-01
         0.42843E-01
         0.37307E-01
         0.34556E-01
         0.34661E-01
         0.41609E-01
         0.43962E-01
         0.46077E-01
         0.36248E-01
         0.38705E-01
         0.37661E-01
         0.38242E-01
         0.35232E-01
         0.41146E-01
         0.40231E-01
         0.48335E-01
         0.47789E-01
         0.46788E-01
         0.42353E-01
         0.38218E-01
         0.41474E-01
         0.35122E-01
         0.38496E-01
         0.42841E-01
         0.40521E-01
         0.37126E-01
         0.40776E-01
         0.37356E-01
         0.41877E-01
         0.56553E-01
         0.50289E-01
         0.46562E-01
         0.39382E-01
         0.42858E-01
         0.45534E-01
         0.49887E-01
         0.48924E-01
         0.47074E-01
         0.45446E-01
         0.45095E-01
         0.45054E-01
         0.40724E-01
         0.37438E-01
         0.39715E-01
         0.45408E-01
         0.50108E-01
         0.49643E-01
         0.68968E-01
         0.71616E-01
         0.63953E-01
         0.56399E-01
         0.51080E-01
         0.46755E-01
         0.43865E-01
         0.45867E-01
         0.51295E-01
         0.51342E-01
         0.58663E-01
         0.64682E-01
         0.69745E-01
         0.72734E-01
         0.66995E-01
         0.60373E-01
         0.54030E-01
         0.49866E-01
         0.48640E-01
         0.44089E-01
         0.42743E-01
         0.48523E-01
         0.51999E-01
         0.56171E-01
         0.62398E-01
         0.69072E-01
         0.22678E-01
         0.26861E-01
         0.29087E-01
         0.24365E-01
         0.37629E-01
         0.34561E-01
         0.27486E-01
         0.23344E-01
         0.20257E-01
         0.21931E-01
         0.27207E-01
         0.28978E-01
         0.30275E-01
         0.24038E-01
         0.25553E-01
         0.21515E-01
         0.22589E-01
         0.20449E-01
         0.26490E-01
         0.25496E-01
         0.35246E-01
         0.34426E-01
         0.33596E-01
         0.28241E-01
         0.23766E-01
         0.25962E-01
         0.23160E-01
         0.23955E-01
         0.27344E-01
         0.25732E-01
         0.21517E-01
         0.25051E-01
         0.22359E-01
         0.26999E-01
         0.40756E-01
         0.34847E-01
         0.30697E-01
         0.25464E-01
         0.26298E-01
         0.29295E-01
         0.35810E-01
         0.35033E-01
         0.33664E-01
         0.31294E-01
         0.30357E-01
         0.29737E-01
         0.25364E-01
         0.22731E-01
         0.25467E-01
         0.31521E-01
         0.36130E-01
         0.34646E-01
         0.51720E-01
         0.53406E-01
         0.45753E-01
         0.37529E-01
         0.35847E-01
         0.31939E-01
         0.27598E-01
         0.28896E-01
         0.32201E-01
         0.36886E-01
         0.45981E-01
         0.49036E-01
         0.52125E-01
         0.54157E-01
         0.49154E-01
         0.42891E-01
         0.37966E-01
         0.36380E-01
         0.33338E-01
         0.28504E-01
         0.27764E-01
         0.33555E-01
         0.39264E-01
         0.42490E-01
         0.46303E-01
         0.51261E-01
         0.11676E-01
         0.14138E-01
         0.15911E-01
         0.13054E-01
         0.21304E-01
         0.19033E-01
         0.14510E-01
         0.11176E-01
         0.10557E-01
         0.10614E-01
         0.13726E-01
         0.15684E-01
         0.17058E-01
         0.10475E-01
         0.11389E-01
         0.10538E-01
         0.10786E-01
         0.11230E-01
         0.12642E-01
         0.11473E-01
         0.19391E-01
         0.18966E-01
         0.18050E-01
         0.14148E-01
         0.10918E-01
         0.13166E-01
         0.10355E-01
         0.10786E-01
         0.12512E-01
         0.11324E-01
         0.11401E-01
         0.13673E-01
         0.12187E-01
         0.14945E-01
         0.24058E-01
         0.20205E-01
         0.16955E-01
         0.12099E-01
         0.13629E-01
         0.14952E-01
         0.18887E-01
         0.18410E-01
         0.18276E-01
         0.16331E-01
         0.16734E-01
         0.17444E-01
         0.14318E-01
         0.11688E-01
         0.13594E-01
         0.17977E-01
         0.20805E-01
         0.19417E-01
         0.31946E-01
         0.32058E-01
         0.29529E-01
         0.22766E-01
         0.21118E-01
         0.19621E-01
         0.15898E-01
         0.17205E-01
         0.20443E-01
         0.22134E-01
         0.25096E-01
         0.26696E-01
         0.34139E-01
         0.35639E-01
         0.30797E-01
         0.24993E-01
         0.19487E-01
         0.19570E-01
         0.20083E-01
         0.16331E-01
         0.14213E-01
         0.19412E-01
         0.23818E-01
         0.25276E-01
         0.28433E-01
         0.30951E-01
         0.76207E-02
         0.79070E-02
         0.91344E-02
         0.73382E-02
         0.13890E-01
         0.11934E-01
         0.95350E-02
         0.79215E-02
         0.65067E-02
         0.60438E-02
         0.10070E-01
         0.10742E-01
         0.10059E-01
         0.75037E-02
         0.74016E-02
         0.58351E-02
         0.58395E-02
         0.70498E-02
         0.64612E-02
         0.64414E-02
         0.10751E-01
         0.10419E-01
         0.10825E-01
         0.74641E-02
         0.62810E-02
         0.69158E-02
         0.58942E-02
         0.62471E-02
         0.85622E-02
         0.73826E-02
         0.64721E-02
         0.74870E-02
         0.68049E-02
         0.80886E-02
         0.15805E-01
         0.12107E-01
         0.89495E-02
         0.66405E-02
         0.72480E-02
         0.93273E-02
         0.12634E-01
         0.11647E-01
         0.10487E-01
         0.98389E-02
         0.96471E-02
         0.98751E-02
         0.84043E-02
         0.70462E-02
         0.76295E-02
         0.10141E-01
         0.12650E-01
         0.11885E-01
         0.22129E-01
         0.22872E-01
         0.21426E-01
         0.15552E-01
         0.12445E-01
         0.11223E-01
         0.82797E-02
         0.96084E-02
         0.99065E-02
         0.11508E-01
         0.16235E-01
         0.13507E-01
         0.16314E-01
         0.19416E-01
         0.19478E-01
         0.18612E-01
         0.15232E-01
         0.13179E-01
         0.11222E-01
         0.98596E-02
         0.99483E-02
         0.11951E-01
         0.14129E-01
         0.16670E-01
         0.20287E-01
         0.22087E-01
         0.26134E-02
         0.27605E-02
         0.38416E-02
         0.25401E-02
         0.46313E-02
         0.39315E-02
         0.24739E-02
         0.26213E-02
         0.38790E-02
         0.43250E-02
         0.25456E-02
         0.34495E-02
         0.39895E-02
         0.29771E-02
         0.26379E-02
         0.40059E-02
         0.39468E-02
         0.36205E-02
         0.30069E-02
         0.22727E-02
         0.43564E-02
         0.39740E-02
         0.38521E-02
         0.33877E-02
         0.41535E-02
         0.36634E-02
         0.43194E-02
         0.38611E-02
         0.24127E-02
         0.20743E-02
         0.41133E-02
         0.42260E-02
         0.26699E-02
         0.19795E-02
         0.49313E-02
         0.45959E-02
         0.38735E-02
         0.37761E-02
         0.36723E-02
         0.27744E-02
         0.35636E-02
         0.33205E-02
         0.34845E-02
         0.27018E-02
         0.27943E-02
         0.36067E-02
         0.44614E-02
         0.35764E-02
         0.23019E-02
         0.29357E-02
         0.45771E-02
         0.38833E-02
         0.51564E-02
         0.65380E-02
         0.76732E-02
         0.68900E-02
         0.52301E-02
         0.43152E-02
         0.35039E-02
         0.38146E-02
         0.49209E-02
         0.60407E-02
         0.84121E-02
         0.10444E-01
         0.11238E-01
         0.10963E-01
         0.94143E-02
         0.64098E-02
         0.26332E-02
         0.20384E-02
         0.28965E-02
         0.36854E-02
         0.32423E-02
         0.28035E-02
         0.52389E-02
         0.78183E-02
         0.86840E-02
         0.82015E-02
         0.15465E-02
         0.14055E-02
         0.21971E-02
         0.16706E-02
         0.44309E-02
         0.40312E-02
         0.17472E-02
         0.19155E-02
         0.19176E-02
         0.18469E-02
         0.21341E-02
         0.24810E-02
         0.25481E-02
         0.21071E-02
         0.17376E-02
         0.19271E-02
         0.12127E-02
         0.19386E-02
         0.20492E-02
         0.18064E-02
         0.33105E-02
         0.36463E-02
         0.28632E-02
         0.25856E-02
         0.15770E-02
         0.26355E-02
         0.17095E-02
         0.23044E-02
         0.34509E-02
         0.23137E-02
         0.11795E-02
         0.17306E-02
         0.12417E-02
         0.20239E-02
         0.49637E-02
         0.33569E-02
         0.23047E-02
         0.18564E-02
         0.24893E-02
         0.36900E-02
         0.38378E-02
         0.36773E-02
         0.37130E-02
         0.34702E-02
         0.36019E-02
         0.29831E-02
         0.90579E-03
         0.31870E-03
         0.14442E-02
         0.31629E-02
         0.50033E-02
         0.44718E-02
         0.79147E-02
         0.88925E-02
         0.68579E-02
         0.34497E-02
         0.25358E-02
         0.24034E-02
         0.95012E-03
         0.17934E-02
         0.31547E-02
         0.33131E-02
         0.28692E-02
         0.36495E-02
         0.32777E-02
         0.36785E-02
         0.49255E-02
         0.33559E-02
         0.46603E-02
         0.68493E-02
         0.57198E-02
         0.30131E-02
         0.26350E-02
         0.51234E-02
         0.60657E-02
         0.77114E-02
         0.92716E-02
         0.92387E-02
         0.33977E-03
         0.56476E-03
         0.16607E-02
         0.69561E-03
         0.11278E-02
         0.89076E-03
        -0.11484E-03
         0.58326E-03
         0.10906E-02
         0.17657E-02
        -0.33602E-04
         0.69290E-03
         0.99262E-03
         0.52708E-03
        -0.12804E-03
         0.12310E-02
         0.13649E-02
         0.81276E-04
         0.82517E-03
         0.85944E-03
         0.44389E-03
         0.12317E-02
         0.35603E-03
         0.68505E-03
         0.12601E-02
         0.13451E-02
         0.14070E-02
         0.15523E-02
         0.93220E-03
         0.71775E-03
         0.73626E-03
         0.15396E-02
        -0.20666E-03
         0.48884E-03
         0.10917E-02
         0.15653E-02
         0.10183E-02
         0.90402E-03
         0.13549E-02
         0.13137E-02
         0.17498E-02
         0.14624E-02
         0.18043E-02
         0.98881E-03
         0.15676E-02
         0.19441E-02
         0.14663E-02
         0.17889E-03
        -0.68574E-03
         0.15223E-03
         0.12073E-02
         0.10623E-02
        -0.40289E-03
         0.31727E-03
         0.26065E-03
        -0.28606E-03
         0.24220E-02
         0.23899E-02
        -0.70952E-03
         0.22053E-02
         0.21370E-02
         0.18400E-02
         0.43721E-02
         0.27601E-02
         0.30745E-02
         0.25657E-02
         0.33897E-02
         0.20840E-02
         0.18482E-02
         0.20900E-02
         0.24795E-02
         0.14625E-02
         0.50009E-03
        -0.11699E-03
        -0.14419E-04
         0.13596E-02
         0.10130E-02
         0.75408E-03
         0.56214E-03
         0.55027E-03
         0.55802E-03
         0.41197E-03
         0.14123E-02
         0.85860E-03
         0.86434E-03
         0.54246E-03
        -0.56144E-03
        -0.74319E-03
         0.10496E-02
         0.17198E-02
         0.14794E-02
         0.30006E-03
         0.37567E-03
        -0.29470E-05
         0.16365E-03
        -0.17600E-03
         0.76752E-03
         0.10108E-02
         0.10949E-02
         0.45586E-03
         0.11723E-02
         0.60095E-03
         0.33843E-03
         0.40577E-04
        -0.53345E-03
         0.54504E-03
         0.13882E-02
         0.13474E-02
         0.21978E-03
         0.34879E-04
         0.33875E-03
         0.31467E-03
         0.19973E-02
         0.15613E-02
         0.13914E-02
        -0.16900E-03
         0.46057E-03
         0.98560E-03
         0.11993E-02
         0.74993E-03
         0.30823E-03
         0.61678E-03
         0.65408E-03
         0.73221E-03
         0.26051E-03
         0.35251E-03
         0.24907E-03
         0.21653E-04
         0.38424E-03
         0.59599E-03
         0.37267E-02
         0.37244E-02
         0.36096E-02
         0.30324E-02
         0.19935E-02
         0.26063E-02
         0.11054E-02
         0.14877E-02
         0.18850E-02
         0.95195E-03
         0.17424E-02
         0.22343E-03
        -0.20655E-03
         0.22277E-02
         0.33695E-02
         0.20041E-02
         0.12744E-02
         0.20196E-02
         0.16626E-02
         0.29862E-03
         0.59276E-03
         0.35303E-04
        -0.81564E-03
         0.59213E-03
         0.10454E-02
         0.20684E-02
         0.59553E-03
        -0.38058E-03
        -0.47798E-03
        -0.17356E-04
         0.40265E-03
         0.39331E-03
         0.17914E-03
         0.68788E-03
        -0.45013E-04
        -0.29398E-03
         0.53259E-03
         0.70495E-03
         0.34355E-03
         0.58614E-03
         0.36292E-03
        -0.53515E-03
        -0.49936E-03
        -0.16642E-03
        -0.74689E-05
        -0.24812E-03
         0.22370E-03
        -0.52550E-03
         0.24891E-03
         0.34305E-03
        -0.43981E-04
         0.37344E-04
        -0.17321E-03
         0.90571E-05
         0.40077E-03
         0.90649E-04
        -0.58684E-03
        -0.77978E-04
        -0.54017E-03
         0.32059E-04
         0.10171E-03
        -0.38511E-03
        -0.16228E-03
        -0.74325E-04
        -0.16599E-03
         0.49529E-03
         0.28256E-03
        -0.46987E-03
        -0.61691E-03
        -0.26317E-03
         0.60103E-04
         0.40217E-03
        -0.74181E-04
        -0.47808E-03
        -0.38878E-03
         0.11198E-03
         0.46189E-03
         0.30070E-03
         0.13115E-02
         0.19403E-02
         0.74724E-03
         0.32034E-03
         0.56879E-04
         0.14488E-02
         0.13255E-02
        -0.27607E-03
        -0.50297E-03
         0.14427E-02
        -0.61711E-03
        -0.90430E-03
         0.15149E-02
        -0.83315E-04
         0.91350E-04
        -0.22889E-03
        -0.72831E-03
        -0.44991E-03
         0.70480E-03
        -0.62017E-04
        -0.11563E-04
        -0.40464E-03
        -0.55915E-03
         0.51333E-03
        -0.40803E-03
         0.72463E-03
         0.62050E-03
        -0.55344E-04
         0.12963E-02
        -0.59556E-03
         0.70877E-02
         0.29604E-02
         0.12404E-04
        -0.29575E-03
         0.40454E-03
         0.13053E-03
        -0.11241E-02
        -0.10133E-02
         0.15534E-02
        -0.15435E-02
        -0.26651E-02
        -0.92019E-03
        -0.12862E-02
         0.78707E-03
        -0.13507E-02
        -0.12936E-02
         0.86982E-03
         0.29227E-02
        -0.51513E-03
        -0.41488E-03
        -0.42085E-03
         0.11223E-02
         0.29251E-03
         0.55977E-03
         0.24863E-02
         0.13633E-03
        -0.38751E-03
         0.16063E-02
        -0.87859E-03
        -0.87914E-03
         0.98678E-02
         0.55063E-02
         0.24996E-02
         0.12018E-02
         0.37273E-02
         0.58174E-02
         0.10273E-01
         0.86039E-02
         0.56460E-02
         0.78614E-03
         0.31682E-02
         0.42712E-02
         0.21170E-02
        -0.87867E-04
        -0.87878E-03
        -0.15489E-03
         0.14791E-02
         0.12716E-02
         0.17935E-01
         0.17564E-01
         0.14763E-01
         0.70713E-02
         0.51842E-02
         0.23105E-02
        -0.65340E-03
         0.39854E-02
         0.93398E-02
         0.14040E-01
         0.12862E-01
         0.80344E-02
         0.93917E-02
         0.10715E-01
         0.85899E-02
         0.48180E-02
         0.16668E-02
         0.29227E-02
         0.67578E-02
         0.64028E-02
         0.19125E-02
         0.14305E-03
         0.17204E-02
         0.38345E-02
         0.56574E-02
         0.11131E-01
  
SCALARS                      strain_yy  double 1
LOOKUP_TABLE default
         0.93510E+00
         0.76814E+00
         0.82244E+00
         0.93907E+00
         0.94027E+00
         0.77729E+00
         0.83312E+00
         0.10308E+01
         0.74533E+00
         0.78734E+00
         0.79853E+00
         0.91809E+00
         0.64507E+00
         0.77488E+00
         0.66065E+00
         0.76403E+00
         0.10193E+01
         0.86686E+00
         0.98378E+00
         0.81596E+00
         0.52516E+00
         0.38201E+00
         0.49078E+00
         0.53952E+00
         0.45635E+00
         0.57106E+00
         0.56820E+00
         0.34992E+00
         0.56804E+00
         0.39423E+00
         0.91032E+00
         0.10330E+01
         0.99489E+00
         0.94800E+00
         0.10591E+01
         0.10441E+01
         0.88310E+00
         0.98807E+00
         0.85749E+00
         0.11294E+01
         0.76031E+00
         0.89539E+00
         0.82351E+00
         0.10146E+01
         0.59091E+00
         0.70915E+00
         0.58747E+00
         0.61978E+00
         0.94817E+00
         0.96378E+00
         0.67043E+00
         0.65548E+00
         0.62055E+00
         0.66594E+00
         0.67593E+00
         0.70079E+00
         0.69238E+00
         0.92197E+00
         0.67231E+00
         0.10393E+01
         0.67787E+00
         0.51822E+00
         0.70929E+00
         0.49098E+00
         0.77112E+00
         0.84686E+00
         0.80252E+00
         0.88500E+00
         0.64608E+00
         0.62968E+00
         0.61740E+00
         0.62854E+00
         0.57989E+00
         0.67160E+00
         0.35814E+00
         0.40622E+00
         0.40634E+00
         0.45279E+00
         0.42895E+00
         0.42358E+00
         0.47729E+00
         0.67381E+00
         0.51225E+00
         0.73544E+00
         0.85160E+00
         0.95010E+00
         0.49680E+00
         0.53890E+00
         0.41092E+00
         0.52120E+00
         0.31011E+00
         0.29142E+00
         0.44452E+00
         0.32821E+00
         0.35518E+00
         0.40161E+00
         0.41599E+00
         0.39920E+00
         0.49535E+00
         0.44103E+00
         0.58317E+00
         0.72586E+00
         0.61195E+00
         0.83763E+00
         0.55783E+00
         0.62500E+00
         0.60803E+00
         0.69688E+00
         0.49460E+00
         0.56336E+00
         0.45359E+00
         0.55294E+00
         0.38168E+00
         0.49443E+00
         0.24345E+00
         0.38413E+00
         0.15652E+00
         0.33333E+00
         0.20870E+00
         0.39474E+00
         0.24878E+00
         0.37777E+00
         0.24203E+00
         0.32229E+00
         0.37921E+00
         0.47216E+00
         0.56628E+00
         0.70365E+00
         0.67123E+00
         0.78223E+00
         0.69442E+00
         0.75525E+00
         0.61509E+00
         0.68838E+00
         0.48479E+00
         0.56742E+00
         0.39076E+00
         0.50439E+00
         0.32788E+00
         0.49428E+00
         0.24959E+00
         0.42695E+00
         0.15491E+00
         0.28797E+00
         0.23079E+00
         0.39841E+00
         0.24373E+00
         0.41105E+00
         0.26655E+00
         0.36751E+00
         0.47379E+00
         0.55682E+00
         0.60888E+00
         0.72139E+00
         0.63399E+00
         0.74712E+00
         0.89600E+00
         0.72852E+00
         0.76052E+00
         0.88714E+00
         0.68770E+00
         0.72028E+00
         0.60678E+00
         0.74820E+00
         0.97132E+00
         0.84929E+00
         0.49438E+00
         0.33470E+00
         0.42933E+00
         0.53875E+00
         0.30856E+00
         0.86759E+00
         0.97080E+00
         0.95259E+00
         0.81721E+00
         0.90814E+00
         0.68958E+00
         0.80468E+00
         0.57211E+00
         0.68275E+00
         0.89412E+00
         0.65068E+00
         0.59282E+00
         0.63261E+00
         0.63182E+00
         0.85033E+00
         0.64907E+00
         0.50199E+00
         0.72214E+00
         0.72741E+00
         0.59343E+00
         0.59626E+00
         0.54206E+00
         0.30791E+00
         0.34318E+00
         0.36375E+00
         0.38693E+00
         0.58791E+00
         0.75788E+00
         0.48374E+00
         0.35083E+00
         0.21177E+00
         0.24637E+00
         0.31017E+00
         0.37992E+00
         0.44650E+00
         0.49892E+00
         0.64640E+00
         0.50056E+00
         0.56203E+00
         0.44477E+00
         0.35337E+00
         0.22770E+00
         0.79683E-01
        -0.44236E-02
        -0.12986E-01
         0.56917E-01
         0.14844E+00
         0.27286E+00
         0.43979E+00
         0.58700E+00
         0.63584E+00
         0.53814E+00
         0.42053E+00
         0.30898E+00
         0.18512E+00
         0.78368E-01
         0.15290E-01
         0.48853E-01
         0.97998E-01
         0.19058E+00
         0.36568E+00
         0.50341E+00
         0.54691E+00
         0.81564E+00
         0.65694E+00
         0.68195E+00
         0.79943E+00
         0.61074E+00
         0.63592E+00
         0.55798E+00
         0.70605E+00
         0.86699E+00
         0.79478E+00
         0.45909E+00
         0.29009E+00
         0.37229E+00
         0.51650E+00
         0.26844E+00
         0.79411E+00
         0.86529E+00
         0.85809E+00
         0.73371E+00
         0.80461E+00
         0.60739E+00
         0.70505E+00
         0.51281E+00
         0.62375E+00
         0.81644E+00
         0.60232E+00
         0.56936E+00
         0.58888E+00
         0.56532E+00
         0.75716E+00
         0.60968E+00
         0.46091E+00
         0.66138E+00
         0.64742E+00
         0.52366E+00
         0.52772E+00
         0.47590E+00
         0.26593E+00
         0.29263E+00
         0.29836E+00
         0.30941E+00
         0.50697E+00
         0.66463E+00
         0.42639E+00
         0.28486E+00
         0.14458E+00
         0.19739E+00
         0.26478E+00
         0.32434E+00
         0.37476E+00
         0.40750E+00
         0.55819E+00
         0.43964E+00
         0.49051E+00
         0.39470E+00
         0.27205E+00
         0.10180E+00
        -0.29579E-01
        -0.89013E-01
        -0.11574E+00
        -0.33467E-01
         0.74491E-01
         0.17540E+00
         0.32127E+00
         0.49783E+00
         0.55267E+00
         0.45067E+00
         0.35091E+00
         0.21681E+00
         0.64808E-01
        -0.11369E-01
        -0.79142E-01
        -0.83728E-01
        -0.18115E-01
         0.11292E+00
         0.24917E+00
         0.39667E+00
         0.48048E+00
         0.70105E+00
         0.56047E+00
         0.58574E+00
         0.69956E+00
         0.53087E+00
         0.55656E+00
         0.47614E+00
         0.61867E+00
         0.73199E+00
         0.70062E+00
         0.39569E+00
         0.23497E+00
         0.29553E+00
         0.46260E+00
         0.22543E+00
         0.68539E+00
         0.73862E+00
         0.74341E+00
         0.62966E+00
         0.69319E+00
         0.51915E+00
         0.59889E+00
         0.44267E+00
         0.54048E+00
         0.71563E+00
         0.52351E+00
         0.51649E+00
         0.52142E+00
         0.48199E+00
         0.65360E+00
         0.54221E+00
         0.39735E+00
         0.58243E+00
         0.55713E+00
         0.45181E+00
         0.44975E+00
         0.39323E+00
         0.22558E+00
         0.24532E+00
         0.23974E+00
         0.23711E+00
         0.41577E+00
         0.56063E+00
         0.35793E+00
         0.21453E+00
         0.81264E-01
         0.14793E+00
         0.21938E+00
         0.27015E+00
         0.30550E+00
         0.32228E+00
         0.47294E+00
         0.38634E+00
         0.42421E+00
         0.35069E+00
         0.20319E+00
         0.42227E-01
        -0.52774E-01
        -0.10273E+00
        -0.13062E+00
        -0.67958E-01
         0.38731E-01
         0.12120E+00
         0.24366E+00
         0.41940E+00
         0.47854E+00
         0.38318E+00
         0.29310E+00
         0.14903E+00
        -0.15449E-01
        -0.63512E-01
        -0.12532E+00
        -0.13553E+00
        -0.73453E-01
         0.74029E-01
         0.16727E+00
         0.32168E+00
         0.42860E+00
         0.57783E+00
         0.45704E+00
         0.48939E+00
         0.58634E+00
         0.44648E+00
         0.46492E+00
         0.38284E+00
         0.50867E+00
         0.59665E+00
         0.57502E+00
         0.32494E+00
         0.18366E+00
         0.21710E+00
         0.38911E+00
         0.18203E+00
         0.56970E+00
         0.60403E+00
         0.61536E+00
         0.52061E+00
         0.57321E+00
         0.42536E+00
         0.49462E+00
         0.36674E+00
         0.44942E+00
         0.58663E+00
         0.43736E+00
         0.43292E+00
         0.43126E+00
         0.39175E+00
         0.53733E+00
         0.45605E+00
         0.32488E+00
         0.48834E+00
         0.46292E+00
         0.38266E+00
         0.37345E+00
         0.30627E+00
         0.17959E+00
         0.19823E+00
         0.19318E+00
         0.18768E+00
         0.32976E+00
         0.45862E+00
         0.29016E+00
         0.15082E+00
         0.31227E-01
         0.10302E+00
         0.17099E+00
         0.21245E+00
         0.23947E+00
         0.24674E+00
         0.38400E+00
         0.33938E+00
         0.36247E+00
         0.30746E+00
         0.14421E+00
        -0.79487E-03
        -0.63960E-01
        -0.10214E+00
        -0.11930E+00
        -0.57313E-01
         0.59650E-01
         0.13955E+00
         0.21635E+00
         0.35753E+00
         0.40270E+00
         0.32212E+00
         0.24577E+00
         0.99836E-01
        -0.64001E-01
        -0.90673E-01
        -0.13529E+00
        -0.15027E+00
        -0.92565E-01
         0.59714E-01
         0.11567E+00
         0.25268E+00
         0.37412E+00
         0.45166E+00
         0.36090E+00
         0.39347E+00
         0.47035E+00
         0.36356E+00
         0.37816E+00
         0.29758E+00
         0.39152E+00
         0.46971E+00
         0.44668E+00
         0.26313E+00
         0.16836E+00
         0.17570E+00
         0.31356E+00
         0.17033E+00
         0.45260E+00
         0.47674E+00
         0.48925E+00
         0.41349E+00
         0.44894E+00
         0.34358E+00
         0.38936E+00
         0.30876E+00
         0.36423E+00
         0.45623E+00
         0.35375E+00
         0.34609E+00
         0.34207E+00
         0.30765E+00
         0.41843E+00
         0.36501E+00
         0.26496E+00
         0.38958E+00
         0.37202E+00
         0.32005E+00
         0.31006E+00
         0.24920E+00
         0.16090E+00
         0.17701E+00
         0.17534E+00
         0.16874E+00
         0.26367E+00
         0.36254E+00
         0.24727E+00
         0.12814E+00
         0.35137E-01
         0.97866E-01
         0.15401E+00
         0.18311E+00
         0.20072E+00
         0.20260E+00
         0.31201E+00
         0.30287E+00
         0.31152E+00
         0.27694E+00
         0.13150E+00
         0.24696E-01
         0.24942E-03
        -0.39471E-01
        -0.60784E-01
        -0.20062E-01
         0.93922E-01
         0.17057E+00
         0.20669E+00
         0.30501E+00
         0.33748E+00
         0.28475E+00
         0.22429E+00
         0.96700E-01
        -0.38022E-01
        -0.40656E-01
        -0.72381E-01
        -0.83314E-01
        -0.42386E-01
         0.82663E-01
         0.10910E+00
         0.21608E+00
         0.32531E+00
         0.34060E+00
         0.28012E+00
         0.30620E+00
         0.35870E+00
         0.28781E+00
         0.29759E+00
         0.23509E+00
         0.29800E+00
         0.35401E+00
         0.33556E+00
         0.22418E+00
         0.17275E+00
         0.15945E+00
         0.25920E+00
         0.17127E+00
         0.34559E+00
         0.35742E+00
         0.36934E+00
         0.31734E+00
         0.33600E+00
         0.27302E+00
         0.29871E+00
         0.26036E+00
         0.28914E+00
         0.33774E+00
         0.28169E+00
         0.27854E+00
         0.27201E+00
         0.24426E+00
         0.31341E+00
         0.28171E+00
         0.22036E+00
         0.29647E+00
         0.28786E+00
         0.26290E+00
         0.25565E+00
         0.20908E+00
         0.15754E+00
         0.17418E+00
         0.17457E+00
         0.16913E+00
         0.21833E+00
         0.28177E+00
         0.21969E+00
         0.12914E+00
         0.64054E-01
         0.11156E+00
         0.14655E+00
         0.16082E+00
         0.17197E+00
         0.16933E+00
         0.24748E+00
         0.26340E+00
         0.26545E+00
         0.24389E+00
         0.12777E+00
         0.60676E-01
         0.65702E-01
         0.17373E-01
        -0.10712E-01
         0.32985E-01
         0.13273E+00
         0.19775E+00
         0.20111E+00
         0.26278E+00
         0.27940E+00
         0.24656E+00
         0.20745E+00
         0.11297E+00
         0.89149E-02
         0.21847E-01
        -0.21846E-02
        -0.22801E-01
         0.67101E-02
         0.11437E+00
         0.11343E+00
         0.18305E+00
         0.27853E+00
         0.24460E+00
         0.21525E+00
         0.23033E+00
         0.25586E+00
         0.22348E+00
         0.22855E+00
         0.19267E+00
         0.22219E+00
         0.25658E+00
         0.24677E+00
         0.20217E+00
         0.19673E+00
         0.17180E+00
         0.21812E+00
         0.18688E+00
         0.24930E+00
         0.25564E+00
         0.26209E+00
         0.23263E+00
         0.23669E+00
         0.21536E+00
         0.22358E+00
         0.22450E+00
         0.22596E+00
         0.24412E+00
         0.22336E+00
         0.22502E+00
         0.22061E+00
         0.20409E+00
         0.22732E+00
         0.21438E+00
         0.19557E+00
         0.21932E+00
         0.21982E+00
         0.21994E+00
         0.21768E+00
         0.19279E+00
         0.16803E+00
         0.18002E+00
         0.18532E+00
         0.18328E+00
         0.19326E+00
         0.21731E+00
         0.21214E+00
         0.16058E+00
         0.13101E+00
         0.15764E+00
         0.16968E+00
         0.16895E+00
         0.17283E+00
         0.16891E+00
         0.20549E+00
         0.23660E+00
         0.22698E+00
         0.23128E+00
         0.16258E+00
         0.14579E+00
         0.16205E+00
         0.10203E+00
         0.84176E-01
         0.11364E+00
         0.17691E+00
         0.22053E+00
         0.20298E+00
         0.22770E+00
         0.23525E+00
         0.22151E+00
         0.20332E+00
         0.15260E+00
         0.95723E-01
         0.13016E+00
         0.11409E+00
         0.87287E-01
         0.98889E-01
         0.17248E+00
         0.15430E+00
         0.18230E+00
         0.24063E+00
         0.17442E+00
         0.16968E+00
         0.17629E+00
         0.18037E+00
         0.17416E+00
         0.17262E+00
         0.16210E+00
         0.16764E+00
         0.17939E+00
         0.17973E+00
         0.18114E+00
         0.19889E+00
         0.17194E+00
         0.18405E+00
         0.18735E+00
         0.17725E+00
         0.17627E+00
         0.18168E+00
         0.16817E+00
         0.16415E+00
         0.16830E+00
         0.16726E+00
         0.19478E+00
         0.17966E+00
         0.17526E+00
         0.18124E+00
         0.18157E+00
         0.17783E+00
         0.17070E+00
         0.16715E+00
         0.16636E+00
         0.17341E+00
         0.16258E+00
         0.16556E+00
         0.18468E+00
         0.18659E+00
         0.17705E+00
         0.16644E+00
         0.17303E+00
         0.17980E+00
         0.18122E+00
         0.17212E+00
         0.17268E+00
         0.19900E+00
         0.17190E+00
         0.16520E+00
         0.17749E+00
         0.17508E+00
         0.16491E+00
         0.16348E+00
         0.15825E+00
         0.16537E+00
         0.20804E+00
         0.18828E+00
         0.20978E+00
         0.17388E+00
         0.17574E+00
         0.19261E+00
         0.14656E+00
         0.14391E+00
         0.17264E+00
         0.20600E+00
         0.22343E+00
         0.19252E+00
         0.19957E+00
         0.19631E+00
         0.18973E+00
         0.18664E+00
         0.16213E+00
         0.13817E+00
         0.18231E+00
         0.16896E+00
         0.13684E+00
         0.14259E+00
         0.19632E+00
         0.16983E+00
         0.16799E+00
         0.19806E+00
         0.12620E+00
         0.14084E+00
         0.13913E+00
         0.12762E+00
         0.14052E+00
         0.13560E+00
         0.14721E+00
         0.13583E+00
         0.12258E+00
         0.13671E+00
         0.17011E+00
         0.20104E+00
         0.17639E+00
         0.16540E+00
         0.19195E+00
         0.12873E+00
         0.12112E+00
         0.12453E+00
         0.12884E+00
         0.11966E+00
         0.14311E+00
         0.13438E+00
         0.17602E+00
         0.15098E+00
         0.13111E+00
         0.15564E+00
         0.15870E+00
         0.15409E+00
         0.15025E+00
         0.12910E+00
         0.14105E+00
         0.16406E+00
         0.13018E+00
         0.13241E+00
         0.15889E+00
         0.16520E+00
         0.16892E+00
         0.17314E+00
         0.17188E+00
         0.17357E+00
         0.17464E+00
         0.15482E+00
         0.14162E+00
         0.19083E+00
         0.18351E+00
         0.19114E+00
         0.19491E+00
         0.18603E+00
         0.16976E+00
         0.16255E+00
         0.15682E+00
         0.14218E+00
         0.18024E+00
         0.15687E+00
         0.19250E+00
         0.18422E+00
         0.20054E+00
         0.22116E+00
         0.18932E+00
         0.18861E+00
         0.19955E+00
         0.19933E+00
         0.21036E+00
         0.17640E+00
         0.17271E+00
         0.17103E+00
         0.17278E+00
         0.17993E+00
         0.17620E+00
         0.17583E+00
         0.21611E+00
         0.20743E+00
         0.18201E+00
         0.17791E+00
         0.20577E+00
         0.18319E+00
         0.16139E+00
         0.16652E+00
         0.97341E-01
         0.11923E+00
         0.11515E+00
         0.98179E-01
         0.11677E+00
         0.10957E+00
         0.12989E+00
         0.11501E+00
         0.87199E-01
         0.10874E+00
         0.14892E+00
         0.17544E+00
         0.15588E+00
         0.14340E+00
         0.17092E+00
         0.10316E+00
         0.88558E-01
         0.92299E-01
         0.10578E+00
         0.93860E-01
         0.12010E+00
         0.11014E+00
         0.14983E+00
         0.13029E+00
         0.10257E+00
         0.13546E+00
         0.13504E+00
         0.12922E+00
         0.12648E+00
         0.10424E+00
         0.12478E+00
         0.14564E+00
         0.11110E+00
         0.10866E+00
         0.13415E+00
         0.14037E+00
         0.14674E+00
         0.15739E+00
         0.15395E+00
         0.15197E+00
         0.15058E+00
         0.13236E+00
         0.11852E+00
         0.16382E+00
         0.16295E+00
         0.17502E+00
         0.17654E+00
         0.16909E+00
         0.15407E+00
         0.14448E+00
         0.13760E+00
         0.11725E+00
         0.14934E+00
         0.12868E+00
         0.16214E+00
         0.16664E+00
         0.18642E+00
         0.20644E+00
         0.19107E+00
         0.19418E+00
         0.20060E+00
         0.18588E+00
         0.17951E+00
         0.15191E+00
         0.14661E+00
         0.14211E+00
         0.14277E+00
         0.15112E+00
         0.15876E+00
         0.16908E+00
         0.20398E+00
         0.19823E+00
         0.17979E+00
         0.17710E+00
         0.19049E+00
         0.16768E+00
         0.13986E+00
         0.13557E+00
         0.80714E-01
         0.98119E-01
         0.94280E-01
         0.81193E-01
         0.96446E-01
         0.92002E-01
         0.10702E+00
         0.95754E-01
         0.71180E-01
         0.89175E-01
         0.12011E+00
         0.14159E+00
         0.12744E+00
         0.11664E+00
         0.14168E+00
         0.85019E-01
         0.73244E-01
         0.76027E-01
         0.87310E-01
         0.79211E-01
         0.98945E-01
         0.92411E-01
         0.12112E+00
         0.10559E+00
         0.85132E-01
         0.10992E+00
         0.11062E+00
         0.10641E+00
         0.10478E+00
         0.87679E-01
         0.10486E+00
         0.12029E+00
         0.94304E-01
         0.91874E-01
         0.10888E+00
         0.11411E+00
         0.12025E+00
         0.13347E+00
         0.12889E+00
         0.12522E+00
         0.12200E+00
         0.10891E+00
         0.99433E-01
         0.13276E+00
         0.13675E+00
         0.14931E+00
         0.14773E+00
         0.14162E+00
         0.12996E+00
         0.12198E+00
         0.11674E+00
         0.99190E-01
         0.11876E+00
         0.10584E+00
         0.13254E+00
         0.14372E+00
         0.16404E+00
         0.18225E+00
         0.17752E+00
         0.17690E+00
         0.17309E+00
         0.15484E+00
         0.14287E+00
         0.12198E+00
         0.12214E+00
         0.11875E+00
         0.12147E+00
         0.13078E+00
         0.13953E+00
         0.15202E+00
         0.17573E+00
         0.17141E+00
         0.16276E+00
         0.15812E+00
         0.16020E+00
         0.14099E+00
         0.11944E+00
         0.11518E+00
         0.67830E-01
         0.77987E-01
         0.75984E-01
         0.68552E-01
         0.76931E-01
         0.73806E-01
         0.83618E-01
         0.76771E-01
         0.62592E-01
         0.73597E-01
         0.91512E-01
         0.10501E+00
         0.95865E-01
         0.88635E-01
         0.10555E+00
         0.69763E-01
         0.64216E-01
         0.64560E-01
         0.72268E-01
         0.67529E-01
         0.79740E-01
         0.75052E-01
         0.93765E-01
         0.84079E-01
         0.72142E-01
         0.86358E-01
         0.84569E-01
         0.83828E-01
         0.83808E-01
         0.72470E-01
         0.83238E-01
         0.92094E-01
         0.76556E-01
         0.74550E-01
         0.84301E-01
         0.87127E-01
         0.90802E-01
         0.10020E+00
         0.98829E-01
         0.98547E-01
         0.96403E-01
         0.85928E-01
         0.79189E-01
         0.99682E-01
         0.10110E+00
         0.10828E+00
         0.10759E+00
         0.10420E+00
         0.96717E-01
         0.91979E-01
         0.88416E-01
         0.77355E-01
         0.90382E-01
         0.80318E-01
         0.10061E+00
         0.10818E+00
         0.12115E+00
         0.13242E+00
         0.13281E+00
         0.13675E+00
         0.13468E+00
         0.11921E+00
         0.11224E+00
         0.96082E-01
         0.94307E-01
         0.91254E-01
         0.93367E-01
         0.10043E+00
         0.10455E+00
         0.11152E+00
         0.12642E+00
         0.12566E+00
         0.12189E+00
         0.11593E+00
         0.11683E+00
         0.10424E+00
         0.88808E-01
         0.86334E-01
         0.52237E-01
         0.57580E-01
         0.57823E-01
         0.51870E-01
         0.59403E-01
         0.55664E-01
         0.60340E-01
         0.57191E-01
         0.49610E-01
         0.55854E-01
         0.65070E-01
         0.75840E-01
         0.69525E-01
         0.63103E-01
         0.75856E-01
         0.53567E-01
         0.50474E-01
         0.49603E-01
         0.55479E-01
         0.51042E-01
         0.59287E-01
         0.54447E-01
         0.68728E-01
         0.62947E-01
         0.54410E-01
         0.63000E-01
         0.60503E-01
         0.60488E-01
         0.61475E-01
         0.54244E-01
         0.60898E-01
         0.66312E-01
         0.57112E-01
         0.55781E-01
         0.64848E-01
         0.64834E-01
         0.65704E-01
         0.72585E-01
         0.71810E-01
         0.71930E-01
         0.70193E-01
         0.64234E-01
         0.58996E-01
         0.71408E-01
         0.73803E-01
         0.80709E-01
         0.78896E-01
         0.76832E-01
         0.73511E-01
         0.71531E-01
         0.69611E-01
         0.58843E-01
         0.69456E-01
         0.62833E-01
         0.74062E-01
         0.79893E-01
         0.93263E-01
         0.10334E+00
         0.10508E+00
         0.10907E+00
         0.10388E+00
         0.90216E-01
         0.80048E-01
         0.71036E-01
         0.70181E-01
         0.68032E-01
         0.71053E-01
         0.73208E-01
         0.76681E-01
         0.84565E-01
         0.96046E-01
         0.95171E-01
         0.95665E-01
         0.94078E-01
         0.95472E-01
         0.86039E-01
         0.71184E-01
         0.66625E-01
         0.38827E-01
         0.41372E-01
         0.41103E-01
         0.36700E-01
         0.40488E-01
         0.37672E-01
         0.41661E-01
         0.41522E-01
         0.35943E-01
         0.41155E-01
         0.43526E-01
         0.48970E-01
         0.44852E-01
         0.43464E-01
         0.50076E-01
         0.34801E-01
         0.35384E-01
         0.33515E-01
         0.36789E-01
         0.35667E-01
         0.39338E-01
         0.37659E-01
         0.44588E-01
         0.40494E-01
         0.39505E-01
         0.40865E-01
         0.42800E-01
         0.43159E-01
         0.43092E-01
         0.38263E-01
         0.40374E-01
         0.44586E-01
         0.37886E-01
         0.37939E-01
         0.44349E-01
         0.44369E-01
         0.43692E-01
         0.48575E-01
         0.48751E-01
         0.49937E-01
         0.48767E-01
         0.44782E-01
         0.41551E-01
         0.47343E-01
         0.50725E-01
         0.56195E-01
         0.54307E-01
         0.52074E-01
         0.48999E-01
         0.47824E-01
         0.47390E-01
         0.40228E-01
         0.46936E-01
         0.42971E-01
         0.49241E-01
         0.51379E-01
         0.60296E-01
         0.67693E-01
         0.69889E-01
         0.72846E-01
         0.67009E-01
         0.63035E-01
         0.57183E-01
         0.52540E-01
         0.50068E-01
         0.45360E-01
         0.47552E-01
         0.50549E-01
         0.56349E-01
         0.61544E-01
         0.67640E-01
         0.67282E-01
         0.69150E-01
         0.65970E-01
         0.63449E-01
         0.58203E-01
         0.49080E-01
         0.45831E-01
         0.23220E-01
         0.26123E-01
         0.24707E-01
         0.21798E-01
         0.24335E-01
         0.22954E-01
         0.27785E-01
         0.25239E-01
         0.21651E-01
         0.24439E-01
         0.30233E-01
         0.36006E-01
         0.32807E-01
         0.28544E-01
         0.36387E-01
         0.21765E-01
         0.22196E-01
         0.20255E-01
         0.24504E-01
         0.23408E-01
         0.26575E-01
         0.24754E-01
         0.29931E-01
         0.26926E-01
         0.23990E-01
         0.26145E-01
         0.27165E-01
         0.27207E-01
         0.27188E-01
         0.23752E-01
         0.25334E-01
         0.28328E-01
         0.24012E-01
         0.24602E-01
         0.28441E-01
         0.29173E-01
         0.30318E-01
         0.34741E-01
         0.34276E-01
         0.34981E-01
         0.34139E-01
         0.28408E-01
         0.25872E-01
         0.30495E-01
         0.33215E-01
         0.38921E-01
         0.36909E-01
         0.34772E-01
         0.33051E-01
         0.33439E-01
         0.34355E-01
         0.27407E-01
         0.32390E-01
         0.28601E-01
         0.35392E-01
         0.37452E-01
         0.43425E-01
         0.47502E-01
         0.49863E-01
         0.53572E-01
         0.49893E-01
         0.48016E-01
         0.43921E-01
         0.34401E-01
         0.31107E-01
         0.29405E-01
         0.31489E-01
         0.33805E-01
         0.37092E-01
         0.43471E-01
         0.50067E-01
         0.49607E-01
         0.48846E-01
         0.45804E-01
         0.44647E-01
         0.43993E-01
         0.36697E-01
         0.31127E-01
         0.10289E-01
         0.12313E-01
         0.13726E-01
         0.11725E-01
         0.14819E-01
         0.12522E-01
         0.13150E-01
         0.10403E-01
         0.10240E-01
         0.10378E-01
         0.16098E-01
         0.22135E-01
         0.18092E-01
         0.14036E-01
         0.22643E-01
         0.11383E-01
         0.10687E-01
         0.10328E-01
         0.11698E-01
         0.10291E-01
         0.12414E-01
         0.11039E-01
         0.17514E-01
         0.15080E-01
         0.10526E-01
         0.15517E-01
         0.12559E-01
         0.12536E-01
         0.12296E-01
         0.10197E-01
         0.14014E-01
         0.16601E-01
         0.12889E-01
         0.13356E-01
         0.17397E-01
         0.16006E-01
         0.15408E-01
         0.20460E-01
         0.19268E-01
         0.18572E-01
         0.17411E-01
         0.13654E-01
         0.12318E-01
         0.18528E-01
         0.19079E-01
         0.21722E-01
         0.21169E-01
         0.20326E-01
         0.19632E-01
         0.19906E-01
         0.19824E-01
         0.14750E-01
         0.20068E-01
         0.17495E-01
         0.19351E-01
         0.20756E-01
         0.25181E-01
         0.29393E-01
         0.32958E-01
         0.34307E-01
         0.31413E-01
         0.27327E-01
         0.23408E-01
         0.21083E-01
         0.19694E-01
         0.17638E-01
         0.19253E-01
         0.21219E-01
         0.20802E-01
         0.22610E-01
         0.27453E-01
         0.28716E-01
         0.30165E-01
         0.29551E-01
         0.29621E-01
         0.26815E-01
         0.20384E-01
         0.17008E-01
         0.57424E-02
         0.65477E-02
         0.71151E-02
         0.63626E-02
         0.87385E-02
         0.74994E-02
         0.77611E-02
         0.65308E-02
         0.56186E-02
         0.61274E-02
         0.87200E-02
         0.11817E-01
         0.10960E-01
         0.76756E-02
         0.11626E-01
         0.70887E-02
         0.55437E-02
         0.60060E-02
         0.75839E-02
         0.57042E-02
         0.74787E-02
         0.70929E-02
         0.97342E-02
         0.91366E-02
         0.58815E-02
         0.83521E-02
         0.75443E-02
         0.80238E-02
         0.78814E-02
         0.58179E-02
         0.75604E-02
         0.84864E-02
         0.75313E-02
         0.79568E-02
         0.98308E-02
         0.83817E-02
         0.88310E-02
         0.11338E-01
         0.11197E-01
         0.11102E-01
         0.10902E-01
         0.82019E-02
         0.71847E-02
         0.10036E-01
         0.10675E-01
         0.13752E-01
         0.13225E-01
         0.12756E-01
         0.12222E-01
         0.12249E-01
         0.12250E-01
         0.91706E-02
         0.11524E-01
         0.11250E-01
         0.10826E-01
         0.15918E-01
         0.19589E-01
         0.19448E-01
         0.20024E-01
         0.19191E-01
         0.17253E-01
         0.15149E-01
         0.14536E-01
         0.11757E-01
         0.94825E-02
         0.10512E-01
         0.10244E-01
         0.11827E-01
         0.15334E-01
         0.16876E-01
         0.19796E-01
         0.20570E-01
         0.20674E-01
         0.18330E-01
         0.17230E-01
         0.16286E-01
         0.14315E-01
         0.11787E-01
         0.39081E-02
         0.29578E-02
         0.39002E-02
         0.31940E-02
         0.41645E-02
         0.35496E-02
         0.18318E-02
         0.32255E-02
         0.44532E-02
         0.45217E-02
         0.91771E-03
         0.25536E-02
         0.22177E-02
         0.10308E-02
         0.30517E-02
         0.17543E-02
         0.39605E-02
         0.17433E-02
         0.22693E-02
         0.32718E-02
         0.20514E-02
         0.31785E-02
         0.26690E-02
         0.21305E-02
         0.45341E-02
         0.23830E-02
         0.18274E-02
         0.27692E-02
         0.33205E-02
         0.38308E-02
         0.22336E-02
         0.33036E-02
         0.17524E-02
         0.24278E-02
         0.39565E-02
         0.31095E-02
         0.23919E-02
         0.31569E-02
         0.27131E-02
         0.33400E-02
         0.42785E-02
         0.32374E-02
         0.33914E-02
         0.31351E-02
         0.42233E-02
         0.50545E-02
         0.44085E-02
         0.42097E-02
         0.43166E-02
         0.44956E-02
         0.45887E-02
         0.36553E-02
         0.34624E-02
         0.37226E-02
         0.29980E-02
         0.56819E-02
         0.78075E-02
         0.97178E-02
         0.13447E-01
         0.13523E-01
         0.10320E-01
         0.10628E-01
         0.84241E-02
         0.47326E-02
         0.43909E-02
         0.35770E-02
         0.43104E-02
         0.62733E-02
         0.59154E-02
         0.70575E-02
         0.67806E-02
         0.49666E-02
         0.67911E-02
         0.83586E-02
         0.87034E-02
         0.70005E-02
         0.64876E-02
         0.51927E-02
         0.67321E-03
         0.14034E-02
         0.12545E-02
         0.11513E-02
         0.14921E-02
         0.12079E-02
         0.19696E-02
         0.12516E-02
         0.87312E-03
         0.10824E-02
         0.21725E-02
         0.28595E-02
         0.29921E-02
         0.18263E-02
         0.30597E-02
         0.14838E-02
         0.12988E-02
         0.11736E-02
         0.10963E-02
         0.11554E-02
         0.12553E-02
         0.13832E-02
         0.19095E-02
         0.17060E-02
         0.17863E-02
         0.18683E-02
         0.17384E-02
         0.22783E-02
         0.32907E-02
         0.23228E-02
         0.19739E-02
         0.20095E-02
         0.18270E-02
         0.17312E-02
         0.28675E-02
         0.26662E-02
         0.27404E-02
         0.33960E-02
         0.31801E-02
         0.32180E-02
         0.37306E-02
         0.31592E-02
         0.20153E-02
         0.21430E-02
         0.26158E-02
         0.38696E-02
         0.35575E-02
         0.36165E-02
         0.35518E-02
         0.35213E-02
         0.34689E-02
         0.22007E-02
         0.50570E-02
         0.33355E-02
         0.41079E-02
         0.41102E-02
         0.50322E-02
         0.44351E-02
         0.47889E-02
         0.51163E-02
         0.56445E-02
         0.41901E-02
         0.35420E-02
         0.30940E-02
         0.22289E-02
         0.12970E-02
         0.13559E-02
         0.20209E-02
         0.34932E-02
         0.57905E-02
         0.72148E-02
         0.74588E-02
         0.90074E-02
         0.85564E-02
         0.80528E-02
         0.57797E-02
         0.47070E-02
         0.34111E-02
         0.75156E-03
         0.84421E-03
         0.42747E-03
         0.15568E-04
         0.70776E-03
         0.48539E-03
         0.75871E-03
         0.55568E-03
         0.83209E-03
         0.60898E-03
         0.46965E-03
         0.12766E-02
         0.93561E-03
         0.26005E-03
         0.20614E-02
        -0.22975E-03
         0.10504E-02
        -0.35330E-03
        -0.28590E-03
         0.62563E-03
        -0.57683E-03
        -0.73829E-04
         0.77821E-03
         0.12066E-04
         0.12046E-02
         0.66764E-03
         0.50425E-03
         0.12532E-02
         0.18558E-02
         0.13528E-02
         0.90312E-03
         0.14971E-02
         0.42720E-03
         0.48228E-03
         0.11051E-02
         0.63439E-03
         0.67692E-03
         0.20320E-02
         0.19972E-02
         0.24025E-02
         0.25019E-02
         0.15656E-02
         0.78600E-03
         0.13525E-02
         0.16016E-02
         0.18467E-02
         0.17895E-02
         0.15041E-02
         0.11196E-02
         0.78266E-03
         0.73385E-03
         0.82116E-03
         0.14730E-02
         0.17954E-02
         0.62048E-04
         0.12845E-02
         0.23665E-02
         0.31298E-02
         0.54157E-02
         0.31837E-02
         0.17257E-02
         0.30505E-02
         0.31188E-02
         0.18544E-02
         0.14816E-02
         0.20173E-03
         0.60766E-04
         0.16562E-02
         0.90508E-03
         0.85466E-03
         0.22432E-02
         0.17441E-02
         0.18185E-02
         0.16594E-02
         0.58790E-03
         0.19627E-03
         0.10615E-02
         0.12133E-02
        -0.69127E-04
         0.86576E-04
        -0.33113E-03
         0.23183E-04
        -0.56059E-03
         0.72288E-04
         0.44505E-03
         0.23371E-03
        -0.34421E-03
         0.20559E-04
         0.65187E-03
         0.10462E-02
         0.80111E-03
         0.69304E-03
         0.12380E-02
         0.87141E-03
         0.60807E-04
         0.40251E-03
         0.78843E-03
        -0.86153E-04
         0.66764E-03
        -0.48676E-03
         0.91566E-03
         0.65627E-03
        -0.23636E-03
         0.83982E-03
         0.94531E-03
         0.76974E-03
         0.14113E-03
        -0.45033E-03
         0.66524E-03
         0.96878E-03
         0.60205E-03
         0.74449E-03
         0.17836E-03
         0.54717E-03
         0.65100E-03
         0.95582E-03
         0.12952E-02
         0.10472E-02
         0.64764E-03
         0.41527E-03
        -0.35009E-03
         0.13588E-02
         0.13651E-02
         0.12543E-02
         0.14706E-02
         0.14762E-02
         0.12513E-02
         0.95981E-03
         0.10497E-02
         0.10915E-02
         0.11008E-02
        -0.29276E-03
         0.32709E-02
         0.28431E-02
         0.21456E-02
         0.22376E-02
         0.32382E-02
         0.23437E-03
         0.21426E-04
         0.34196E-03
        -0.61261E-03
         0.12805E-02
         0.10633E-02
         0.97761E-03
         0.16330E-02
         0.18365E-02
         0.30949E-02
         0.20635E-02
         0.12712E-02
         0.18895E-02
         0.17395E-02
         0.17672E-02
         0.19692E-03
         0.41149E-03
         0.13054E-02
         0.37947E-03
        -0.11450E-04
         0.56894E-03
         0.14579E-03
        -0.42280E-03
        -0.55985E-03
        -0.89786E-03
         0.86107E-03
         0.67743E-03
         0.58072E-03
         0.33044E-03
         0.73362E-03
        -0.73285E-03
        -0.24407E-03
         0.72429E-03
        -0.91718E-03
         0.27874E-03
         0.12591E-02
         0.86074E-03
        -0.21739E-03
         0.68259E-03
        -0.13413E-03
         0.30332E-03
        -0.22808E-03
        -0.99516E-03
         0.26446E-03
        -0.20699E-03
        -0.89182E-04
        -0.56022E-03
        -0.42521E-03
         0.28949E-03
         0.34803E-04
         0.59210E-03
        -0.29082E-04
         0.53838E-04
         0.42341E-03
         0.43463E-03
         0.27853E-03
        -0.11431E-02
        -0.40917E-03
        -0.11836E-03
         0.74784E-04
         0.19386E-03
         0.20597E-04
         0.52747E-03
         0.76146E-03
         0.37206E-03
         0.36440E-03
         0.10188E-03
        -0.20148E-04
         0.77802E-04
         0.40388E-03
         0.18103E-03
         0.10892E-02
         0.34836E-03
        -0.17675E-04
        -0.66166E-04
        -0.79712E-03
        -0.18332E-02
        -0.11029E-02
        -0.42029E-03
         0.26203E-03
        -0.13324E-02
        -0.11362E-02
        -0.20205E-02
        -0.20515E-02
         0.17221E-02
         0.16236E-02
         0.15313E-02
         0.11781E-02
         0.28624E-03
        -0.10493E-03
        -0.21663E-02
        -0.24851E-02
        -0.12719E-02
        -0.83803E-03
         0.14340E-03
         0.10572E-02
         0.40929E-04
         0.43649E-03
         0.98156E-03
         0.20021E-02
        -0.11664E-02
         0.92795E-03
        -0.16061E-02
        -0.80342E-03
        -0.15605E-02
         0.20930E-02
        -0.25133E-02
        -0.18807E-03
         0.30981E-03
        -0.15302E-02
         0.19492E-03
         0.24087E-02
         0.35752E-03
         0.32444E-02
         0.27336E-03
         0.53610E-03
         0.72782E-03
        -0.24727E-02
        -0.12800E-02
         0.25240E-02
         0.31449E-03
        -0.16171E-02
         0.88171E-03
        -0.84995E-03
        -0.24277E-04
         0.22262E-02
        -0.39759E-04
         0.11885E-02
         0.33913E-02
        -0.11071E-02
        -0.37704E-03
         0.40502E-02
         0.29585E-02
         0.23137E-03
         0.38909E-02
         0.62525E-02
         0.73240E-02
         0.66769E-02
         0.38421E-02
         0.13055E-02
         0.42798E-02
         0.57390E-02
         0.76363E-02
         0.65668E-02
         0.54812E-02
         0.20761E-02
         0.34247E-04
         0.33935E-03
         0.30971E-04
         0.64152E-02
         0.41875E-02
         0.36833E-02
         0.98348E-03
         0.25519E-02
         0.62558E-02
         0.68362E-02
         0.78565E-02
         0.56296E-02
         0.43137E-02
         0.63532E-02
         0.68034E-02
         0.49439E-02
         0.22147E-02
         0.15345E-02
         0.73268E-02
         0.79795E-02
         0.97990E-02
         0.10819E-01
         0.30768E-02
         0.46528E-02
         0.88039E-03
        -0.84716E-03
        -0.98020E-03
        -0.60963E-03
         0.18045E-02
  
SCALARS                      strain_zz  double 1
LOOKUP_TABLE default
        -0.18446E+01
        -0.14518E+01
        -0.13743E+01
        -0.17291E+01
        -0.18614E+01
        -0.14910E+01
        -0.13643E+01
        -0.18869E+01
        -0.10878E+01
        -0.12058E+01
        -0.11439E+01
        -0.14745E+01
        -0.13415E+01
        -0.16718E+01
        -0.13318E+01
        -0.16969E+01
        -0.20496E+01
        -0.18873E+01
        -0.21005E+01
        -0.19524E+01
        -0.12358E+01
        -0.99747E+00
        -0.10229E+01
        -0.11770E+01
        -0.10636E+01
        -0.10968E+01
        -0.14363E+01
        -0.11315E+01
        -0.14559E+01
        -0.12824E+01
        -0.18186E+01
        -0.19911E+01
        -0.19951E+01
        -0.19094E+01
        -0.20661E+01
        -0.21356E+01
        -0.15862E+01
        -0.17051E+01
        -0.15762E+01
        -0.18974E+01
        -0.11808E+01
        -0.12912E+01
        -0.12777E+01
        -0.14342E+01
        -0.10465E+01
        -0.13425E+01
        -0.11149E+01
        -0.12817E+01
        -0.19049E+01
        -0.20020E+01
        -0.13825E+01
        -0.13512E+01
        -0.15789E+01
        -0.17608E+01
        -0.15655E+01
        -0.16828E+01
        -0.13516E+01
        -0.16198E+01
        -0.13112E+01
        -0.17852E+01
        -0.15919E+01
        -0.12556E+01
        -0.17307E+01
        -0.12320E+01
        -0.16967E+01
        -0.18937E+01
        -0.15082E+01
        -0.15763E+01
        -0.96495E+00
        -0.10127E+01
        -0.10788E+01
        -0.10823E+01
        -0.10594E+01
        -0.12209E+01
        -0.12309E+01
        -0.14102E+01
        -0.12076E+01
        -0.13402E+01
        -0.10228E+01
        -0.10608E+01
        -0.89672E+00
        -0.10678E+01
        -0.10168E+01
        -0.11180E+01
        -0.12544E+01
        -0.14285E+01
        -0.10063E+01
        -0.10958E+01
        -0.94429E+00
        -0.10482E+01
        -0.90190E+00
        -0.10300E+01
        -0.10410E+01
        -0.11188E+01
        -0.11913E+01
        -0.13873E+01
        -0.12286E+01
        -0.13335E+01
        -0.11268E+01
        -0.11594E+01
        -0.10330E+01
        -0.11436E+01
        -0.11355E+01
        -0.11833E+01
        -0.78915E+00
        -0.81665E+00
        -0.10140E+01
        -0.10325E+01
        -0.74995E+00
        -0.97790E+00
        -0.81019E+00
        -0.10323E+01
        -0.78780E+00
        -0.98134E+00
        -0.77818E+00
        -0.98488E+00
        -0.83738E+00
        -0.11034E+01
        -0.88925E+00
        -0.11505E+01
        -0.84961E+00
        -0.11029E+01
        -0.71959E+00
        -0.94327E+00
        -0.71616E+00
        -0.92052E+00
        -0.77907E+00
        -0.10266E+01
        -0.89082E+00
        -0.11596E+01
        -0.87817E+00
        -0.11175E+01
        -0.81873E+00
        -0.10441E+01
        -0.78969E+00
        -0.10087E+01
        -0.78748E+00
        -0.10432E+01
        -0.71283E+00
        -0.98659E+00
        -0.79671E+00
        -0.10360E+01
        -0.82215E+00
        -0.10520E+01
        -0.88407E+00
        -0.11226E+01
        -0.86209E+00
        -0.10775E+01
        -0.76265E+00
        -0.98002E+00
        -0.82167E+00
        -0.10455E+01
        -0.85097E+00
        -0.10557E+01
        -0.89107E+00
        -0.11845E+01
        -0.17657E+01
        -0.13999E+01
        -0.12947E+01
        -0.16473E+01
        -0.96741E+00
        -0.10777E+01
        -0.12832E+01
        -0.15848E+01
        -0.19179E+01
        -0.17963E+01
        -0.11560E+01
        -0.89718E+00
        -0.95962E+00
        -0.13313E+01
        -0.10021E+01
        -0.17160E+01
        -0.18740E+01
        -0.18956E+01
        -0.14901E+01
        -0.15900E+01
        -0.10753E+01
        -0.11555E+01
        -0.99462E+00
        -0.12850E+01
        -0.17835E+01
        -0.13259E+01
        -0.14701E+01
        -0.14491E+01
        -0.12445E+01
        -0.15013E+01
        -0.14944E+01
        -0.11858E+01
        -0.15815E+01
        -0.13874E+01
        -0.82196E+00
        -0.93026E+00
        -0.10031E+01
        -0.10924E+01
        -0.10560E+01
        -0.87339E+00
        -0.71448E+00
        -0.92127E+00
        -0.10976E+01
        -0.95992E+00
        -0.85054E+00
        -0.75006E+00
        -0.91626E+00
        -0.10771E+01
        -0.11115E+01
        -0.99575E+00
        -0.87282E+00
        -0.10183E+01
        -0.55100E+00
        -0.57706E+00
        -0.54668E+00
        -0.61409E+00
        -0.57889E+00
        -0.53176E+00
        -0.59230E+00
        -0.59936E+00
        -0.56926E+00
        -0.49730E+00
        -0.49040E+00
        -0.52960E+00
        -0.63348E+00
        -0.64749E+00
        -0.57359E+00
        -0.58614E+00
        -0.58331E+00
        -0.50038E+00
        -0.54611E+00
        -0.61316E+00
        -0.64005E+00
        -0.64872E+00
        -0.58971E+00
        -0.61468E+00
        -0.65193E+00
        -0.62717E+00
        -0.16152E+01
        -0.12870E+01
        -0.11737E+01
        -0.15077E+01
        -0.83334E+00
        -0.94010E+00
        -0.11830E+01
        -0.14653E+01
        -0.17013E+01
        -0.16415E+01
        -0.10553E+01
        -0.79612E+00
        -0.85189E+00
        -0.12136E+01
        -0.88569E+00
        -0.15704E+01
        -0.16851E+01
        -0.17025E+01
        -0.13662E+01
        -0.14500E+01
        -0.95851E+00
        -0.10191E+01
        -0.88426E+00
        -0.11687E+01
        -0.16342E+01
        -0.12098E+01
        -0.13434E+01
        -0.13225E+01
        -0.11127E+01
        -0.13625E+01
        -0.13614E+01
        -0.10669E+01
        -0.14279E+01
        -0.12484E+01
        -0.67927E+00
        -0.80546E+00
        -0.89463E+00
        -0.95338E+00
        -0.91587E+00
        -0.73206E+00
        -0.55880E+00
        -0.78393E+00
        -0.95927E+00
        -0.85193E+00
        -0.72233E+00
        -0.60168E+00
        -0.78028E+00
        -0.94428E+00
        -0.96477E+00
        -0.84686E+00
        -0.71335E+00
        -0.86688E+00
        -0.36498E+00
        -0.36516E+00
        -0.37397E+00
        -0.45821E+00
        -0.40997E+00
        -0.35945E+00
        -0.41575E+00
        -0.42235E+00
        -0.37947E+00
        -0.30736E+00
        -0.30883E+00
        -0.33610E+00
        -0.45565E+00
        -0.46510E+00
        -0.37864E+00
        -0.40372E+00
        -0.41102E+00
        -0.32699E+00
        -0.38355E+00
        -0.42786E+00
        -0.43579E+00
        -0.44962E+00
        -0.40001E+00
        -0.41932E+00
        -0.43597E+00
        -0.39852E+00
        -0.13944E+01
        -0.11172E+01
        -0.10195E+01
        -0.13219E+01
        -0.70541E+00
        -0.81009E+00
        -0.10275E+01
        -0.12699E+01
        -0.14284E+01
        -0.14207E+01
        -0.91299E+00
        -0.67287E+00
        -0.72233E+00
        -0.10606E+01
        -0.75084E+00
        -0.13520E+01
        -0.14481E+01
        -0.14745E+01
        -0.11836E+01
        -0.12696E+01
        -0.81306E+00
        -0.87434E+00
        -0.74595E+00
        -0.10092E+01
        -0.14382E+01
        -0.10408E+01
        -0.11803E+01
        -0.11503E+01
        -0.94692E+00
        -0.11917E+01
        -0.11925E+01
        -0.91365E+00
        -0.12447E+01
        -0.10770E+01
        -0.54930E+00
        -0.66540E+00
        -0.75461E+00
        -0.80929E+00
        -0.76813E+00
        -0.59016E+00
        -0.42375E+00
        -0.63690E+00
        -0.81310E+00
        -0.71368E+00
        -0.58364E+00
        -0.46733E+00
        -0.64789E+00
        -0.80978E+00
        -0.81805E+00
        -0.70022E+00
        -0.57490E+00
        -0.73461E+00
        -0.24907E+00
        -0.25693E+00
        -0.25595E+00
        -0.33807E+00
        -0.31692E+00
        -0.27995E+00
        -0.32998E+00
        -0.32520E+00
        -0.27532E+00
        -0.20420E+00
        -0.21533E+00
        -0.22885E+00
        -0.33260E+00
        -0.35550E+00
        -0.28269E+00
        -0.29711E+00
        -0.28825E+00
        -0.21262E+00
        -0.27076E+00
        -0.30550E+00
        -0.31667E+00
        -0.32621E+00
        -0.28225E+00
        -0.28645E+00
        -0.32337E+00
        -0.29326E+00
        -0.11538E+01
        -0.92830E+00
        -0.84231E+00
        -0.11058E+01
        -0.56189E+00
        -0.65821E+00
        -0.84526E+00
        -0.10470E+01
        -0.11660E+01
        -0.11653E+01
        -0.75207E+00
        -0.55635E+00
        -0.58408E+00
        -0.88201E+00
        -0.62117E+00
        -0.11258E+01
        -0.11888E+01
        -0.12202E+01
        -0.98039E+00
        -0.10606E+01
        -0.65719E+00
        -0.71552E+00
        -0.60012E+00
        -0.82595E+00
        -0.11788E+01
        -0.85806E+00
        -0.98563E+00
        -0.94837E+00
        -0.76534E+00
        -0.98501E+00
        -0.99566E+00
        -0.75107E+00
        -0.10402E+01
        -0.89191E+00
        -0.41992E+00
        -0.52464E+00
        -0.60637E+00
        -0.66043E+00
        -0.61995E+00
        -0.46730E+00
        -0.33457E+00
        -0.50314E+00
        -0.65998E+00
        -0.57347E+00
        -0.45615E+00
        -0.35173E+00
        -0.51417E+00
        -0.65878E+00
        -0.66374E+00
        -0.55376E+00
        -0.43881E+00
        -0.58488E+00
        -0.16392E+00
        -0.17846E+00
        -0.17267E+00
        -0.23498E+00
        -0.22650E+00
        -0.22267E+00
        -0.25999E+00
        -0.26809E+00
        -0.24228E+00
        -0.21415E+00
        -0.26121E+00
        -0.22351E+00
        -0.26881E+00
        -0.26953E+00
        -0.22026E+00
        -0.22763E+00
        -0.20054E+00
        -0.13216E+00
        -0.19787E+00
        -0.22641E+00
        -0.23062E+00
        -0.23805E+00
        -0.21952E+00
        -0.20926E+00
        -0.22935E+00
        -0.21005E+00
        -0.90556E+00
        -0.74623E+00
        -0.68232E+00
        -0.88162E+00
        -0.46863E+00
        -0.54212E+00
        -0.68371E+00
        -0.82018E+00
        -0.92046E+00
        -0.91007E+00
        -0.61907E+00
        -0.48968E+00
        -0.49881E+00
        -0.70392E+00
        -0.52542E+00
        -0.89064E+00
        -0.93507E+00
        -0.96526E+00
        -0.77739E+00
        -0.83732E+00
        -0.54220E+00
        -0.58008E+00
        -0.50738E+00
        -0.66525E+00
        -0.91546E+00
        -0.69034E+00
        -0.78071E+00
        -0.74077E+00
        -0.59833E+00
        -0.77303E+00
        -0.79657E+00
        -0.61452E+00
        -0.82739E+00
        -0.71952E+00
        -0.35830E+00
        -0.43310E+00
        -0.50004E+00
        -0.54494E+00
        -0.51207E+00
        -0.39545E+00
        -0.31468E+00
        -0.42865E+00
        -0.54265E+00
        -0.48484E+00
        -0.38997E+00
        -0.31101E+00
        -0.43612E+00
        -0.54406E+00
        -0.54402E+00
        -0.46285E+00
        -0.37489E+00
        -0.48638E+00
        -0.19716E+00
        -0.21636E+00
        -0.18324E+00
        -0.21924E+00
        -0.23270E+00
        -0.25812E+00
        -0.27637E+00
        -0.25717E+00
        -0.24178E+00
        -0.26197E+00
        -0.33409E+00
        -0.24805E+00
        -0.25188E+00
        -0.26166E+00
        -0.24321E+00
        -0.24797E+00
        -0.21594E+00
        -0.16547E+00
        -0.22651E+00
        -0.23691E+00
        -0.23059E+00
        -0.24128E+00
        -0.23402E+00
        -0.21362E+00
        -0.23450E+00
        -0.23545E+00
        -0.69025E+00
        -0.58253E+00
        -0.52948E+00
        -0.66691E+00
        -0.39080E+00
        -0.44256E+00
        -0.54893E+00
        -0.63934E+00
        -0.70339E+00
        -0.68935E+00
        -0.51427E+00
        -0.44565E+00
        -0.43934E+00
        -0.56752E+00
        -0.45992E+00
        -0.68258E+00
        -0.70652E+00
        -0.73061E+00
        -0.60611E+00
        -0.64305E+00
        -0.45029E+00
        -0.46915E+00
        -0.44115E+00
        -0.53150E+00
        -0.67485E+00
        -0.54562E+00
        -0.60955E+00
        -0.56772E+00
        -0.47965E+00
        -0.59309E+00
        -0.60986E+00
        -0.49631E+00
        -0.63161E+00
        -0.55841E+00
        -0.31732E+00
        -0.36613E+00
        -0.42420E+00
        -0.45745E+00
        -0.43289E+00
        -0.36909E+00
        -0.33060E+00
        -0.38411E+00
        -0.44857E+00
        -0.43018E+00
        -0.35997E+00
        -0.30253E+00
        -0.38103E+00
        -0.44638E+00
        -0.44172E+00
        -0.38375E+00
        -0.32471E+00
        -0.40270E+00
        -0.23817E+00
        -0.25181E+00
        -0.21552E+00
        -0.22395E+00
        -0.25421E+00
        -0.29761E+00
        -0.28917E+00
        -0.26283E+00
        -0.26535E+00
        -0.31733E+00
        -0.39142E+00
        -0.29045E+00
        -0.28088E+00
        -0.28361E+00
        -0.28028E+00
        -0.28315E+00
        -0.24931E+00
        -0.21286E+00
        -0.26791E+00
        -0.25992E+00
        -0.23682E+00
        -0.24912E+00
        -0.26003E+00
        -0.23919E+00
        -0.24346E+00
        -0.25273E+00
        -0.49627E+00
        -0.44674E+00
        -0.41762E+00
        -0.47843E+00
        -0.36962E+00
        -0.39142E+00
        -0.44234E+00
        -0.47839E+00
        -0.51489E+00
        -0.50084E+00
        -0.43788E+00
        -0.43004E+00
        -0.41645E+00
        -0.45459E+00
        -0.42003E+00
        -0.49645E+00
        -0.51043E+00
        -0.51976E+00
        -0.45806E+00
        -0.47373E+00
        -0.39856E+00
        -0.39628E+00
        -0.41452E+00
        -0.42755E+00
        -0.48339E+00
        -0.43382E+00
        -0.46550E+00
        -0.43931E+00
        -0.40421E+00
        -0.44838E+00
        -0.45218E+00
        -0.41732E+00
        -0.45971E+00
        -0.43284E+00
        -0.34105E+00
        -0.35531E+00
        -0.39164E+00
        -0.39614E+00
        -0.38675E+00
        -0.37055E+00
        -0.36240E+00
        -0.37129E+00
        -0.38748E+00
        -0.41823E+00
        -0.37844E+00
        -0.34774E+00
        -0.37420E+00
        -0.39500E+00
        -0.38759E+00
        -0.36192E+00
        -0.34027E+00
        -0.37458E+00
        -0.34835E+00
        -0.35837E+00
        -0.31291E+00
        -0.30435E+00
        -0.34247E+00
        -0.37262E+00
        -0.34040E+00
        -0.31417E+00
        -0.32666E+00
        -0.38496E+00
        -0.44833E+00
        -0.36005E+00
        -0.33471E+00
        -0.34154E+00
        -0.35501E+00
        -0.36555E+00
        -0.34231E+00
        -0.31973E+00
        -0.36917E+00
        -0.33944E+00
        -0.30849E+00
        -0.32169E+00
        -0.34116E+00
        -0.32945E+00
        -0.32239E+00
        -0.34374E+00
        -0.35764E+00
        -0.34923E+00
        -0.32927E+00
        -0.34374E+00
        -0.33262E+00
        -0.33606E+00
        -0.36023E+00
        -0.35831E+00
        -0.36632E+00
        -0.36033E+00
        -0.36755E+00
        -0.39471E+00
        -0.38796E+00
        -0.36235E+00
        -0.37218E+00
        -0.35834E+00
        -0.35866E+00
        -0.36589E+00
        -0.34652E+00
        -0.34805E+00
        -0.34584E+00
        -0.33307E+00
        -0.37836E+00
        -0.34905E+00
        -0.34528E+00
        -0.35101E+00
        -0.35757E+00
        -0.34229E+00
        -0.34202E+00
        -0.34267E+00
        -0.33981E+00
        -0.35021E+00
        -0.33574E+00
        -0.33086E+00
        -0.33506E+00
        -0.33228E+00
        -0.36138E+00
        -0.34586E+00
        -0.34293E+00
        -0.35206E+00
        -0.36420E+00
        -0.34901E+00
        -0.33582E+00
        -0.39138E+00
        -0.36970E+00
        -0.35779E+00
        -0.35220E+00
        -0.34575E+00
        -0.33483E+00
        -0.32468E+00
        -0.32457E+00
        -0.33093E+00
        -0.39494E+00
        -0.37982E+00
        -0.35209E+00
        -0.32546E+00
        -0.35438E+00
        -0.37863E+00
        -0.35165E+00
        -0.34401E+00
        -0.37045E+00
        -0.40879E+00
        -0.45362E+00
        -0.38850E+00
        -0.37204E+00
        -0.36539E+00
        -0.36628E+00
        -0.37185E+00
        -0.36019E+00
        -0.35517E+00
        -0.40529E+00
        -0.36438E+00
        -0.32253E+00
        -0.33785E+00
        -0.36769E+00
        -0.36409E+00
        -0.33766E+00
        -0.35417E+00
        -0.25828E+00
        -0.29015E+00
        -0.28597E+00
        -0.25736E+00
        -0.32245E+00
        -0.30652E+00
        -0.30962E+00
        -0.27682E+00
        -0.25138E+00
        -0.26444E+00
        -0.32601E+00
        -0.37287E+00
        -0.36541E+00
        -0.30246E+00
        -0.34425E+00
        -0.26183E+00
        -0.25434E+00
        -0.24996E+00
        -0.28187E+00
        -0.27370E+00
        -0.32643E+00
        -0.30893E+00
        -0.36148E+00
        -0.30687E+00
        -0.26100E+00
        -0.30309E+00
        -0.28912E+00
        -0.28773E+00
        -0.30353E+00
        -0.28037E+00
        -0.27142E+00
        -0.31465E+00
        -0.25886E+00
        -0.27384E+00
        -0.34968E+00
        -0.33448E+00
        -0.34395E+00
        -0.31942E+00
        -0.32086E+00
        -0.33483E+00
        -0.34967E+00
        -0.32862E+00
        -0.31160E+00
        -0.37487E+00
        -0.36757E+00
        -0.36831E+00
        -0.34494E+00
        -0.32052E+00
        -0.30802E+00
        -0.31287E+00
        -0.32779E+00
        -0.31192E+00
        -0.42084E+00
        -0.39622E+00
        -0.38519E+00
        -0.35767E+00
        -0.37366E+00
        -0.38925E+00
        -0.36817E+00
        -0.36397E+00
        -0.37375E+00
        -0.39158E+00
        -0.43223E+00
        -0.37882E+00
        -0.37314E+00
        -0.37688E+00
        -0.38299E+00
        -0.38632E+00
        -0.38218E+00
        -0.38380E+00
        -0.41818E+00
        -0.37722E+00
        -0.34405E+00
        -0.35483E+00
        -0.37946E+00
        -0.38817E+00
        -0.35884E+00
        -0.37258E+00
        -0.20073E+00
        -0.24621E+00
        -0.24692E+00
        -0.20854E+00
        -0.28162E+00
        -0.26392E+00
        -0.26252E+00
        -0.22338E+00
        -0.17985E+00
        -0.20330E+00
        -0.27705E+00
        -0.31811E+00
        -0.31276E+00
        -0.25369E+00
        -0.29733E+00
        -0.20721E+00
        -0.19151E+00
        -0.18523E+00
        -0.23518E+00
        -0.22356E+00
        -0.28668E+00
        -0.27012E+00
        -0.31394E+00
        -0.26439E+00
        -0.20595E+00
        -0.26148E+00
        -0.23754E+00
        -0.23867E+00
        -0.25791E+00
        -0.23148E+00
        -0.23070E+00
        -0.27287E+00
        -0.21235E+00
        -0.22600E+00
        -0.31052E+00
        -0.29768E+00
        -0.30125E+00
        -0.27739E+00
        -0.28005E+00
        -0.29345E+00
        -0.30803E+00
        -0.28866E+00
        -0.27226E+00
        -0.32346E+00
        -0.31926E+00
        -0.32314E+00
        -0.30209E+00
        -0.27976E+00
        -0.26603E+00
        -0.26934E+00
        -0.28647E+00
        -0.26840E+00
        -0.37890E+00
        -0.35179E+00
        -0.35448E+00
        -0.33432E+00
        -0.34064E+00
        -0.34899E+00
        -0.34010E+00
        -0.34121E+00
        -0.35343E+00
        -0.35095E+00
        -0.36898E+00
        -0.34377E+00
        -0.34662E+00
        -0.34147E+00
        -0.34025E+00
        -0.33659E+00
        -0.33665E+00
        -0.34246E+00
        -0.37401E+00
        -0.34007E+00
        -0.31333E+00
        -0.32615E+00
        -0.34747E+00
        -0.35665E+00
        -0.32830E+00
        -0.33192E+00
        -0.16789E+00
        -0.20336E+00
        -0.20894E+00
        -0.17687E+00
        -0.24064E+00
        -0.22552E+00
        -0.21229E+00
        -0.18351E+00
        -0.14684E+00
        -0.16646E+00
        -0.22178E+00
        -0.25450E+00
        -0.25118E+00
        -0.20557E+00
        -0.24208E+00
        -0.17280E+00
        -0.15794E+00
        -0.15283E+00
        -0.19711E+00
        -0.18838E+00
        -0.23737E+00
        -0.23070E+00
        -0.25166E+00
        -0.21717E+00
        -0.17156E+00
        -0.21550E+00
        -0.19574E+00
        -0.20006E+00
        -0.21528E+00
        -0.19455E+00
        -0.19263E+00
        -0.22503E+00
        -0.18026E+00
        -0.19389E+00
        -0.26328E+00
        -0.24992E+00
        -0.24688E+00
        -0.23170E+00
        -0.23482E+00
        -0.24249E+00
        -0.25082E+00
        -0.23825E+00
        -0.23055E+00
        -0.25999E+00
        -0.26195E+00
        -0.26825E+00
        -0.25104E+00
        -0.23551E+00
        -0.22807E+00
        -0.23235E+00
        -0.24440E+00
        -0.22861E+00
        -0.31435E+00
        -0.29715E+00
        -0.30284E+00
        -0.29227E+00
        -0.29717E+00
        -0.30029E+00
        -0.29445E+00
        -0.29706E+00
        -0.30019E+00
        -0.28815E+00
        -0.29810E+00
        -0.28345E+00
        -0.29430E+00
        -0.29711E+00
        -0.29652E+00
        -0.29243E+00
        -0.29121E+00
        -0.29433E+00
        -0.31065E+00
        -0.28687E+00
        -0.27532E+00
        -0.28273E+00
        -0.29379E+00
        -0.29509E+00
        -0.27839E+00
        -0.28762E+00
        -0.13837E+00
        -0.16061E+00
        -0.16413E+00
        -0.14747E+00
        -0.18190E+00
        -0.17356E+00
        -0.16690E+00
        -0.14779E+00
        -0.12583E+00
        -0.13899E+00
        -0.17235E+00
        -0.19407E+00
        -0.19241E+00
        -0.16031E+00
        -0.18416E+00
        -0.14008E+00
        -0.13401E+00
        -0.13023E+00
        -0.15593E+00
        -0.15112E+00
        -0.18210E+00
        -0.17653E+00
        -0.19392E+00
        -0.16993E+00
        -0.14392E+00
        -0.16778E+00
        -0.15501E+00
        -0.15929E+00
        -0.16896E+00
        -0.15612E+00
        -0.15362E+00
        -0.17227E+00
        -0.14805E+00
        -0.15629E+00
        -0.19598E+00
        -0.18932E+00
        -0.18889E+00
        -0.17963E+00
        -0.18399E+00
        -0.18836E+00
        -0.19470E+00
        -0.18568E+00
        -0.17935E+00
        -0.19670E+00
        -0.19498E+00
        -0.19759E+00
        -0.18741E+00
        -0.17843E+00
        -0.17366E+00
        -0.17589E+00
        -0.18257E+00
        -0.17403E+00
        -0.22871E+00
        -0.21448E+00
        -0.22692E+00
        -0.22066E+00
        -0.22200E+00
        -0.22737E+00
        -0.22486E+00
        -0.22805E+00
        -0.23123E+00
        -0.22313E+00
        -0.23335E+00
        -0.21790E+00
        -0.22671E+00
        -0.22408E+00
        -0.22481E+00
        -0.22049E+00
        -0.21386E+00
        -0.21627E+00
        -0.22673E+00
        -0.21265E+00
        -0.20635E+00
        -0.20987E+00
        -0.21747E+00
        -0.21776E+00
        -0.20516E+00
        -0.21035E+00
        -0.10832E+00
        -0.12036E+00
        -0.12469E+00
        -0.11114E+00
        -0.14001E+00
        -0.13191E+00
        -0.12413E+00
        -0.11361E+00
        -0.10194E+00
        -0.10752E+00
        -0.12718E+00
        -0.14171E+00
        -0.13835E+00
        -0.11768E+00
        -0.13416E+00
        -0.10777E+00
        -0.10575E+00
        -0.10131E+00
        -0.11724E+00
        -0.11379E+00
        -0.13675E+00
        -0.13215E+00
        -0.14100E+00
        -0.12480E+00
        -0.10983E+00
        -0.12380E+00
        -0.11167E+00
        -0.11638E+00
        -0.12550E+00
        -0.11623E+00
        -0.11578E+00
        -0.12813E+00
        -0.11218E+00
        -0.11970E+00
        -0.15183E+00
        -0.14291E+00
        -0.13651E+00
        -0.12981E+00
        -0.13444E+00
        -0.14013E+00
        -0.14428E+00
        -0.13817E+00
        -0.13269E+00
        -0.14116E+00
        -0.14223E+00
        -0.14648E+00
        -0.13938E+00
        -0.13331E+00
        -0.13322E+00
        -0.13978E+00
        -0.14736E+00
        -0.13585E+00
        -0.17685E+00
        -0.17044E+00
        -0.17155E+00
        -0.16248E+00
        -0.16602E+00
        -0.17283E+00
        -0.17003E+00
        -0.17436E+00
        -0.17421E+00
        -0.16572E+00
        -0.16381E+00
        -0.16591E+00
        -0.17199E+00
        -0.17540E+00
        -0.17470E+00
        -0.16625E+00
        -0.15891E+00
        -0.16070E+00
        -0.16877E+00
        -0.15923E+00
        -0.16117E+00
        -0.16908E+00
        -0.17586E+00
        -0.17754E+00
        -0.16679E+00
        -0.16838E+00
        -0.76686E-01
        -0.84146E-01
        -0.87072E-01
        -0.78263E-01
        -0.95151E-01
        -0.89742E-01
        -0.85263E-01
        -0.79356E-01
        -0.70124E-01
        -0.76511E-01
        -0.86517E-01
        -0.94367E-01
        -0.92167E-01
        -0.81465E-01
        -0.90656E-01
        -0.72654E-01
        -0.72538E-01
        -0.68815E-01
        -0.78440E-01
        -0.76801E-01
        -0.88352E-01
        -0.86133E-01
        -0.93728E-01
        -0.84449E-01
        -0.79000E-01
        -0.84189E-01
        -0.79502E-01
        -0.83241E-01
        -0.87489E-01
        -0.80866E-01
        -0.79162E-01
        -0.87129E-01
        -0.76479E-01
        -0.80497E-01
        -0.10109E+00
        -0.95312E-01
        -0.90941E-01
        -0.89531E-01
        -0.92093E-01
        -0.95297E-01
        -0.99088E-01
        -0.94593E-01
        -0.89426E-01
        -0.94840E-01
        -0.96056E-01
        -0.10044E+00
        -0.96024E-01
        -0.91609E-01
        -0.90549E-01
        -0.92661E-01
        -0.96187E-01
        -0.90139E-01
        -0.11626E+00
        -0.11481E+00
        -0.11267E+00
        -0.10859E+00
        -0.11242E+00
        -0.11421E+00
        -0.11227E+00
        -0.12082E+00
        -0.11977E+00
        -0.11633E+00
        -0.11947E+00
        -0.11804E+00
        -0.12200E+00
        -0.11954E+00
        -0.11437E+00
        -0.11206E+00
        -0.11062E+00
        -0.11169E+00
        -0.11819E+00
        -0.11183E+00
        -0.10975E+00
        -0.11332E+00
        -0.11689E+00
        -0.11602E+00
        -0.11205E+00
        -0.11397E+00
        -0.47028E-01
        -0.52875E-01
        -0.54572E-01
        -0.47045E-01
        -0.62499E-01
        -0.58287E-01
        -0.55758E-01
        -0.50616E-01
        -0.45213E-01
        -0.49160E-01
        -0.58247E-01
        -0.65734E-01
        -0.63104E-01
        -0.53038E-01
        -0.61222E-01
        -0.44644E-01
        -0.47158E-01
        -0.41593E-01
        -0.51952E-01
        -0.49749E-01
        -0.61811E-01
        -0.59647E-01
        -0.63688E-01
        -0.55832E-01
        -0.49792E-01
        -0.53492E-01
        -0.50131E-01
        -0.51648E-01
        -0.54946E-01
        -0.50286E-01
        -0.47379E-01
        -0.54585E-01
        -0.47496E-01
        -0.53515E-01
        -0.69400E-01
        -0.64429E-01
        -0.60655E-01
        -0.59838E-01
        -0.62328E-01
        -0.65328E-01
        -0.70329E-01
        -0.64521E-01
        -0.60706E-01
        -0.62602E-01
        -0.64243E-01
        -0.68127E-01
        -0.61887E-01
        -0.57493E-01
        -0.60088E-01
        -0.66651E-01
        -0.71663E-01
        -0.63316E-01
        -0.83681E-01
        -0.83661E-01
        -0.81326E-01
        -0.76533E-01
        -0.79306E-01
        -0.81295E-01
        -0.77896E-01
        -0.81627E-01
        -0.84097E-01
        -0.84093E-01
        -0.89799E-01
        -0.84116E-01
        -0.84008E-01
        -0.82247E-01
        -0.81262E-01
        -0.77032E-01
        -0.74793E-01
        -0.81153E-01
        -0.84270E-01
        -0.78694E-01
        -0.78005E-01
        -0.79715E-01
        -0.84086E-01
        -0.86953E-01
        -0.83879E-01
        -0.83197E-01
        -0.21917E-01
        -0.27417E-01
        -0.31404E-01
        -0.24884E-01
        -0.37470E-01
        -0.32264E-01
        -0.28592E-01
        -0.21884E-01
        -0.19867E-01
        -0.20776E-01
        -0.31131E-01
        -0.39250E-01
        -0.36170E-01
        -0.25257E-01
        -0.35649E-01
        -0.20740E-01
        -0.20377E-01
        -0.19918E-01
        -0.24717E-01
        -0.21773E-01
        -0.33323E-01
        -0.31281E-01
        -0.36962E-01
        -0.30417E-01
        -0.21909E-01
        -0.29912E-01
        -0.22384E-01
        -0.23227E-01
        -0.25438E-01
        -0.22112E-01
        -0.26575E-01
        -0.32296E-01
        -0.25586E-01
        -0.28537E-01
        -0.42988E-01
        -0.37977E-01
        -0.33279E-01
        -0.33744E-01
        -0.33596E-01
        -0.34363E-01
        -0.38267E-01
        -0.33762E-01
        -0.31552E-01
        -0.36333E-01
        -0.37463E-01
        -0.40629E-01
        -0.37265E-01
        -0.33447E-01
        -0.34766E-01
        -0.38495E-01
        -0.41204E-01
        -0.34904E-01
        -0.52771E-01
        -0.51431E-01
        -0.49118E-01
        -0.44745E-01
        -0.47572E-01
        -0.49083E-01
        -0.50232E-01
        -0.53976E-01
        -0.52220E-01
        -0.51993E-01
        -0.51369E-01
        -0.49603E-01
        -0.52718E-01
        -0.54510E-01
        -0.49883E-01
        -0.46979E-01
        -0.42137E-01
        -0.43969E-01
        -0.48283E-01
        -0.44603E-01
        -0.44341E-01
        -0.49313E-01
        -0.54095E-01
        -0.53268E-01
        -0.50873E-01
        -0.49202E-01
        -0.13549E-01
        -0.15087E-01
        -0.17060E-01
        -0.13381E-01
        -0.22002E-01
        -0.19704E-01
        -0.16215E-01
        -0.13725E-01
        -0.13102E-01
        -0.13314E-01
        -0.17878E-01
        -0.22089E-01
        -0.20382E-01
        -0.15338E-01
        -0.19021E-01
        -0.12193E-01
        -0.12048E-01
        -0.11878E-01
        -0.13506E-01
        -0.11796E-01
        -0.17618E-01
        -0.16077E-01
        -0.20968E-01
        -0.17145E-01
        -0.13087E-01
        -0.16467E-01
        -0.14620E-01
        -0.14716E-01
        -0.16105E-01
        -0.13136E-01
        -0.15250E-01
        -0.17503E-01
        -0.14351E-01
        -0.15821E-01
        -0.24619E-01
        -0.20830E-01
        -0.17903E-01
        -0.19181E-01
        -0.19768E-01
        -0.20805E-01
        -0.24026E-01
        -0.20552E-01
        -0.17341E-01
        -0.20296E-01
        -0.20487E-01
        -0.23350E-01
        -0.22023E-01
        -0.20587E-01
        -0.21082E-01
        -0.23154E-01
        -0.25952E-01
        -0.22002E-01
        -0.32981E-01
        -0.35790E-01
        -0.33025E-01
        -0.31165E-01
        -0.33076E-01
        -0.33667E-01
        -0.28483E-01
        -0.28912E-01
        -0.28889E-01
        -0.27344E-01
        -0.28369E-01
        -0.25695E-01
        -0.27287E-01
        -0.30228E-01
        -0.31724E-01
        -0.31711E-01
        -0.29684E-01
        -0.30755E-01
        -0.31298E-01
        -0.31262E-01
        -0.31111E-01
        -0.30659E-01
        -0.32870E-01
        -0.33452E-01
        -0.34879E-01
        -0.35100E-01
        -0.53566E-02
        -0.54228E-02
        -0.76180E-02
        -0.48366E-02
        -0.90133E-02
        -0.73363E-02
        -0.59697E-02
        -0.55083E-02
        -0.80136E-02
        -0.69704E-02
        -0.72847E-02
        -0.89827E-02
        -0.77359E-02
        -0.60078E-02
        -0.77569E-02
        -0.51779E-02
        -0.72594E-02
        -0.58696E-02
        -0.57039E-02
        -0.56440E-02
        -0.78109E-02
        -0.78855E-02
        -0.77629E-02
        -0.63710E-02
        -0.69841E-02
        -0.58374E-02
        -0.56280E-02
        -0.55983E-02
        -0.58749E-02
        -0.59269E-02
        -0.58101E-02
        -0.70667E-02
        -0.54179E-02
        -0.53527E-02
        -0.11275E-01
        -0.10310E-01
        -0.71820E-02
        -0.76949E-02
        -0.74524E-02
        -0.74372E-02
        -0.95073E-02
        -0.80069E-02
        -0.76238E-02
        -0.68936E-02
        -0.83769E-02
        -0.10570E-01
        -0.92643E-02
        -0.75693E-02
        -0.82852E-02
        -0.93222E-02
        -0.10749E-01
        -0.86461E-02
        -0.12038E-01
        -0.12370E-01
        -0.14082E-01
        -0.13561E-01
        -0.13947E-01
        -0.14062E-01
        -0.16964E-01
        -0.18786E-01
        -0.16482E-01
        -0.16145E-01
        -0.16027E-01
        -0.15788E-01
        -0.15058E-01
        -0.15530E-01
        -0.13706E-01
        -0.12446E-01
        -0.10270E-01
        -0.11439E-01
        -0.13463E-01
        -0.11812E-01
        -0.11999E-01
        -0.13275E-01
        -0.15742E-01
        -0.16342E-01
        -0.18307E-01
        -0.15265E-01
        -0.14176E-02
        -0.22482E-02
        -0.39422E-02
        -0.22234E-02
        -0.63773E-02
        -0.56196E-02
        -0.27428E-02
        -0.18188E-02
        -0.18342E-02
        -0.21843E-02
        -0.37291E-02
        -0.51930E-02
        -0.52218E-02
        -0.28938E-02
        -0.37638E-02
        -0.13850E-02
        -0.18470E-02
        -0.14502E-02
        -0.30185E-02
        -0.28019E-02
        -0.41001E-02
        -0.43306E-02
        -0.48192E-02
        -0.38111E-02
        -0.26934E-02
        -0.34419E-02
        -0.33986E-02
        -0.43995E-02
        -0.57732E-02
        -0.38325E-02
        -0.34431E-02
        -0.43211E-02
        -0.32758E-02
        -0.33746E-02
        -0.74254E-02
        -0.58848E-02
        -0.42843E-02
        -0.52175E-02
        -0.67236E-02
        -0.74265E-02
        -0.82011E-02
        -0.66864E-02
        -0.50967E-02
        -0.52777E-02
        -0.62571E-02
        -0.72447E-02
        -0.59053E-02
        -0.57950E-02
        -0.69345E-02
        -0.72961E-02
        -0.81713E-02
        -0.63409E-02
        -0.10964E-01
        -0.12759E-01
        -0.99018E-02
        -0.90338E-02
        -0.97797E-02
        -0.76553E-02
        -0.81582E-02
        -0.76834E-02
        -0.89167E-02
        -0.83810E-02
        -0.79683E-02
        -0.72207E-02
        -0.72463E-02
        -0.75934E-02
        -0.66660E-02
        -0.77061E-02
        -0.95356E-02
        -0.10925E-01
        -0.10825E-01
        -0.80814E-02
        -0.10262E-01
        -0.11891E-01
        -0.14154E-01
        -0.13240E-01
        -0.12953E-01
        -0.12538E-01
        -0.20083E-02
        -0.17888E-02
        -0.22896E-02
        -0.11556E-02
        -0.28425E-02
        -0.26267E-02
        -0.18918E-02
        -0.18149E-02
        -0.38842E-02
        -0.33554E-02
        -0.22665E-02
        -0.37652E-02
        -0.35775E-02
        -0.19576E-02
        -0.29182E-02
        -0.22788E-02
        -0.36814E-02
        -0.16822E-02
        -0.22159E-02
        -0.18528E-02
        -0.16121E-02
        -0.18374E-02
        -0.26933E-02
        -0.26561E-02
        -0.33908E-02
        -0.27726E-02
        -0.26178E-02
        -0.31807E-02
        -0.39010E-02
        -0.24004E-02
        -0.16346E-02
        -0.27412E-02
        -0.59882E-03
        -0.98556E-03
        -0.31152E-02
        -0.28411E-02
        -0.25009E-02
        -0.36773E-02
        -0.38546E-02
        -0.47108E-02
        -0.59854E-02
        -0.46254E-02
        -0.30190E-02
        -0.36213E-02
        -0.39207E-02
        -0.42487E-02
        -0.35720E-02
        -0.29753E-02
        -0.20660E-02
        -0.20309E-02
        -0.30470E-02
        -0.29702E-02
        -0.31889E-02
        -0.41825E-02
        -0.46454E-02
        -0.37509E-02
        -0.57339E-02
        -0.54020E-02
        -0.39167E-02
        -0.49920E-02
        -0.47150E-02
        -0.34052E-02
        -0.68255E-02
        -0.45560E-02
        -0.54715E-02
        -0.36700E-02
        -0.34187E-02
        -0.20192E-02
        -0.20886E-02
        -0.52361E-02
        -0.63743E-02
        -0.43727E-02
        -0.40900E-02
        -0.18471E-02
        -0.24387E-02
        -0.29950E-02
        -0.33681E-02
        -0.38292E-02
         0.61412E-03
        -0.71480E-03
        -0.40353E-03
        -0.27532E-03
        -0.35523E-03
         0.37308E-05
        -0.71267E-03
         0.25561E-03
         0.26452E-02
         0.15844E-02
        -0.80047E-03
        -0.16787E-02
        -0.17080E-02
        -0.59055E-03
        -0.16620E-02
        -0.66059E-04
         0.21059E-02
         0.34409E-03
         0.17424E-03
         0.13913E-03
        -0.13625E-02
        -0.10503E-02
        -0.18592E-02
        -0.60755E-03
         0.66805E-03
        -0.10908E-02
        -0.28557E-03
        -0.89112E-03
        -0.12738E-02
        -0.82776E-03
        -0.77466E-03
        -0.11454E-02
        -0.57827E-03
        -0.72583E-03
        -0.17227E-02
        -0.18089E-02
        -0.20470E-02
        -0.10302E-02
        -0.13962E-02
        -0.16665E-02
        -0.83502E-03
        -0.11378E-02
        -0.12452E-02
        -0.21666E-02
        -0.17272E-02
        -0.15789E-02
        -0.14527E-02
        -0.15002E-02
        -0.11667E-02
        -0.84927E-03
        -0.62172E-03
        -0.47845E-03
        -0.43503E-02
        -0.17079E-02
        -0.50475E-02
        -0.49315E-02
        -0.48655E-02
        -0.52229E-02
        -0.54214E-02
        -0.42875E-02
        -0.23163E-02
        -0.38518E-02
        -0.22459E-02
        -0.24921E-02
        -0.32224E-02
        -0.37627E-02
        -0.58067E-02
        -0.67532E-02
        -0.56944E-02
        -0.34206E-02
        -0.25513E-02
        -0.19934E-02
        -0.10964E-02
        -0.19059E-02
        -0.89662E-04
        -0.11146E-03
        -0.13563E-02
        -0.17475E-02
        -0.18643E-02
        -0.17614E-02
        -0.62169E-03
        -0.40080E-03
        -0.40620E-03
        -0.61764E-03
        -0.22807E-02
        -0.22121E-02
        -0.23944E-02
        -0.50228E-03
        -0.26468E-02
        -0.14300E-02
        -0.14919E-02
        -0.23093E-02
        -0.10745E-02
        -0.69983E-03
        -0.11878E-02
        -0.11434E-02
        -0.42127E-03
        -0.84497E-03
        -0.21387E-03
        -0.51713E-03
         0.38884E-05
         0.16924E-03
         0.38172E-04
        -0.98791E-04
        -0.97054E-03
        -0.93052E-03
        -0.15726E-02
        -0.11870E-02
         0.13549E-03
        -0.62578E-03
         0.13139E-03
        -0.63190E-03
        -0.82401E-03
        -0.12550E-02
        -0.18147E-02
        -0.61262E-03
        -0.18335E-02
        -0.19379E-02
        -0.89080E-03
        -0.15324E-02
        -0.78481E-03
        -0.69812E-03
        -0.80775E-03
        -0.35151E-03
        -0.37907E-03
         0.29375E-04
        -0.25611E-03
        -0.10448E-02
        -0.11711E-02
        -0.10171E-02
        -0.24721E-02
        -0.24116E-02
         0.11616E-02
         0.10908E-02
         0.90891E-03
         0.59468E-03
         0.68584E-03
         0.14203E-02
         0.10242E-02
         0.84730E-03
         0.25993E-02
         0.17981E-02
         0.26874E-02
        -0.13461E-02
        -0.23289E-03
         0.79812E-03
        -0.23254E-03
         0.54731E-03
         0.14334E-02
         0.14123E-02
         0.16226E-02
         0.22285E-02
         0.15432E-02
        -0.46300E-03
         0.26281E-03
        -0.10871E-02
        -0.40635E-03
         0.78698E-03
        -0.21313E-02
         0.94216E-03
        -0.64080E-02
        -0.12993E-02
         0.12549E-02
         0.11463E-02
        -0.42139E-02
         0.80411E-03
        -0.14271E-03
        -0.20675E-03
         0.82392E-03
         0.14749E-03
        -0.55608E-03
         0.24893E-02
        -0.14954E-02
        -0.81963E-03
         0.17377E-02
         0.20602E-02
         0.17033E-02
         0.76385E-03
        -0.23931E-02
         0.48838E-03
         0.11168E-02
         0.12421E-02
        -0.12568E-03
        -0.17565E-02
        -0.46372E-02
         0.41433E-03
         0.11287E-03
        -0.24245E-02
         0.34528E-03
         0.23135E-02
        -0.11450E-01
        -0.74400E-02
        -0.13448E-02
        -0.45773E-02
        -0.94723E-02
        -0.12835E-01
        -0.15896E-01
        -0.10951E-01
        -0.53669E-02
        -0.33683E-02
        -0.67116E-02
        -0.10110E-01
        -0.66485E-02
        -0.29942E-02
        -0.91675E-03
         0.10964E-02
         0.74722E-03
         0.65196E-03
        -0.22429E-01
        -0.18941E-01
        -0.17422E-01
        -0.88511E-02
        -0.75312E-02
        -0.85030E-02
        -0.95637E-02
        -0.16424E-01
        -0.17954E-01
        -0.21427E-01
        -0.21076E-01
        -0.18023E-01
        -0.17871E-01
        -0.11947E-01
        -0.87786E-02
        -0.12802E-01
        -0.97374E-02
        -0.13242E-01
        -0.14465E-01
        -0.62525E-02
        -0.22726E-02
         0.22442E-02
         0.48928E-03
        -0.27119E-02
        -0.54912E-02
        -0.10546E-01
  
SCALARS                      strain_yz  double 1
LOOKUP_TABLE default
        -0.15211E-01
        -0.78767E-03
         0.55574E-02
         0.15929E-01
        -0.10614E+00
        -0.14220E+00
        -0.11644E+00
        -0.20639E-01
         0.17902E-01
         0.22965E-01
        -0.74544E-01
         0.69445E-01
        -0.11562E-01
        -0.44582E-01
        -0.19132E+00
        -0.19503E+00
        -0.41966E-01
        -0.78400E-01
        -0.11599E+00
        -0.12802E+00
        -0.63034E-01
        -0.17146E+00
        -0.11180E+00
        -0.20228E+00
        -0.33022E+00
        -0.29442E+00
        -0.85867E-01
        -0.15922E+00
        -0.25355E+00
        -0.37202E+00
         0.39868E-01
        -0.26342E-01
         0.52140E-01
         0.88234E-01
         0.36002E-01
         0.62879E-02
         0.52092E-02
        -0.96764E-02
         0.20083E+00
         0.72300E-01
        -0.28022E-02
        -0.15770E-01
         0.15771E+00
         0.45822E-01
         0.72802E-01
         0.21141E-01
         0.23000E+00
         0.21398E+00
        -0.60650E-01
        -0.11384E+00
         0.37651E-01
         0.20398E+00
        -0.10036E+00
        -0.22573E+00
        -0.77485E-01
        -0.25295E+00
        -0.13069E-01
        -0.14578E-01
        -0.21416E+00
        -0.89854E-01
         0.59781E-01
         0.38964E-01
         0.23494E+00
         0.23271E+00
         0.58860E-01
         0.19924E+00
         0.18611E-01
         0.18975E+00
        -0.29911E-01
        -0.60320E-01
        -0.11854E+00
        -0.14972E+00
        -0.89544E-01
        -0.23480E+00
        -0.13566E+00
        -0.39507E+00
        -0.12395E+00
        -0.39219E+00
        -0.91276E-01
        -0.33388E+00
        -0.92131E-01
        -0.24003E-01
        -0.34878E+00
        -0.25233E+00
        -0.27323E-01
        -0.16745E+00
         0.10323E+00
         0.26530E+00
         0.12576E+00
         0.32871E+00
         0.20548E+00
         0.12554E+00
         0.42265E+00
         0.36678E+00
         0.11397E+00
         0.39743E+00
         0.86943E-01
         0.34248E+00
         0.66419E-01
         0.31402E+00
         0.88061E-01
         0.30688E-01
         0.29156E+00
         0.16313E+00
        -0.94630E-01
         0.11877E-01
        -0.16416E+00
        -0.50648E-01
        -0.18218E+00
        -0.24742E+00
        -0.20854E+00
        -0.30189E+00
        -0.22684E+00
        -0.38028E+00
        -0.32056E+00
        -0.46348E+00
        -0.29128E+00
        -0.50356E+00
        -0.29436E+00
        -0.52115E+00
        -0.27959E+00
        -0.53118E+00
        -0.26549E+00
        -0.49708E+00
        -0.23320E+00
        -0.42700E+00
        -0.92466E-01
        -0.28009E+00
        -0.31205E-01
        -0.12982E+00
        -0.15744E-01
         0.27662E-01
         0.56116E-01
         0.15713E+00
         0.18284E+00
         0.27118E+00
         0.22475E+00
         0.34305E+00
         0.25208E+00
         0.40900E+00
         0.40204E+00
         0.51245E+00
         0.33074E+00
         0.51435E+00
         0.32443E+00
         0.50356E+00
         0.32228E+00
         0.47758E+00
         0.26021E+00
         0.44656E+00
         0.20980E+00
         0.37857E+00
         0.11852E+00
         0.24286E+00
         0.87142E-01
         0.10966E+00
         0.31146E-01
         0.87927E-01
         0.62313E-01
         0.23346E-01
         0.53056E-01
        -0.41796E-02
         0.11126E+00
         0.39612E-01
        -0.14390E-01
        -0.48413E-01
         0.73383E-01
         0.39935E-01
         0.79926E-01
         0.38580E-01
         0.58578E-01
         0.95474E-03
        -0.29739E-01
         0.53899E-01
        -0.91646E-01
        -0.45864E-01
        -0.10195E+00
        -0.37068E-01
        -0.62531E-01
        -0.97773E-01
        -0.30000E-01
        -0.80869E-01
         0.51852E-02
         0.36412E-01
         0.94109E-01
         0.23358E-01
        -0.64189E-01
        -0.11155E+00
        -0.44424E-01
        -0.67746E-01
         0.51857E-01
         0.27229E-01
         0.45141E-01
         0.70895E-01
         0.61685E-01
         0.84573E-01
         0.11089E+00
         0.11165E+00
         0.46304E-01
        -0.59485E-01
        -0.90993E-01
        -0.63069E-01
        -0.10286E+00
        -0.11266E+00
        -0.97832E-01
        -0.86638E-01
        -0.75666E-01
        -0.60224E-01
         0.45859E-01
         0.43512E-01
        -0.37544E-01
        -0.75908E-01
        -0.34385E-01
        -0.65259E-01
         0.17565E-01
         0.81140E-01
         0.75095E-01
        -0.82036E-02
         0.46451E-01
         0.59074E-01
         0.23761E-01
        -0.58516E-01
        -0.45549E-01
         0.65040E-01
         0.65927E-01
         0.68247E-02
         0.71361E-01
         0.14291E-01
         0.20584E-02
        -0.10350E-02
        -0.38469E-01
        -0.44388E-01
        -0.13857E-01
         0.44845E-01
         0.46790E-01
         0.12992E+00
         0.81086E-01
         0.15060E-01
         0.54685E-01
        -0.32863E-01
         0.18897E+00
         0.81073E-01
        -0.20369E-01
        -0.26501E-01
         0.17237E+00
         0.18715E+00
         0.21340E+00
         0.11475E+00
         0.18400E+00
        -0.10997E-01
        -0.50482E-01
         0.49468E-01
        -0.11760E+00
        -0.53423E-01
        -0.13907E+00
        -0.36148E-01
        -0.13845E+00
        -0.14165E+00
        -0.12270E-01
        -0.13090E+00
         0.76120E-01
         0.10421E+00
         0.14461E+00
         0.44571E-01
        -0.12117E+00
        -0.19424E+00
        -0.93747E-01
        -0.12166E+00
         0.89917E-01
         0.89628E-01
         0.14237E+00
         0.19056E+00
         0.17567E+00
         0.17905E+00
         0.19612E+00
         0.16279E+00
         0.71753E-01
        -0.16321E+00
        -0.22823E+00
        -0.22841E+00
        -0.24687E+00
        -0.24908E+00
        -0.21256E+00
        -0.18808E+00
        -0.17448E+00
        -0.12634E+00
         0.10671E+00
         0.10993E-01
         0.11907E+00
         0.13188E+00
         0.20760E+00
         0.19050E+00
         0.22866E+00
         0.28022E+00
         0.26223E+00
         0.16540E+00
         0.21108E+00
         0.17797E+00
         0.93257E-01
        -0.73776E-01
        -0.13885E+00
        -0.85174E-01
        -0.12456E+00
        -0.21362E+00
        -0.16531E+00
        -0.22701E+00
        -0.27162E+00
        -0.22362E+00
        -0.19496E+00
        -0.16203E+00
        -0.10343E+00
        -0.25545E-01
         0.61063E-01
         0.15485E+00
         0.94252E-01
         0.10680E-01
         0.59559E-01
        -0.53713E-01
         0.23778E+00
         0.11303E+00
        -0.15964E-01
         0.21008E-02
         0.23824E+00
         0.29438E+00
         0.31940E+00
         0.17640E+00
         0.28218E+00
        -0.25367E-01
        -0.58039E-01
         0.35604E-01
        -0.12288E+00
        -0.53218E-01
        -0.15568E+00
        -0.31400E-01
        -0.19078E+00
        -0.16244E+00
         0.80001E-02
        -0.15821E+00
         0.13906E+00
         0.14825E+00
         0.16698E+00
         0.57525E-01
        -0.15735E+00
        -0.24272E+00
        -0.12281E+00
        -0.14489E+00
         0.13243E+00
         0.15333E+00
         0.23000E+00
         0.29223E+00
         0.26752E+00
         0.25113E+00
         0.27410E+00
         0.20083E+00
         0.91876E-01
        -0.24237E+00
        -0.33417E+00
        -0.37158E+00
        -0.36086E+00
        -0.33804E+00
        -0.28518E+00
        -0.26549E+00
        -0.26376E+00
        -0.17779E+00
         0.17617E+00
         0.14397E-01
         0.27266E+00
         0.32416E+00
         0.41333E+00
         0.41103E+00
         0.43921E+00
         0.48024E+00
         0.47304E+00
         0.41253E+00
         0.42366E+00
         0.30324E+00
         0.15843E+00
        -0.51337E-01
        -0.19656E+00
        -0.22388E+00
        -0.31247E+00
        -0.42246E+00
        -0.38624E+00
        -0.46107E+00
        -0.50454E+00
        -0.43815E+00
        -0.39663E+00
        -0.31718E+00
        -0.22620E+00
        -0.87798E-01
         0.71530E-01
         0.16691E+00
         0.97082E-01
        -0.11457E-02
         0.60535E-01
        -0.74785E-01
         0.25877E+00
         0.12313E+00
        -0.26443E-02
         0.18232E-01
         0.27682E+00
         0.38160E+00
         0.38350E+00
         0.21225E+00
         0.37676E+00
        -0.40361E-01
        -0.57523E-01
         0.25671E-01
        -0.13262E+00
        -0.55309E-01
        -0.16918E+00
        -0.29578E-01
        -0.21874E+00
        -0.17481E+00
         0.25079E-01
        -0.17715E+00
         0.18348E+00
         0.19280E+00
         0.20945E+00
         0.75645E-01
        -0.17658E+00
        -0.27289E+00
        -0.14667E+00
        -0.17597E+00
         0.15268E+00
         0.18130E+00
         0.27394E+00
         0.38620E+00
         0.35690E+00
         0.33635E+00
         0.35765E+00
         0.25561E+00
         0.11999E+00
        -0.29069E+00
        -0.40107E+00
        -0.45869E+00
        -0.42407E+00
        -0.38432E+00
        -0.33334E+00
        -0.32554E+00
        -0.33148E+00
        -0.22336E+00
         0.21233E+00
         0.19768E-01
         0.33918E+00
         0.42746E+00
         0.55338E+00
         0.59168E+00
         0.60507E+00
         0.61036E+00
         0.59287E+00
         0.53488E+00
         0.52529E+00
         0.37849E+00
         0.19560E+00
        -0.40247E-01
        -0.22464E+00
        -0.30502E+00
        -0.43115E+00
        -0.55816E+00
        -0.52977E+00
        -0.61032E+00
        -0.63870E+00
        -0.56294E+00
        -0.50662E+00
        -0.41691E+00
        -0.30738E+00
        -0.13394E+00
         0.67998E-01
         0.16688E+00
         0.96986E-01
        -0.43317E-02
         0.63594E-01
        -0.83228E-01
         0.26922E+00
         0.11969E+00
         0.88261E-02
         0.20552E-01
         0.30272E+00
         0.43755E+00
         0.43124E+00
         0.22535E+00
         0.42747E+00
        -0.49021E-01
        -0.47473E-01
         0.16209E-01
        -0.13407E+00
        -0.53552E-01
        -0.18096E+00
        -0.28187E-01
        -0.24810E+00
        -0.18701E+00
         0.26855E-01
        -0.18659E+00
         0.19171E+00
         0.19429E+00
         0.22021E+00
         0.79166E-01
        -0.17832E+00
        -0.28697E+00
        -0.14965E+00
        -0.18027E+00
         0.17404E+00
         0.20854E+00
         0.30860E+00
         0.43738E+00
         0.40427E+00
         0.38345E+00
         0.41249E+00
         0.29065E+00
         0.13355E+00
        -0.32502E+00
        -0.45204E+00
        -0.53571E+00
        -0.47190E+00
        -0.40545E+00
        -0.35496E+00
        -0.36141E+00
        -0.37810E+00
        -0.24646E+00
         0.25017E+00
         0.31697E-01
         0.39213E+00
         0.51726E+00
         0.66363E+00
         0.70165E+00
         0.69735E+00
         0.68773E+00
         0.67739E+00
         0.62410E+00
         0.56871E+00
         0.41153E+00
         0.21241E+00
        -0.28765E-01
        -0.24396E+00
        -0.36861E+00
        -0.52745E+00
        -0.67779E+00
        -0.65394E+00
        -0.72960E+00
        -0.74010E+00
        -0.66733E+00
        -0.59005E+00
        -0.49345E+00
        -0.37102E+00
        -0.16826E+00
         0.70540E-01
         0.16468E+00
         0.95013E-01
        -0.60039E-02
         0.64564E-01
        -0.90563E-01
         0.26808E+00
         0.12428E+00
         0.10516E-01
         0.20499E-01
         0.30551E+00
         0.44101E+00
         0.43235E+00
         0.23162E+00
         0.43913E+00
        -0.60713E-01
        -0.44422E-01
         0.52596E-02
        -0.14198E+00
        -0.52793E-01
        -0.18816E+00
        -0.30240E-01
        -0.25415E+00
        -0.19567E+00
         0.28204E-01
        -0.18779E+00
         0.19211E+00
         0.19472E+00
         0.23784E+00
         0.88451E-01
        -0.17442E+00
        -0.28037E+00
        -0.15263E+00
        -0.18369E+00
         0.17975E+00
         0.21308E+00
         0.31238E+00
         0.44798E+00
         0.41573E+00
         0.41060E+00
         0.43976E+00
         0.31275E+00
         0.14270E+00
        -0.33100E+00
        -0.46507E+00
        -0.55899E+00
        -0.47623E+00
        -0.40357E+00
        -0.36208E+00
        -0.37614E+00
        -0.40163E+00
        -0.26137E+00
         0.26042E+00
         0.36788E-01
         0.40430E+00
         0.54984E+00
         0.70312E+00
         0.73240E+00
         0.72614E+00
         0.71967E+00
         0.69935E+00
         0.63305E+00
         0.54458E+00
         0.41004E+00
         0.20982E+00
        -0.28614E-01
        -0.23616E+00
        -0.37168E+00
        -0.56101E+00
        -0.73289E+00
        -0.70436E+00
        -0.76906E+00
        -0.77529E+00
        -0.70602E+00
        -0.61978E+00
        -0.53329E+00
        -0.39988E+00
        -0.18219E+00
         0.70285E-01
         0.14703E+00
         0.87541E-01
         0.61357E-03
         0.62880E-01
        -0.82119E-01
         0.24369E+00
         0.12332E+00
         0.23718E-01
         0.32692E-01
         0.27779E+00
         0.40492E+00
         0.39890E+00
         0.21173E+00
         0.40247E+00
        -0.62896E-01
        -0.23712E-01
         0.26237E-02
        -0.13104E+00
        -0.42708E-01
        -0.17669E+00
        -0.30269E-01
        -0.23631E+00
        -0.18570E+00
         0.37104E-01
        -0.17228E+00
         0.17288E+00
         0.17557E+00
         0.21942E+00
         0.85132E-01
        -0.15663E+00
        -0.25035E+00
        -0.13667E+00
        -0.16216E+00
         0.17483E+00
         0.20483E+00
         0.29111E+00
         0.40418E+00
         0.37608E+00
         0.37678E+00
         0.40268E+00
         0.28825E+00
         0.12955E+00
        -0.30315E+00
        -0.43538E+00
        -0.53632E+00
        -0.44494E+00
        -0.37362E+00
        -0.34068E+00
        -0.35950E+00
        -0.38860E+00
        -0.24391E+00
         0.25173E+00
         0.36278E-01
         0.39517E+00
         0.54615E+00
         0.69068E+00
         0.70943E+00
         0.71541E+00
         0.69794E+00
         0.66712E+00
         0.59602E+00
         0.48920E+00
         0.37598E+00
         0.19433E+00
        -0.13353E-01
        -0.21459E+00
        -0.35676E+00
        -0.55114E+00
        -0.72060E+00
        -0.69105E+00
        -0.74758E+00
        -0.75743E+00
        -0.68810E+00
        -0.59954E+00
        -0.52784E+00
        -0.38726E+00
        -0.17525E+00
         0.76057E-01
         0.13546E+00
         0.82016E-01
        -0.81481E-03
         0.60147E-01
        -0.73524E-01
         0.22212E+00
         0.12547E+00
         0.33259E-01
         0.43462E-01
         0.24663E+00
         0.34997E+00
         0.35020E+00
         0.19179E+00
         0.35262E+00
        -0.75742E-01
        -0.96891E-02
        -0.11216E-01
        -0.12310E+00
        -0.31303E-01
        -0.15235E+00
        -0.22525E-01
        -0.20451E+00
        -0.17557E+00
         0.48595E-01
        -0.16461E+00
         0.15634E+00
         0.16136E+00
         0.20469E+00
         0.88559E-01
        -0.15862E+00
        -0.22772E+00
        -0.14023E+00
        -0.15503E+00
         0.15169E+00
         0.17386E+00
         0.25044E+00
         0.35997E+00
         0.33370E+00
         0.33311E+00
         0.35014E+00
         0.25427E+00
         0.11645E+00
        -0.25983E+00
        -0.37834E+00
        -0.46851E+00
        -0.38936E+00
        -0.33035E+00
        -0.30289E+00
        -0.31868E+00
        -0.34397E+00
        -0.21952E+00
         0.21263E+00
         0.27845E-01
         0.34256E+00
         0.48248E+00
         0.61379E+00
         0.62365E+00
         0.64708E+00
         0.63508E+00
         0.58215E+00
         0.49434E+00
         0.39494E+00
         0.30097E+00
         0.15063E+00
        -0.20102E-01
        -0.18471E+00
        -0.31492E+00
        -0.49473E+00
        -0.64187E+00
        -0.60249E+00
        -0.65908E+00
        -0.67345E+00
        -0.60400E+00
        -0.51485E+00
        -0.45675E+00
        -0.33807E+00
        -0.15423E+00
         0.65944E-01
         0.10550E+00
         0.69296E-01
         0.31217E-02
         0.56309E-01
        -0.51950E-01
         0.17693E+00
         0.11169E+00
         0.34892E-01
         0.45571E-01
         0.19399E+00
         0.26497E+00
         0.26720E+00
         0.15802E+00
         0.27604E+00
        -0.75721E-01
         0.49388E-02
        -0.17391E-01
        -0.10490E+00
        -0.19832E-01
        -0.12632E+00
        -0.17862E-01
        -0.16105E+00
        -0.15376E+00
         0.48816E-01
        -0.14290E+00
         0.13076E+00
         0.13268E+00
         0.16227E+00
         0.76376E-01
        -0.14250E+00
        -0.18465E+00
        -0.12373E+00
        -0.12522E+00
         0.12327E+00
         0.13471E+00
         0.18823E+00
         0.29041E+00
         0.27043E+00
         0.26226E+00
         0.26410E+00
         0.19161E+00
         0.90474E-01
        -0.19369E+00
        -0.28947E+00
        -0.36031E+00
        -0.30142E+00
        -0.25842E+00
        -0.23922E+00
        -0.25328E+00
        -0.27212E+00
        -0.17044E+00
         0.16498E+00
         0.21765E-01
         0.27884E+00
         0.39320E+00
         0.49371E+00
         0.49554E+00
         0.53008E+00
         0.51075E+00
         0.44841E+00
         0.37080E+00
         0.28398E+00
         0.21678E+00
         0.11206E+00
        -0.96679E-02
        -0.14135E+00
        -0.24694E+00
        -0.39335E+00
        -0.49914E+00
        -0.44779E+00
        -0.51478E+00
        -0.54829E+00
        -0.49153E+00
        -0.41316E+00
        -0.35680E+00
        -0.26024E+00
        -0.11740E+00
         0.55579E-01
         0.77149E-01
         0.54931E-01
         0.48275E-02
         0.47571E-01
        -0.35011E-01
         0.13009E+00
         0.88208E-01
         0.34034E-01
         0.38651E-01
         0.13728E+00
         0.17956E+00
         0.18619E+00
         0.11503E+00
         0.19346E+00
        -0.65079E-01
         0.91114E-02
        -0.16959E-01
        -0.81538E-01
        -0.18239E-01
        -0.89628E-01
        -0.17157E-01
        -0.10515E+00
        -0.11635E+00
         0.39298E-01
        -0.10722E+00
         0.96227E-01
         0.95395E-01
         0.11466E+00
         0.54346E-01
        -0.11899E+00
        -0.13326E+00
        -0.10781E+00
        -0.10148E+00
         0.88177E-01
         0.89235E-01
         0.12520E+00
         0.20847E+00
         0.19245E+00
         0.18504E+00
         0.18440E+00
         0.13433E+00
         0.59709E-01
        -0.12170E+00
        -0.19590E+00
        -0.24693E+00
        -0.20777E+00
        -0.18270E+00
        -0.17232E+00
        -0.18181E+00
        -0.19272E+00
        -0.12448E+00
         0.11755E+00
         0.14909E-01
         0.20309E+00
         0.28109E+00
         0.35772E+00
         0.35269E+00
         0.39110E+00
         0.37335E+00
         0.31982E+00
         0.25992E+00
         0.17701E+00
         0.14779E+00
         0.73230E-01
        -0.11322E-01
        -0.99603E-01
        -0.17376E+00
        -0.28145E+00
        -0.35505E+00
        -0.30315E+00
        -0.37265E+00
        -0.40672E+00
        -0.35394E+00
        -0.28298E+00
        -0.23459E+00
        -0.18233E+00
        -0.82608E-01
         0.34712E-01
         0.42607E-01
         0.35845E-01
         0.65878E-02
         0.38790E-01
        -0.16782E-01
         0.81200E-01
         0.54240E-01
         0.25597E-01
         0.17506E-01
         0.82299E-01
         0.10350E+00
         0.11270E+00
         0.69198E-01
         0.11909E+00
        -0.45322E-01
         0.99023E-02
        -0.96325E-02
        -0.58853E-01
        -0.13946E-01
        -0.61602E-01
        -0.80033E-02
        -0.61381E-01
        -0.80967E-01
         0.20731E-01
        -0.67484E-01
         0.58056E-01
         0.57444E-01
         0.69928E-01
         0.34391E-01
        -0.80477E-01
        -0.79709E-01
        -0.75954E-01
        -0.69342E-01
         0.55134E-01
         0.46140E-01
         0.66207E-01
         0.13819E+00
         0.13021E+00
         0.12475E+00
         0.12307E+00
         0.86515E-01
         0.41731E-01
        -0.59702E-01
        -0.11610E+00
        -0.14940E+00
        -0.12105E+00
        -0.10446E+00
        -0.10218E+00
        -0.11514E+00
        -0.12405E+00
        -0.79773E-01
         0.69388E-01
         0.72861E-02
         0.13350E+00
         0.18253E+00
         0.23463E+00
         0.22544E+00
         0.26040E+00
         0.24328E+00
         0.19833E+00
         0.17268E+00
         0.11870E+00
         0.96916E-01
         0.45794E-01
        -0.18243E-02
        -0.61179E-01
        -0.11728E+00
        -0.19155E+00
        -0.23545E+00
        -0.17316E+00
        -0.23968E+00
        -0.27609E+00
        -0.23348E+00
        -0.18072E+00
        -0.13778E+00
        -0.11274E+00
        -0.50323E-01
         0.18307E-01
         0.17262E-01
         0.21200E-01
         0.77740E-02
         0.27556E-01
        -0.12692E-01
         0.44483E-01
         0.25456E-01
         0.19235E-01
        -0.94379E-03
         0.42070E-01
         0.51741E-01
         0.64483E-01
         0.33790E-01
         0.63342E-01
        -0.20639E-01
         0.13287E-01
         0.41860E-02
        -0.33096E-01
        -0.73872E-02
        -0.39094E-01
        -0.68819E-02
        -0.29129E-01
        -0.49978E-01
         0.71753E-02
        -0.36632E-01
         0.27575E-01
         0.28418E-01
         0.40175E-01
         0.21643E-01
        -0.47167E-01
        -0.41156E-01
        -0.47279E-01
        -0.46212E-01
         0.32429E-01
         0.18067E-01
         0.27771E-01
         0.80649E-01
         0.76635E-01
         0.75849E-01
         0.75779E-01
         0.53803E-01
         0.24536E-01
        -0.20465E-01
        -0.63635E-01
        -0.83916E-01
        -0.61456E-01
        -0.48889E-01
        -0.50592E-01
        -0.65621E-01
        -0.77402E-01
        -0.54917E-01
         0.40772E-01
         0.43927E-02
         0.84284E-01
         0.11306E+00
         0.15207E+00
         0.13683E+00
         0.15926E+00
         0.14492E+00
         0.11506E+00
         0.10360E+00
         0.52778E-01
         0.52458E-01
         0.21639E-01
        -0.66415E-02
        -0.35048E-01
        -0.63540E-01
        -0.11546E+00
        -0.14817E+00
        -0.90196E-01
        -0.15323E+00
        -0.18197E+00
        -0.14824E+00
        -0.10570E+00
        -0.73883E-01
        -0.71138E-01
        -0.28379E-01
         0.43437E-02
         0.87153E-03
         0.12286E-01
         0.11644E-01
         0.22021E-01
        -0.31650E-02
         0.20508E-01
         0.50480E-02
         0.10137E-01
        -0.16059E-01
         0.15461E-01
         0.13338E-01
         0.29761E-01
         0.10108E-01
         0.23650E-01
        -0.21612E-02
         0.10948E-01
         0.14314E-01
        -0.16499E-01
        -0.55800E-02
        -0.20903E-01
        -0.32808E-02
        -0.49735E-02
        -0.25635E-01
        -0.60940E-02
        -0.87067E-02
         0.45415E-02
         0.33112E-02
         0.13358E-01
         0.84706E-02
        -0.18881E-01
        -0.77390E-02
        -0.23425E-01
        -0.23859E-01
         0.16491E-01
        -0.52481E-03
         0.32486E-02
         0.38619E-01
         0.34546E-01
         0.36612E-01
         0.43469E-01
         0.30363E-01
         0.12766E-01
         0.12486E-01
        -0.21656E-01
        -0.37191E-01
        -0.17779E-01
        -0.74112E-02
        -0.12968E-01
        -0.30235E-01
        -0.42465E-01
        -0.30023E-01
         0.19589E-01
         0.32444E-02
         0.48179E-01
         0.67410E-01
         0.90631E-01
         0.66533E-01
         0.88629E-01
         0.83791E-01
         0.61199E-01
         0.61815E-01
         0.26834E-01
         0.40262E-01
         0.14818E-01
         0.33121E-02
        -0.12927E-01
        -0.37111E-01
        -0.72851E-01
        -0.94666E-01
        -0.39649E-01
        -0.94279E-01
        -0.11548E+00
        -0.90351E-01
        -0.59208E-01
        -0.34593E-01
        -0.44727E-01
        -0.16509E-01
        -0.15543E-02
        -0.39206E-02
         0.75229E-02
         0.10336E-01
         0.15673E-01
        -0.19245E-02
         0.14127E-01
        -0.45019E-03
         0.50991E-02
        -0.17192E-01
         0.95408E-02
         0.59339E-02
         0.21354E-01
         0.36437E-02
         0.90626E-02
         0.32833E-02
         0.62326E-02
         0.17206E-01
        -0.11526E-01
        -0.51232E-02
        -0.15517E-01
         0.36944E-03
        -0.31958E-02
        -0.21890E-01
        -0.81821E-02
        -0.57438E-02
         0.64740E-03
         0.10730E-02
         0.80550E-02
         0.53163E-02
        -0.11302E-01
        -0.28548E-02
        -0.15936E-01
        -0.17183E-01
         0.75581E-02
        -0.67446E-02
        -0.29514E-02
         0.18682E-01
         0.19903E-01
         0.25698E-01
         0.33700E-01
         0.22914E-01
         0.10836E-01
         0.13610E-01
        -0.14441E-01
        -0.24951E-01
        -0.68941E-02
         0.54935E-02
         0.16214E-02
        -0.14156E-01
        -0.24636E-01
        -0.19645E-01
         0.60653E-02
        -0.93217E-03
         0.28129E-01
         0.43677E-01
         0.59550E-01
         0.38709E-01
         0.56580E-01
         0.42818E-01
         0.33066E-01
         0.39352E-01
         0.19670E-01
         0.26480E-01
         0.46650E-02
         0.16054E-02
        -0.63744E-02
        -0.20171E-01
        -0.52387E-01
        -0.71631E-01
        -0.21590E-01
        -0.72498E-01
        -0.78385E-01
        -0.49682E-01
        -0.24960E-01
        -0.78503E-02
        -0.24705E-01
        -0.84491E-02
        -0.56364E-02
        -0.82122E-02
         0.57520E-02
         0.11474E-01
         0.13184E-01
        -0.11019E-02
         0.44408E-02
        -0.70947E-02
         0.27640E-02
        -0.19322E-01
        -0.84975E-03
        -0.79722E-02
         0.70981E-02
        -0.42970E-02
        -0.51097E-02
         0.94010E-02
         0.56533E-02
         0.22104E-01
        -0.29421E-02
        -0.32500E-02
        -0.62455E-02
         0.39841E-03
         0.39815E-02
        -0.14029E-01
        -0.10441E-01
        -0.40810E-03
        -0.55509E-02
        -0.62606E-02
        -0.33863E-02
         0.66105E-04
        -0.29699E-02
         0.47867E-02
        -0.61903E-02
        -0.80746E-02
         0.60062E-02
        -0.80838E-02
        -0.91430E-02
         0.10765E-02
         0.13800E-02
         0.63761E-02
         0.13329E-01
         0.80727E-02
         0.24050E-02
         0.21175E-01
        -0.40404E-03
        -0.56362E-02
         0.90945E-02
         0.19256E-01
         0.13314E-01
        -0.24644E-02
        -0.13831E-01
        -0.12220E-01
         0.49660E-02
         0.54521E-04
         0.18862E-01
         0.27730E-01
         0.31309E-01
         0.11604E-01
         0.33754E-01
         0.20658E-01
         0.10804E-01
         0.14693E-01
        -0.38620E-02
         0.14033E-01
         0.12695E-02
         0.38372E-02
         0.32488E-02
        -0.77107E-02
        -0.24697E-01
        -0.37015E-01
         0.55588E-02
        -0.39497E-01
        -0.46031E-01
        -0.33439E-01
        -0.18271E-01
        -0.15283E-02
        -0.16625E-01
        -0.46202E-02
        -0.55249E-02
        -0.59033E-02
         0.41645E-02
         0.80239E-02
         0.70946E-02
        -0.40249E-02
         0.63091E-02
        -0.25653E-02
        -0.23007E-03
        -0.11597E-01
         0.28813E-02
        -0.42117E-02
         0.77576E-02
         0.16048E-02
        -0.35456E-02
         0.65434E-02
         0.28372E-02
         0.16251E-01
         0.80965E-03
         0.61678E-03
        -0.43570E-02
         0.34585E-02
         0.13126E-02
        -0.12922E-01
        -0.45519E-02
        -0.15858E-02
         0.31978E-02
         0.17666E-02
         0.45670E-03
         0.43320E-02
        -0.85162E-02
         0.21024E-02
        -0.12263E-01
        -0.98068E-02
         0.34218E-02
        -0.55979E-02
        -0.61784E-02
         0.49572E-03
         0.13686E-02
         0.53398E-02
         0.11502E-01
         0.93783E-02
         0.55757E-02
         0.18220E-01
         0.32959E-03
        -0.56734E-02
         0.48258E-02
         0.11813E-01
         0.68174E-02
        -0.35673E-02
        -0.10691E-01
        -0.10007E-01
         0.22176E-02
        -0.29888E-02
         0.14047E-01
         0.21624E-01
         0.25642E-01
         0.11701E-01
         0.29536E-01
         0.16144E-01
         0.10495E-01
         0.11151E-01
        -0.42045E-02
         0.12979E-01
         0.66692E-04
         0.81765E-03
        -0.13954E-02
        -0.79115E-02
        -0.21716E-01
        -0.31090E-01
         0.50360E-02
        -0.38416E-01
        -0.39710E-01
        -0.26465E-01
        -0.11702E-01
         0.30224E-02
        -0.99809E-02
        -0.29439E-02
        -0.47661E-02
        -0.26128E-02
         0.47829E-02
         0.57800E-02
         0.67343E-02
        -0.25127E-02
         0.84014E-02
         0.10089E-02
        -0.27184E-02
        -0.83191E-02
         0.50746E-02
        -0.34335E-02
         0.72818E-02
         0.52739E-02
        -0.32052E-02
         0.45855E-02
        -0.96522E-03
         0.12831E-01
         0.25905E-03
        -0.61719E-03
        -0.48664E-02
         0.11429E-02
        -0.30411E-02
        -0.14803E-01
        -0.25972E-02
        -0.45002E-02
         0.73671E-02
         0.57414E-02
         0.28170E-02
         0.51091E-02
        -0.86691E-02
         0.73503E-03
        -0.11820E-01
        -0.76074E-02
         0.41254E-02
        -0.28345E-02
        -0.35692E-02
        -0.38713E-03
         0.88196E-03
         0.56131E-02
         0.94319E-02
         0.70623E-02
         0.35005E-02
         0.12581E-01
        -0.12981E-03
        -0.41536E-02
         0.48477E-02
         0.11158E-01
         0.75221E-02
         0.10657E-03
        -0.64068E-02
        -0.59151E-02
         0.10029E-02
        -0.25954E-02
         0.81237E-02
         0.15159E-01
         0.17033E-01
         0.62371E-02
         0.24724E-01
         0.16193E-01
         0.11178E-01
         0.13109E-01
        -0.30567E-02
         0.75479E-02
        -0.23876E-02
        -0.61752E-03
         0.20679E-02
        -0.69144E-02
        -0.19720E-01
        -0.24917E-01
         0.62315E-02
        -0.29704E-01
        -0.26258E-01
        -0.17947E-01
        -0.62020E-02
         0.31948E-02
        -0.58609E-02
        -0.29971E-03
        -0.33783E-02
        -0.19249E-02
         0.33734E-02
         0.44396E-02
         0.34986E-02
        -0.28099E-02
         0.54449E-02
        -0.28009E-04
        -0.10220E-02
        -0.59027E-02
         0.23697E-02
        -0.31339E-02
         0.54334E-02
         0.36987E-02
        -0.28423E-02
         0.37221E-02
        -0.11898E-02
         0.11392E-01
         0.12880E-02
        -0.18646E-02
        -0.33097E-02
         0.46413E-03
        -0.43125E-02
        -0.14221E-01
        -0.15730E-02
        -0.59135E-02
         0.74350E-02
         0.52071E-02
        -0.40681E-03
         0.22589E-02
        -0.84484E-02
        -0.62781E-03
        -0.11556E-01
        -0.67095E-02
         0.23469E-02
        -0.18886E-02
        -0.20892E-02
        -0.20594E-02
        -0.28928E-02
         0.13235E-03
         0.30482E-02
         0.18823E-02
         0.47398E-03
         0.87646E-02
        -0.21081E-02
        -0.49720E-02
         0.38704E-02
         0.10230E-01
         0.64580E-02
         0.48764E-03
        -0.47003E-02
        -0.35899E-02
         0.15914E-02
        -0.19523E-02
         0.65855E-02
         0.10527E-01
         0.68571E-02
         0.12366E-03
         0.17293E-01
         0.86970E-02
         0.20930E-02
         0.20846E-02
        -0.56095E-02
         0.62412E-02
        -0.19564E-02
         0.12143E-03
         0.17023E-02
        -0.59149E-02
        -0.14879E-01
        -0.20550E-01
         0.54193E-02
        -0.25460E-01
        -0.19566E-01
        -0.17563E-01
        -0.67164E-02
         0.36023E-02
        -0.11197E-02
         0.22228E-02
        -0.34015E-02
        -0.25748E-02
         0.13822E-02
         0.28621E-02
         0.83231E-03
        -0.44554E-02
         0.49545E-02
        -0.16836E-03
        -0.95908E-03
        -0.58661E-02
         0.45746E-02
         0.12931E-02
         0.61280E-02
         0.53692E-02
        -0.53649E-03
         0.29228E-02
        -0.11825E-02
         0.10102E-01
         0.14846E-02
        -0.91467E-03
        -0.35473E-02
         0.12627E-02
        -0.69657E-02
        -0.16152E-01
        -0.12800E-02
        -0.80413E-02
         0.82657E-02
         0.66073E-02
         0.19236E-02
         0.34611E-02
        -0.98412E-02
        -0.16395E-02
        -0.13183E-01
        -0.73204E-02
         0.11123E-02
        -0.21014E-02
        -0.24796E-02
        -0.47503E-03
         0.23976E-03
         0.33732E-02
         0.48702E-02
         0.38237E-02
         0.24988E-02
         0.50458E-02
        -0.29625E-02
        -0.65738E-02
         0.42653E-04
         0.42194E-02
         0.15504E-02
        -0.10306E-02
        -0.57404E-02
        -0.44895E-02
         0.25835E-02
        -0.29004E-02
         0.61383E-02
         0.90765E-02
         0.73960E-02
         0.30125E-02
         0.10287E-01
         0.56453E-02
         0.40403E-02
         0.57163E-03
        -0.54844E-02
         0.20394E-02
        -0.32776E-02
        -0.66483E-03
         0.16799E-02
        -0.13916E-02
        -0.14582E-01
        -0.21882E-01
        -0.13486E-03
        -0.31468E-01
        -0.21671E-01
        -0.19610E-01
        -0.58513E-02
         0.12927E-02
        -0.31430E-02
         0.11264E-02
        -0.18256E-02
        -0.16310E-03
         0.40512E-02
         0.24927E-02
         0.35230E-02
        -0.21712E-02
         0.43019E-02
         0.20254E-02
        -0.18608E-02
        -0.32363E-02
         0.28271E-02
        -0.17242E-02
         0.29481E-02
         0.62721E-02
        -0.17775E-02
         0.92024E-03
        -0.19169E-02
         0.69177E-02
         0.25258E-02
         0.45428E-04
        -0.27091E-02
         0.76250E-03
        -0.48519E-02
        -0.14151E-01
        -0.37610E-03
        -0.66063E-02
         0.98970E-02
         0.64132E-02
        -0.86685E-03
         0.24449E-02
        -0.79508E-02
        -0.14112E-03
        -0.11212E-01
        -0.57479E-02
         0.32898E-02
         0.69618E-03
        -0.15289E-02
        -0.13893E-02
        -0.23243E-02
         0.28519E-03
         0.81492E-03
        -0.53893E-03
         0.46291E-03
         0.79681E-02
         0.12763E-03
        -0.35706E-02
         0.20868E-02
         0.75350E-02
         0.54258E-02
         0.24759E-02
        -0.25683E-02
        -0.23132E-02
         0.48483E-03
        -0.13892E-02
         0.28443E-02
         0.81783E-02
         0.43231E-02
         0.37849E-02
         0.11951E-01
         0.94914E-02
        -0.65478E-04
        -0.26157E-03
        -0.44097E-02
         0.32172E-02
        -0.13844E-02
        -0.56286E-03
        -0.40260E-04
        -0.33842E-02
        -0.11969E-01
        -0.15335E-01
         0.64033E-02
        -0.22769E-01
        -0.97264E-02
        -0.13557E-01
         0.21566E-03
         0.68899E-02
         0.65891E-03
         0.26439E-02
        -0.12889E-02
        -0.75344E-03
         0.27765E-02
         0.29099E-02
         0.17230E-02
        -0.21744E-02
         0.42611E-02
         0.15714E-02
        -0.72737E-03
        -0.37943E-02
         0.37241E-02
        -0.12581E-02
         0.30282E-02
         0.69523E-02
        -0.18275E-02
         0.10428E-02
        -0.20506E-02
         0.79756E-02
         0.28448E-02
        -0.65158E-03
        -0.23019E-02
         0.11242E-02
        -0.48896E-02
        -0.14420E-01
        -0.13582E-02
        -0.79129E-02
         0.97185E-02
         0.59841E-02
        -0.91249E-03
         0.15795E-02
        -0.98709E-02
        -0.14161E-02
        -0.12786E-01
        -0.60442E-02
         0.10959E-02
        -0.82842E-03
        -0.19293E-02
        -0.27584E-02
        -0.33331E-02
         0.49252E-03
         0.10051E-02
         0.34324E-03
         0.12155E-02
         0.75129E-02
         0.58536E-03
        -0.21568E-02
         0.18570E-02
         0.57585E-02
         0.34155E-02
         0.93209E-03
        -0.38876E-02
        -0.19538E-02
         0.17285E-03
        -0.15533E-02
         0.28726E-02
         0.80376E-02
         0.30685E-02
         0.46774E-03
         0.48381E-02
         0.18856E-02
        -0.28869E-02
        -0.24806E-02
        -0.10331E-01
        -0.48202E-03
        -0.33153E-02
        -0.24588E-03
         0.40730E-02
        -0.14580E-02
        -0.11092E-01
        -0.13396E-01
         0.82984E-02
        -0.27033E-01
        -0.18022E-01
        -0.20496E-01
        -0.59160E-02
         0.81822E-03
        -0.20489E-02
         0.29536E-02
        -0.23253E-02
        -0.81953E-03
         0.20146E-02
         0.20241E-02
         0.10522E-02
        -0.26198E-02
         0.42653E-02
         0.10320E-02
        -0.69976E-03
        -0.29786E-02
         0.27690E-02
        -0.27696E-02
         0.28501E-02
         0.59574E-02
        -0.20963E-02
         0.14615E-02
        -0.17030E-02
         0.67762E-02
         0.23386E-02
        -0.24144E-02
        -0.18241E-02
         0.57549E-04
        -0.13359E-02
        -0.12169E-01
        -0.34734E-03
        -0.53361E-02
         0.94244E-02
         0.69699E-02
         0.10921E-02
         0.14355E-02
        -0.76992E-02
         0.21040E-04
        -0.10806E-01
        -0.46542E-02
         0.14720E-02
        -0.56345E-03
        -0.15792E-02
        -0.13656E-02
        -0.18403E-03
         0.35861E-02
         0.37920E-02
         0.18079E-02
         0.50463E-03
         0.99986E-02
         0.27941E-03
        -0.37037E-02
         0.18895E-02
         0.77378E-02
         0.67934E-02
         0.32230E-02
        -0.25010E-02
        -0.13053E-02
         0.16524E-02
        -0.29881E-02
         0.48697E-02
         0.65846E-02
         0.24322E-02
        -0.97009E-03
         0.62599E-02
         0.55838E-02
         0.60722E-02
         0.50842E-02
        -0.86374E-02
         0.42178E-03
        -0.18341E-02
         0.65804E-03
         0.28987E-02
         0.50117E-03
        -0.91646E-02
        -0.15208E-01
         0.48639E-02
        -0.26727E-01
        -0.17308E-01
        -0.14610E-01
        -0.36588E-02
         0.26644E-02
        -0.25705E-02
         0.96480E-03
         0.12590E-02
         0.95864E-03
         0.20282E-02
         0.28826E-02
         0.52107E-03
        -0.27698E-02
         0.41981E-02
         0.11586E-02
         0.48567E-02
        -0.29907E-02
         0.22127E-02
        -0.81731E-03
         0.40340E-02
         0.35180E-02
        -0.17762E-03
         0.19443E-03
         0.26680E-02
         0.78019E-02
         0.55664E-02
        -0.11100E-02
        -0.12302E-03
        -0.37751E-02
        -0.29442E-02
        -0.15306E-01
        -0.68588E-03
        -0.73327E-02
         0.45441E-02
         0.13549E-02
        -0.51982E-02
        -0.12026E-02
        -0.41570E-02
         0.10967E-02
        -0.81715E-02
        -0.30322E-02
         0.12047E-02
         0.10565E-02
         0.11492E-02
         0.48390E-05
         0.18586E-02
         0.22800E-02
        -0.87180E-04
        -0.52749E-02
        -0.71739E-02
         0.48734E-02
        -0.40561E-02
        -0.10729E-01
        -0.26386E-02
         0.48885E-02
         0.49970E-02
         0.13885E-02
        -0.47235E-02
        -0.82624E-03
         0.52990E-02
        -0.67613E-02
         0.20869E-01
         0.21966E-01
         0.47749E-02
        -0.23412E-02
         0.47698E-02
         0.83401E-02
         0.17268E-01
         0.11631E-01
        -0.79892E-02
         0.38373E-02
        -0.42970E-02
        -0.49923E-02
         0.23890E-02
         0.60662E-04
        -0.20840E-01
        -0.33115E-01
        -0.14043E-01
        -0.44414E-01
        -0.31833E-01
        -0.25120E-01
        -0.11595E-01
        -0.73423E-04
        -0.59256E-02
        -0.35811E-02
  
SCALARS                      strain_xz  double 1
LOOKUP_TABLE default
        -0.75148E-01
        -0.57378E-01
        -0.34374E-01
        -0.73683E-01
        -0.21271E+00
        -0.21304E+00
        -0.25884E+00
        -0.14757E+00
        -0.10171E+00
        -0.12386E+00
        -0.35130E+00
        -0.38189E+00
        -0.59477E-01
        -0.17665E-01
        -0.18664E+00
        -0.14316E+00
         0.88076E-02
         0.26118E-01
        -0.41986E-03
        -0.42743E-01
        -0.59876E-02
        -0.50819E-01
        -0.12315E+00
        -0.16404E+00
        -0.18946E+00
        -0.19932E+00
         0.24765E-01
         0.20635E-01
        -0.15822E+00
        -0.10986E+00
         0.89666E-02
         0.77593E-01
        -0.28909E-01
         0.85970E-01
         0.11661E+00
        -0.33954E-01
         0.61785E-01
         0.93321E-01
         0.19694E+00
         0.19461E+00
         0.12051E+00
         0.11593E+00
         0.34350E+00
         0.37544E+00
         0.11972E+00
         0.29999E-01
         0.28860E+00
         0.17364E+00
         0.54476E-01
        -0.12204E-02
         0.45121E-02
         0.17707E+00
         0.15733E-01
        -0.56472E-01
         0.19090E-01
         0.11427E+00
         0.24701E-01
         0.80512E-01
         0.22361E+00
         0.22117E+00
        -0.11696E-01
        -0.53480E-02
         0.10042E+00
         0.14068E+00
        -0.19500E-01
        -0.77499E-01
        -0.28901E-01
        -0.21957E+00
        -0.17075E+00
        -0.10031E+00
        -0.43315E+00
        -0.31739E+00
        -0.11334E+00
        -0.31119E+00
         0.15817E-01
         0.19068E-01
         0.16906E-01
         0.19823E+00
         0.31135E-01
         0.27038E+00
         0.13256E+00
         0.10022E+00
         0.37990E+00
         0.33452E+00
         0.12399E+00
         0.39048E+00
         0.99293E-01
         0.24824E+00
         0.79769E-01
         0.19399E+00
         0.66064E-01
         0.10399E-01
         0.18260E+00
         0.12585E+00
        -0.15809E-02
         0.50238E-01
        -0.22420E-01
        -0.15812E+00
        -0.50363E-01
        -0.23380E+00
        -0.14974E+00
        -0.95170E-01
        -0.38037E+00
        -0.29923E+00
        -0.32342E+00
        -0.27639E+00
        -0.50796E+00
        -0.47884E+00
        -0.26630E+00
        -0.41495E+00
        -0.23828E+00
        -0.37068E+00
        -0.23037E+00
        -0.30931E+00
        -0.10425E+00
        -0.21432E+00
         0.64215E-03
        -0.82144E-01
         0.15137E-01
         0.34574E-01
         0.43880E-01
         0.19432E+00
         0.12884E+00
         0.33253E+00
         0.30443E+00
         0.46596E+00
         0.25768E+00
         0.48845E+00
         0.31586E+00
         0.53144E+00
         0.28906E+00
         0.51699E+00
         0.30064E+00
         0.47819E+00
         0.28649E+00
         0.41733E+00
         0.26580E+00
         0.36311E+00
         0.20100E+00
         0.29888E+00
         0.10902E+00
         0.20583E+00
         0.92414E-02
         0.82890E-01
        -0.55704E-01
        -0.38955E-01
        -0.79900E-01
        -0.18567E+00
        -0.14704E+00
        -0.28078E+00
        -0.28171E+00
        -0.44120E+00
        -0.26424E+00
        -0.44170E+00
        -0.30845E+00
        -0.48544E+00
        -0.65998E-02
         0.53203E-01
         0.10662E+00
         0.17305E-01
         0.12028E+00
         0.10309E+00
         0.33235E-01
         0.54721E-01
         0.41924E-02
         0.41164E-01
         0.93441E-01
         0.66305E-01
        -0.23986E-01
         0.11179E+00
         0.10673E+00
        -0.34694E-01
         0.64832E-01
        -0.31651E-01
        -0.25866E-01
         0.12725E-01
        -0.74326E-01
        -0.86326E-01
        -0.62533E-01
        -0.83625E-01
         0.52459E-01
        -0.96849E-01
         0.38558E-01
        -0.16790E-01
        -0.88570E-01
        -0.22609E-01
        -0.52833E-01
        -0.91329E-01
         0.17671E-01
         0.74011E-01
         0.97019E-01
         0.10420E+00
         0.48201E-01
         0.15047E-01
        -0.72044E-01
        -0.12975E+00
        -0.84301E-01
        -0.72381E-01
        -0.77821E-01
        -0.46947E-01
        -0.36678E-01
        -0.55978E-01
        -0.72507E-01
        -0.29927E-01
         0.50124E-01
         0.74991E-01
         0.43924E-01
         0.74850E-01
         0.31493E-01
         0.14374E-01
         0.49016E-02
        -0.45345E-01
        -0.13280E+00
         0.12118E-01
         0.72638E-01
         0.13193E-02
        -0.53613E-01
        -0.91830E-01
         0.19992E-01
        -0.79567E-02
        -0.47511E-01
        -0.51089E-01
         0.58636E-02
         0.47672E-01
         0.82149E-01
         0.48722E-01
        -0.36495E-01
        -0.97038E-02
        -0.76467E-02
         0.23778E-01
         0.40045E-01
        -0.14507E-01
        -0.26615E-01
        -0.56653E-01
         0.46079E-02
         0.97590E-01
         0.18881E+00
         0.62792E-01
         0.27439E+00
         0.24983E+00
         0.71447E-01
         0.78138E-01
         0.15441E-01
         0.62247E-01
         0.13642E+00
         0.13713E+00
         0.53399E-01
         0.13957E+00
         0.13698E+00
        -0.52743E-01
         0.58300E-01
        -0.33167E-01
        -0.70564E-01
        -0.40951E-01
        -0.19261E+00
        -0.20998E+00
        -0.17380E+00
        -0.14250E+00
         0.33913E-01
        -0.14202E+00
         0.45586E-01
        -0.41847E-01
        -0.14096E+00
        -0.83338E-01
        -0.61554E-01
        -0.12405E+00
         0.36479E-01
         0.13100E+00
         0.25689E+00
         0.24083E+00
         0.15508E+00
         0.48546E-02
        -0.10639E+00
        -0.18963E+00
        -0.18447E+00
        -0.17708E+00
        -0.19883E+00
        -0.14199E+00
        -0.12196E+00
        -0.13716E+00
        -0.10623E+00
        -0.24599E-01
         0.91498E-01
         0.15697E+00
         0.16900E+00
         0.21010E+00
         0.23219E+00
         0.26035E+00
         0.22814E+00
         0.14284E+00
         0.77210E-02
         0.13910E+00
         0.13426E+00
        -0.19621E-01
        -0.12954E+00
        -0.22239E+00
        -0.17984E+00
        -0.21151E+00
        -0.25977E+00
        -0.26193E+00
        -0.25542E+00
        -0.21087E+00
        -0.12879E+00
        -0.12438E+00
        -0.16953E+00
        -0.51775E-01
         0.66462E-02
         0.75941E-01
         0.15695E+00
         0.15269E+00
         0.22861E+00
         0.24421E+00
         0.19887E-01
         0.13315E+00
         0.23412E+00
         0.93517E-01
         0.37449E+00
         0.33495E+00
         0.92119E-01
         0.80563E-01
         0.15794E-01
         0.62475E-01
         0.14672E+00
         0.17217E+00
         0.12288E+00
         0.14362E+00
         0.14502E+00
        -0.67603E-01
         0.38865E-01
        -0.21768E-01
        -0.98974E-01
        -0.80597E-01
        -0.26256E+00
        -0.29017E+00
        -0.25239E+00
        -0.17700E+00
         0.95224E-02
        -0.16565E+00
         0.45793E-01
        -0.59358E-01
        -0.16801E+00
        -0.12505E+00
        -0.68457E-01
        -0.14407E+00
         0.47009E-01
         0.15200E+00
         0.38478E+00
         0.34643E+00
         0.25318E+00
        -0.16635E-03
        -0.12748E+00
        -0.23439E+00
        -0.28058E+00
        -0.25673E+00
        -0.28222E+00
        -0.21936E+00
        -0.19447E+00
        -0.20484E+00
        -0.13332E+00
        -0.18397E-01
         0.12289E+00
         0.21027E+00
         0.26713E+00
         0.29953E+00
         0.44128E+00
         0.49459E+00
         0.44170E+00
         0.32751E+00
         0.15741E+00
         0.23502E+00
         0.16329E+00
        -0.43728E-01
        -0.21789E+00
        -0.39181E+00
        -0.41685E+00
        -0.45336E+00
        -0.46351E+00
        -0.45547E+00
        -0.45606E+00
        -0.42367E+00
        -0.33581E+00
        -0.29635E+00
        -0.27394E+00
        -0.98043E-01
         0.28906E-01
         0.16704E+00
         0.29842E+00
         0.32808E+00
         0.43965E+00
         0.46687E+00
         0.27500E-01
         0.15575E+00
         0.26820E+00
         0.11127E+00
         0.43593E+00
         0.37793E+00
         0.10339E+00
         0.87201E-01
         0.13364E-01
         0.61320E-01
         0.15980E+00
         0.20453E+00
         0.16680E+00
         0.15008E+00
         0.15279E+00
        -0.81256E-01
         0.25108E-01
        -0.17195E-01
        -0.12535E+00
        -0.11458E+00
        -0.32382E+00
        -0.36001E+00
        -0.30706E+00
        -0.19800E+00
        -0.10892E-01
        -0.17996E+00
         0.32361E-01
        -0.92863E-01
        -0.21544E+00
        -0.16234E+00
        -0.69335E-01
        -0.15716E+00
         0.63931E-01
         0.17845E+00
         0.47261E+00
         0.41685E+00
         0.30985E+00
        -0.21447E-01
        -0.16933E+00
        -0.30125E+00
        -0.38069E+00
        -0.34414E+00
        -0.35755E+00
        -0.26696E+00
        -0.23972E+00
        -0.24506E+00
        -0.14521E+00
        -0.40888E-02
         0.15772E+00
         0.26274E+00
         0.33636E+00
         0.34997E+00
         0.58614E+00
         0.65499E+00
         0.55773E+00
         0.43116E+00
         0.26739E+00
         0.30876E+00
         0.17296E+00
        -0.64782E-01
        -0.26944E+00
        -0.47378E+00
        -0.52259E+00
        -0.57459E+00
        -0.59501E+00
        -0.59547E+00
        -0.60650E+00
        -0.57298E+00
        -0.46230E+00
        -0.39591E+00
        -0.33780E+00
        -0.12578E+00
         0.48902E-01
         0.22207E+00
         0.38989E+00
         0.45100E+00
         0.56709E+00
         0.61633E+00
         0.30344E-01
         0.16366E+00
         0.27664E+00
         0.11294E+00
         0.46754E+00
         0.39808E+00
         0.11097E+00
         0.80633E-01
         0.84414E-02
         0.52082E-01
         0.16615E+00
         0.22794E+00
         0.20600E+00
         0.14521E+00
         0.15368E+00
        -0.83233E-01
         0.16269E-01
        -0.11143E-01
        -0.13590E+00
        -0.12102E+00
        -0.35808E+00
        -0.38449E+00
        -0.35242E+00
        -0.21444E+00
        -0.14914E-01
        -0.18900E+00
         0.26032E-01
        -0.10014E+00
        -0.22823E+00
        -0.16721E+00
        -0.67352E-01
        -0.16633E+00
         0.62252E-01
         0.17816E+00
         0.52797E+00
         0.45500E+00
         0.34482E+00
        -0.29077E-01
        -0.18723E+00
        -0.33655E+00
        -0.44110E+00
        -0.39918E+00
        -0.39721E+00
        -0.30904E+00
        -0.27976E+00
        -0.28194E+00
        -0.15979E+00
         0.22201E-02
         0.17012E+00
         0.28839E+00
         0.38361E+00
         0.38014E+00
         0.69475E+00
         0.76328E+00
         0.65729E+00
         0.52777E+00
         0.36386E+00
         0.35407E+00
         0.16622E+00
        -0.78788E-01
        -0.28388E+00
        -0.51058E+00
        -0.57367E+00
        -0.66150E+00
        -0.67587E+00
        -0.67947E+00
        -0.70536E+00
        -0.68566E+00
        -0.57446E+00
        -0.47397E+00
        -0.38302E+00
        -0.15449E+00
         0.61409E-01
         0.26977E+00
         0.45854E+00
         0.52848E+00
         0.65562E+00
         0.73020E+00
         0.32710E-01
         0.15481E+00
         0.26799E+00
         0.10968E+00
         0.47356E+00
         0.40218E+00
         0.11043E+00
         0.85337E-01
         0.74160E-02
         0.50443E-01
         0.17279E+00
         0.23225E+00
         0.21014E+00
         0.15059E+00
         0.15523E+00
        -0.89712E-01
         0.92616E-02
        -0.91292E-02
        -0.15019E+00
        -0.12726E+00
        -0.37137E+00
        -0.39173E+00
        -0.36412E+00
        -0.22612E+00
        -0.15210E-01
        -0.19423E+00
         0.19101E-01
        -0.10967E+00
        -0.24279E+00
        -0.17078E+00
        -0.63418E-01
        -0.16697E+00
         0.62312E-01
         0.18010E+00
         0.54784E+00
         0.46220E+00
         0.34498E+00
        -0.41014E-01
        -0.20480E+00
        -0.35969E+00
        -0.46746E+00
        -0.42140E+00
        -0.40738E+00
        -0.32150E+00
        -0.29386E+00
        -0.29443E+00
        -0.16175E+00
         0.82661E-02
         0.17829E+00
         0.30307E+00
         0.40610E+00
         0.39199E+00
         0.74959E+00
         0.80316E+00
         0.70996E+00
         0.57133E+00
         0.40461E+00
         0.35348E+00
         0.14892E+00
        -0.85983E-01
        -0.28824E+00
        -0.50479E+00
        -0.55742E+00
        -0.66865E+00
        -0.69948E+00
        -0.71350E+00
        -0.72672E+00
        -0.70182E+00
        -0.60296E+00
        -0.50496E+00
        -0.40185E+00
        -0.16282E+00
         0.69887E-01
         0.28810E+00
         0.48431E+00
         0.56693E+00
         0.68783E+00
         0.76478E+00
         0.32142E-01
         0.13533E+00
         0.24080E+00
         0.96698E-01
         0.44503E+00
         0.37741E+00
         0.97949E-01
         0.78030E-01
        -0.24066E-02
         0.34101E-01
         0.15986E+00
         0.21369E+00
         0.19388E+00
         0.13923E+00
         0.14111E+00
        -0.87967E-01
        -0.90245E-02
        -0.83720E-02
        -0.14162E+00
        -0.11731E+00
        -0.34596E+00
        -0.36051E+00
        -0.33535E+00
        -0.20524E+00
        -0.23408E-01
        -0.17773E+00
         0.13620E-01
        -0.10374E+00
        -0.22068E+00
        -0.15066E+00
        -0.57827E-01
        -0.15357E+00
         0.48682E-01
         0.15941E+00
         0.52337E+00
         0.43801E+00
         0.32266E+00
        -0.39694E-01
        -0.18565E+00
        -0.32904E+00
        -0.42882E+00
        -0.38567E+00
        -0.37134E+00
        -0.30084E+00
        -0.28201E+00
        -0.28177E+00
        -0.15095E+00
         0.80058E-02
         0.15947E+00
         0.28143E+00
         0.39112E+00
         0.37304E+00
         0.71336E+00
         0.75841E+00
         0.69623E+00
         0.58683E+00
         0.41347E+00
         0.32686E+00
         0.12087E+00
        -0.86559E-01
        -0.25875E+00
        -0.45896E+00
        -0.51105E+00
        -0.63945E+00
        -0.67285E+00
        -0.68364E+00
        -0.70449E+00
        -0.68894E+00
        -0.59576E+00
        -0.49061E+00
        -0.38173E+00
        -0.15439E+00
         0.69379E-01
         0.28130E+00
         0.46629E+00
         0.55383E+00
         0.66450E+00
         0.73420E+00
         0.46219E-01
         0.12980E+00
         0.22398E+00
         0.10488E+00
         0.39127E+00
         0.33468E+00
         0.91519E-01
         0.77872E-01
        -0.30913E-02
         0.18559E-01
         0.14573E+00
         0.18714E+00
         0.16909E+00
         0.12521E+00
         0.11937E+00
        -0.91265E-01
        -0.26899E-01
         0.33361E-02
        -0.14389E+00
        -0.11756E+00
        -0.31312E+00
        -0.32634E+00
        -0.29668E+00
        -0.19426E+00
        -0.36297E-01
        -0.16814E+00
        -0.66563E-03
        -0.10524E+00
        -0.19977E+00
        -0.14047E+00
        -0.54391E-01
        -0.13897E+00
         0.49382E-01
         0.15036E+00
         0.45875E+00
         0.38971E+00
         0.28725E+00
        -0.45497E-01
        -0.16929E+00
        -0.28494E+00
        -0.37040E+00
        -0.34365E+00
        -0.33556E+00
        -0.26148E+00
        -0.24193E+00
        -0.24152E+00
        -0.13148E+00
         0.79852E-02
         0.14385E+00
         0.24976E+00
         0.34132E+00
         0.32776E+00
         0.62126E+00
         0.64431E+00
         0.62130E+00
         0.53744E+00
         0.37964E+00
         0.29436E+00
         0.99574E-01
        -0.76383E-01
        -0.21272E+00
        -0.36721E+00
        -0.41427E+00
        -0.54027E+00
        -0.58523E+00
        -0.60776E+00
        -0.62374E+00
        -0.60779E+00
        -0.52581E+00
        -0.43189E+00
        -0.33061E+00
        -0.12547E+00
         0.70548E-01
         0.25288E+00
         0.40201E+00
         0.48060E+00
         0.57670E+00
         0.62716E+00
         0.52841E-01
         0.11240E+00
         0.18443E+00
         0.94560E-01
         0.30588E+00
         0.26250E+00
         0.78496E-01
         0.70377E-01
        -0.38231E-02
         0.47112E-02
         0.12272E+00
         0.14670E+00
         0.12581E+00
         0.10342E+00
         0.91398E-01
        -0.79811E-01
        -0.33988E-01
         0.12901E-01
        -0.12868E+00
        -0.10274E+00
        -0.25614E+00
        -0.26924E+00
        -0.23065E+00
        -0.16071E+00
        -0.36418E-01
        -0.13745E+00
        -0.81357E-02
        -0.87150E-01
        -0.15550E+00
        -0.11278E+00
        -0.46070E-01
        -0.11115E+00
         0.39691E-01
         0.11943E+00
         0.35520E+00
         0.30788E+00
         0.22502E+00
        -0.43837E-01
        -0.13175E+00
        -0.21261E+00
        -0.27901E+00
        -0.26978E+00
        -0.27279E+00
        -0.19744E+00
        -0.18380E+00
        -0.18757E+00
        -0.10698E+00
         0.74574E-03
         0.10912E+00
         0.19318E+00
         0.26586E+00
         0.25693E+00
         0.45448E+00
         0.48293E+00
         0.48359E+00
         0.44842E+00
         0.31096E+00
         0.23152E+00
         0.69482E-01
        -0.61543E-01
        -0.15288E+00
        -0.26006E+00
        -0.29518E+00
        -0.41541E+00
        -0.45759E+00
        -0.47907E+00
        -0.49614E+00
        -0.48710E+00
        -0.41892E+00
        -0.33521E+00
        -0.24785E+00
        -0.90127E-01
         0.53364E-01
         0.19815E+00
         0.30752E+00
         0.37158E+00
         0.46032E+00
         0.49020E+00
         0.48850E-01
         0.87936E-01
         0.14386E+00
         0.82171E-01
         0.22260E+00
         0.19371E+00
         0.55635E-01
         0.57946E-01
        -0.54409E-02
        -0.46777E-04
         0.91709E-01
         0.10311E+00
         0.78025E-01
         0.81430E-01
         0.66067E-01
        -0.71438E-01
        -0.37639E-01
         0.13760E-01
        -0.10258E+00
        -0.82214E-01
        -0.18316E+00
        -0.19892E+00
        -0.15310E+00
        -0.11725E+00
        -0.32411E-01
        -0.10415E+00
        -0.67528E-02
        -0.63837E-01
        -0.10823E+00
        -0.81850E-01
        -0.37402E-01
        -0.82441E-01
         0.33658E-01
         0.91780E-01
         0.24960E+00
         0.22154E+00
         0.15917E+00
        -0.34241E-01
        -0.92561E-01
        -0.14632E+00
        -0.19111E+00
        -0.18900E+00
        -0.19772E+00
        -0.12727E+00
        -0.12186E+00
        -0.13258E+00
        -0.79452E-01
         0.13789E-02
         0.82369E-01
         0.13568E+00
         0.18050E+00
         0.18271E+00
         0.30463E+00
         0.33361E+00
         0.34687E+00
         0.33727E+00
         0.22348E+00
         0.17271E+00
         0.47854E-01
        -0.44924E-01
        -0.10673E+00
        -0.17275E+00
        -0.18144E+00
        -0.29833E+00
        -0.32832E+00
        -0.34854E+00
        -0.36154E+00
        -0.35731E+00
        -0.30194E+00
        -0.23247E+00
        -0.17483E+00
        -0.60098E-01
         0.41584E-01
         0.14496E+00
         0.20824E+00
         0.24350E+00
         0.32220E+00
         0.34082E+00
         0.34248E-01
         0.55757E-01
         0.90031E-01
         0.53022E-01
         0.13650E+00
         0.12194E+00
         0.33478E-01
         0.43167E-01
        -0.43500E-02
        -0.16520E-02
         0.65060E-01
         0.65961E-01
         0.35814E-01
         0.60319E-01
         0.41475E-01
        -0.50817E-01
        -0.23711E-01
         0.13887E-01
        -0.66182E-01
        -0.48590E-01
        -0.11168E+00
        -0.12895E+00
        -0.84556E-01
        -0.73807E-01
        -0.18000E-01
        -0.66815E-01
        -0.61334E-02
        -0.40316E-01
        -0.67015E-01
        -0.46785E-01
        -0.24958E-01
        -0.48564E-01
         0.23642E-01
         0.58617E-01
         0.14669E+00
         0.13475E+00
         0.94527E-01
        -0.27884E-01
        -0.57668E-01
        -0.93338E-01
        -0.12826E+00
        -0.12530E+00
        -0.13069E+00
        -0.65110E-01
        -0.62349E-01
        -0.78825E-01
        -0.53029E-01
        -0.36492E-02
         0.51763E-01
         0.84789E-01
         0.11074E+00
         0.11539E+00
         0.16380E+00
         0.19837E+00
         0.21526E+00
         0.22893E+00
         0.14497E+00
         0.11627E+00
         0.20260E-01
        -0.31184E-01
        -0.61711E-01
        -0.11339E+00
        -0.11473E+00
        -0.19628E+00
        -0.21195E+00
        -0.23113E+00
        -0.23963E+00
        -0.24144E+00
        -0.20027E+00
        -0.14513E+00
        -0.10650E+00
        -0.36094E-01
         0.24130E-01
         0.94279E-01
         0.12365E+00
         0.14058E+00
         0.20895E+00
         0.21660E+00
         0.14336E-01
         0.29772E-01
         0.51993E-01
         0.25441E-01
         0.82711E-01
         0.72155E-01
         0.12158E-01
         0.25032E-01
        -0.60654E-02
        -0.27667E-02
         0.41317E-01
         0.40814E-01
         0.70926E-02
         0.41823E-01
         0.27618E-01
        -0.29282E-01
        -0.68880E-02
         0.77443E-02
        -0.33449E-01
        -0.18237E-01
        -0.61669E-01
        -0.74170E-01
        -0.40350E-01
        -0.39673E-01
        -0.48413E-02
        -0.37320E-01
        -0.62261E-02
        -0.25127E-01
        -0.37146E-01
        -0.17788E-01
        -0.12964E-01
        -0.26104E-01
         0.16021E-01
         0.31743E-01
         0.86371E-01
         0.80660E-01
         0.53028E-01
        -0.22306E-01
        -0.37572E-01
        -0.58041E-01
        -0.76766E-01
        -0.73711E-01
        -0.75897E-01
        -0.27772E-01
        -0.30462E-01
        -0.50184E-01
        -0.35390E-01
        -0.63695E-03
         0.35803E-01
         0.50782E-01
         0.62494E-01
         0.66194E-01
         0.94874E-01
         0.12570E+00
         0.13828E+00
         0.14879E+00
         0.82156E-01
         0.80905E-01
         0.14533E-01
        -0.18120E-01
        -0.34348E-01
        -0.65033E-01
        -0.45729E-01
        -0.12738E+00
        -0.13008E+00
        -0.14114E+00
        -0.14778E+00
        -0.15303E+00
        -0.12714E+00
        -0.89359E-01
        -0.67670E-01
        -0.20973E-01
         0.15226E-01
         0.61336E-01
         0.74411E-01
         0.80191E-01
         0.13346E+00
         0.13547E+00
        -0.63704E-03
         0.51975E-02
         0.15178E-01
         0.33639E-02
         0.34597E-01
         0.32174E-01
        -0.58806E-02
         0.94572E-02
        -0.61877E-02
        -0.42563E-02
         0.20514E-01
         0.17910E-01
        -0.17306E-01
         0.25666E-01
         0.16521E-01
        -0.16340E-01
         0.50809E-02
         0.36423E-02
        -0.10329E-01
         0.37508E-02
        -0.24037E-01
        -0.34173E-01
        -0.54490E-02
        -0.15164E-01
         0.71754E-02
        -0.18356E-01
        -0.28440E-02
        -0.57824E-02
        -0.10086E-01
         0.60711E-02
        -0.69782E-02
        -0.10416E-01
         0.69755E-02
         0.10980E-01
         0.32480E-01
         0.30151E-01
         0.13998E-01
        -0.10120E-01
        -0.12197E-01
        -0.28896E-01
        -0.44467E-01
        -0.35931E-01
        -0.34215E-01
        -0.35408E-04
        -0.54370E-02
        -0.26754E-01
        -0.22747E-01
        -0.17652E-02
         0.18914E-01
         0.23355E-01
         0.29585E-01
         0.32347E-01
         0.37214E-01
         0.67664E-01
         0.73296E-01
         0.87649E-01
         0.42463E-01
         0.47873E-01
        -0.10682E-02
        -0.12499E-01
        -0.21600E-01
        -0.45764E-01
        -0.16634E-01
        -0.77681E-01
        -0.71580E-01
        -0.83889E-01
        -0.87201E-01
        -0.92932E-01
        -0.83275E-01
        -0.49001E-01
        -0.37061E-01
        -0.17033E-01
         0.57642E-02
         0.40992E-01
         0.38961E-01
         0.37539E-01
         0.81595E-01
         0.77110E-01
        -0.48149E-02
         0.27303E-02
         0.72519E-02
        -0.53103E-02
         0.22642E-01
         0.17753E-01
        -0.50185E-02
         0.72324E-02
        -0.33065E-02
        -0.80000E-03
         0.16056E-01
         0.13259E-01
        -0.15656E-01
         0.18591E-01
         0.88707E-02
        -0.89999E-02
         0.10019E-01
         0.26054E-03
        -0.13887E-02
         0.86765E-02
        -0.99315E-02
        -0.16937E-01
         0.24660E-02
        -0.82995E-02
         0.80473E-02
        -0.12036E-01
        -0.30264E-02
        -0.30363E-02
        -0.78672E-02
         0.69752E-02
        -0.28887E-02
        -0.40496E-02
         0.30419E-02
         0.23494E-02
         0.21973E-01
         0.20142E-01
         0.88204E-02
        -0.12617E-01
        -0.86474E-02
        -0.22280E-01
        -0.34927E-01
        -0.24437E-01
        -0.19628E-01
         0.57847E-02
         0.14761E-02
        -0.17445E-01
        -0.15026E-01
        -0.93008E-03
         0.10323E-01
         0.10416E-01
         0.12753E-01
         0.16076E-01
         0.24903E-01
         0.44091E-01
         0.54124E-01
         0.64323E-01
         0.25845E-01
         0.30549E-01
        -0.24360E-02
        -0.97193E-02
        -0.15245E-01
        -0.34044E-01
        -0.92065E-02
        -0.48563E-01
        -0.35389E-01
        -0.37644E-01
        -0.50800E-01
        -0.63461E-01
        -0.57998E-01
        -0.31317E-01
        -0.24658E-01
        -0.10624E-01
         0.13543E-02
         0.24764E-01
         0.20494E-01
         0.11289E-01
         0.43113E-01
         0.43101E-01
        -0.10440E-01
        -0.37736E-02
        -0.42165E-02
        -0.11542E-01
         0.43147E-02
         0.39115E-02
        -0.10657E-01
         0.30935E-03
        -0.45594E-02
        -0.20741E-02
         0.60226E-02
         0.29212E-02
        -0.22799E-01
         0.10476E-01
         0.39122E-02
        -0.34639E-02
         0.13572E-01
        -0.32258E-02
         0.80499E-02
         0.16058E-01
         0.23664E-02
        -0.31748E-02
         0.13387E-01
         0.43517E-03
         0.95534E-02
        -0.58327E-02
        -0.19256E-02
         0.30256E-02
         0.36149E-02
         0.14636E-01
        -0.18424E-02
        -0.85138E-03
        -0.98540E-03
        -0.45066E-02
         0.12683E-02
         0.10960E-02
        -0.48452E-02
        -0.60821E-02
         0.18273E-02
        -0.71716E-02
        -0.13368E-01
        -0.36118E-02
        -0.23025E-02
         0.13654E-01
         0.77516E-02
        -0.10525E-01
        -0.11506E-01
        -0.19165E-02
         0.37695E-02
         0.16321E-02
         0.36874E-02
         0.52646E-02
         0.24271E-02
         0.15374E-01
         0.24606E-01
         0.33828E-01
         0.83607E-02
         0.15691E-01
        -0.62376E-02
        -0.25240E-02
        -0.82523E-02
        -0.19375E-01
         0.12911E-01
        -0.20891E-01
        -0.15502E-01
        -0.21129E-01
        -0.28391E-01
        -0.34659E-01
        -0.33061E-01
        -0.13511E-01
        -0.12505E-01
        -0.91248E-02
        -0.23249E-02
         0.17297E-01
         0.14707E-01
         0.58801E-02
         0.28728E-01
         0.19101E-01
        -0.66210E-02
         0.89289E-03
        -0.22795E-04
        -0.44160E-02
         0.92816E-02
         0.97777E-02
        -0.64648E-02
        -0.41070E-03
        -0.22953E-02
        -0.24242E-02
         0.36548E-02
         0.42796E-02
        -0.13246E-01
         0.42383E-02
        -0.11144E-03
        -0.41789E-02
         0.68977E-02
        -0.10798E-02
         0.22036E-02
         0.59531E-02
        -0.20065E-03
        -0.39961E-02
         0.83897E-02
        -0.37490E-02
         0.13998E-02
        -0.69988E-02
        -0.41314E-02
        -0.13499E-04
        -0.10230E-02
         0.45888E-02
         0.83644E-03
         0.13108E-02
         0.77433E-03
         0.62568E-03
         0.53691E-02
         0.34104E-02
         0.35822E-03
        -0.68874E-02
         0.21345E-02
        -0.59565E-02
        -0.99493E-02
        -0.26217E-02
        -0.25159E-02
         0.90740E-02
         0.65966E-02
        -0.67549E-02
        -0.54549E-02
         0.13298E-02
         0.20896E-02
         0.10713E-02
         0.44860E-02
         0.91936E-02
         0.67153E-02
         0.15208E-01
         0.24897E-01
         0.31780E-01
         0.95739E-02
         0.17454E-01
        -0.72463E-03
        -0.91043E-03
        -0.85850E-02
        -0.14099E-01
         0.15357E-01
        -0.15543E-01
        -0.70994E-02
        -0.82325E-02
        -0.19074E-01
        -0.30699E-01
        -0.31625E-01
        -0.11202E-01
        -0.80109E-02
        -0.43165E-02
        -0.38683E-03
         0.13700E-01
         0.11492E-01
         0.16963E-03
         0.19562E-01
         0.15524E-01
        -0.50937E-02
         0.44371E-02
         0.11425E-02
        -0.31121E-02
         0.53198E-02
         0.57762E-02
        -0.22359E-02
         0.23765E-02
        -0.20844E-03
         0.65443E-03
         0.45646E-02
         0.42802E-02
        -0.76192E-02
         0.55314E-02
         0.17875E-03
        -0.23825E-02
         0.67053E-02
        -0.72729E-03
         0.12777E-02
         0.36150E-02
        -0.20979E-02
        -0.35468E-02
         0.59754E-02
        -0.44631E-02
        -0.74696E-03
        -0.69671E-02
        -0.29570E-02
        -0.28129E-02
        -0.34950E-02
         0.14688E-02
         0.11463E-02
        -0.14478E-02
         0.14298E-02
         0.45718E-03
         0.17741E-02
         0.24727E-02
         0.30789E-02
        -0.58580E-02
         0.51431E-03
        -0.57333E-02
        -0.85412E-02
        -0.22308E-02
        -0.15705E-02
         0.71175E-02
         0.33690E-02
        -0.92773E-02
        -0.74783E-02
         0.70280E-03
         0.45809E-03
        -0.88442E-03
         0.20031E-02
         0.54923E-02
        -0.21939E-02
         0.19317E-02
         0.12079E-01
         0.21524E-01
         0.65653E-02
         0.11158E-01
        -0.16977E-02
         0.15337E-02
        -0.48422E-02
        -0.10767E-01
         0.64958E-02
        -0.19962E-01
        -0.66633E-02
        -0.43560E-02
        -0.14056E-01
        -0.20749E-01
        -0.22193E-01
        -0.56845E-02
        -0.53030E-02
        -0.45364E-02
        -0.18218E-02
         0.66560E-02
         0.68616E-02
        -0.68621E-03
         0.11464E-01
         0.44883E-02
        -0.33067E-02
         0.31418E-02
        -0.95436E-04
        -0.38181E-03
         0.48805E-02
         0.60220E-02
        -0.29150E-02
         0.20805E-02
         0.12308E-02
         0.63596E-03
         0.19820E-02
         0.35271E-02
        -0.58700E-02
         0.35285E-02
         0.42400E-03
        -0.28541E-02
         0.41174E-02
         0.87442E-03
         0.30002E-03
         0.25497E-02
        -0.21291E-02
        -0.12897E-02
         0.37258E-02
        -0.57594E-02
        -0.26260E-02
        -0.71388E-02
        -0.30812E-02
        -0.22564E-02
        -0.13708E-02
         0.10860E-02
         0.14185E-02
        -0.24378E-03
         0.12210E-02
         0.14240E-02
         0.22382E-02
         0.62990E-03
         0.13264E-02
        -0.30223E-02
         0.27832E-02
        -0.12873E-02
        -0.26744E-02
         0.11139E-02
         0.79163E-03
         0.55898E-02
         0.40035E-02
        -0.68431E-02
        -0.41333E-02
         0.16399E-02
        -0.13936E-02
        -0.14899E-02
         0.20427E-02
         0.55961E-02
         0.25586E-02
         0.28733E-02
         0.92763E-02
         0.13934E-01
         0.53592E-02
         0.10611E-01
         0.20640E-03
         0.44922E-02
        -0.37598E-02
        -0.83735E-02
         0.10305E-01
        -0.10728E-01
        -0.21923E-02
         0.80590E-03
        -0.70849E-02
        -0.12039E-01
        -0.16742E-01
        -0.46111E-02
        -0.64788E-02
        -0.42104E-02
        -0.19410E-02
         0.39378E-02
         0.79410E-02
        -0.12390E-03
         0.10163E-01
         0.62900E-02
        -0.20119E-02
         0.52633E-02
         0.13248E-02
         0.59965E-03
         0.68278E-02
         0.57270E-02
         0.45834E-03
         0.31992E-02
         0.91625E-03
         0.25105E-03
         0.22094E-02
         0.27815E-02
        -0.23670E-02
         0.23566E-02
        -0.14627E-02
        -0.30585E-02
         0.30884E-02
        -0.29946E-03
         0.60689E-03
         0.12591E-02
        -0.22465E-02
        -0.31748E-02
         0.37321E-02
        -0.47765E-02
        -0.37793E-02
        -0.64793E-02
        -0.42204E-02
        -0.36735E-02
        -0.36906E-02
        -0.11878E-02
         0.96212E-03
        -0.59068E-03
         0.83599E-03
         0.24640E-02
         0.61037E-02
         0.20559E-02
         0.23863E-02
        -0.39404E-02
         0.11873E-02
        -0.27411E-02
        -0.54850E-02
        -0.31754E-02
        -0.31293E-02
         0.47452E-02
         0.26100E-02
        -0.59283E-02
        -0.19403E-02
         0.35003E-02
        -0.14873E-03
         0.55924E-03
         0.28069E-02
         0.48492E-02
         0.88323E-02
         0.50983E-02
         0.10252E-01
         0.11780E-01
         0.33440E-02
         0.70895E-02
        -0.94094E-03
         0.74944E-03
        -0.37418E-02
        -0.36720E-02
         0.67667E-02
        -0.85966E-02
        -0.42250E-02
        -0.73333E-03
        -0.59604E-02
        -0.10086E-01
        -0.16383E-01
        -0.67959E-02
        -0.41959E-02
        -0.19903E-02
        -0.12397E-02
         0.50437E-02
         0.92940E-02
        -0.57209E-03
         0.69453E-02
         0.58018E-02
        -0.14655E-02
         0.34009E-02
        -0.81271E-03
         0.19810E-03
         0.27620E-02
         0.11104E-02
        -0.87995E-03
         0.44320E-02
         0.22686E-02
         0.17572E-02
         0.60333E-03
         0.76365E-03
        -0.30591E-02
         0.36327E-02
        -0.26796E-03
        -0.26176E-02
         0.14303E-02
         0.12331E-02
        -0.96997E-03
        -0.10306E-02
        -0.36285E-02
        -0.22760E-02
         0.25539E-02
        -0.50105E-02
        -0.42129E-02
        -0.62155E-02
        -0.19434E-02
        -0.15669E-02
        -0.53853E-03
        -0.15621E-02
         0.92608E-03
        -0.23905E-02
         0.21251E-02
         0.14940E-02
         0.33033E-02
         0.39529E-03
         0.13466E-02
        -0.58160E-03
         0.33439E-02
         0.17080E-02
         0.35165E-03
         0.89333E-03
        -0.28460E-03
         0.43669E-02
         0.16264E-02
        -0.63892E-02
        -0.37530E-02
         0.28734E-02
         0.10043E-03
        -0.10443E-02
        -0.13515E-02
         0.23130E-03
         0.40741E-02
        -0.36860E-02
         0.86879E-02
         0.13012E-01
         0.53846E-02
         0.95548E-02
         0.19655E-02
         0.36047E-02
        -0.38319E-02
        -0.61424E-02
         0.89890E-02
        -0.51740E-02
        -0.57098E-03
        -0.11188E-03
        -0.50249E-02
        -0.83270E-02
        -0.12304E-01
        -0.26031E-02
         0.11037E-02
        -0.86907E-03
        -0.17918E-02
         0.11294E-02
         0.10349E-02
        -0.62867E-02
         0.12729E-02
        -0.11468E-02
        -0.14568E-02
         0.42620E-02
        -0.99651E-03
         0.13663E-02
         0.29789E-02
         0.31877E-02
         0.31484E-03
         0.42430E-02
         0.13519E-02
         0.19454E-02
         0.12039E-02
         0.46201E-03
        -0.19584E-02
         0.32627E-02
        -0.13517E-02
        -0.30763E-02
         0.16349E-02
         0.57702E-03
        -0.75123E-03
         0.90412E-04
        -0.38919E-02
        -0.11475E-02
         0.18344E-02
        -0.53752E-02
        -0.30133E-02
        -0.54281E-02
        -0.23305E-02
        -0.74705E-03
        -0.76382E-03
        -0.96156E-03
         0.71027E-03
        -0.80575E-03
         0.15717E-02
         0.19789E-02
         0.13266E-02
        -0.16216E-02
         0.17430E-02
        -0.23626E-02
         0.29448E-02
         0.18358E-02
        -0.86558E-03
        -0.33163E-03
         0.64643E-03
         0.50538E-02
         0.40022E-02
        -0.42238E-02
        -0.32638E-02
         0.15491E-02
        -0.66713E-03
        -0.16640E-03
         0.13123E-02
         0.25439E-02
         0.37129E-02
         0.71889E-04
         0.43732E-02
         0.93211E-02
         0.19848E-02
         0.48056E-02
        -0.15106E-02
         0.75385E-03
        -0.27958E-02
         0.38199E-03
         0.13510E-01
        -0.42060E-02
         0.48338E-02
         0.41821E-02
         0.81575E-04
        -0.51848E-02
        -0.14252E-01
        -0.43638E-02
         0.18824E-02
        -0.70869E-03
        -0.25258E-02
         0.40207E-02
         0.79842E-02
         0.10661E-02
         0.81633E-02
         0.53318E-02
        -0.13871E-02
         0.34166E-02
         0.17061E-03
         0.10340E-02
         0.36977E-02
         0.20058E-02
        -0.10247E-02
         0.44287E-02
         0.70829E-03
         0.14283E-02
         0.66785E-03
        -0.13124E-02
        -0.55503E-02
         0.36314E-02
        -0.12481E-02
        -0.32584E-02
         0.30754E-03
         0.11458E-02
        -0.91563E-03
        -0.21522E-03
        -0.12598E-02
        -0.14187E-02
         0.29759E-02
        -0.61772E-02
        -0.39186E-02
        -0.66687E-02
        -0.19042E-02
        -0.15442E-02
        -0.16081E-02
        -0.11850E-02
         0.26095E-02
        -0.57493E-03
         0.19009E-02
         0.29664E-03
         0.26566E-02
        -0.76067E-03
        -0.24969E-03
        -0.11745E-02
         0.29703E-02
        -0.96476E-03
        -0.31976E-02
        -0.12814E-02
        -0.13927E-02
         0.41188E-02
         0.27219E-02
        -0.60001E-02
        -0.28059E-02
         0.34607E-02
        -0.70079E-03
        -0.23062E-02
        -0.83474E-03
         0.69181E-03
         0.25390E-02
        -0.14779E-02
         0.46028E-02
         0.93238E-02
         0.11703E-02
         0.50903E-02
         0.99590E-03
         0.26760E-02
        -0.30103E-02
        -0.43697E-02
         0.10307E-01
        -0.94445E-02
        -0.29383E-02
         0.24467E-02
         0.24562E-02
        -0.33964E-02
        -0.12246E-01
        -0.29062E-02
        -0.13274E-02
         0.95173E-03
         0.11228E-02
         0.46175E-02
         0.75272E-02
        -0.12537E-02
         0.37947E-02
        -0.35108E-03
        -0.28241E-02
         0.28620E-02
        -0.23172E-02
         0.20856E-02
         0.13754E-02
        -0.32238E-03
         0.20789E-03
         0.22942E-02
        -0.13530E-02
        -0.18310E-03
         0.15261E-02
         0.14514E-02
        -0.12214E-02
         0.25366E-02
         0.11003E-02
        -0.52369E-02
        -0.14442E-02
         0.82188E-03
        -0.21753E-02
        -0.56780E-04
        -0.19705E-02
        -0.21877E-02
         0.17413E-02
        -0.72128E-02
        -0.13526E-02
        -0.76779E-02
        -0.25306E-03
         0.36294E-02
         0.35322E-02
         0.30105E-02
         0.30971E-03
        -0.22795E-02
         0.20797E-02
         0.18113E-02
         0.39736E-02
        -0.50086E-03
         0.19040E-02
         0.55820E-02
         0.88627E-02
         0.11029E-02
        -0.71471E-02
        -0.51577E-02
        -0.38392E-02
         0.13612E-02
        -0.76806E-03
        -0.83652E-02
        -0.30654E-02
         0.32211E-02
         0.13988E-02
         0.15021E-03
         0.10249E-02
         0.74446E-03
         0.12788E-01
         0.91595E-02
         0.19819E-01
         0.22686E-01
         0.76390E-02
         0.58018E-02
         0.52646E-02
         0.85213E-02
        -0.64277E-02
        -0.13545E-01
        -0.14484E-02
        -0.25419E-01
        -0.10613E-01
        -0.32538E-02
        -0.24586E-02
        -0.87648E-02
        -0.23190E-01
        -0.16724E-01
        -0.92568E-02
        -0.27626E-02
         0.23009E-02
         0.10151E-01
         0.13583E-01
         0.30669E-02
         0.11670E-01
         0.94988E-02
  
SCALARS                      strain_xy  double 1
LOOKUP_TABLE default
        -0.60152E-01
        -0.32351E+00
        -0.19803E+00
         0.76636E-01
        -0.89272E-01
        -0.38579E+00
        -0.21912E+00
         0.83631E-01
        -0.24182E-01
         0.24075E+00
        -0.50646E-01
         0.26535E+00
        -0.31699E+00
        -0.75001E-01
        -0.41145E+00
        -0.10969E+00
         0.78143E-01
         0.91394E-01
         0.11034E+00
         0.81292E-01
        -0.25490E+00
        -0.29392E+00
        -0.50181E+00
        -0.28233E+00
        -0.21907E+00
        -0.51400E+00
        -0.10527E+00
        -0.13444E+00
        -0.22642E+00
        -0.17906E+00
        -0.34520E-01
         0.80730E-01
         0.60372E-01
        -0.52788E-02
         0.12840E+00
         0.70880E-01
        -0.14794E+00
         0.30531E-01
        -0.22982E+00
         0.95706E-02
        -0.26500E+00
        -0.14280E-01
        -0.34255E+00
        -0.79692E-01
        -0.44758E+00
        -0.32699E+00
        -0.48319E+00
        -0.40058E+00
         0.17385E+00
         0.15309E+00
        -0.28607E+00
        -0.33871E+00
         0.79812E-01
         0.22089E-01
         0.24046E+00
         0.24749E+00
         0.35558E+00
         0.20579E+00
         0.37921E+00
         0.23624E+00
        -0.11668E-01
        -0.22120E+00
        -0.74524E-01
        -0.27420E+00
         0.14927E+00
         0.13385E+00
         0.29520E+00
         0.33765E+00
        -0.25857E+00
        -0.44960E+00
        -0.17412E+00
        -0.51174E+00
        -0.56891E+00
        -0.63167E+00
         0.88645E-01
         0.58964E-01
         0.32289E+00
         0.36619E+00
         0.45891E+00
         0.48586E+00
         0.48532E+00
         0.44348E+00
         0.36169E+00
         0.44590E+00
         0.25610E+00
         0.32110E+00
        -0.50490E+00
        -0.55666E+00
        -0.42205E+00
        -0.42905E+00
        -0.32084E+00
        -0.16569E+00
        -0.21775E+00
        -0.20172E+00
         0.81822E-01
         0.45846E-01
         0.30650E+00
         0.38836E+00
         0.45040E+00
         0.49343E+00
         0.50390E+00
         0.43335E+00
         0.35774E+00
         0.44435E+00
        -0.26447E+00
        -0.21767E-01
        -0.17278E+00
        -0.19847E-01
        -0.52725E+00
        -0.43220E+00
        -0.66985E+00
        -0.55192E+00
        -0.52131E+00
        -0.45898E+00
        -0.25793E+00
        -0.23175E+00
        -0.13654E+00
        -0.19281E+00
         0.13975E+00
         0.88658E-01
         0.53216E+00
         0.56834E+00
         0.64358E+00
         0.63089E+00
         0.53595E+00
         0.44317E+00
         0.63488E+00
         0.61747E+00
         0.44119E+00
         0.46306E+00
         0.28729E-01
        -0.11926E-01
        -0.26625E+00
        -0.28534E+00
        -0.49292E+00
        -0.41155E+00
        -0.65518E+00
        -0.50656E+00
        -0.52734E+00
        -0.44644E+00
        -0.35855E+00
        -0.26830E+00
        -0.28565E+00
        -0.31784E+00
         0.31691E-01
        -0.53793E-01
         0.44350E+00
         0.41485E+00
         0.63635E+00
         0.62047E+00
         0.56110E+00
         0.46386E+00
         0.52561E+00
         0.47394E+00
         0.29853E+00
         0.28523E+00
        -0.59341E-01
        -0.28457E+00
        -0.17502E+00
         0.63531E-01
        -0.17902E-01
         0.24115E+00
        -0.26900E+00
        -0.59424E-01
         0.60823E-01
         0.88114E-01
        -0.21137E+00
        -0.27756E+00
        -0.45735E+00
        -0.78470E-01
        -0.12207E+00
        -0.50599E-01
         0.62602E-01
         0.40994E-01
        -0.13200E+00
         0.25918E-01
        -0.22499E+00
         0.39735E-02
        -0.39931E+00
        -0.28406E+00
         0.16512E+00
        -0.25630E+00
         0.93270E-01
         0.24623E+00
         0.35245E+00
         0.20373E+00
        -0.11245E-01
        -0.19365E+00
         0.14023E+00
         0.27848E+00
        -0.23680E+00
        -0.39573E+00
        -0.52314E+00
         0.99675E-01
         0.32323E+00
         0.46048E+00
         0.50553E+00
         0.43310E+00
         0.24951E+00
        -0.46222E+00
        -0.38216E+00
        -0.29550E+00
        -0.14050E+00
         0.89162E-01
         0.29203E+00
         0.41455E+00
         0.49578E+00
         0.43056E+00
        -0.26747E+00
        -0.11418E-01
        -0.48834E+00
        -0.65187E+00
        -0.54629E+00
        -0.31352E+00
        -0.11516E+00
         0.16111E+00
         0.47923E+00
         0.59662E+00
         0.55501E+00
         0.58592E+00
         0.38394E+00
         0.26947E-01
        -0.24972E+00
        -0.48079E+00
        -0.65416E+00
        -0.48523E+00
        -0.33185E+00
        -0.21557E+00
         0.10230E+00
         0.42887E+00
         0.58819E+00
         0.58258E+00
         0.53565E+00
         0.30521E+00
        -0.38380E-01
        -0.22633E+00
        -0.15344E+00
         0.44946E-01
        -0.26437E-01
         0.20784E+00
        -0.21103E+00
        -0.32228E-01
         0.53505E-01
         0.69202E-01
        -0.17897E+00
        -0.24926E+00
        -0.38103E+00
        -0.64589E-01
        -0.11297E+00
        -0.34592E-01
         0.45321E-01
         0.25690E-01
        -0.10952E+00
         0.15538E-01
        -0.20285E+00
         0.41052E-02
        -0.34697E+00
        -0.23883E+00
         0.12103E+00
        -0.21759E+00
         0.77200E-01
         0.21013E+00
         0.31588E+00
         0.17068E+00
        -0.16103E-01
        -0.17398E+00
         0.10807E+00
         0.23820E+00
        -0.21495E+00
        -0.33863E+00
        -0.43408E+00
         0.95155E-01
         0.30670E+00
         0.43727E+00
         0.48395E+00
         0.41280E+00
         0.23792E+00
        -0.39771E+00
        -0.33410E+00
        -0.26852E+00
        -0.13478E+00
         0.76666E-01
         0.25989E+00
         0.37573E+00
         0.45720E+00
         0.39084E+00
        -0.24574E+00
        -0.20816E-01
        -0.40488E+00
        -0.56172E+00
        -0.50604E+00
        -0.31549E+00
        -0.10240E+00
         0.15266E+00
         0.43092E+00
         0.54914E+00
         0.51420E+00
         0.52437E+00
         0.32834E+00
         0.15444E-01
        -0.24534E+00
        -0.44894E+00
        -0.58732E+00
        -0.41856E+00
        -0.29506E+00
        -0.19327E+00
         0.11604E+00
         0.39245E+00
         0.51584E+00
         0.53055E+00
         0.50256E+00
         0.29000E+00
        -0.18691E-01
        -0.17386E+00
        -0.12661E+00
         0.27814E-01
        -0.34621E-01
         0.16502E+00
        -0.15522E+00
        -0.78113E-02
         0.49689E-01
         0.52183E-01
        -0.14053E+00
        -0.21192E+00
        -0.30781E+00
        -0.53148E-01
        -0.10743E+00
        -0.15215E-01
         0.34212E-01
         0.16642E-01
        -0.82491E-01
         0.78004E-02
        -0.17474E+00
         0.11461E-02
        -0.28708E+00
        -0.18966E+00
         0.77784E-01
        -0.17809E+00
         0.57333E-01
         0.16504E+00
         0.26427E+00
         0.13637E+00
        -0.22915E-01
        -0.15534E+00
         0.76444E-01
         0.18790E+00
        -0.18582E+00
        -0.27344E+00
        -0.35193E+00
         0.74070E-01
         0.26559E+00
         0.38664E+00
         0.43592E+00
         0.36871E+00
         0.21112E+00
        -0.33359E+00
        -0.28751E+00
        -0.24162E+00
        -0.13048E+00
         0.55458E-01
         0.20949E+00
         0.30978E+00
         0.39126E+00
         0.32765E+00
        -0.22449E+00
        -0.40152E-01
        -0.31263E+00
        -0.43688E+00
        -0.40174E+00
        -0.27201E+00
        -0.96869E-01
         0.11816E+00
         0.35232E+00
         0.48212E+00
         0.45948E+00
         0.44811E+00
         0.25627E+00
        -0.39918E-02
        -0.21754E+00
        -0.36292E+00
        -0.47501E+00
        -0.33795E+00
        -0.25293E+00
        -0.17629E+00
         0.11045E+00
         0.33086E+00
         0.44342E+00
         0.47062E+00
         0.41638E+00
         0.22885E+00
        -0.59923E-02
        -0.12462E+00
        -0.10135E+00
         0.11600E-01
        -0.34644E-01
         0.12210E+00
        -0.10009E+00
         0.91188E-02
         0.43745E-01
         0.38618E-01
        -0.10076E+00
        -0.17211E+00
        -0.22875E+00
        -0.42450E-01
        -0.10377E+00
         0.13530E-02
         0.26846E-01
         0.10607E-01
        -0.55917E-01
         0.62266E-02
        -0.14428E+00
         0.58762E-04
        -0.22064E+00
        -0.13864E+00
         0.46601E-01
        -0.13712E+00
         0.39892E-01
         0.12339E+00
         0.20797E+00
         0.10453E+00
        -0.28196E-01
        -0.13571E+00
         0.49092E-01
         0.14439E+00
        -0.14909E+00
        -0.20766E+00
        -0.26399E+00
         0.51989E-01
         0.21647E+00
         0.31767E+00
         0.35565E+00
         0.30360E+00
         0.17661E+00
        -0.26211E+00
        -0.23847E+00
        -0.21085E+00
        -0.12067E+00
         0.35123E-01
         0.16064E+00
         0.25068E+00
         0.32232E+00
         0.25934E+00
        -0.18686E+00
        -0.33613E-01
        -0.21880E+00
        -0.32946E+00
        -0.33644E+00
        -0.24898E+00
        -0.98559E-01
         0.81563E-01
         0.26079E+00
         0.34854E+00
         0.31428E+00
         0.32303E+00
         0.18006E+00
        -0.25942E-01
        -0.19372E+00
        -0.29124E+00
        -0.37555E+00
        -0.26636E+00
        -0.21559E+00
        -0.15228E+00
         0.96956E-01
         0.24659E+00
         0.33590E+00
         0.38294E+00
         0.31345E+00
         0.18079E+00
        -0.69053E-02
        -0.80648E-01
        -0.70894E-01
         0.34070E-02
        -0.33618E-01
         0.74312E-01
        -0.59475E-01
         0.70794E-02
         0.21514E-01
         0.22127E-01
        -0.66732E-01
        -0.12015E+00
        -0.14667E+00
        -0.31985E-01
        -0.82652E-01
         0.35205E-02
         0.13106E-01
         0.53408E-02
        -0.36929E-01
         0.83347E-02
        -0.10187E+00
         0.34472E-02
        -0.14673E+00
        -0.93186E-01
         0.29342E-01
        -0.96934E-01
         0.30252E-01
         0.87436E-01
         0.14524E+00
         0.80483E-01
        -0.30203E-01
        -0.10703E+00
         0.27985E-01
         0.99308E-01
        -0.10345E+00
        -0.13208E+00
        -0.16929E+00
         0.34894E-01
         0.15500E+00
         0.21877E+00
         0.24501E+00
         0.21947E+00
         0.13267E+00
        -0.17526E+00
        -0.16799E+00
        -0.15975E+00
        -0.10112E+00
         0.14056E-01
         0.10363E+00
         0.17405E+00
         0.23189E+00
         0.17758E+00
        -0.13537E+00
        -0.35430E-01
        -0.12147E+00
        -0.21684E+00
        -0.24799E+00
        -0.18471E+00
        -0.76763E-01
         0.45726E-01
         0.17521E+00
         0.23547E+00
         0.18613E+00
         0.20379E+00
         0.10596E+00
        -0.24884E-01
        -0.13142E+00
        -0.19166E+00
        -0.25722E+00
        -0.17560E+00
        -0.15477E+00
        -0.11707E+00
         0.75763E-01
         0.17109E+00
         0.23846E+00
         0.28364E+00
         0.20720E+00
         0.11307E+00
        -0.71663E-02
        -0.41032E-01
        -0.41508E-01
         0.35609E-02
        -0.28302E-01
         0.37445E-01
        -0.26690E-01
        -0.27098E-02
        -0.18622E-02
         0.23612E-03
        -0.41029E-01
        -0.73567E-01
        -0.74711E-01
        -0.28968E-01
        -0.57521E-01
        -0.41755E-03
        -0.51211E-02
         0.37365E-02
        -0.25391E-01
         0.18994E-02
        -0.62457E-01
         0.26061E-02
        -0.82281E-01
        -0.55576E-01
         0.11901E-01
        -0.63926E-01
         0.16281E-01
         0.53856E-01
         0.91386E-01
         0.53050E-01
        -0.27580E-01
        -0.76804E-01
         0.16120E-01
         0.64821E-01
        -0.62352E-01
        -0.68893E-01
        -0.87671E-01
         0.24517E-01
         0.94666E-01
         0.12749E+00
         0.14503E+00
         0.13819E+00
         0.85178E-01
        -0.10122E+00
        -0.10147E+00
        -0.10432E+00
        -0.74285E-01
         0.71905E-03
         0.56704E-01
         0.10474E+00
         0.14712E+00
         0.10755E+00
        -0.83244E-01
        -0.27304E-01
        -0.49656E-01
        -0.12926E+00
        -0.17368E+00
        -0.13013E+00
        -0.45641E-01
         0.30939E-01
         0.10305E+00
         0.12252E+00
         0.78689E-01
         0.10303E+00
         0.51789E-01
        -0.18017E-01
        -0.78983E-01
        -0.11249E+00
        -0.16187E+00
        -0.98461E-01
        -0.95930E-01
        -0.78791E-01
         0.57542E-01
         0.95449E-01
         0.13379E+00
         0.18106E+00
         0.11501E+00
         0.60859E-01
        -0.72628E-02
        -0.59217E-02
        -0.12647E-01
         0.32802E-02
        -0.21657E-01
        -0.74249E-03
        -0.19080E-03
        -0.11648E-01
        -0.17264E-01
        -0.14563E-01
        -0.18589E-01
        -0.27010E-01
        -0.71813E-02
        -0.27346E-01
        -0.33148E-01
        -0.67806E-02
        -0.17509E-01
         0.27510E-02
        -0.14018E-01
        -0.57690E-02
        -0.22730E-01
        -0.22477E-02
        -0.15505E-01
        -0.17822E-01
         0.44680E-02
        -0.29625E-01
        -0.33736E-04
         0.24994E-01
         0.40391E-01
         0.25567E-01
        -0.22090E-01
        -0.40358E-01
         0.63727E-02
         0.28053E-01
        -0.16812E-01
        -0.23340E-02
        -0.72710E-02
         0.48257E-02
         0.28278E-01
         0.35819E-01
         0.39966E-01
         0.48842E-01
         0.30571E-01
        -0.20818E-01
        -0.22443E-01
        -0.33794E-01
        -0.39403E-01
        -0.93798E-02
         0.98508E-02
         0.29030E-01
         0.51159E-01
         0.31352E-01
        -0.24615E-01
        -0.20263E-01
         0.30749E-01
        -0.35578E-01
        -0.82749E-01
        -0.56785E-01
        -0.90381E-02
         0.91909E-02
         0.24050E-01
         0.16230E-01
        -0.20581E-01
         0.93750E-03
        -0.79676E-02
        -0.11468E-01
        -0.20413E-01
        -0.26757E-01
        -0.54987E-01
         0.21586E-03
        -0.15118E-01
        -0.34517E-01
         0.35086E-01
         0.19644E-01
         0.22999E-01
         0.66333E-01
         0.18588E-01
         0.74151E-02
        -0.90420E-02
         0.97585E-02
        -0.43543E-03
        -0.31627E-02
        -0.15198E-01
        -0.17524E-01
         0.13751E-01
        -0.13266E-01
        -0.22198E-01
        -0.18714E-01
        -0.10562E-02
         0.64257E-02
         0.29673E-01
        -0.20361E-01
        -0.11848E-01
        -0.10924E-01
        -0.22833E-01
        -0.43200E-02
        -0.61603E-02
        -0.12601E-01
         0.29681E-02
        -0.53987E-02
         0.22316E-01
         0.53586E-02
        -0.29628E-02
        -0.92083E-02
        -0.80325E-02
         0.48607E-02
         0.67877E-02
         0.45905E-02
        -0.21727E-01
        -0.19445E-01
        -0.36009E-02
         0.59300E-02
         0.97731E-02
         0.31503E-01
         0.33127E-01
        -0.43067E-02
        -0.11003E-01
        -0.20468E-01
        -0.23168E-01
        -0.32334E-02
        -0.23309E-02
         0.22188E-01
         0.20708E-01
         0.83516E-02
        -0.15787E-01
        -0.12597E-01
        -0.15064E-01
        -0.13643E-01
        -0.51559E-02
        -0.81952E-02
         0.13620E-01
        -0.55776E-02
         0.67501E-01
         0.12037E-01
        -0.27293E-01
        -0.11605E-01
         0.79085E-02
        -0.78681E-02
        -0.28259E-01
        -0.54795E-01
        -0.81118E-01
        -0.58241E-01
        -0.43615E-01
        -0.11713E-01
         0.10040E-01
         0.19110E-01
        -0.14152E-02
         0.47187E-01
         0.32204E-01
         0.12225E-02
         0.27466E-01
        -0.26421E-01
        -0.50532E-01
        -0.14389E-01
        -0.34280E-01
        -0.13110E-01
        -0.42453E-02
         0.26852E-01
         0.10738E-01
        -0.11467E-01
        -0.98689E-02
        -0.32216E-01
         0.29319E-01
        -0.59329E-02
        -0.23848E-01
        -0.23481E-01
         0.16800E-01
         0.32320E-01
         0.57578E-01
        -0.91599E-02
         0.41812E-02
        -0.31870E-02
        -0.27104E-01
        -0.92992E-02
         0.81079E-02
        -0.18162E-01
         0.25385E-01
        -0.62669E-02
         0.51266E-01
         0.29873E-01
        -0.21716E-01
         0.15231E-01
        -0.16870E-01
        -0.21515E-01
        -0.28644E-01
        -0.21554E-01
        -0.13723E-01
         0.43179E-02
        -0.14508E-01
        -0.20356E-01
         0.28130E-01
         0.54622E-01
         0.63831E-01
        -0.14617E-01
        -0.40888E-01
        -0.57749E-01
        -0.61360E-01
        -0.41169E-01
        -0.27603E-01
         0.55204E-01
         0.54814E-01
         0.41969E-01
         0.51610E-02
        -0.12837E-01
        -0.34243E-01
        -0.48709E-01
        -0.49918E-01
        -0.41802E-01
         0.39893E-01
         0.23992E-02
         0.88334E-01
         0.53086E-01
         0.25248E-01
         0.30774E-01
         0.23019E-01
        -0.19677E-01
        -0.54368E-01
        -0.82010E-01
        -0.10349E+00
        -0.80144E-01
        -0.56530E-01
        -0.27795E-02
         0.33996E-01
         0.53372E-01
         0.47602E-01
         0.92512E-01
         0.71636E-01
         0.21054E-01
         0.12795E-01
        -0.56219E-01
        -0.93340E-01
        -0.68759E-01
        -0.69968E-01
        -0.32182E-01
         0.86818E-03
         0.30466E-01
         0.12059E-01
        -0.15050E-01
        -0.47927E-02
        -0.29319E-01
         0.34119E-01
         0.17772E-02
        -0.19968E-01
        -0.21247E-01
         0.24273E-01
         0.37309E-01
         0.57805E-01
        -0.25178E-03
         0.11380E-01
         0.36947E-02
        -0.24619E-01
        -0.12091E-01
         0.15527E-01
        -0.15782E-01
         0.31658E-01
        -0.22044E-02
         0.51964E-01
         0.37562E-01
        -0.27458E-01
         0.25912E-01
        -0.16628E-01
        -0.28374E-01
        -0.37621E-01
        -0.27378E-01
        -0.72686E-02
         0.14101E-01
        -0.19357E-01
        -0.29412E-01
         0.27469E-01
         0.48664E-01
         0.60585E-01
        -0.14515E-01
        -0.44626E-01
        -0.63800E-01
        -0.69223E-01
        -0.47248E-01
        -0.28315E-01
         0.54169E-01
         0.53206E-01
         0.40537E-01
         0.10230E-01
        -0.89932E-02
        -0.34137E-01
        -0.53840E-01
        -0.58768E-01
        -0.45403E-01
         0.41484E-01
         0.98404E-02
         0.76607E-01
         0.57960E-01
         0.43252E-01
         0.39382E-01
         0.23636E-01
        -0.19707E-01
        -0.55617E-01
        -0.86737E-01
        -0.10841E+00
        -0.79996E-01
        -0.55250E-01
        -0.56858E-02
         0.32778E-01
         0.50460E-01
         0.46987E-01
         0.82966E-01
         0.62194E-01
         0.21027E-01
         0.94435E-02
        -0.54444E-01
        -0.96267E-01
        -0.84358E-01
        -0.71153E-01
        -0.27102E-01
         0.33682E-02
         0.23680E-01
         0.93332E-02
        -0.12370E-01
        -0.33229E-02
        -0.25249E-01
         0.27448E-01
         0.66503E-02
        -0.11643E-01
        -0.12435E-01
         0.21921E-01
         0.30979E-01
         0.46251E-01
         0.50869E-02
         0.10190E-01
         0.73820E-02
        -0.15327E-01
        -0.84444E-02
         0.15541E-01
        -0.11250E-01
         0.25307E-01
        -0.32351E-02
         0.42437E-01
         0.31586E-01
        -0.20768E-01
         0.22070E-01
        -0.11662E-01
        -0.24417E-01
        -0.34050E-01
        -0.23869E-01
        -0.49990E-02
         0.11981E-01
        -0.16627E-01
        -0.25452E-01
         0.22324E-01
         0.37887E-01
         0.48123E-01
        -0.14423E-01
        -0.40362E-01
        -0.54496E-01
        -0.59272E-01
        -0.43239E-01
        -0.26060E-01
         0.44054E-01
         0.44084E-01
         0.37309E-01
         0.11255E-01
        -0.78705E-02
        -0.29560E-01
        -0.45068E-01
        -0.51111E-01
        -0.40141E-01
         0.35531E-01
         0.84142E-02
         0.63506E-01
         0.59596E-01
         0.53549E-01
         0.42552E-01
         0.19347E-01
        -0.18646E-01
        -0.52997E-01
        -0.72049E-01
        -0.87290E-01
        -0.67759E-01
        -0.44242E-01
        -0.43297E-02
         0.30385E-01
         0.53089E-01
         0.54808E-01
         0.77258E-01
         0.60812E-01
         0.22881E-01
         0.47060E-03
        -0.50856E-01
        -0.81559E-01
        -0.76012E-01
        -0.66681E-01
        -0.26986E-01
         0.38083E-02
         0.14883E-01
         0.55869E-02
        -0.77063E-02
        -0.17786E-02
        -0.14500E-01
         0.17015E-01
         0.39985E-02
        -0.46582E-02
        -0.77465E-02
         0.13573E-01
         0.20494E-01
         0.29089E-01
         0.16450E-02
         0.71897E-02
         0.57769E-02
        -0.10305E-01
        -0.39044E-02
         0.87987E-02
        -0.99059E-02
         0.16688E-01
        -0.37268E-02
         0.26118E-01
         0.19868E-01
        -0.12065E-01
         0.13261E-01
        -0.95412E-02
        -0.14451E-01
        -0.19781E-01
        -0.15178E-01
        -0.28453E-02
         0.67240E-02
        -0.10956E-01
        -0.16220E-01
         0.12093E-01
         0.21825E-01
         0.29417E-01
        -0.11611E-01
        -0.28096E-01
        -0.35946E-01
        -0.41130E-01
        -0.28340E-01
        -0.17769E-01
         0.24324E-01
         0.25544E-01
         0.22765E-01
         0.69419E-02
        -0.42706E-02
        -0.18030E-01
        -0.27559E-01
        -0.30652E-01
        -0.23803E-01
         0.19651E-01
         0.47715E-02
         0.40309E-01
         0.42998E-01
         0.40185E-01
         0.31889E-01
         0.16441E-01
        -0.11617E-01
        -0.34726E-01
        -0.48412E-01
        -0.67555E-01
        -0.48115E-01
        -0.30689E-01
        -0.29958E-02
         0.24728E-01
         0.36817E-01
         0.34514E-01
         0.51640E-01
         0.39609E-01
         0.12706E-01
        -0.86412E-03
        -0.33416E-01
        -0.51762E-01
        -0.45880E-01
        -0.40066E-01
        -0.15774E-01
         0.22202E-02
         0.10172E-01
         0.49614E-02
        -0.43077E-02
         0.29746E-03
        -0.11365E-01
         0.10420E-01
         0.17938E-02
        -0.39752E-02
        -0.52370E-02
         0.92759E-02
         0.15633E-01
         0.20531E-01
         0.27143E-02
         0.79464E-02
         0.34034E-02
        -0.71382E-02
        -0.21583E-02
         0.57549E-02
        -0.42136E-02
         0.13012E-01
        -0.14994E-03
         0.19273E-01
         0.13451E-01
        -0.62017E-02
         0.99787E-02
        -0.41141E-02
        -0.79536E-02
        -0.11869E-01
        -0.67163E-02
        -0.12585E-02
         0.62637E-02
        -0.64580E-02
        -0.10789E-01
         0.11847E-01
         0.18113E-01
         0.22326E-01
        -0.56178E-02
        -0.18904E-01
        -0.25658E-01
        -0.28122E-01
        -0.18036E-01
        -0.98984E-02
         0.19024E-01
         0.20586E-01
         0.18442E-01
         0.60699E-02
        -0.32957E-02
        -0.13534E-01
        -0.21937E-01
        -0.27570E-01
        -0.20621E-01
         0.19661E-01
         0.75662E-02
         0.34487E-01
         0.36352E-01
         0.33774E-01
         0.29007E-01
         0.13217E-01
        -0.95497E-02
        -0.24965E-01
        -0.34931E-01
        -0.44563E-01
        -0.33356E-01
        -0.23163E-01
        -0.20121E-02
         0.22571E-01
         0.31651E-01
         0.29393E-01
         0.39035E-01
         0.30094E-01
         0.98065E-02
        -0.34159E-02
        -0.27726E-01
        -0.44703E-01
        -0.43956E-01
        -0.37517E-01
        -0.13387E-01
         0.24683E-02
         0.63971E-02
         0.29507E-02
        -0.12598E-02
         0.45883E-03
        -0.64235E-02
         0.74182E-02
         0.22205E-02
        -0.20769E-02
        -0.28079E-02
         0.68625E-02
         0.97113E-02
         0.11919E-01
         0.25715E-02
         0.53832E-02
         0.94861E-03
        -0.47294E-02
        -0.10438E-02
         0.19834E-02
        -0.27698E-02
         0.78244E-02
         0.10438E-02
         0.10420E-01
         0.61545E-02
        -0.23496E-02
         0.42647E-02
        -0.15173E-02
        -0.21568E-02
        -0.51936E-02
        -0.32672E-02
        -0.19855E-02
         0.23664E-02
        -0.39769E-02
        -0.50058E-02
         0.64150E-02
         0.94482E-02
         0.12116E-01
        -0.23040E-02
        -0.98565E-02
        -0.14414E-01
        -0.18079E-01
        -0.12752E-01
        -0.64911E-02
         0.10178E-01
         0.11970E-01
         0.11088E-01
         0.28011E-02
        -0.32253E-02
        -0.84998E-02
        -0.11783E-01
        -0.15140E-01
        -0.11797E-01
         0.11373E-01
         0.39644E-02
         0.21425E-01
         0.23483E-01
         0.21864E-01
         0.18620E-01
         0.75316E-02
        -0.54397E-02
        -0.17446E-01
        -0.27658E-01
        -0.31092E-01
        -0.26717E-01
        -0.14729E-01
         0.83951E-03
         0.16240E-01
         0.23242E-01
         0.21434E-01
         0.27019E-01
         0.19890E-01
         0.59654E-02
        -0.28893E-02
        -0.17579E-01
        -0.27031E-01
        -0.26020E-01
        -0.23791E-01
        -0.91454E-02
         0.29411E-02
         0.64544E-02
         0.45510E-02
         0.78272E-03
         0.31070E-02
        -0.46036E-02
         0.71438E-02
         0.24421E-02
         0.16947E-03
        -0.23129E-02
         0.67282E-02
         0.84494E-02
         0.96699E-02
         0.23871E-02
         0.51783E-02
         0.31676E-02
        -0.25260E-02
         0.71630E-03
         0.27581E-02
        -0.25083E-02
         0.68239E-02
         0.80413E-03
         0.91879E-02
         0.70459E-02
        -0.35637E-02
         0.71897E-02
        -0.26326E-02
        -0.42227E-02
        -0.62585E-02
        -0.47812E-02
         0.77991E-03
         0.59652E-02
        -0.23260E-02
        -0.35465E-02
         0.88471E-02
         0.10105E-01
         0.11094E-01
        -0.22252E-02
        -0.87721E-02
        -0.12189E-01
        -0.14164E-01
        -0.10870E-01
        -0.63935E-02
         0.11119E-01
         0.13290E-01
         0.12734E-01
         0.53781E-02
        -0.18764E-02
        -0.76913E-02
        -0.11098E-01
        -0.15119E-01
        -0.11022E-01
         0.13359E-01
         0.47041E-02
         0.19450E-01
         0.21740E-01
         0.16476E-01
         0.13228E-01
         0.67778E-02
        -0.34467E-02
        -0.13701E-01
        -0.24116E-01
        -0.24632E-01
        -0.20958E-01
        -0.11430E-01
         0.23090E-02
         0.11608E-01
         0.16007E-01
         0.18990E-01
         0.23567E-01
         0.19500E-01
         0.89917E-02
        -0.22989E-02
        -0.15762E-01
        -0.24327E-01
        -0.26694E-01
        -0.24924E-01
        -0.11208E-01
         0.63913E-03
         0.43923E-02
         0.11665E-02
        -0.15727E-02
         0.23658E-03
        -0.45569E-02
         0.56116E-02
         0.50492E-03
         0.97803E-04
        -0.92891E-03
         0.54848E-02
         0.84951E-02
         0.95922E-02
         0.14698E-02
         0.49203E-02
         0.14391E-02
        -0.89341E-03
        -0.98478E-04
         0.97962E-03
        -0.80670E-03
         0.52474E-02
         0.10520E-02
         0.63996E-02
         0.34552E-02
         0.87233E-04
         0.39118E-02
        -0.34123E-03
         0.50390E-04
        -0.24486E-02
        -0.11372E-02
         0.52055E-03
         0.40187E-02
        -0.21522E-02
        -0.32441E-02
         0.42904E-02
         0.59605E-02
         0.92116E-02
        -0.36961E-03
        -0.42401E-02
        -0.84162E-02
        -0.12796E-01
        -0.83957E-02
        -0.39702E-02
         0.66594E-02
         0.77044E-02
         0.76861E-02
         0.39094E-02
        -0.13332E-02
        -0.58239E-02
        -0.75484E-02
        -0.96567E-02
        -0.78216E-02
         0.87368E-02
         0.31261E-02
         0.13437E-01
         0.17703E-01
         0.15984E-01
         0.13096E-01
         0.68577E-02
        -0.39584E-02
        -0.11267E-01
        -0.19619E-01
        -0.26019E-01
        -0.20245E-01
        -0.96444E-02
         0.10610E-02
         0.13229E-01
         0.15613E-01
         0.13618E-01
         0.13199E-01
         0.10965E-01
         0.64946E-02
        -0.15308E-02
        -0.11596E-01
        -0.16722E-01
        -0.16930E-01
        -0.16288E-01
        -0.73255E-02
         0.65851E-03
         0.29746E-02
         0.14761E-02
        -0.51776E-03
         0.90281E-03
        -0.24945E-02
         0.19417E-02
         0.47984E-03
         0.11651E-04
        -0.63170E-05
         0.11892E-02
         0.26061E-02
         0.34215E-02
         0.23590E-03
         0.18217E-02
        -0.41038E-03
        -0.11446E-02
        -0.24397E-03
        -0.55673E-03
        -0.15728E-02
         0.31069E-02
        -0.50900E-04
         0.39818E-02
         0.97023E-03
        -0.80152E-03
         0.17410E-02
        -0.99357E-03
        -0.18221E-02
        -0.25149E-02
        -0.22630E-02
         0.53532E-03
         0.24798E-02
        -0.40605E-03
        -0.11807E-02
         0.36825E-02
         0.49377E-02
         0.58852E-02
        -0.15714E-02
        -0.42254E-02
        -0.50943E-02
        -0.54476E-02
        -0.42533E-02
        -0.30063E-02
         0.48189E-02
         0.57503E-02
         0.47185E-02
         0.17782E-02
        -0.11854E-02
        -0.34874E-02
        -0.46341E-02
        -0.69168E-02
        -0.53445E-02
         0.70438E-02
         0.31958E-02
         0.10611E-01
         0.11407E-01
         0.95816E-02
         0.90848E-02
         0.67215E-02
        -0.61523E-03
        -0.59986E-02
        -0.79997E-02
        -0.10272E-01
        -0.88476E-02
        -0.36478E-02
         0.86629E-03
         0.10268E-01
         0.12571E-01
         0.11915E-01
         0.11721E-01
         0.68882E-02
         0.35717E-02
        -0.80687E-03
        -0.75336E-02
        -0.12019E-01
        -0.13360E-01
        -0.12524E-01
        -0.37040E-02
         0.65965E-03
         0.95911E-03
         0.21558E-03
         0.36978E-03
         0.64061E-03
         0.63147E-03
         0.25753E-03
        -0.24935E-03
         0.53507E-03
         0.45875E-03
        -0.82296E-03
         0.10166E-02
         0.20867E-02
        -0.13357E-02
        -0.65409E-03
        -0.54618E-03
        -0.10822E-02
         0.48973E-03
        -0.90184E-03
        -0.77461E-03
         0.17897E-02
         0.13011E-02
         0.14672E-02
        -0.10231E-03
         0.32304E-03
         0.30454E-03
        -0.12499E-03
         0.49548E-03
         0.93409E-03
        -0.93619E-04
         0.21834E-02
         0.14277E-02
         0.12979E-02
         0.42754E-03
        -0.22271E-03
         0.39250E-03
         0.19648E-02
        -0.93322E-04
        -0.25808E-03
        -0.69558E-03
        -0.21733E-03
         0.56646E-03
         0.42767E-03
         0.88614E-03
         0.20255E-03
        -0.19697E-03
         0.14032E-02
         0.16573E-02
         0.15999E-03
        -0.80702E-03
        -0.19680E-02
        -0.10002E-02
         0.10961E-03
         0.75788E-03
         0.25044E-02
         0.37878E-02
         0.58205E-02
         0.67764E-02
         0.36007E-02
         0.24972E-02
        -0.28174E-03
        -0.70366E-02
        -0.59178E-02
        -0.52056E-02
        -0.16736E-02
         0.18675E-04
         0.19718E-02
         0.40710E-02
         0.55953E-02
         0.19850E-02
        -0.10795E-02
         0.76785E-03
        -0.14004E-02
        -0.44069E-02
        -0.41986E-02
        -0.51254E-02
        -0.49955E-02
         0.19765E-03
        -0.35435E-03
         0.16210E-03
        -0.90505E-03
        -0.88589E-03
        -0.16618E-03
        -0.76107E-03
         0.57188E-03
        -0.11518E-03
         0.95446E-04
        -0.13943E-03
         0.44485E-03
         0.86080E-03
         0.13698E-02
         0.34272E-05
         0.37878E-03
         0.79178E-03
         0.52141E-03
         0.28286E-03
         0.13202E-02
         0.16820E-03
         0.18506E-02
         0.36103E-04
         0.15820E-02
         0.11804E-02
        -0.93555E-05
         0.50531E-04
        -0.43457E-03
        -0.90149E-03
        -0.81080E-03
        -0.11049E-02
         0.13297E-02
         0.38922E-03
         0.13895E-02
         0.68396E-03
         0.20907E-02
         0.22397E-02
         0.22985E-02
        -0.21965E-03
        -0.10625E-02
        -0.38557E-03
         0.10053E-02
        -0.93665E-03
        -0.16036E-02
         0.50562E-03
         0.17323E-02
         0.36168E-02
         0.19877E-02
         0.11321E-02
         0.68585E-04
        -0.74433E-03
        -0.13907E-02
        -0.76463E-03
         0.59257E-02
         0.16163E-02
         0.77595E-02
         0.41757E-02
         0.13616E-02
         0.17557E-02
         0.78943E-03
         0.53386E-03
         0.54131E-03
         0.40119E-03
         0.25479E-02
        -0.71812E-03
        -0.14504E-03
         0.14334E-02
         0.86008E-03
         0.16247E-02
         0.49169E-02
         0.85276E-02
         0.81225E-02
         0.35191E-02
        -0.45025E-03
        -0.54589E-02
        -0.71547E-02
        -0.49832E-02
        -0.42115E-02
        -0.12892E-02
        -0.45250E-03
        -0.99565E-03
        -0.25891E-03
        -0.42238E-04
         0.10416E-02
         0.13107E-03
        -0.78786E-03
        -0.54306E-03
        -0.78645E-03
        -0.55638E-03
        -0.32057E-03
         0.19879E-03
         0.16629E-04
        -0.53043E-03
        -0.25902E-03
         0.27232E-03
        -0.79281E-03
         0.31059E-04
        -0.26253E-03
        -0.97858E-04
        -0.27593E-03
        -0.68233E-03
         0.10460E-02
         0.34629E-03
        -0.16965E-03
         0.35018E-03
        -0.56214E-03
         0.21217E-03
         0.10866E-02
         0.36936E-03
         0.22082E-03
         0.26414E-03
        -0.31614E-03
        -0.34928E-03
         0.70352E-03
        -0.39255E-03
        -0.37497E-03
        -0.95425E-03
        -0.37931E-03
         0.17091E-02
         0.22251E-02
         0.10785E-02
         0.20333E-03
         0.58694E-03
         0.38358E-03
         0.65494E-03
         0.62179E-03
         0.19418E-03
        -0.63941E-03
        -0.46986E-03
         0.76290E-04
        -0.28993E-03
         0.11364E-02
         0.21587E-02
        -0.26502E-03
         0.20224E-02
         0.26607E-02
         0.64193E-03
         0.16220E-02
         0.20341E-02
        -0.21101E-02
         0.72938E-03
         0.51299E-03
        -0.22164E-02
        -0.12979E-02
        -0.11115E-02
         0.13654E-02
         0.26456E-02
         0.24866E-02
         0.11923E-02
         0.85136E-03
         0.20951E-02
         0.15300E-02
        -0.14649E-02
        -0.12673E-02
         0.48465E-03
        -0.83871E-03
         0.27211E-03
        -0.20480E-03
        -0.19941E-03
        -0.23599E-03
        -0.56573E-03
        -0.19471E-03
        -0.40649E-03
         0.41048E-04
         0.44576E-03
        -0.54906E-03
        -0.13884E-03
         0.28422E-03
         0.36622E-03
         0.69725E-03
         0.16456E-03
         0.13546E-03
         0.48188E-03
        -0.25069E-03
        -0.48992E-03
        -0.28266E-03
         0.11574E-03
         0.50799E-03
         0.19159E-03
         0.75778E-03
        -0.93391E-04
        -0.18237E-03
         0.26146E-03
        -0.17990E-03
         0.49632E-03
         0.10958E-02
         0.64515E-03
         0.53649E-03
         0.54194E-03
        -0.23807E-03
        -0.51701E-03
         0.98024E-03
         0.14897E-02
         0.14553E-02
        -0.55080E-03
         0.42167E-03
         0.15472E-02
         0.10372E-02
         0.53115E-03
         0.13994E-03
         0.10880E-02
         0.10427E-02
         0.75308E-03
         0.35950E-03
         0.78755E-04
        -0.35349E-03
        -0.25559E-03
         0.22074E-03
        -0.12748E-03
         0.16225E-02
         0.17515E-03
         0.45660E-02
         0.56350E-02
         0.30664E-02
         0.28586E-03
         0.13115E-02
         0.40388E-03
        -0.21724E-02
         0.41859E-03
         0.44612E-03
        -0.35587E-02
        -0.30433E-02
         0.11274E-02
         0.15624E-02
         0.12594E-02
         0.40673E-02
         0.39420E-02
         0.97931E-03
         0.32977E-03
         0.34329E-03
        -0.30566E-03
         0.79918E-03
         0.10671E-02
         0.78200E-04
        -0.31625E-03
        -0.36035E-03
        -0.31953E-03
        -0.47067E-03
        -0.20347E-03
        -0.40748E-03
        -0.54055E-03
        -0.64206E-03
        -0.48562E-03
        -0.40554E-03
        -0.50267E-03
        -0.12452E-02
        -0.16583E-02
        -0.11653E-02
        -0.74588E-03
        -0.30023E-03
        -0.10532E-02
        -0.12061E-03
        -0.33963E-03
        -0.12191E-02
        -0.58140E-03
         0.10786E-03
        -0.95747E-03
         0.14118E-03
        -0.95818E-03
         0.49431E-03
        -0.10317E-02
        -0.19965E-03
         0.34194E-03
         0.72060E-04
         0.33270E-03
        -0.22312E-03
        -0.62528E-03
         0.42994E-03
         0.46088E-03
         0.40470E-03
         0.37036E-03
        -0.32055E-03
         0.14012E-03
        -0.60822E-04
        -0.32799E-03
        -0.59934E-03
         0.73830E-04
        -0.67780E-03
        -0.69253E-04
        -0.82431E-03
        -0.13375E-02
        -0.65130E-03
         0.74230E-05
         0.21042E-03
         0.12385E-03
        -0.35272E-03
        -0.61408E-03
         0.17745E-02
        -0.17383E-03
         0.31240E-02
        -0.55160E-03
        -0.17019E-03
         0.90576E-03
         0.11187E-02
        -0.27742E-03
        -0.32272E-03
         0.16498E-02
         0.31651E-02
         0.42140E-02
        -0.22562E-02
        -0.78491E-03
         0.10713E-02
         0.56113E-03
         0.29389E-02
        -0.32944E-03
        -0.20911E-02
        -0.66167E-03
        -0.22134E-03
        -0.99609E-03
         0.16065E-03
        -0.60238E-03
        -0.16747E-02
        -0.34208E-03
        -0.79176E-03
         0.31367E-03
         0.40490E-03
        -0.14067E-02
         0.20183E-02
        -0.19077E-02
         0.60821E-03
         0.39321E-03
        -0.85083E-03
         0.72352E-03
        -0.62486E-03
        -0.18427E-02
         0.19103E-03
         0.35320E-03
         0.27239E-03
        -0.17584E-02
         0.36118E-03
        -0.18350E-02
        -0.11523E-02
         0.24614E-02
        -0.12162E-03
        -0.40042E-03
         0.13590E-02
        -0.30036E-03
         0.36081E-02
         0.86309E-03
         0.62308E-03
        -0.64114E-03
        -0.28067E-02
         0.32954E-02
         0.35950E-03
         0.17525E-02
        -0.47947E-03
        -0.50366E-03
         0.48835E-02
         0.37021E-02
         0.25656E-02
        -0.14021E-02
        -0.62815E-02
        -0.91603E-02
        -0.11883E-01
        -0.71115E-02
        -0.23817E-02
         0.31670E-02
         0.49827E-02
         0.54349E-02
         0.20585E-02
         0.12946E-02
        -0.49862E-03
        -0.31288E-02
        -0.31330E-02
        -0.30448E-02
         0.89354E-02
         0.61136E-02
         0.11065E-01
         0.72784E-02
         0.75653E-02
         0.63716E-02
         0.33800E-02
        -0.33848E-02
        -0.71224E-02
        -0.11481E-01
        -0.18352E-01
        -0.16938E-01
        -0.83165E-02
        -0.29627E-02
         0.54233E-02
         0.10357E-01
         0.10209E-01
         0.91834E-02
         0.10695E-01
         0.30576E-02
         0.98733E-04
        -0.71899E-03
        -0.63769E-02
        -0.43584E-02
        -0.76232E-02
        -0.12787E-02
  
SCALARS                      strain_eq  double 1
LOOKUP_TABLE default
         0.18475E+01
         0.15012E+01
         0.14045E+01
         0.17338E+01
         0.18849E+01
         0.15819E+01
         0.14385E+01
         0.18987E+01
         0.11185E+01
         0.12655E+01
         0.12445E+01
         0.15858E+01
         0.13921E+01
         0.16765E+01
         0.14469E+01
         0.17251E+01
         0.20519E+01
         0.18926E+01
         0.21100E+01
         0.19676E+01
         0.12756E+01
         0.10818E+01
         0.11915E+01
         0.12601E+01
         0.11804E+01
         0.13139E+01
         0.14560E+01
         0.11843E+01
         0.15290E+01
         0.14041E+01
         0.18180E+01
         0.19950E+01
         0.19979E+01
         0.19141E+01
         0.20750E+01
         0.21370E+01
         0.16008E+01
         0.17161E+01
         0.16327E+01
         0.19242E+01
         0.12429E+01
         0.13298E+01
         0.14235E+01
         0.15404E+01
         0.11819E+01
         0.13967E+01
         0.13193E+01
         0.13949E+01
         0.19186E+01
         0.20158E+01
         0.14226E+01
         0.14402E+01
         0.16002E+01
         0.18024E+01
         0.15972E+01
         0.17413E+01
         0.14126E+01
         0.16442E+01
         0.14289E+01
         0.18334E+01
         0.15994E+01
         0.12901E+01
         0.17670E+01
         0.13162E+01
         0.17081E+01
         0.19192E+01
         0.15501E+01
         0.16619E+01
         0.10461E+01
         0.11549E+01
         0.12161E+01
         0.13020E+01
         0.12590E+01
         0.14945E+01
         0.12787E+01
         0.15222E+01
         0.12932E+01
         0.15145E+01
         0.11607E+01
         0.13065E+01
         0.10752E+01
         0.12010E+01
         0.12485E+01
         0.13387E+01
         0.13235E+01
         0.15785E+01
         0.11740E+01
         0.13394E+01
         0.10782E+01
         0.12417E+01
         0.10215E+01
         0.10859E+01
         0.11966E+01
         0.12559E+01
         0.12363E+01
         0.15012E+01
         0.13030E+01
         0.15031E+01
         0.12458E+01
         0.13768E+01
         0.12071E+01
         0.12640E+01
         0.13314E+01
         0.13775E+01
         0.95170E+00
         0.91205E+00
         0.12099E+01
         0.11926E+01
         0.10439E+01
         0.12349E+01
         0.11799E+01
         0.13340E+01
         0.10591E+01
         0.12505E+01
         0.93496E+00
         0.11863E+01
         0.96420E+00
         0.12952E+01
         0.10039E+01
         0.13200E+01
         0.11177E+01
         0.14549E+01
         0.10982E+01
         0.13870E+01
         0.10449E+01
         0.12823E+01
         0.11344E+01
         0.14255E+01
         0.11204E+01
         0.14438E+01
         0.98559E+00
         0.12881E+01
         0.97251E+00
         0.12545E+01
         0.10549E+01
         0.12560E+01
         0.11638E+01
         0.13270E+01
         0.10087E+01
         0.12574E+01
         0.10331E+01
         0.12618E+01
         0.10106E+01
         0.12957E+01
         0.99302E+00
         0.12808E+01
         0.10957E+01
         0.13280E+01
         0.11218E+01
         0.13662E+01
         0.11256E+01
         0.13534E+01
         0.11176E+01
         0.13428E+01
         0.10479E+01
         0.13683E+01
         0.17678E+01
         0.14433E+01
         0.13257E+01
         0.16499E+01
         0.10086E+01
         0.11389E+01
         0.13279E+01
         0.15897E+01
         0.19201E+01
         0.17996E+01
         0.11922E+01
         0.96659E+00
         0.11010E+01
         0.13477E+01
         0.10475E+01
         0.17179E+01
         0.18768E+01
         0.18982E+01
         0.15042E+01
         0.15965E+01
         0.11292E+01
         0.11902E+01
         0.11055E+01
         0.13366E+01
         0.17963E+01
         0.13646E+01
         0.14869E+01
         0.14824E+01
         0.13160E+01
         0.15252E+01
         0.15017E+01
         0.12227E+01
         0.15923E+01
         0.14304E+01
         0.89872E+00
         0.10541E+01
         0.11750E+01
         0.11345E+01
         0.11452E+01
         0.10427E+01
         0.93754E+00
         0.10701E+01
         0.11649E+01
         0.11029E+01
         0.96898E+00
         0.84978E+00
         0.97164E+00
         0.11240E+01
         0.11865E+01
         0.11134E+01
         0.10513E+01
         0.11493E+01
         0.68608E+00
         0.66004E+00
         0.81149E+00
         0.97843E+00
         0.87325E+00
         0.68377E+00
         0.70387E+00
         0.73116E+00
         0.84300E+00
         0.86400E+00
         0.80929E+00
         0.88515E+00
         0.83606E+00
         0.74710E+00
         0.70673E+00
         0.82550E+00
         0.96211E+00
         0.75738E+00
         0.71183E+00
         0.74272E+00
         0.72207E+00
         0.85769E+00
         0.91034E+00
         0.91607E+00
         0.92251E+00
         0.77279E+00
         0.16165E+01
         0.13266E+01
         0.12178E+01
         0.15099E+01
         0.92281E+00
         0.10310E+01
         0.12309E+01
         0.14706E+01
         0.17044E+01
         0.16424E+01
         0.11077E+01
         0.89604E+00
         0.99517E+00
         0.12389E+01
         0.95318E+00
         0.15709E+01
         0.16889E+01
         0.17041E+01
         0.13813E+01
         0.14544E+01
         0.10334E+01
         0.10732E+01
         0.10083E+01
         0.12269E+01
         0.16400E+01
         0.12555E+01
         0.13576E+01
         0.13544E+01
         0.11936E+01
         0.13846E+01
         0.13735E+01
         0.11208E+01
         0.14392E+01
         0.12951E+01
         0.81553E+00
         0.95353E+00
         0.10543E+01
         0.10137E+01
         0.10277E+01
         0.94279E+00
         0.85077E+00
         0.96742E+00
         0.10491E+01
         0.99914E+00
         0.87594E+00
         0.76583E+00
         0.88230E+00
         0.10207E+01
         0.10625E+01
         0.99358E+00
         0.93230E+00
         0.10286E+01
         0.62347E+00
         0.59235E+00
         0.71004E+00
         0.82672E+00
         0.76199E+00
         0.62720E+00
         0.63198E+00
         0.67565E+00
         0.75680E+00
         0.77980E+00
         0.74227E+00
         0.78283E+00
         0.74173E+00
         0.67254E+00
         0.65363E+00
         0.72804E+00
         0.81955E+00
         0.65969E+00
         0.62675E+00
         0.64892E+00
         0.65354E+00
         0.74777E+00
         0.78043E+00
         0.78706E+00
         0.80828E+00
         0.67599E+00
         0.13958E+01
         0.11593E+01
         0.10748E+01
         0.13272E+01
         0.85645E+00
         0.93607E+00
         0.10840E+01
         0.12788E+01
         0.14330E+01
         0.14224E+01
         0.98479E+00
         0.82658E+00
         0.90044E+00
         0.10976E+01
         0.86167E+00
         0.13543E+01
         0.14522E+01
         0.14748E+01
         0.12010E+01
         0.12767E+01
         0.91799E+00
         0.95605E+00
         0.89838E+00
         0.10713E+01
         0.14386E+01
         0.10938E+01
         0.11996E+01
         0.11835E+01
         0.10320E+01
         0.12152E+01
         0.12107E+01
         0.98875E+00
         0.12583E+01
         0.11253E+01
         0.78045E+00
         0.86678E+00
         0.94376E+00
         0.90409E+00
         0.90876E+00
         0.84226E+00
         0.79947E+00
         0.86067E+00
         0.93229E+00
         0.89356E+00
         0.81115E+00
         0.75346E+00
         0.82403E+00
         0.92518E+00
         0.94006E+00
         0.87871E+00
         0.84997E+00
         0.92720E+00
         0.72170E+00
         0.71482E+00
         0.78802E+00
         0.80863E+00
         0.77086E+00
         0.72527E+00
         0.71436E+00
         0.74181E+00
         0.81195E+00
         0.88774E+00
         0.89392E+00
         0.85970E+00
         0.77677E+00
         0.72635E+00
         0.74131E+00
         0.77324E+00
         0.81541E+00
         0.75677E+00
         0.71405E+00
         0.73173E+00
         0.75669E+00
         0.78700E+00
         0.82241E+00
         0.81045E+00
         0.83415E+00
         0.75016E+00
         0.11562E+01
         0.97586E+00
         0.91668E+00
         0.11138E+01
         0.78267E+00
         0.82150E+00
         0.91386E+00
         0.10597E+01
         0.11688E+01
         0.11669E+01
         0.84978E+00
         0.78146E+00
         0.80726E+00
         0.93530E+00
         0.79959E+00
         0.11291E+01
         0.11923E+01
         0.12200E+01
         0.10051E+01
         0.10716E+01
         0.80595E+00
         0.84338E+00
         0.78743E+00
         0.89771E+00
         0.11784E+01
         0.92128E+00
         0.10130E+01
         0.99177E+00
         0.87410E+00
         0.10153E+01
         0.10219E+01
         0.85119E+00
         0.10596E+01
         0.95288E+00
         0.75782E+00
         0.79022E+00
         0.82930E+00
         0.81815E+00
         0.82020E+00
         0.79157E+00
         0.80302E+00
         0.79361E+00
         0.83015E+00
         0.79100E+00
         0.76306E+00
         0.75647E+00
         0.76360E+00
         0.81513E+00
         0.82192E+00
         0.79060E+00
         0.79301E+00
         0.82038E+00
         0.82438E+00
         0.83988E+00
         0.85276E+00
         0.83217E+00
         0.85028E+00
         0.87516E+00
         0.82564E+00
         0.81720E+00
         0.86967E+00
         0.94420E+00
         0.96566E+00
         0.91371E+00
         0.83978E+00
         0.80276E+00
         0.84653E+00
         0.86599E+00
         0.87256E+00
         0.87166E+00
         0.82110E+00
         0.82692E+00
         0.84092E+00
         0.82831E+00
         0.86423E+00
         0.86165E+00
         0.87393E+00
         0.84524E+00
         0.90991E+00
         0.79867E+00
         0.76769E+00
         0.89158E+00
         0.73512E+00
         0.73290E+00
         0.76678E+00
         0.83656E+00
         0.92235E+00
         0.91252E+00
         0.74288E+00
         0.76855E+00
         0.76734E+00
         0.77240E+00
         0.75511E+00
         0.89636E+00
         0.93851E+00
         0.96575E+00
         0.81022E+00
         0.85199E+00
         0.72735E+00
         0.74029E+00
         0.73307E+00
         0.75174E+00
         0.91505E+00
         0.76411E+00
         0.81525E+00
         0.78927E+00
         0.72171E+00
         0.80823E+00
         0.82839E+00
         0.73473E+00
         0.85084E+00
         0.78472E+00
         0.76217E+00
         0.74590E+00
         0.75762E+00
         0.75555E+00
         0.75289E+00
         0.75372E+00
         0.81559E+00
         0.75899E+00
         0.75021E+00
         0.73694E+00
         0.75658E+00
         0.79954E+00
         0.74348E+00
         0.72962E+00
         0.72588E+00
         0.73439E+00
         0.77380E+00
         0.74775E+00
         0.91974E+00
         0.93911E+00
         0.93819E+00
         0.91619E+00
         0.95454E+00
         0.97865E+00
         0.90130E+00
         0.86960E+00
         0.91916E+00
         0.10053E+01
         0.10139E+01
         0.96702E+00
         0.88899E+00
         0.86198E+00
         0.92757E+00
         0.96535E+00
         0.97266E+00
         0.10002E+01
         0.93767E+00
         0.93045E+00
         0.92146E+00
         0.90759E+00
         0.93651E+00
         0.92214E+00
         0.93908E+00
         0.93745E+00
         0.69634E+00
         0.64028E+00
         0.62640E+00
         0.67958E+00
         0.68556E+00
         0.65725E+00
         0.64618E+00
         0.66188E+00
         0.70311E+00
         0.69091E+00
         0.65896E+00
         0.73521E+00
         0.71612E+00
         0.65312E+00
         0.71325E+00
         0.69262E+00
         0.70923E+00
         0.73030E+00
         0.65206E+00
         0.66162E+00
         0.66482E+00
         0.65693E+00
         0.68412E+00
         0.63855E+00
         0.67571E+00
         0.63421E+00
         0.64952E+00
         0.62640E+00
         0.62867E+00
         0.63611E+00
         0.64905E+00
         0.62969E+00
         0.66113E+00
         0.63660E+00
         0.75070E+00
         0.70209E+00
         0.69186E+00
         0.69772E+00
         0.69885E+00
         0.74477E+00
         0.82831E+00
         0.73552E+00
         0.68068E+00
         0.69399E+00
         0.74156E+00
         0.80544E+00
         0.70546E+00
         0.65118E+00
         0.64877E+00
         0.68770E+00
         0.75459E+00
         0.69063E+00
         0.96611E+00
         0.97585E+00
         0.98208E+00
         0.95460E+00
         0.99378E+00
         0.10007E+01
         0.91717E+00
         0.89256E+00
         0.92792E+00
         0.99772E+00
         0.98600E+00
         0.96064E+00
         0.90194E+00
         0.88655E+00
         0.93829E+00
         0.97137E+00
         0.10009E+01
         0.10619E+01
         0.98824E+00
         0.96128E+00
         0.94597E+00
         0.93186E+00
         0.95750E+00
         0.95302E+00
         0.96207E+00
         0.96115E+00
         0.50532E+00
         0.50301E+00
         0.51142E+00
         0.49170E+00
         0.63886E+00
         0.59423E+00
         0.53717E+00
         0.50721E+00
         0.51543E+00
         0.50410E+00
         0.57426E+00
         0.68249E+00
         0.66098E+00
         0.54171E+00
         0.64854E+00
         0.51113E+00
         0.51244E+00
         0.51987E+00
         0.50957E+00
         0.49432E+00
         0.60077E+00
         0.57672E+00
         0.62948E+00
         0.53541E+00
         0.48724E+00
         0.52205E+00
         0.50579E+00
         0.49832E+00
         0.54275E+00
         0.49147E+00
         0.49342E+00
         0.53877E+00
         0.49028E+00
         0.50651E+00
         0.72494E+00
         0.66318E+00
         0.63647E+00
         0.61525E+00
         0.62052E+00
         0.68728E+00
         0.77149E+00
         0.67063E+00
         0.59834E+00
         0.64648E+00
         0.70937E+00
         0.78385E+00
         0.66095E+00
         0.58545E+00
         0.58224E+00
         0.63991E+00
         0.72443E+00
         0.63829E+00
         0.94359E+00
         0.94893E+00
         0.98037E+00
         0.97510E+00
         0.99529E+00
         0.97859E+00
         0.90756E+00
         0.87473E+00
         0.89078E+00
         0.95003E+00
         0.93194E+00
         0.92921E+00
         0.87828E+00
         0.86333E+00
         0.92329E+00
         0.96830E+00
         0.99999E+00
         0.10592E+01
         0.98523E+00
         0.94783E+00
         0.93462E+00
         0.91969E+00
         0.94126E+00
         0.94574E+00
         0.94518E+00
         0.94009E+00
         0.37256E+00
         0.41187E+00
         0.42946E+00
         0.36469E+00
         0.56565E+00
         0.51876E+00
         0.45549E+00
         0.39636E+00
         0.36798E+00
         0.36515E+00
         0.49476E+00
         0.60497E+00
         0.59396E+00
         0.44874E+00
         0.56844E+00
         0.38263E+00
         0.36139E+00
         0.36544E+00
         0.40922E+00
         0.37457E+00
         0.53031E+00
         0.50391E+00
         0.56258E+00
         0.46251E+00
         0.35389E+00
         0.44524E+00
         0.39955E+00
         0.40767E+00
         0.47492E+00
         0.39223E+00
         0.39291E+00
         0.46676E+00
         0.37752E+00
         0.41410E+00
         0.65165E+00
         0.59607E+00
         0.57020E+00
         0.54344E+00
         0.55172E+00
         0.61674E+00
         0.69267E+00
         0.60395E+00
         0.53009E+00
         0.57813E+00
         0.63710E+00
         0.70661E+00
         0.59129E+00
         0.51453E+00
         0.51112E+00
         0.56941E+00
         0.64758E+00
         0.56336E+00
         0.85466E+00
         0.83632E+00
         0.89567E+00
         0.89542E+00
         0.90618E+00
         0.88166E+00
         0.83420E+00
         0.81539E+00
         0.80633E+00
         0.82267E+00
         0.80750E+00
         0.81580E+00
         0.79225E+00
         0.79101E+00
         0.83561E+00
         0.87362E+00
         0.90831E+00
         0.96401E+00
         0.89146E+00
         0.85652E+00
         0.84672E+00
         0.82943E+00
         0.84133E+00
         0.84712E+00
         0.84324E+00
         0.82591E+00
         0.27645E+00
         0.34183E+00
         0.36477E+00
         0.27948E+00
         0.48300E+00
         0.43691E+00
         0.38297E+00
         0.31555E+00
         0.25523E+00
         0.27108E+00
         0.42028E+00
         0.51269E+00
         0.50360E+00
         0.37319E+00
         0.48127E+00
         0.29050E+00
         0.25918E+00
         0.25142E+00
         0.34057E+00
         0.29975E+00
         0.46532E+00
         0.43936E+00
         0.48887E+00
         0.40163E+00
         0.27174E+00
         0.38084E+00
         0.32669E+00
         0.34123E+00
         0.40047E+00
         0.32223E+00
         0.32268E+00
         0.40057E+00
         0.29945E+00
         0.33869E+00
         0.55853E+00
         0.51577E+00
         0.48812E+00
         0.46625E+00
         0.47485E+00
         0.51828E+00
         0.57031E+00
         0.50600E+00
         0.45594E+00
         0.49604E+00
         0.54351E+00
         0.59830E+00
         0.50552E+00
         0.43870E+00
         0.43397E+00
         0.48588E+00
         0.55157E+00
         0.47631E+00
         0.70100E+00
         0.68645E+00
         0.75814E+00
         0.77817E+00
         0.77105E+00
         0.74362E+00
         0.71906E+00
         0.69686E+00
         0.66592E+00
         0.65956E+00
         0.65068E+00
         0.66688E+00
         0.66343E+00
         0.66957E+00
         0.70975E+00
         0.74235E+00
         0.76770E+00
         0.80099E+00
         0.72852E+00
         0.71246E+00
         0.72312E+00
         0.71022E+00
         0.71395E+00
         0.71397E+00
         0.71291E+00
         0.69172E+00
         0.21849E+00
         0.28307E+00
         0.30442E+00
         0.22960E+00
         0.38652E+00
         0.35067E+00
         0.31156E+00
         0.25441E+00
         0.18478E+00
         0.20976E+00
         0.33744E+00
         0.40049E+00
         0.39510E+00
         0.30169E+00
         0.38045E+00
         0.23502E+00
         0.19817E+00
         0.18720E+00
         0.28067E+00
         0.24490E+00
         0.37342E+00
         0.35628E+00
         0.38427E+00
         0.32968E+00
         0.21651E+00
         0.31544E+00
         0.26339E+00
         0.27477E+00
         0.31826E+00
         0.25987E+00
         0.27240E+00
         0.32769E+00
         0.25002E+00
         0.27741E+00
         0.43809E+00
         0.40967E+00
         0.38724E+00
         0.37041E+00
         0.37674E+00
         0.40670E+00
         0.44200E+00
         0.39717E+00
         0.36384E+00
         0.38624E+00
         0.41979E+00
         0.46040E+00
         0.39790E+00
         0.35189E+00
         0.34832E+00
         0.38157E+00
         0.42489E+00
         0.37499E+00
         0.53740E+00
         0.52498E+00
         0.59110E+00
         0.61074E+00
         0.59655E+00
         0.57484E+00
         0.56884E+00
         0.55329E+00
         0.53018E+00
         0.51291E+00
         0.48769E+00
         0.52456E+00
         0.52504E+00
         0.52882E+00
         0.55235E+00
         0.57210E+00
         0.58601E+00
         0.60561E+00
         0.55509E+00
         0.55433E+00
         0.56719E+00
         0.55283E+00
         0.54586E+00
         0.53642E+00
         0.54543E+00
         0.52534E+00
         0.17668E+00
         0.22027E+00
         0.23654E+00
         0.18711E+00
         0.29196E+00
         0.26848E+00
         0.23735E+00
         0.19998E+00
         0.14952E+00
         0.16800E+00
         0.25402E+00
         0.29400E+00
         0.29069E+00
         0.23128E+00
         0.28340E+00
         0.18884E+00
         0.16078E+00
         0.15413E+00
         0.22186E+00
         0.19712E+00
         0.28181E+00
         0.27554E+00
         0.28379E+00
         0.25373E+00
         0.17563E+00
         0.24267E+00
         0.20716E+00
         0.21703E+00
         0.24519E+00
         0.20731E+00
         0.21599E+00
         0.24938E+00
         0.20284E+00
         0.22143E+00
         0.32162E+00
         0.30255E+00
         0.28597E+00
         0.28425E+00
         0.29056E+00
         0.30827E+00
         0.33143E+00
         0.30019E+00
         0.28177E+00
         0.28360E+00
         0.30700E+00
         0.33525E+00
         0.29501E+00
         0.26566E+00
         0.26550E+00
         0.28945E+00
         0.31678E+00
         0.28439E+00
         0.37945E+00
         0.37878E+00
         0.42814E+00
         0.45201E+00
         0.44011E+00
         0.42421E+00
         0.42364E+00
         0.41213E+00
         0.38984E+00
         0.38319E+00
         0.36777E+00
         0.38784E+00
         0.39109E+00
         0.40091E+00
         0.41432E+00
         0.43103E+00
         0.43714E+00
         0.44382E+00
         0.39588E+00
         0.40287E+00
         0.42327E+00
         0.41020E+00
         0.39883E+00
         0.38212E+00
         0.39878E+00
         0.38784E+00
         0.14095E+00
         0.16639E+00
         0.17682E+00
         0.15044E+00
         0.20874E+00
         0.19409E+00
         0.17613E+00
         0.15320E+00
         0.12759E+00
         0.13940E+00
         0.18603E+00
         0.21002E+00
         0.20838E+00
         0.17184E+00
         0.20148E+00
         0.14576E+00
         0.13539E+00
         0.13023E+00
         0.16529E+00
         0.15317E+00
         0.20209E+00
         0.19707E+00
         0.20389E+00
         0.18671E+00
         0.14513E+00
         0.17918E+00
         0.15862E+00
         0.16612E+00
         0.18172E+00
         0.16008E+00
         0.16403E+00
         0.18145E+00
         0.15914E+00
         0.16983E+00
         0.22448E+00
         0.21373E+00
         0.20335E+00
         0.20432E+00
         0.21098E+00
         0.22234E+00
         0.23624E+00
         0.21561E+00
         0.20250E+00
         0.20184E+00
         0.21308E+00
         0.22967E+00
         0.20509E+00
         0.18757E+00
         0.18910E+00
         0.20339E+00
         0.21936E+00
         0.20269E+00
         0.25944E+00
         0.26073E+00
         0.29810E+00
         0.31263E+00
         0.30231E+00
         0.29488E+00
         0.29224E+00
         0.28488E+00
         0.27351E+00
         0.26984E+00
         0.25875E+00
         0.27605E+00
         0.27545E+00
         0.27754E+00
         0.28657E+00
         0.29524E+00
         0.29434E+00
         0.30044E+00
         0.26583E+00
         0.27897E+00
         0.29586E+00
         0.28304E+00
         0.27028E+00
         0.25578E+00
         0.27343E+00
         0.26563E+00
         0.10798E+00
         0.12060E+00
         0.12618E+00
         0.11156E+00
         0.14830E+00
         0.13798E+00
         0.12685E+00
         0.11362E+00
         0.10169E+00
         0.10863E+00
         0.13069E+00
         0.14520E+00
         0.14585E+00
         0.12142E+00
         0.13846E+00
         0.10875E+00
         0.10588E+00
         0.10209E+00
         0.11903E+00
         0.11327E+00
         0.14227E+00
         0.13800E+00
         0.14293E+00
         0.13050E+00
         0.10978E+00
         0.12618E+00
         0.11183E+00
         0.11667E+00
         0.12700E+00
         0.11645E+00
         0.11773E+00
         0.12841E+00
         0.11533E+00
         0.12300E+00
         0.15861E+00
         0.14806E+00
         0.13949E+00
         0.13807E+00
         0.14254E+00
         0.15238E+00
         0.16401E+00
         0.14979E+00
         0.14009E+00
         0.14308E+00
         0.14612E+00
         0.15762E+00
         0.14364E+00
         0.13387E+00
         0.13643E+00
         0.14817E+00
         0.16191E+00
         0.14695E+00
         0.18621E+00
         0.18882E+00
         0.20396E+00
         0.21113E+00
         0.20642E+00
         0.20063E+00
         0.20052E+00
         0.20188E+00
         0.19338E+00
         0.19226E+00
         0.17640E+00
         0.19795E+00
         0.19500E+00
         0.20190E+00
         0.20495E+00
         0.20638E+00
         0.20641E+00
         0.20734E+00
         0.18371E+00
         0.19501E+00
         0.20978E+00
         0.20657E+00
         0.20083E+00
         0.19370E+00
         0.20360E+00
         0.19221E+00
         0.76833E-01
         0.84357E-01
         0.87309E-01
         0.78708E-01
         0.10023E+00
         0.92118E-01
         0.87180E-01
         0.79700E-01
         0.70644E-01
         0.78982E-01
         0.89080E-01
         0.96078E-01
         0.97693E-01
         0.83947E-01
         0.91666E-01
         0.73455E-01
         0.74384E-01
         0.71622E-01
         0.79485E-01
         0.77492E-01
         0.91255E-01
         0.88307E-01
         0.93850E-01
         0.88457E-01
         0.79736E-01
         0.85127E-01
         0.79203E-01
         0.82881E-01
         0.88144E-01
         0.80913E-01
         0.79812E-01
         0.86804E-01
         0.78477E-01
         0.82963E-01
         0.10503E+00
         0.98870E-01
         0.92426E-01
         0.92928E-01
         0.96024E-01
         0.10449E+00
         0.11562E+00
         0.10301E+00
         0.93199E-01
         0.96422E-01
         0.98460E-01
         0.10763E+00
         0.97948E-01
         0.91610E-01
         0.91433E-01
         0.96023E-01
         0.10330E+00
         0.95829E-01
         0.12124E+00
         0.12669E+00
         0.13557E+00
         0.14331E+00
         0.13728E+00
         0.13005E+00
         0.13151E+00
         0.13146E+00
         0.12839E+00
         0.13438E+00
         0.12612E+00
         0.13766E+00
         0.12971E+00
         0.12775E+00
         0.13064E+00
         0.13834E+00
         0.14483E+00
         0.14704E+00
         0.12609E+00
         0.14092E+00
         0.14367E+00
         0.13249E+00
         0.12634E+00
         0.12038E+00
         0.12891E+00
         0.12619E+00
         0.48744E-01
         0.54445E-01
         0.55243E-01
         0.50418E-01
         0.64902E-01
         0.58845E-01
         0.57764E-01
         0.50707E-01
         0.44574E-01
         0.53298E-01
         0.58944E-01
         0.67053E-01
         0.69773E-01
         0.54610E-01
         0.62511E-01
         0.45830E-01
         0.49477E-01
         0.48699E-01
         0.52683E-01
         0.53056E-01
         0.62989E-01
         0.59875E-01
         0.66531E-01
         0.58499E-01
         0.51933E-01
         0.54104E-01
         0.50796E-01
         0.52370E-01
         0.55578E-01
         0.53099E-01
         0.47436E-01
         0.54943E-01
         0.47762E-01
         0.54125E-01
         0.70796E-01
         0.66100E-01
         0.63250E-01
         0.60675E-01
         0.62799E-01
         0.67483E-01
         0.75313E-01
         0.66282E-01
         0.61056E-01
         0.69977E-01
         0.66462E-01
         0.71413E-01
         0.64929E-01
         0.62114E-01
         0.62465E-01
         0.67419E-01
         0.75225E-01
         0.66119E-01
         0.86196E-01
         0.86357E-01
         0.91793E-01
         0.94658E-01
         0.89827E-01
         0.85623E-01
         0.88560E-01
         0.86633E-01
         0.86962E-01
         0.93393E-01
         0.95512E-01
         0.92407E-01
         0.87511E-01
         0.87541E-01
         0.89122E-01
         0.89256E-01
         0.91428E-01
         0.96662E-01
         0.88899E-01
         0.92788E-01
         0.94871E-01
         0.92773E-01
         0.92698E-01
         0.92378E-01
         0.96513E-01
         0.87719E-01
         0.24112E-01
         0.28438E-01
         0.31254E-01
         0.27078E-01
         0.39586E-01
         0.34882E-01
         0.30845E-01
         0.22001E-01
         0.20358E-01
         0.24959E-01
         0.31835E-01
         0.40767E-01
         0.41488E-01
         0.25691E-01
         0.36395E-01
         0.23028E-01
         0.22489E-01
         0.27809E-01
         0.24773E-01
         0.22870E-01
         0.33997E-01
         0.31814E-01
         0.38513E-01
         0.34046E-01
         0.22441E-01
         0.31010E-01
         0.23392E-01
         0.23370E-01
         0.25421E-01
         0.23143E-01
         0.28043E-01
         0.32147E-01
         0.29218E-01
         0.30879E-01
         0.43568E-01
         0.38847E-01
         0.35390E-01
         0.34634E-01
         0.34005E-01
         0.36687E-01
         0.44078E-01
         0.36477E-01
         0.32534E-01
         0.43569E-01
         0.38760E-01
         0.42431E-01
         0.38109E-01
         0.36098E-01
         0.36041E-01
         0.39522E-01
         0.44564E-01
         0.39196E-01
         0.54533E-01
         0.54644E-01
         0.61397E-01
         0.65995E-01
         0.59735E-01
         0.57062E-01
         0.61655E-01
         0.57391E-01
         0.56292E-01
         0.59755E-01
         0.61522E-01
         0.59203E-01
         0.55494E-01
         0.55927E-01
         0.57090E-01
         0.62072E-01
         0.62728E-01
         0.59778E-01
         0.51041E-01
         0.64052E-01
         0.64482E-01
         0.61790E-01
         0.60378E-01
         0.56492E-01
         0.59482E-01
         0.53384E-01
         0.15765E-01
         0.16406E-01
         0.17848E-01
         0.15494E-01
         0.24526E-01
         0.21271E-01
         0.19541E-01
         0.14319E-01
         0.13177E-01
         0.16137E-01
         0.19885E-01
         0.23334E-01
         0.24253E-01
         0.17652E-01
         0.19647E-01
         0.13825E-01
         0.14245E-01
         0.19276E-01
         0.13801E-01
         0.12781E-01
         0.19277E-01
         0.17226E-01
         0.22704E-01
         0.24672E-01
         0.13196E-01
         0.18839E-01
         0.16998E-01
         0.16500E-01
         0.17277E-01
         0.14780E-01
         0.17984E-01
         0.17359E-01
         0.19880E-01
         0.18221E-01
         0.26077E-01
         0.22027E-01
         0.19872E-01
         0.20239E-01
         0.20107E-01
         0.23434E-01
         0.28739E-01
         0.22674E-01
         0.18436E-01
         0.26755E-01
         0.21842E-01
         0.26871E-01
         0.24437E-01
         0.24344E-01
         0.22949E-01
         0.23573E-01
         0.27921E-01
         0.24452E-01
         0.34844E-01
         0.36258E-01
         0.39293E-01
         0.45555E-01
         0.40684E-01
         0.37679E-01
         0.41629E-01
         0.34894E-01
         0.32651E-01
         0.34767E-01
         0.32596E-01
         0.36954E-01
         0.28606E-01
         0.30999E-01
         0.37464E-01
         0.42931E-01
         0.47575E-01
         0.44613E-01
         0.33923E-01
         0.47110E-01
         0.43827E-01
         0.38860E-01
         0.36850E-01
         0.36883E-01
         0.40647E-01
         0.35839E-01
         0.80151E-02
         0.70601E-02
         0.85975E-02
         0.73044E-02
         0.11342E-01
         0.10677E-01
         0.90013E-02
         0.61319E-02
         0.83581E-02
         0.10284E-01
         0.73408E-02
         0.98556E-02
         0.12037E-01
         0.82401E-02
         0.79084E-02
         0.77688E-02
         0.90569E-02
         0.14426E-01
         0.58793E-02
         0.67764E-02
         0.90029E-02
         0.79674E-02
         0.10050E-01
         0.18752E-01
         0.83880E-02
         0.12253E-01
         0.11053E-01
         0.89002E-02
         0.61749E-02
         0.66677E-02
         0.11888E-01
         0.74697E-02
         0.14445E-01
         0.94135E-02
         0.11202E-01
         0.98427E-02
         0.78433E-02
         0.85714E-02
         0.85146E-02
         0.72333E-02
         0.10145E-01
         0.79928E-02
         0.74759E-02
         0.13720E-01
         0.95514E-02
         0.13987E-01
         0.11350E-01
         0.14329E-01
         0.10952E-01
         0.90166E-02
         0.12051E-01
         0.11361E-01
         0.11595E-01
         0.12514E-01
         0.18931E-01
         0.24527E-01
         0.18295E-01
         0.20459E-01
         0.27141E-01
         0.22427E-01
         0.17119E-01
         0.20945E-01
         0.22270E-01
         0.22256E-01
         0.16231E-01
         0.15822E-01
         0.16513E-01
         0.20467E-01
         0.28441E-01
         0.26831E-01
         0.15930E-01
         0.31737E-01
         0.25531E-01
         0.25043E-01
         0.20043E-01
         0.17430E-01
         0.21781E-01
         0.16660E-01
         0.49222E-02
         0.71980E-02
         0.45396E-02
         0.42998E-02
         0.10237E-01
         0.10190E-01
         0.65638E-02
         0.44043E-02
         0.27497E-02
         0.72268E-02
         0.70802E-02
         0.64082E-02
         0.94083E-02
         0.75238E-02
         0.45963E-02
         0.54700E-02
         0.43959E-02
         0.11880E-01
         0.39279E-02
         0.34010E-02
         0.69019E-02
         0.61813E-02
         0.10487E-01
         0.19905E-01
         0.54636E-02
         0.12532E-01
         0.11259E-01
         0.98584E-02
         0.78325E-02
         0.60365E-02
         0.12006E-01
         0.46247E-02
         0.15672E-01
         0.96172E-02
         0.10762E-01
         0.73178E-02
         0.66045E-02
         0.70144E-02
         0.66688E-02
         0.88395E-02
         0.11706E-01
         0.89209E-02
         0.73503E-02
         0.96937E-02
         0.80061E-02
         0.13146E-01
         0.65210E-02
         0.85416E-02
         0.67156E-02
         0.72799E-02
         0.11236E-01
         0.10118E-01
         0.17282E-01
         0.14766E-01
         0.19458E-01
         0.19792E-01
         0.13238E-01
         0.11801E-01
         0.14261E-01
         0.10128E-01
         0.11032E-01
         0.91912E-02
         0.12884E-01
         0.12441E-01
         0.91451E-02
         0.72545E-02
         0.99570E-02
         0.13841E-01
         0.27511E-01
         0.30499E-01
         0.15688E-01
         0.37800E-01
         0.27521E-01
         0.27330E-01
         0.20746E-01
         0.14648E-01
         0.16884E-01
         0.14773E-01
         0.32746E-02
         0.44272E-02
         0.53205E-02
         0.30907E-02
         0.58937E-02
         0.36384E-02
         0.54142E-02
         0.58891E-02
         0.48596E-02
         0.53222E-02
         0.38537E-02
         0.39563E-02
         0.58171E-02
         0.85562E-02
         0.35943E-02
         0.38563E-02
         0.44134E-02
         0.82347E-02
         0.36925E-02
         0.21151E-02
         0.54339E-02
         0.34013E-02
         0.68460E-02
         0.17482E-01
         0.57950E-02
         0.10793E-01
         0.11921E-01
         0.82202E-02
         0.39979E-02
         0.41000E-02
         0.93905E-02
         0.39778E-02
         0.13197E-01
         0.69392E-02
         0.61414E-02
         0.28884E-02
         0.32998E-02
         0.40683E-02
         0.60077E-02
         0.52617E-02
         0.61441E-02
         0.45083E-02
         0.30178E-02
         0.11007E-01
         0.41643E-02
         0.94249E-02
         0.60972E-02
         0.97053E-02
         0.66186E-02
         0.36187E-02
         0.43310E-02
         0.37949E-02
         0.57009E-02
         0.63859E-02
         0.11223E-01
         0.18191E-01
         0.10128E-01
         0.13083E-01
         0.15139E-01
         0.13022E-01
         0.67358E-02
         0.82035E-02
         0.13576E-01
         0.87895E-02
         0.57411E-02
         0.39346E-02
         0.71838E-02
         0.11158E-01
         0.20170E-01
         0.18606E-01
         0.95813E-02
         0.26726E-01
         0.12127E-01
         0.15929E-01
         0.27977E-02
         0.11115E-01
         0.35602E-02
         0.47232E-02
         0.23592E-02
         0.50574E-02
         0.34736E-02
         0.37908E-02
         0.41790E-02
         0.45351E-02
         0.50311E-02
         0.52761E-02
         0.29151E-02
         0.51293E-02
         0.46880E-02
         0.26747E-02
         0.46712E-02
         0.89044E-02
         0.31418E-02
         0.38583E-02
         0.34973E-02
         0.92620E-02
         0.35323E-02
         0.11375E-02
         0.54716E-02
         0.21264E-02
         0.63960E-02
         0.17793E-01
         0.38758E-02
         0.11141E-01
         0.11578E-01
         0.70669E-02
         0.24226E-02
         0.26299E-02
         0.11476E-01
         0.23307E-02
         0.14896E-01
         0.74212E-02
         0.31445E-02
         0.33744E-02
         0.40254E-02
         0.43964E-02
         0.54011E-02
         0.33525E-02
         0.23417E-02
         0.14258E-02
         0.19318E-02
         0.10747E-01
         0.51749E-02
         0.58150E-02
         0.46762E-02
         0.71034E-02
         0.42787E-02
         0.15420E-02
         0.48583E-02
         0.38631E-02
         0.66794E-02
         0.38097E-02
         0.98541E-02
         0.16494E-01
         0.72003E-02
         0.75660E-02
         0.79965E-02
         0.44139E-02
         0.58114E-02
         0.43824E-02
         0.19788E-01
         0.67860E-02
         0.81156E-02
         0.62032E-02
         0.75636E-02
         0.87248E-02
         0.22046E-01
         0.17284E-01
         0.10251E-01
         0.31309E-01
         0.21090E-01
         0.24213E-01
         0.11532E-01
         0.20691E-02
         0.98767E-02
         0.73928E-02
         0.35358E-02
         0.43562E-02
         0.24839E-02
         0.26777E-02
         0.45117E-02
         0.39750E-02
         0.54946E-02
         0.56365E-02
         0.23642E-02
         0.38968E-02
         0.42548E-02
         0.42712E-02
         0.74377E-02
         0.83534E-02
         0.30781E-02
         0.43649E-02
         0.24852E-02
         0.80319E-02
         0.32467E-02
         0.30187E-02
         0.25776E-02
         0.20819E-02
         0.37802E-02
         0.15821E-01
         0.45836E-02
         0.99356E-02
         0.11134E-01
         0.83003E-02
         0.26309E-02
         0.24017E-02
         0.94035E-02
         0.12089E-02
         0.12687E-01
         0.54361E-02
         0.36190E-02
         0.16286E-02
         0.24104E-02
         0.23404E-02
         0.37663E-02
         0.46052E-02
         0.58198E-02
         0.28797E-02
         0.20501E-02
         0.12509E-01
         0.34223E-02
         0.83041E-02
         0.40014E-02
         0.97959E-02
         0.78989E-02
         0.46585E-02
         0.32559E-02
         0.20456E-02
         0.47377E-02
         0.46180E-02
         0.86111E-02
         0.13228E-01
         0.32755E-02
         0.63853E-02
         0.75852E-02
         0.72620E-02
         0.78928E-02
         0.81610E-02
         0.16127E-01
         0.12177E-01
         0.56511E-02
         0.35455E-02
         0.47514E-02
         0.42612E-02
         0.18021E-01
         0.17893E-01
         0.64367E-02
         0.30962E-01
         0.20175E-01
         0.17857E-01
         0.97823E-02
         0.35181E-02
         0.57141E-02
         0.16433E-02
         0.37519E-02
         0.36518E-02
         0.44366E-02
         0.46101E-02
         0.83519E-02
         0.48895E-02
         0.50527E-02
         0.34017E-02
         0.70515E-02
         0.41620E-02
         0.33217E-02
         0.30007E-02
         0.52304E-02
         0.51841E-02
         0.32503E-02
         0.67469E-02
         0.46965E-02
         0.93521E-02
         0.72673E-02
         0.37448E-02
         0.34252E-02
         0.57248E-02
         0.51288E-02
         0.19550E-01
         0.48081E-02
         0.12396E-01
         0.53557E-02
         0.47776E-02
         0.92157E-02
         0.53498E-02
         0.49387E-02
         0.50924E-02
         0.98243E-02
         0.45989E-02
         0.14766E-01
         0.91130E-02
         0.45582E-02
         0.83180E-02
         0.16034E-01
         0.16988E-01
         0.22911E-01
         0.16708E-01
         0.11723E-01
         0.82278E-02
         0.10701E-01
         0.20133E-01
         0.94163E-02
         0.85990E-02
         0.63390E-02
         0.40584E-02
         0.67930E-02
         0.39207E-02
         0.30646E-01
         0.26061E-01
         0.40303E-01
         0.38554E-01
         0.15639E-01
         0.13571E-01
         0.13226E-01
         0.20891E-01
         0.28539E-01
         0.32414E-01
         0.31150E-01
         0.39422E-01
         0.23559E-01
         0.15297E-01
         0.12531E-01
         0.20149E-01
         0.39275E-01
         0.46197E-01
         0.27887E-01
         0.52081E-01
         0.37128E-01
         0.31358E-01
         0.21957E-01
         0.72953E-02
         0.18643E-01
         0.17277E-01
  
SCALARS                     nodal_mass  double 1
LOOKUP_TABLE default
         0.24608E-05
         0.19551E-05
         0.20945E-05
         0.35953E-05
         0.12304E-05
         0.97770E-06
         0.10472E-05
         0.17973E-05
         0.19315E-05
         0.24627E-05
         0.96570E-06
         0.12312E-05
         0.13823E-05
         0.16614E-05
         0.69133E-06
         0.83095E-06
         0.27274E-05
         0.20125E-05
         0.13635E-05
         0.10066E-05
         0.81737E-06
         0.15393E-05
         0.16929E-05
         0.40889E-06
         0.76975E-06
         0.84649E-06
         0.13859E-05
         0.17532E-05
         0.69345E-06
         0.87672E-06
         0.32470E-05
         0.25355E-05
         0.32225E-05
         0.16233E-05
         0.12675E-05
         0.16109E-05
         0.18980E-05
         0.21673E-05
         0.94902E-06
         0.10836E-05
         0.20482E-05
         0.22683E-05
         0.10242E-05
         0.11342E-05
         0.17426E-05
         0.10823E-05
         0.87140E-06
         0.54121E-06
         0.20598E-05
         0.10301E-05
         0.17103E-05
         0.85523E-06
         0.17977E-05
         0.89958E-06
         0.18362E-05
         0.91859E-06
         0.15911E-05
         0.19369E-05
         0.79575E-06
         0.96860E-06
         0.24553E-05
         0.17361E-05
         0.12277E-05
         0.86816E-06
         0.27409E-05
         0.13702E-05
         0.23792E-05
         0.11891E-05
         0.10821E-05
         0.16705E-05
         0.54106E-06
         0.83538E-06
         0.18955E-05
         0.94787E-06
         0.20026E-05
         0.10014E-05
         0.19316E-05
         0.96578E-06
         0.15181E-05
         0.75906E-06
         0.95443E-06
         0.15782E-05
         0.47723E-06
         0.78918E-06
         0.20886E-05
         0.10443E-05
         0.16867E-05
         0.84342E-06
         0.14838E-05
         0.74203E-06
         0.97224E-06
         0.16569E-05
         0.48620E-06
         0.82849E-06
         0.22482E-05
         0.11241E-05
         0.23568E-05
         0.11783E-05
         0.19018E-05
         0.95085E-06
         0.11709E-05
         0.20091E-05
         0.58544E-06
         0.10044E-05
         0.74681E-06
         0.94889E-06
         0.37348E-06
         0.47447E-06
         0.88885E-06
         0.44455E-06
         0.10466E-05
         0.52333E-06
         0.10205E-05
         0.51021E-06
         0.99108E-06
         0.49550E-06
         0.10560E-05
         0.52791E-06
         0.11142E-05
         0.55694E-06
         0.10497E-05
         0.52469E-06
         0.82085E-06
         0.41039E-06
         0.66950E-06
         0.33475E-06
         0.86397E-06
         0.43199E-06
         0.11504E-05
         0.57519E-06
         0.12637E-05
         0.63182E-06
         0.12132E-05
         0.60658E-06
         0.10948E-05
         0.54745E-06
         0.99429E-06
         0.49718E-06
         0.80759E-06
         0.40382E-06
         0.67982E-06
         0.33995E-06
         0.88797E-06
         0.44401E-06
         0.11753E-05
         0.58766E-06
         0.12140E-05
         0.60702E-06
         0.98236E-06
         0.49125E-06
         0.79766E-06
         0.39889E-06
         0.97540E-06
         0.48769E-06
         0.11548E-05
         0.57743E-06
         0.24609E-05
         0.19547E-05
         0.20946E-05
         0.35969E-05
         0.19318E-05
         0.24634E-05
         0.13815E-05
         0.16603E-05
         0.27283E-05
         0.20111E-05
         0.81658E-06
         0.15390E-05
         0.16927E-05
         0.13839E-05
         0.17528E-05
         0.32479E-05
         0.25367E-05
         0.32241E-05
         0.18980E-05
         0.21675E-05
         0.20481E-05
         0.22684E-05
         0.17424E-05
         0.10822E-05
         0.20589E-05
         0.17102E-05
         0.17950E-05
         0.18344E-05
         0.15904E-05
         0.19365E-05
         0.24555E-05
         0.17359E-05
         0.27423E-05
         0.23814E-05
         0.10820E-05
         0.16702E-05
         0.18953E-05
         0.20025E-05
         0.19317E-05
         0.15181E-05
         0.95442E-06
         0.15780E-05
         0.20884E-05
         0.16864E-05
         0.14835E-05
         0.97197E-06
         0.16567E-05
         0.22482E-05
         0.23571E-05
         0.19022E-05
         0.11709E-05
         0.20101E-05
         0.74658E-06
         0.94886E-06
         0.88841E-06
         0.10467E-05
         0.10207E-05
         0.99128E-06
         0.10565E-05
         0.11150E-05
         0.10503E-05
         0.82102E-06
         0.66954E-06
         0.86398E-06
         0.11506E-05
         0.12640E-05
         0.12133E-05
         0.10948E-05
         0.99421E-06
         0.80751E-06
         0.67970E-06
         0.88789E-06
         0.11752E-05
         0.12140E-05
         0.98215E-06
         0.79747E-06
         0.97551E-06
         0.11548E-05
         0.24611E-05
         0.19543E-05
         0.20949E-05
         0.35987E-05
         0.19321E-05
         0.24642E-05
         0.13808E-05
         0.16594E-05
         0.27293E-05
         0.20098E-05
         0.81582E-06
         0.15388E-05
         0.16927E-05
         0.13821E-05
         0.17525E-05
         0.32489E-05
         0.25379E-05
         0.32257E-05
         0.18982E-05
         0.21678E-05
         0.20480E-05
         0.22685E-05
         0.17423E-05
         0.10821E-05
         0.20580E-05
         0.17101E-05
         0.17924E-05
         0.18326E-05
         0.15898E-05
         0.19361E-05
         0.24558E-05
         0.17357E-05
         0.27438E-05
         0.23836E-05
         0.10821E-05
         0.16699E-05
         0.18951E-05
         0.20024E-05
         0.19318E-05
         0.15183E-05
         0.95445E-06
         0.15778E-05
         0.20884E-05
         0.16862E-05
         0.14831E-05
         0.97174E-06
         0.16566E-05
         0.22483E-05
         0.23575E-05
         0.19026E-05
         0.11709E-05
         0.20112E-05
         0.74636E-06
         0.94886E-06
         0.88800E-06
         0.10467E-05
         0.10210E-05
         0.99152E-06
         0.10570E-05
         0.11159E-05
         0.10509E-05
         0.82122E-06
         0.66961E-06
         0.86402E-06
         0.11507E-05
         0.12643E-05
         0.12135E-05
         0.10948E-05
         0.99417E-06
         0.80747E-06
         0.67961E-06
         0.88784E-06
         0.11752E-05
         0.12140E-05
         0.98197E-06
         0.79731E-06
         0.97565E-06
         0.11548E-05
         0.24612E-05
         0.19539E-05
         0.20950E-05
         0.36004E-05
         0.19324E-05
         0.24650E-05
         0.13801E-05
         0.16584E-05
         0.27303E-05
         0.20085E-05
         0.81504E-06
         0.15385E-05
         0.16925E-05
         0.13801E-05
         0.17521E-05
         0.32498E-05
         0.25390E-05
         0.32274E-05
         0.18982E-05
         0.21681E-05
         0.20479E-05
         0.22686E-05
         0.17421E-05
         0.10820E-05
         0.20571E-05
         0.17099E-05
         0.17897E-05
         0.18308E-05
         0.15891E-05
         0.19356E-05
         0.24561E-05
         0.17355E-05
         0.27453E-05
         0.23857E-05
         0.10820E-05
         0.16696E-05
         0.18948E-05
         0.20022E-05
         0.19320E-05
         0.15183E-05
         0.95445E-06
         0.15776E-05
         0.20883E-05
         0.16859E-05
         0.14828E-05
         0.97149E-06
         0.16564E-05
         0.22483E-05
         0.23578E-05
         0.19030E-05
         0.11710E-05
         0.20122E-05
         0.74613E-06
         0.94884E-06
         0.88756E-06
         0.10467E-05
         0.10212E-05
         0.99173E-06
         0.10574E-05
         0.11167E-05
         0.10515E-05
         0.82140E-06
         0.66966E-06
         0.86404E-06
         0.11509E-05
         0.12646E-05
         0.12136E-05
         0.10947E-05
         0.99410E-06
         0.80740E-06
         0.67950E-06
         0.88777E-06
         0.11752E-05
         0.12140E-05
         0.98177E-06
         0.79713E-06
         0.97576E-06
         0.11547E-05
         0.24613E-05
         0.19535E-05
         0.20952E-05
         0.36022E-05
         0.19327E-05
         0.24657E-05
         0.13794E-05
         0.16574E-05
         0.27313E-05
         0.20072E-05
         0.81426E-06
         0.15382E-05
         0.16924E-05
         0.13782E-05
         0.17517E-05
         0.32508E-05
         0.25402E-05
         0.32290E-05
         0.18983E-05
         0.21684E-05
         0.20479E-05
         0.22687E-05
         0.17420E-05
         0.10819E-05
         0.20563E-05
         0.17098E-05
         0.17870E-05
         0.18290E-05
         0.15884E-05
         0.19352E-05
         0.24563E-05
         0.17353E-05
         0.27467E-05
         0.23879E-05
         0.10820E-05
         0.16693E-05
         0.18946E-05
         0.20021E-05
         0.19321E-05
         0.15184E-05
         0.95445E-06
         0.15773E-05
         0.20882E-05
         0.16857E-05
         0.14824E-05
         0.97124E-06
         0.16563E-05
         0.22484E-05
         0.23582E-05
         0.19034E-05
         0.11710E-05
         0.20132E-05
         0.74590E-06
         0.94883E-06
         0.88713E-06
         0.10468E-05
         0.10215E-05
         0.99194E-06
         0.10579E-05
         0.11175E-05
         0.10521E-05
         0.82159E-06
         0.66972E-06
         0.86406E-06
         0.11510E-05
         0.12649E-05
         0.12138E-05
         0.10947E-05
         0.99404E-06
         0.80734E-06
         0.67940E-06
         0.88771E-06
         0.11752E-05
         0.12140E-05
         0.98157E-06
         0.79696E-06
         0.97588E-06
         0.11547E-05
         0.24615E-05
         0.19531E-05
         0.20954E-05
         0.36039E-05
         0.19331E-05
         0.24665E-05
         0.13787E-05
         0.16564E-05
         0.27322E-05
         0.20059E-05
         0.81349E-06
         0.15380E-05
         0.16923E-05
         0.13763E-05
         0.17514E-05
         0.32518E-05
         0.25414E-05
         0.32306E-05
         0.18984E-05
         0.21687E-05
         0.20478E-05
         0.22688E-05
         0.17418E-05
         0.10818E-05
         0.20554E-05
         0.17096E-05
         0.17843E-05
         0.18272E-05
         0.15878E-05
         0.19347E-05
         0.24566E-05
         0.17351E-05
         0.27482E-05
         0.23901E-05
         0.10820E-05
         0.16690E-05
         0.18943E-05
         0.20019E-05
         0.19322E-05
         0.15185E-05
         0.95446E-06
         0.15771E-05
         0.20881E-05
         0.16855E-05
         0.14821E-05
         0.97100E-06
         0.16562E-05
         0.22484E-05
         0.23586E-05
         0.19038E-05
         0.11710E-05
         0.20142E-05
         0.74568E-06
         0.94882E-06
         0.88671E-06
         0.10468E-05
         0.10217E-05
         0.99216E-06
         0.10583E-05
         0.11183E-05
         0.10528E-05
         0.82178E-06
         0.66977E-06
         0.86408E-06
         0.11512E-05
         0.12652E-05
         0.12139E-05
         0.10947E-05
         0.99398E-06
         0.80728E-06
         0.67930E-06
         0.88766E-06
         0.11752E-05
         0.12140E-05
         0.98138E-06
         0.79679E-06
         0.97601E-06
         0.11547E-05
         0.24616E-05
         0.19527E-05
         0.20956E-05
         0.36056E-05
         0.19334E-05
         0.24672E-05
         0.13779E-05
         0.16554E-05
         0.27332E-05
         0.20046E-05
         0.81271E-06
         0.15377E-05
         0.16922E-05
         0.13744E-05
         0.17510E-05
         0.32527E-05
         0.25425E-05
         0.32322E-05
         0.18984E-05
         0.21689E-05
         0.20477E-05
         0.22689E-05
         0.17416E-05
         0.10816E-05
         0.20545E-05
         0.17095E-05
         0.17817E-05
         0.18254E-05
         0.15871E-05
         0.19343E-05
         0.24568E-05
         0.17349E-05
         0.27496E-05
         0.23922E-05
         0.10820E-05
         0.16686E-05
         0.18941E-05
         0.20018E-05
         0.19324E-05
         0.15186E-05
         0.95446E-06
         0.15769E-05
         0.20880E-05
         0.16852E-05
         0.14817E-05
         0.97074E-06
         0.16560E-05
         0.22484E-05
         0.23589E-05
         0.19042E-05
         0.11710E-05
         0.20152E-05
         0.74544E-06
         0.94880E-06
         0.88627E-06
         0.10469E-05
         0.10219E-05
         0.99237E-06
         0.10588E-05
         0.11191E-05
         0.10534E-05
         0.82196E-06
         0.66982E-06
         0.86410E-06
         0.11513E-05
         0.12654E-05
         0.12140E-05
         0.10947E-05
         0.99391E-06
         0.80721E-06
         0.67919E-06
         0.88759E-06
         0.11751E-05
         0.12140E-05
         0.98118E-06
         0.79661E-06
         0.97612E-06
         0.11546E-05
         0.24618E-05
         0.19523E-05
         0.20957E-05
         0.36073E-05
         0.19337E-05
         0.24680E-05
         0.13772E-05
         0.16545E-05
         0.27341E-05
         0.20033E-05
         0.81194E-06
         0.15374E-05
         0.16921E-05
         0.13725E-05
         0.17506E-05
         0.32537E-05
         0.25437E-05
         0.32339E-05
         0.18985E-05
         0.21692E-05
         0.20476E-05
         0.22690E-05
         0.17414E-05
         0.10815E-05
         0.20536E-05
         0.17093E-05
         0.17790E-05
         0.18236E-05
         0.15864E-05
         0.19339E-05
         0.24571E-05
         0.17347E-05
         0.27511E-05
         0.23944E-05
         0.10820E-05
         0.16683E-05
         0.18938E-05
         0.20016E-05
         0.19325E-05
         0.15186E-05
         0.95446E-06
         0.15767E-05
         0.20878E-05
         0.16850E-05
         0.14814E-05
         0.97050E-06
         0.16559E-05
         0.22484E-05
         0.23593E-05
         0.19046E-05
         0.11711E-05
         0.20162E-05
         0.74522E-06
         0.94878E-06
         0.88584E-06
         0.10469E-05
         0.10222E-05
         0.99258E-06
         0.10593E-05
         0.11199E-05
         0.10540E-05
         0.82215E-06
         0.66988E-06
         0.86413E-06
         0.11515E-05
         0.12657E-05
         0.12142E-05
         0.10946E-05
         0.99385E-06
         0.80715E-06
         0.67909E-06
         0.88752E-06
         0.11751E-05
         0.12140E-05
         0.98098E-06
         0.79643E-06
         0.97624E-06
         0.11546E-05
         0.24619E-05
         0.19519E-05
         0.20959E-05
         0.36091E-05
         0.19340E-05
         0.24688E-05
         0.13765E-05
         0.16535E-05
         0.27351E-05
         0.20020E-05
         0.81117E-06
         0.15372E-05
         0.16920E-05
         0.13706E-05
         0.17503E-05
         0.32546E-05
         0.25448E-05
         0.32355E-05
         0.18986E-05
         0.21695E-05
         0.20475E-05
         0.22691E-05
         0.17413E-05
         0.10814E-05
         0.20527E-05
         0.17092E-05
         0.17763E-05
         0.18219E-05
         0.15858E-05
         0.19334E-05
         0.24573E-05
         0.17345E-05
         0.27525E-05
         0.23966E-05
         0.10820E-05
         0.16680E-05
         0.18936E-05
         0.20015E-05
         0.19326E-05
         0.15187E-05
         0.95447E-06
         0.15765E-05
         0.20878E-05
         0.16848E-05
         0.14810E-05
         0.97025E-06
         0.16557E-05
         0.22485E-05
         0.23597E-05
         0.19050E-05
         0.11711E-05
         0.20172E-05
         0.74499E-06
         0.94877E-06
         0.88541E-06
         0.10469E-05
         0.10224E-05
         0.99280E-06
         0.10597E-05
         0.11207E-05
         0.10546E-05
         0.82234E-06
         0.66994E-06
         0.86415E-06
         0.11517E-05
         0.12660E-05
         0.12143E-05
         0.10946E-05
         0.99379E-06
         0.80709E-06
         0.67898E-06
         0.88746E-06
         0.11751E-05
         0.12140E-05
         0.98079E-06
         0.79626E-06
         0.97636E-06
         0.11546E-05
         0.24621E-05
         0.19515E-05
         0.20961E-05
         0.36108E-05
         0.19343E-05
         0.24695E-05
         0.13758E-05
         0.16525E-05
         0.27361E-05
         0.20006E-05
         0.81039E-06
         0.15369E-05
         0.16919E-05
         0.13686E-05
         0.17499E-05
         0.32556E-05
         0.25460E-05
         0.32371E-05
         0.18986E-05
         0.21697E-05
         0.20474E-05
         0.22692E-05
         0.17411E-05
         0.10813E-05
         0.20519E-05
         0.17091E-05
         0.17736E-05
         0.18201E-05
         0.15851E-05
         0.19330E-05
         0.24575E-05
         0.17342E-05
         0.27540E-05
         0.23987E-05
         0.10820E-05
         0.16677E-05
         0.18933E-05
         0.20014E-05
         0.19328E-05
         0.15188E-05
         0.95448E-06
         0.15763E-05
         0.20876E-05
         0.16845E-05
         0.14807E-05
         0.97000E-06
         0.16556E-05
         0.22485E-05
         0.23600E-05
         0.19053E-05
         0.11711E-05
         0.20182E-05
         0.74476E-06
         0.94875E-06
         0.88498E-06
         0.10470E-05
         0.10227E-05
         0.99301E-06
         0.10602E-05
         0.11215E-05
         0.10553E-05
         0.82252E-06
         0.66999E-06
         0.86417E-06
         0.11518E-05
         0.12663E-05
         0.12145E-05
         0.10946E-05
         0.99373E-06
         0.80702E-06
         0.67888E-06
         0.88740E-06
         0.11751E-05
         0.12140E-05
         0.98058E-06
         0.79608E-06
         0.97648E-06
         0.11546E-05
         0.24622E-05
         0.19511E-05
         0.20963E-05
         0.36125E-05
         0.19346E-05
         0.24703E-05
         0.13751E-05
         0.16515E-05
         0.27370E-05
         0.19993E-05
         0.80962E-06
         0.15366E-05
         0.16917E-05
         0.13667E-05
         0.17495E-05
         0.32565E-05
         0.25471E-05
         0.32388E-05
         0.18987E-05
         0.21700E-05
         0.20473E-05
         0.22693E-05
         0.17409E-05
         0.10812E-05
         0.20510E-05
         0.17089E-05
         0.17710E-05
         0.18183E-05
         0.15844E-05
         0.19325E-05
         0.24578E-05
         0.17340E-05
         0.27554E-05
         0.24009E-05
         0.10820E-05
         0.16674E-05
         0.18931E-05
         0.20012E-05
         0.19329E-05
         0.15189E-05
         0.95448E-06
         0.15760E-05
         0.20875E-05
         0.16843E-05
         0.14803E-05
         0.96975E-06
         0.16555E-05
         0.22485E-05
         0.23604E-05
         0.19057E-05
         0.11712E-05
         0.20192E-05
         0.74453E-06
         0.94874E-06
         0.88455E-06
         0.10470E-05
         0.10229E-05
         0.99322E-06
         0.10606E-05
         0.11223E-05
         0.10559E-05
         0.82270E-06
         0.67004E-06
         0.86419E-06
         0.11520E-05
         0.12666E-05
         0.12146E-05
         0.10945E-05
         0.99366E-06
         0.80696E-06
         0.67877E-06
         0.88733E-06
         0.11751E-05
         0.12140E-05
         0.98038E-06
         0.79590E-06
         0.97660E-06
         0.11545E-05
         0.24623E-05
         0.19507E-05
         0.20964E-05
         0.36142E-05
         0.19349E-05
         0.24710E-05
         0.13743E-05
         0.16505E-05
         0.27380E-05
         0.19980E-05
         0.80885E-06
         0.15364E-05
         0.16916E-05
         0.13648E-05
         0.17492E-05
         0.32575E-05
         0.25483E-05
         0.32404E-05
         0.18988E-05
         0.21703E-05
         0.20473E-05
         0.22694E-05
         0.17407E-05
         0.10811E-05
         0.20501E-05
         0.17088E-05
         0.17683E-05
         0.18165E-05
         0.15837E-05
         0.19321E-05
         0.24580E-05
         0.17338E-05
         0.27569E-05
         0.24031E-05
         0.10820E-05
         0.16670E-05
         0.18928E-05
         0.20011E-05
         0.19330E-05
         0.15189E-05
         0.95448E-06
         0.15758E-05
         0.20874E-05
         0.16840E-05
         0.14800E-05
         0.96950E-06
         0.16553E-05
         0.22485E-05
         0.23608E-05
         0.19061E-05
         0.11712E-05
         0.20202E-05
         0.74430E-06
         0.94872E-06
         0.88412E-06
         0.10470E-05
         0.10231E-05
         0.99344E-06
         0.10611E-05
         0.11231E-05
         0.10565E-05
         0.82289E-06
         0.67009E-06
         0.86422E-06
         0.11521E-05
         0.12669E-05
         0.12147E-05
         0.10945E-05
         0.99360E-06
         0.80690E-06
         0.67867E-06
         0.88727E-06
         0.11750E-05
         0.12140E-05
         0.98019E-06
         0.79573E-06
         0.97672E-06
         0.11545E-05
         0.24625E-05
         0.19503E-05
         0.20966E-05
         0.36160E-05
         0.19352E-05
         0.24718E-05
         0.13736E-05
         0.16496E-05
         0.27389E-05
         0.19967E-05
         0.80807E-06
         0.15361E-05
         0.16915E-05
         0.13629E-05
         0.17488E-05
         0.32584E-05
         0.25495E-05
         0.32420E-05
         0.18988E-05
         0.21705E-05
         0.20472E-05
         0.22695E-05
         0.17406E-05
         0.10810E-05
         0.20492E-05
         0.17086E-05
         0.17656E-05
         0.18147E-05
         0.15831E-05
         0.19317E-05
         0.24583E-05
         0.17336E-05
         0.27583E-05
         0.24053E-05
         0.10820E-05
         0.16667E-05
         0.18926E-05
         0.20009E-05
         0.19331E-05
         0.15190E-05
         0.95449E-06
         0.15756E-05
         0.20873E-05
         0.16838E-05
         0.14796E-05
         0.96925E-06
         0.16552E-05
         0.22486E-05
         0.23611E-05
         0.19065E-05
         0.11712E-05
         0.20212E-05
         0.74407E-06
         0.94870E-06
         0.88368E-06
         0.10471E-05
         0.10234E-05
         0.99365E-06
         0.10616E-05
         0.11239E-05
         0.10571E-05
         0.82307E-06
         0.67014E-06
         0.86424E-06
         0.11523E-05
         0.12672E-05
         0.12149E-05
         0.10945E-05
         0.99354E-06
         0.80683E-06
         0.67856E-06
         0.88721E-06
         0.11750E-05
         0.12140E-05
         0.97999E-06
         0.79555E-06
         0.97684E-06
         0.11545E-05
         0.24626E-05
         0.19499E-05
         0.20968E-05
         0.36177E-05
         0.19355E-05
         0.24725E-05
         0.13729E-05
         0.16486E-05
         0.27399E-05
         0.19954E-05
         0.80730E-06
         0.15358E-05
         0.16914E-05
         0.13610E-05
         0.17484E-05
         0.32594E-05
         0.25506E-05
         0.32437E-05
         0.18989E-05
         0.21708E-05
         0.20471E-05
         0.22696E-05
         0.17404E-05
         0.10808E-05
         0.20483E-05
         0.17085E-05
         0.17629E-05
         0.18129E-05
         0.15824E-05
         0.19312E-05
         0.24585E-05
         0.17334E-05
         0.27598E-05
         0.24074E-05
         0.10820E-05
         0.16664E-05
         0.18923E-05
         0.20008E-05
         0.19333E-05
         0.15191E-05
         0.95449E-06
         0.15754E-05
         0.20872E-05
         0.16835E-05
         0.14793E-05
         0.96901E-06
         0.16550E-05
         0.22486E-05
         0.23615E-05
         0.19069E-05
         0.11713E-05
         0.20222E-05
         0.74384E-06
         0.94869E-06
         0.88325E-06
         0.10471E-05
         0.10236E-05
         0.99386E-06
         0.10620E-05
         0.11247E-05
         0.10577E-05
         0.82326E-06
         0.67020E-06
         0.86426E-06
         0.11524E-05
         0.12674E-05
         0.12150E-05
         0.10944E-05
         0.99348E-06
         0.80677E-06
         0.67846E-06
         0.88714E-06
         0.11750E-05
         0.12140E-05
         0.97979E-06
         0.79538E-06
         0.97696E-06
         0.11544E-05
         0.24628E-05
         0.19495E-05
         0.20970E-05
         0.36194E-05
         0.19358E-05
         0.24733E-05
         0.13722E-05
         0.16476E-05
         0.27409E-05
         0.19941E-05
         0.80652E-06
         0.15355E-05
         0.16913E-05
         0.13591E-05
         0.17481E-05
         0.32604E-05
         0.25518E-05
         0.32453E-05
         0.18990E-05
         0.21711E-05
         0.20470E-05
         0.22697E-05
         0.17402E-05
         0.10807E-05
         0.20474E-05
         0.17084E-05
         0.17603E-05
         0.18111E-05
         0.15817E-05
         0.19308E-05
         0.24588E-05
         0.17332E-05
         0.27613E-05
         0.24096E-05
         0.10819E-05
         0.16661E-05
         0.18921E-05
         0.20006E-05
         0.19334E-05
         0.15192E-05
         0.95450E-06
         0.15752E-05
         0.20871E-05
         0.16833E-05
         0.14789E-05
         0.96876E-06
         0.16549E-05
         0.22486E-05
         0.23619E-05
         0.19073E-05
         0.11713E-05
         0.20232E-05
         0.74362E-06
         0.94868E-06
         0.88282E-06
         0.10472E-05
         0.10238E-05
         0.99408E-06
         0.10625E-05
         0.11255E-05
         0.10584E-05
         0.82345E-06
         0.67025E-06
         0.86428E-06
         0.11526E-05
         0.12677E-05
         0.12152E-05
         0.10944E-05
         0.99342E-06
         0.80671E-06
         0.67836E-06
         0.88709E-06
         0.11750E-05
         0.12140E-05
         0.97959E-06
         0.79521E-06
         0.97708E-06
         0.11544E-05
         0.24629E-05
         0.19491E-05
         0.20972E-05
         0.36212E-05
         0.19361E-05
         0.24741E-05
         0.13715E-05
         0.16466E-05
         0.27418E-05
         0.19928E-05
         0.80575E-06
         0.15353E-05
         0.16912E-05
         0.13572E-05
         0.17477E-05
         0.32613E-05
         0.25529E-05
         0.32469E-05
         0.18990E-05
         0.21714E-05
         0.20469E-05
         0.22698E-05
         0.17400E-05
         0.10806E-05
         0.20466E-05
         0.17082E-05
         0.17576E-05
         0.18093E-05
         0.15810E-05
         0.19303E-05
         0.24590E-05
         0.17330E-05
         0.27627E-05
         0.24118E-05
         0.10819E-05
         0.16658E-05
         0.18919E-05
         0.20005E-05
         0.19335E-05
         0.15192E-05
         0.95450E-06
         0.15750E-05
         0.20870E-05
         0.16831E-05
         0.14786E-05
         0.96851E-06
         0.16548E-05
         0.22487E-05
         0.23622E-05
         0.19077E-05
         0.11713E-05
         0.20242E-05
         0.74339E-06
         0.94866E-06
         0.88239E-06
         0.10472E-05
         0.10241E-05
         0.99429E-06
         0.10630E-05
         0.11263E-05
         0.10590E-05
         0.82363E-06
         0.67030E-06
         0.86430E-06
         0.11527E-05
         0.12680E-05
         0.12153E-05
         0.10944E-05
         0.99335E-06
         0.80665E-06
         0.67825E-06
         0.88702E-06
         0.11749E-05
         0.12140E-05
         0.97939E-06
         0.79503E-06
         0.97720E-06
         0.11544E-05
         0.24631E-05
         0.19487E-05
         0.20973E-05
         0.36229E-05
         0.19364E-05
         0.24748E-05
         0.13707E-05
         0.16456E-05
         0.27428E-05
         0.19915E-05
         0.80498E-06
         0.15350E-05
         0.16911E-05
         0.13553E-05
         0.17473E-05
         0.32623E-05
         0.25541E-05
         0.32486E-05
         0.18991E-05
         0.21716E-05
         0.20468E-05
         0.22699E-05
         0.17399E-05
         0.10805E-05
         0.20457E-05
         0.17081E-05
         0.17549E-05
         0.18075E-05
         0.15804E-05
         0.19299E-05
         0.24592E-05
         0.17328E-05
         0.27642E-05
         0.24140E-05
         0.10819E-05
         0.16654E-05
         0.18916E-05
         0.20003E-05
         0.19337E-05
         0.15193E-05
         0.95450E-06
         0.15748E-05
         0.20869E-05
         0.16828E-05
         0.14782E-05
         0.96826E-06
         0.16546E-05
         0.22487E-05
         0.23626E-05
         0.19081E-05
         0.11714E-05
         0.20253E-05
         0.74316E-06
         0.94864E-06
         0.88196E-06
         0.10472E-05
         0.10243E-05
         0.99450E-06
         0.10634E-05
         0.11271E-05
         0.10596E-05
         0.82381E-06
         0.67036E-06
         0.86432E-06
         0.11529E-05
         0.12683E-05
         0.12154E-05
         0.10943E-05
         0.99329E-06
         0.80658E-06
         0.67815E-06
         0.88696E-06
         0.11749E-05
         0.12140E-05
         0.97919E-06
         0.79485E-06
         0.97732E-06
         0.11544E-05
         0.24632E-05
         0.19483E-05
         0.20975E-05
         0.36246E-05
         0.19368E-05
         0.24756E-05
         0.13700E-05
         0.16447E-05
         0.27437E-05
         0.19902E-05
         0.80421E-06
         0.15347E-05
         0.16910E-05
         0.13534E-05
         0.17470E-05
         0.32632E-05
         0.25552E-05
         0.32502E-05
         0.18992E-05
         0.21719E-05
         0.20467E-05
         0.22700E-05
         0.17397E-05
         0.10804E-05
         0.20448E-05
         0.17079E-05
         0.17523E-05
         0.18057E-05
         0.15797E-05
         0.19295E-05
         0.24595E-05
         0.17326E-05
         0.27656E-05
         0.24161E-05
         0.10819E-05
         0.16651E-05
         0.18914E-05
         0.20002E-05
         0.19338E-05
         0.15194E-05
         0.95451E-06
         0.15745E-05
         0.20868E-05
         0.16826E-05
         0.14779E-05
         0.96801E-06
         0.16545E-05
         0.22487E-05
         0.23630E-05
         0.19085E-05
         0.11714E-05
         0.20263E-05
         0.74293E-06
         0.94863E-06
         0.88153E-06
         0.10473E-05
         0.10245E-05
         0.99472E-06
         0.10639E-05
         0.11279E-05
         0.10602E-05
         0.82400E-06
         0.67041E-06
         0.86435E-06
         0.11530E-05
         0.12686E-05
         0.12156E-05
         0.10943E-05
         0.99323E-06
         0.80652E-06
         0.67804E-06
         0.88690E-06
         0.11749E-05
         0.12140E-05
         0.97900E-06
         0.79468E-06
         0.97744E-06
         0.11543E-05
         0.24633E-05
         0.19479E-05
         0.20977E-05
         0.36264E-05
         0.19371E-05
         0.24763E-05
         0.13693E-05
         0.16437E-05
         0.27447E-05
         0.19888E-05
         0.80343E-06
         0.15345E-05
         0.16908E-05
         0.13515E-05
         0.17466E-05
         0.32642E-05
         0.25564E-05
         0.32518E-05
         0.18992E-05
         0.21722E-05
         0.20466E-05
         0.22701E-05
         0.17395E-05
         0.10803E-05
         0.20439E-05
         0.17078E-05
         0.17496E-05
         0.18039E-05
         0.15790E-05
         0.19290E-05
         0.24597E-05
         0.17323E-05
         0.27671E-05
         0.24183E-05
         0.10819E-05
         0.16648E-05
         0.18911E-05
         0.20001E-05
         0.19339E-05
         0.15195E-05
         0.95452E-06
         0.15743E-05
         0.20867E-05
         0.16823E-05
         0.14775E-05
         0.96776E-06
         0.16543E-05
         0.22487E-05
         0.23633E-05
         0.19089E-05
         0.11714E-05
         0.20273E-05
         0.74270E-06
         0.94861E-06
         0.88109E-06
         0.10473E-05
         0.10248E-05
         0.99493E-06
         0.10643E-05
         0.11287E-05
         0.10609E-05
         0.82418E-06
         0.67046E-06
         0.86437E-06
         0.11532E-05
         0.12689E-05
         0.12157E-05
         0.10943E-05
         0.99316E-06
         0.80646E-06
         0.67794E-06
         0.88683E-06
         0.11749E-05
         0.12140E-05
         0.97879E-06
         0.79450E-06
         0.97755E-06
         0.11543E-05
         0.24635E-05
         0.19475E-05
         0.20979E-05
         0.36281E-05
         0.19374E-05
         0.24771E-05
         0.13686E-05
         0.16427E-05
         0.27456E-05
         0.19875E-05
         0.80266E-06
         0.15342E-05
         0.16907E-05
         0.13496E-05
         0.17463E-05
         0.32651E-05
         0.25575E-05
         0.32534E-05
         0.18993E-05
         0.21724E-05
         0.20466E-05
         0.22702E-05
         0.17393E-05
         0.10802E-05
         0.20430E-05
         0.17076E-05
         0.17469E-05
         0.18021E-05
         0.15784E-05
         0.19286E-05
         0.24600E-05
         0.17321E-05
         0.27685E-05
         0.24205E-05
         0.10819E-05
         0.16645E-05
         0.18909E-05
         0.19999E-05
         0.19341E-05
         0.15195E-05
         0.95452E-06
         0.15741E-05
         0.20866E-05
         0.16821E-05
         0.14772E-05
         0.96751E-06
         0.16542E-05
         0.22488E-05
         0.23637E-05
         0.19092E-05
         0.11715E-05
         0.20283E-05
         0.74247E-06
         0.94860E-06
         0.88066E-06
         0.10473E-05
         0.10250E-05
         0.99514E-06
         0.10648E-05
         0.11295E-05
         0.10615E-05
         0.82437E-06
         0.67052E-06
         0.86439E-06
         0.11533E-05
         0.12691E-05
         0.12159E-05
         0.10942E-05
         0.99310E-06
         0.80639E-06
         0.67783E-06
         0.88676E-06
         0.11748E-05
         0.12140E-05
         0.97859E-06
         0.79433E-06
         0.97767E-06
         0.11543E-05
         0.24636E-05
         0.19471E-05
         0.20980E-05
         0.36298E-05
         0.19377E-05
         0.24779E-05
         0.13679E-05
         0.16417E-05
         0.27466E-05
         0.19862E-05
         0.80189E-06
         0.15339E-05
         0.16906E-05
         0.13477E-05
         0.17459E-05
         0.32661E-05
         0.25587E-05
         0.32551E-05
         0.18994E-05
         0.21727E-05
         0.20465E-05
         0.22703E-05
         0.17392E-05
         0.10800E-05
         0.20421E-05
         0.17075E-05
         0.17443E-05
         0.18003E-05
         0.15777E-05
         0.19281E-05
         0.24602E-05
         0.17319E-05
         0.27700E-05
         0.24227E-05
         0.10819E-05
         0.16642E-05
         0.18906E-05
         0.19998E-05
         0.19342E-05
         0.15196E-05
         0.95453E-06
         0.15739E-05
         0.20865E-05
         0.16819E-05
         0.14768E-05
         0.96727E-06
         0.16541E-05
         0.22488E-05
         0.23640E-05
         0.19096E-05
         0.11715E-05
         0.20293E-05
         0.74225E-06
         0.94859E-06
         0.88023E-06
         0.10474E-05
         0.10253E-05
         0.99535E-06
         0.10653E-05
         0.11303E-05
         0.10621E-05
         0.82456E-06
         0.67057E-06
         0.86441E-06
         0.11535E-05
         0.12694E-05
         0.12160E-05
         0.10942E-05
         0.99304E-06
         0.80633E-06
         0.67773E-06
         0.88671E-06
         0.11748E-05
         0.12140E-05
         0.97840E-06
         0.79415E-06
         0.97780E-06
         0.11542E-05
         0.24637E-05
         0.19466E-05
         0.20982E-05
         0.36315E-05
         0.19380E-05
         0.24786E-05
         0.13671E-05
         0.16407E-05
         0.27475E-05
         0.19849E-05
         0.80110E-06
         0.15336E-05
         0.16905E-05
         0.13457E-05
         0.17455E-05
         0.32669E-05
         0.25598E-05
         0.32567E-05
         0.18994E-05
         0.21729E-05
         0.20464E-05
         0.22703E-05
         0.17390E-05
         0.10799E-05
         0.20412E-05
         0.17073E-05
         0.17416E-05
         0.17985E-05
         0.15770E-05
         0.19277E-05
         0.24604E-05
         0.17317E-05
         0.27714E-05
         0.24248E-05
         0.10819E-05
         0.16638E-05
         0.18903E-05
         0.19996E-05
         0.19343E-05
         0.15196E-05
         0.95451E-06
         0.15737E-05
         0.20864E-05
         0.16816E-05
         0.14765E-05
         0.96700E-06
         0.16539E-05
         0.22488E-05
         0.23644E-05
         0.19100E-05
         0.11715E-05
         0.20303E-05
         0.74200E-06
         0.94855E-06
         0.87978E-06
         0.10474E-05
         0.10255E-05
         0.99555E-06
         0.10657E-05
         0.11311E-05
         0.10627E-05
         0.82472E-06
         0.67061E-06
         0.86442E-06
         0.11536E-05
         0.12697E-05
         0.12161E-05
         0.10941E-05
         0.99295E-06
         0.80625E-06
         0.67761E-06
         0.88662E-06
         0.11748E-05
         0.12140E-05
         0.97818E-06
         0.79396E-06
         0.97790E-06
         0.11542E-05
         0.24639E-05
         0.19463E-05
         0.20984E-05
         0.36333E-05
         0.19383E-05
         0.24794E-05
         0.13664E-05
         0.16398E-05
         0.27485E-05
         0.19836E-05
         0.80034E-06
         0.15334E-05
         0.16904E-05
         0.13439E-05
         0.17452E-05
         0.32679E-05
         0.25610E-05
         0.32583E-05
         0.18995E-05
         0.21732E-05
         0.20463E-05
         0.22704E-05
         0.17388E-05
         0.10798E-05
         0.20404E-05
         0.17072E-05
         0.17389E-05
         0.17967E-05
         0.15763E-05
         0.19272E-05
         0.24607E-05
         0.17315E-05
         0.27729E-05
         0.24270E-05
         0.10819E-05
         0.16635E-05
         0.18901E-05
         0.19995E-05
         0.19345E-05
         0.15197E-05
         0.95453E-06
         0.15735E-05
         0.20863E-05
         0.16814E-05
         0.14761E-05
         0.96677E-06
         0.16538E-05
         0.22488E-05
         0.23647E-05
         0.19104E-05
         0.11716E-05
         0.20313E-05
         0.74179E-06
         0.94855E-06
         0.87936E-06
         0.10475E-05
         0.10257E-05
         0.99577E-06
         0.10662E-05
         0.11319E-05
         0.10633E-05
         0.82492E-06
         0.67068E-06
         0.86446E-06
         0.11538E-05
         0.12700E-05
         0.12163E-05
         0.10941E-05
         0.99291E-06
         0.80620E-06
         0.67752E-06
         0.88657E-06
         0.11748E-05
         0.12140E-05
         0.97800E-06
         0.79380E-06
         0.97803E-06
         0.11542E-05
         0.12320E-05
         0.97306E-06
         0.10493E-05
         0.18171E-05
         0.96926E-06
         0.12399E-05
         0.68306E-06
         0.81967E-06
         0.13745E-05
         0.99152E-06
         0.39999E-06
         0.76665E-06
         0.84519E-06
         0.67148E-06
         0.87252E-06
         0.16343E-05
         0.12808E-05
         0.16296E-05
         0.94981E-06
         0.10867E-05
         0.10232E-05
         0.11353E-05
         0.86940E-06
         0.53990E-06
         0.10200E-05
         0.85360E-06
         0.86884E-06
         0.89793E-06
         0.78802E-06
         0.96354E-06
         0.12305E-05
         0.86572E-06
         0.13869E-05
         0.12141E-05
         0.54095E-06
         0.83170E-06
         0.94503E-06
         0.99975E-06
         0.96729E-06
         0.75992E-06
         0.47728E-06
         0.78670E-06
         0.10432E-05
         0.84065E-06
         0.73800E-06
         0.48334E-06
         0.82688E-06
         0.11245E-05
         0.11825E-05
         0.95534E-06
         0.58581E-06
         0.10159E-05
         0.37085E-06
         0.47429E-06
         0.43959E-06
         0.52375E-06
         0.51294E-06
         0.49796E-06
         0.53322E-06
         0.56619E-06
         0.53185E-06
         0.41252E-06
         0.33536E-06
         0.43225E-06
         0.57696E-06
         0.63509E-06
         0.60820E-06
         0.54708E-06
         0.49646E-06
         0.40310E-06
         0.33875E-06
         0.44329E-06
         0.58740E-06
         0.60700E-06
         0.48897E-06
         0.39687E-06
         0.48906E-06
         0.57710E-06
  
SCALARS                 Poissons_ratio  double 1
LOOKUP_TABLE default
         0.30000E+00
         0.30000E+00
         0.30000E+00
         0.30000E+00
         0.30000E+00
         0.30000E+00
         0.30000E+00
         0.30000E+00
         0.30000E+00
         0.30000E+00
         0.30000E+00
         0.30000E+00
         0.30000E+00
         0.30000E+00
         0.30000E+00
         0.30000E+00
         0.30000E+00
         0.30000E+00
         0.30000E+00
         0.30000E+00
         0.30000E+00
         0.30000E+00
         0.30000E+00
         0.30000E+00
         0.30000E+00
         0.30000E+00
         0.30000E+00
         0.30000E+00
         0.30000E+00
         0.30000E+00
         0.30000E+00
         0.30000E+00
         0.30000E+00
         0.30000E+00
         0.30000E+00
         0.30000E+00
         0.30000E+00
         0.30000E+00
         0.30000E+00
         0.30000E+00
         0.30000E+00
         0.30000E+00
         0.30000E+00
         0.30000E+00
         0.30000E+00
         0.30000E+00
         0.30000E+00
         0.30000E+00
         0.30000E+00
         0.30000E+00
         0.30000E+00
         0.30000E+00
         0.30000E+00
         0.30000E+00
         0.30000E+00
         0.30000E+00
         0.30000E+00
         0.30000E+00
         0.30000E+00
         0.30000E+00
         0.30000E+00
         0.30000E+00
         0.30000E+00
         0.30000E+00
         0.30000E+00
         0.30000E+00
         0.30000E+00
         0.30000E+00
         0.30000E+00
         0.30000E+00
         0.30000E+00
         0.30000E+00
         0.30000E+00
         0.30000E+00
         0.30000E+00
         0.30000E+00
         0.30000E+00
         0.30000E+00
         0.30000E+00
         0.30000E+00
         0.30000E+00
         0.30000E+00
         0.30000E+00
         0.30000E+00
         0.30000E+00
         0.30000E+00
         0.30000E+00
         0.30000E+00
         0.30000E+00
         0.30000E+00
         0.30000E+00
         0.30000E+00
         0.30000E+00
         0.30000E+00
         0.30000E+00
         0.30000E+00
         0.30000E+00
         0.30000E+00
         0.30000E+00
         0.30000E+00
         0.30000E+00
         0.30000E+00
         0.30000E+00
         0.30000E+00
         0.30000E+00
         0.30000E+00
         0.30000E+00
         0.30000E+00
         0.30000E+00
         0.30000E+00
         0.30000E+00
         0.30000E+00
         0.30000E+00
         0.30000E+00
         0.30000E+00
         0.30000E+00
         0.30000E+00
         0.30000E+00
         0.30000E+00
         0.30000E+00
         0.30000E+00
         0.30000E+00
         0.30000E+00
         0.30000E+00
         0.30000E+00
         0.30000E+00
         0.30000E+00
         0.30000E+00
         0.30000E+00
         0.30000E+00
         0.30000E+00
         0.30000E+00
         0.30000E+00
         0.30000E+00
         0.30000E+00
         0.30000E+00
         0.30000E+00
         0.30000E+00
         0.30000E+00
         0.30000E+00
         0.30000E+00
         0.30000E+00
         0.30000E+00
         0.30000E+00
         0.30000E+00
         0.30000E+00
         0.30000E+00
         0.30000E+00
         0.30000E+00
         0.30000E+00
         0.30000E+00
         0.30000E+00
         0.30000E+00
         0.30000E+00
         0.30000E+00
         0.30000E+00
         0.30000E+00
         0.30000E+00
         0.30000E+00
         0.30000E+00
         0.30000E+00
         0.30000E+00
         0.30000E+00
         0.30000E+00
         0.30000E+00
         0.30000E+00
         0.30000E+00
         0.30000E+00
         0.30000E+00
         0.30000E+00
         0.30000E+00
         0.30000E+00
         0.30000E+00
         0.30000E+00
         0.30000E+00
         0.30000E+00
         0.30000E+00
         0.30000E+00
         0.30000E+00
         0.30000E+00
         0.30000E+00
         0.30000E+00
         0.30000E+00
         0.30000E+00
         0.30000E+00
         0.30000E+00
         0.30000E+00
         0.30000E+00
         0.30000E+00
         0.30000E+00
         0.30000E+00
         0.30000E+00
         0.30000E+00
         0.30000E+00
         0.30000E+00
         0.30000E+00
         0.30000E+00
         0.30000E+00
         0.30000E+00
         0.30000E+00
         0.30000E+00
         0.30000E+00
         0.30000E+00
         0.30000E+00
         0.30000E+00
         0.30000E+00
         0.30000E+00
         0.30000E+00
         0.30000E+00
         0.30000E+00
         0.30000E+00
         0.30000E+00
         0.30000E+00
         0.30000E+00
         0.30000E+00
         0.30000E+00
         0.30000E+00
         0.30000E+00
         0.30000E+00
         0.30000E+00
         0.30000E+00
         0.30000E+00
         0.30000E+00
         0.30000E+00
         0.30000E+00
         0.30000E+00
         0.30000E+00
         0.30000E+00
         0.30000E+00
         0.30000E+00
         0.30000E+00
         0.30000E+00
         0.30000E+00
         0.30000E+00
         0.30000E+00
         0.30000E+00
         0.30000E+00
         0.30000E+00
         0.30000E+00
         0.30000E+00
         0.30000E+00
         0.30000E+00
         0.30000E+00
         0.30000E+00
         0.30000E+00
         0.30000E+00
         0.30000E+00
         0.30000E+00
         0.30000E+00
         0.30000E+00
         0.30000E+00
         0.30000E+00
         0.30000E+00
         0.30000E+00
         0.30000E+00
         0.30000E+00
         0.30000E+00
         0.30000E+00
         0.30000E+00
         0.30000E+00
         0.30000E+00
         0.30000E+00
         0.30000E+00
         0.30000E+00
         0.30000E+00
         0.30000E+00
         0.30000E+00
         0.30000E+00
         0.30000E+00
         0.30000E+00
         0.30000E+00
         0.30000E+00
         0.30000E+00
         0.30000E+00
         0.30000E+00
         0.30000E+00
         0.30000E+00
         0.30000E+00
         0.30000E+00
         0.30000E+00
         0.30000E+00
         0.30000E+00
         0.30000E+00
         0.30000E+00
         0.30000E+00
         0.30000E+00
         0.30000E+00
         0.30000E+00
         0.30000E+00
         0.30000E+00
         0.30000E+00
         0.30000E+00
         0.30000E+00
         0.30000E+00
         0.30000E+00
         0.30000E+00
         0.30000E+00
         0.30000E+00
         0.30000E+00
         0.30000E+00
         0.30000E+00
         0.30000E+00
         0.30000E+00
         0.30000E+00
         0.30000E+00
         0.30000E+00
         0.30000E+00
         0.30000E+00
         0.30000E+00
         0.30000E+00
         0.30000E+00
         0.30000E+00
         0.30000E+00
         0.30000E+00
         0.30000E+00
         0.30000E+00
         0.30000E+00
         0.30000E+00
         0.30000E+00
         0.30000E+00
         0.30000E+00
         0.30000E+00
         0.30000E+00
         0.30000E+00
         0.30000E+00
         0.30000E+00
         0.30000E+00
         0.30000E+00
         0.30000E+00
         0.30000E+00
         0.30000E+00
         0.30000E+00
         0.30000E+00
         0.30000E+00
         0.30000E+00
         0.30000E+00
         0.30000E+00
         0.30000E+00
         0.30000E+00
         0.30000E+00
         0.30000E+00
         0.30000E+00
         0.30000E+00
         0.30000E+00
         0.30000E+00
         0.30000E+00
         0.30000E+00
         0.30000E+00
         0.30000E+00
         0.30000E+00
         0.30000E+00
         0.30000E+00
         0.30000E+00
         0.30000E+00
         0.30000E+00
         0.30000E+00
         0.30000E+00
         0.30000E+00
         0.30000E+00
         0.30000E+00
         0.30000E+00
         0.30000E+00
         0.30000E+00
         0.30000E+00
         0.30000E+00
         0.30000E+00
         0.30000E+00
         0.30000E+00
         0.30000E+00
         0.30000E+00
         0.30000E+00
         0.30000E+00
         0.30000E+00
         0.30000E+00
         0.30000E+00
         0.30000E+00
         0.30000E+00
         0.30000E+00
         0.30000E+00
         0.30000E+00
         0.30000E+00
         0.30000E+00
         0.30000E+00
         0.30000E+00
         0.30000E+00
         0.30000E+00
         0.30000E+00
         0.30000E+00
         0.30000E+00
         0.30000E+00
         0.30000E+00
         0.30000E+00
         0.30000E+00
         0.30000E+00
         0.30000E+00
         0.30000E+00
         0.30000E+00
         0.30000E+00
         0.30000E+00
         0.30000E+00
         0.30000E+00
         0.30000E+00
         0.30000E+00
         0.30000E+00
         0.30000E+00
         0.30000E+00
         0.30000E+00
         0.30000E+00
         0.30000E+00
         0.30000E+00
         0.30000E+00
         0.30000E+00
         0.30000E+00
         0.30000E+00
         0.30000E+00
         0.30000E+00
         0.30000E+00
         0.30000E+00
         0.30000E+00
         0.30000E+00
         0.30000E+00
         0.30000E+00
         0.30000E+00
         0.30000E+00
         0.30000E+00
         0.30000E+00
         0.30000E+00
         0.30000E+00
         0.30000E+00
         0.30000E+00
         0.30000E+00
         0.30000E+00
         0.30000E+00
         0.30000E+00
         0.30000E+00
         0.30000E+00
         0.30000E+00
         0.30000E+00
         0.30000E+00
         0.30000E+00
         0.30000E+00
         0.30000E+00
         0.30000E+00
         0.30000E+00
         0.30000E+00
         0.30000E+00
         0.30000E+00
         0.30000E+00
         0.30000E+00
         0.30000E+00
         0.30000E+00
         0.30000E+00
         0.30000E+00
         0.30000E+00
         0.30000E+00
         0.30000E+00
         0.30000E+00
         0.30000E+00
         0.30000E+00
         0.30000E+00
         0.30000E+00
         0.30000E+00
         0.30000E+00
         0.30000E+00
         0.30000E+00
         0.30000E+00
         0.30000E+00
         0.30000E+00
         0.30000E+00
         0.30000E+00
         0.30000E+00
         0.30000E+00
         0.30000E+00
         0.30000E+00
         0.30000E+00
         0.30000E+00
         0.30000E+00
         0.30000E+00
         0.30000E+00
         0.30000E+00
         0.30000E+00
         0.30000E+00
         0.30000E+00
         0.30000E+00
         0.30000E+00
         0.30000E+00
         0.30000E+00
         0.30000E+00
         0.30000E+00
         0.30000E+00
         0.30000E+00
         0.30000E+00
         0.30000E+00
         0.30000E+00
         0.30000E+00
         0.30000E+00
         0.30000E+00
         0.30000E+00
         0.30000E+00
         0.30000E+00
         0.30000E+00
         0.30000E+00
         0.30000E+00
         0.30000E+00
         0.30000E+00
         0.30000E+00
         0.30000E+00
         0.30000E+00
         0.30000E+00
         0.30000E+00
         0.30000E+00
         0.30000E+00
         0.30000E+00
         0.30000E+00
         0.30000E+00
         0.30000E+00
         0.30000E+00
         0.30000E+00
         0.30000E+00
         0.30000E+00
         0.30000E+00
         0.30000E+00
         0.30000E+00
         0.30000E+00
         0.30000E+00
         0.30000E+00
         0.30000E+00
         0.30000E+00
         0.30000E+00
         0.30000E+00
         0.30000E+00
         0.30000E+00
         0.30000E+00
         0.30000E+00
         0.30000E+00
         0.30000E+00
         0.30000E+00
         0.30000E+00
         0.30000E+00
         0.30000E+00
         0.30000E+00
         0.30000E+00
         0.30000E+00
         0.30000E+00
         0.30000E+00
         0.30000E+00
         0.30000E+00
         0.30000E+00
         0.30000E+00
         0.30000E+00
         0.30000E+00
         0.30000E+00
         0.30000E+00
         0.30000E+00
         0.30000E+00
         0.30000E+00
         0.30000E+00
         0.30000E+00
         0.30000E+00
         0.30000E+00
         0.30000E+00
         0.30000E+00
         0.30000E+00
         0.30000E+00
         0.30000E+00
         0.30000E+00
         0.30000E+00
         0.30000E+00
         0.30000E+00
         0.30000E+00
         0.30000E+00
         0.30000E+00
         0.30000E+00
         0.30000E+00
         0.30000E+00
         0.30000E+00
         0.30000E+00
         0.30000E+00
         0.30000E+00
         0.30000E+00
         0.30000E+00
         0.30000E+00
         0.30000E+00
         0.30000E+00
         0.30000E+00
         0.30000E+00
         0.30000E+00
         0.30000E+00
         0.30000E+00
         0.30000E+00
         0.30000E+00
         0.30000E+00
         0.30000E+00
         0.30000E+00
         0.30000E+00
         0.30000E+00
         0.30000E+00
         0.30000E+00
         0.30000E+00
         0.30000E+00
         0.30000E+00
         0.30000E+00
         0.30000E+00
         0.30000E+00
         0.30000E+00
         0.30000E+00
         0.30000E+00
         0.30000E+00
         0.30000E+00
         0.30000E+00
         0.30000E+00
         0.30000E+00
         0.30000E+00
         0.30000E+00
         0.30000E+00
         0.30000E+00
         0.30000E+00
         0.30000E+00
         0.30000E+00
         0.30000E+00
         0.30000E+00
         0.30000E+00
         0.30000E+00
         0.30000E+00
         0.30000E+00
         0.30000E+00
         0.30000E+00
         0.30000E+00
         0.30000E+00
         0.30000E+00
         0.30000E+00
         0.30000E+00
         0.30000E+00
         0.30000E+00
         0.30000E+00
         0.30000E+00
         0.30000E+00
         0.30000E+00
         0.30000E+00
         0.30000E+00
         0.30000E+00
         0.30000E+00
         0.30000E+00
         0.30000E+00
         0.30000E+00
         0.30000E+00
         0.30000E+00
         0.30000E+00
         0.30000E+00
         0.30000E+00
         0.30000E+00
         0.30000E+00
         0.30000E+00
         0.30000E+00
         0.30000E+00
         0.30000E+00
         0.30000E+00
         0.30000E+00
         0.30000E+00
         0.30000E+00
         0.30000E+00
         0.30000E+00
         0.30000E+00
         0.30000E+00
         0.30000E+00
         0.30000E+00
         0.30000E+00
         0.30000E+00
         0.30000E+00
         0.30000E+00
         0.30000E+00
         0.30000E+00
         0.30000E+00
         0.30000E+00
         0.30000E+00
         0.30000E+00
         0.30000E+00
         0.30000E+00
         0.30000E+00
         0.30000E+00
         0.30000E+00
         0.30000E+00
         0.30000E+00
         0.30000E+00
         0.30000E+00
         0.30000E+00
         0.30000E+00
         0.30000E+00
         0.30000E+00
         0.30000E+00
         0.30000E+00
         0.30000E+00
         0.30000E+00
         0.30000E+00
         0.30000E+00
         0.30000E+00
         0.30000E+00
         0.30000E+00
         0.30000E+00
         0.30000E+00
         0.30000E+00
         0.30000E+00
         0.30000E+00
         0.30000E+00
         0.30000E+00
         0.30000E+00
         0.30000E+00
         0.30000E+00
         0.30000E+00
         0.30000E+00
         0.30000E+00
         0.30000E+00
         0.30000E+00
         0.30000E+00
         0.30000E+00
         0.30000E+00
         0.30000E+00
         0.30000E+00
         0.30000E+00
         0.30000E+00
         0.30000E+00
         0.30000E+00
         0.30000E+00
         0.30000E+00
         0.30000E+00
         0.30000E+00
         0.30000E+00
         0.30000E+00
         0.30000E+00
         0.30000E+00
         0.30000E+00
         0.30000E+00
         0.30000E+00
         0.30000E+00
         0.30000E+00
         0.30000E+00
         0.30000E+00
         0.30000E+00
         0.30000E+00
         0.30000E+00
         0.30000E+00
         0.30000E+00
         0.30000E+00
         0.30000E+00
         0.30000E+00
         0.30000E+00
         0.30000E+00
         0.30000E+00
         0.30000E+00
         0.30000E+00
         0.30000E+00
         0.30000E+00
         0.30000E+00
         0.30000E+00
         0.30000E+00
         0.30000E+00
         0.30000E+00
         0.30000E+00
         0.30000E+00
         0.30000E+00
         0.30000E+00
         0.30000E+00
         0.30000E+00
         0.30000E+00
         0.30000E+00
         0.30000E+00
         0.30000E+00
         0.30000E+00
         0.30000E+00
         0.30000E+00
         0.30000E+00
         0.30000E+00
         0.30000E+00
         0.30000E+00
         0.30000E+00
         0.30000E+00
         0.30000E+00
         0.30000E+00
         0.30000E+00
         0.30000E+00
         0.30000E+00
         0.30000E+00
         0.30000E+00
         0.30000E+00
         0.30000E+00
         0.30000E+00
         0.30000E+00
         0.30000E+00
         0.30000E+00
         0.30000E+00
         0.30000E+00
         0.30000E+00
         0.30000E+00
         0.30000E+00
         0.30000E+00
         0.30000E+00
         0.30000E+00
         0.30000E+00
         0.30000E+00
         0.30000E+00
         0.30000E+00
         0.30000E+00
         0.30000E+00
         0.30000E+00
         0.30000E+00
         0.30000E+00
         0.30000E+00
         0.30000E+00
         0.30000E+00
         0.30000E+00
         0.30000E+00
         0.30000E+00
         0.30000E+00
         0.30000E+00
         0.30000E+00
         0.30000E+00
         0.30000E+00
         0.30000E+00
         0.30000E+00
         0.30000E+00
         0.30000E+00
         0.30000E+00
         0.30000E+00
         0.30000E+00
         0.30000E+00
         0.30000E+00
         0.30000E+00
         0.30000E+00
         0.30000E+00
         0.30000E+00
         0.30000E+00
         0.30000E+00
         0.30000E+00
         0.30000E+00
         0.30000E+00
         0.30000E+00
         0.30000E+00
         0.30000E+00
         0.30000E+00
         0.30000E+00
         0.30000E+00
         0.30000E+00
         0.30000E+00
         0.30000E+00
         0.30000E+00
         0.30000E+00
         0.30000E+00
         0.30000E+00
         0.30000E+00
         0.30000E+00
         0.30000E+00
         0.30000E+00
         0.30000E+00
         0.30000E+00
         0.30000E+00
         0.30000E+00
         0.30000E+00
         0.30000E+00
         0.30000E+00
         0.30000E+00
         0.30000E+00
         0.30000E+00
         0.30000E+00
         0.30000E+00
         0.30000E+00
         0.30000E+00
         0.30000E+00
         0.30000E+00
         0.30000E+00
         0.30000E+00
         0.30000E+00
         0.30000E+00
         0.30000E+00
         0.30000E+00
         0.30000E+00
         0.30000E+00
         0.30000E+00
         0.30000E+00
         0.30000E+00
         0.30000E+00
         0.30000E+00
         0.30000E+00
         0.30000E+00
         0.30000E+00
         0.30000E+00
         0.30000E+00
         0.30000E+00
         0.30000E+00
         0.30000E+00
         0.30000E+00
         0.30000E+00
         0.30000E+00
         0.30000E+00
         0.30000E+00
         0.30000E+00
         0.30000E+00
         0.30000E+00
         0.30000E+00
         0.30000E+00
         0.30000E+00
         0.30000E+00
         0.30000E+00
         0.30000E+00
         0.30000E+00
         0.30000E+00
         0.30000E+00
         0.30000E+00
         0.30000E+00
         0.30000E+00
         0.30000E+00
         0.30000E+00
         0.30000E+00
         0.30000E+00
         0.30000E+00
         0.30000E+00
         0.30000E+00
         0.30000E+00
         0.30000E+00
         0.30000E+00
         0.30000E+00
         0.30000E+00
         0.30000E+00
         0.30000E+00
         0.30000E+00
         0.30000E+00
         0.30000E+00
         0.30000E+00
         0.30000E+00
         0.30000E+00
         0.30000E+00
         0.30000E+00
         0.30000E+00
         0.30000E+00
         0.30000E+00
         0.30000E+00
         0.30000E+00
         0.30000E+00
         0.30000E+00
         0.30000E+00
         0.30000E+00
         0.30000E+00
         0.30000E+00
         0.30000E+00
         0.30000E+00
         0.30000E+00
         0.30000E+00
         0.30000E+00
         0.30000E+00
         0.30000E+00
         0.30000E+00
         0.30000E+00
         0.30000E+00
         0.30000E+00
         0.30000E+00
         0.30000E+00
         0.30000E+00
         0.30000E+00
         0.30000E+00
         0.30000E+00
         0.30000E+00
         0.30000E+00
         0.30000E+00
         0.30000E+00
         0.30000E+00
         0.30000E+00
         0.30000E+00
         0.30000E+00
         0.30000E+00
         0.30000E+00
         0.30000E+00
         0.30000E+00
         0.30000E+00
         0.30000E+00
         0.30000E+00
         0.30000E+00
         0.30000E+00
         0.30000E+00
         0.30000E+00
         0.30000E+00
         0.30000E+00
         0.30000E+00
         0.30000E+00
         0.30000E+00
         0.30000E+00
         0.30000E+00
         0.30000E+00
         0.30000E+00
         0.30000E+00
         0.30000E+00
         0.30000E+00
         0.30000E+00
         0.30000E+00
         0.30000E+00
         0.30000E+00
         0.30000E+00
         0.30000E+00
         0.30000E+00
         0.30000E+00
         0.30000E+00
         0.30000E+00
         0.30000E+00
         0.30000E+00
         0.30000E+00
         0.30000E+00
         0.30000E+00
         0.30000E+00
         0.30000E+00
         0.30000E+00
         0.30000E+00
         0.30000E+00
         0.30000E+00
         0.30000E+00
         0.30000E+00
         0.30000E+00
         0.30000E+00
         0.30000E+00
         0.30000E+00
         0.30000E+00
         0.30000E+00
         0.30000E+00
         0.30000E+00
         0.30000E+00
         0.30000E+00
         0.30000E+00
         0.30000E+00
         0.30000E+00
         0.30000E+00
         0.30000E+00
         0.30000E+00
         0.30000E+00
         0.30000E+00
         0.30000E+00
         0.30000E+00
         0.30000E+00
         0.30000E+00
         0.30000E+00
         0.30000E+00
         0.30000E+00
         0.30000E+00
         0.30000E+00
         0.30000E+00
         0.30000E+00
         0.30000E+00
         0.30000E+00
         0.30000E+00
         0.30000E+00
         0.30000E+00
         0.30000E+00
         0.30000E+00
         0.30000E+00
         0.30000E+00
         0.30000E+00
         0.30000E+00
         0.30000E+00
         0.30000E+00
         0.30000E+00
         0.30000E+00
         0.30000E+00
         0.30000E+00
         0.30000E+00
         0.30000E+00
         0.30000E+00
         0.30000E+00
         0.30000E+00
         0.30000E+00
         0.30000E+00
         0.30000E+00
         0.30000E+00
         0.30000E+00
         0.30000E+00
         0.30000E+00
         0.30000E+00
         0.30000E+00
         0.30000E+00
         0.30000E+00
         0.30000E+00
         0.30000E+00
         0.30000E+00
         0.30000E+00
         0.30000E+00
         0.30000E+00
         0.30000E+00
         0.30000E+00
         0.30000E+00
         0.30000E+00
         0.30000E+00
         0.30000E+00
         0.30000E+00
         0.30000E+00
         0.30000E+00
         0.30000E+00
         0.30000E+00
         0.30000E+00
         0.30000E+00
         0.30000E+00
         0.30000E+00
         0.30000E+00
         0.30000E+00
         0.30000E+00
         0.30000E+00
         0.30000E+00
         0.30000E+00
         0.30000E+00
         0.30000E+00
         0.30000E+00
         0.30000E+00
         0.30000E+00
         0.30000E+00
         0.30000E+00
         0.30000E+00
         0.30000E+00
         0.30000E+00
         0.30000E+00
         0.30000E+00
         0.30000E+00
         0.30000E+00
         0.30000E+00
         0.30000E+00
         0.30000E+00
         0.30000E+00
         0.30000E+00
         0.30000E+00
         0.30000E+00
         0.30000E+00
         0.30000E+00
         0.30000E+00
         0.30000E+00
         0.30000E+00
         0.30000E+00
         0.30000E+00
         0.30000E+00
         0.30000E+00
         0.30000E+00
         0.30000E+00
         0.30000E+00
         0.30000E+00
         0.30000E+00
         0.30000E+00
         0.30000E+00
         0.30000E+00
         0.30000E+00
         0.30000E+00
         0.30000E+00
         0.30000E+00
         0.30000E+00
         0.30000E+00
         0.30000E+00
         0.30000E+00
         0.30000E+00
         0.30000E+00
         0.30000E+00
         0.30000E+00
         0.30000E+00
         0.30000E+00
         0.30000E+00
         0.30000E+00
         0.30000E+00
         0.30000E+00
         0.30000E+00
         0.30000E+00
         0.30000E+00
         0.30000E+00
         0.30000E+00
         0.30000E+00
         0.30000E+00
         0.30000E+00
         0.30000E+00
         0.30000E+00
         0.30000E+00
         0.30000E+00
         0.30000E+00
         0.30000E+00
         0.30000E+00
         0.30000E+00
         0.30000E+00
         0.30000E+00
         0.30000E+00
         0.30000E+00
         0.30000E+00
         0.30000E+00
         0.30000E+00
         0.30000E+00
         0.30000E+00
         0.30000E+00
         0.30000E+00
         0.30000E+00
         0.30000E+00
         0.30000E+00
         0.30000E+00
         0.30000E+00
         0.30000E+00
         0.30000E+00
         0.30000E+00
         0.30000E+00
         0.30000E+00
         0.30000E+00
         0.30000E+00
         0.30000E+00
         0.30000E+00
         0.30000E+00
         0.30000E+00
         0.30000E+00
         0.30000E+00
         0.30000E+00
         0.30000E+00
         0.30000E+00
         0.30000E+00
         0.30000E+00
         0.30000E+00
         0.30000E+00
         0.30000E+00
         0.30000E+00
         0.30000E+00
         0.30000E+00
         0.30000E+00
         0.30000E+00
         0.30000E+00
         0.30000E+00
         0.30000E+00
         0.30000E+00
         0.30000E+00
         0.30000E+00
         0.30000E+00
         0.30000E+00
         0.30000E+00
         0.30000E+00
         0.30000E+00
         0.30000E+00
         0.30000E+00
         0.30000E+00
         0.30000E+00
         0.30000E+00
         0.30000E+00
         0.30000E+00
         0.30000E+00
         0.30000E+00
         0.30000E+00
         0.30000E+00
         0.30000E+00
         0.30000E+00
         0.30000E+00
         0.30000E+00
         0.30000E+00
         0.30000E+00
         0.30000E+00
         0.30000E+00
         0.30000E+00
         0.30000E+00
         0.30000E+00
         0.30000E+00
         0.30000E+00
         0.30000E+00
         0.30000E+00
         0.30000E+00
         0.30000E+00
         0.30000E+00
         0.30000E+00
         0.30000E+00
         0.30000E+00
         0.30000E+00
         0.30000E+00
         0.30000E+00
         0.30000E+00
         0.30000E+00
         0.30000E+00
         0.30000E+00
         0.30000E+00
         0.30000E+00
         0.30000E+00
         0.30000E+00
         0.30000E+00
         0.30000E+00
         0.30000E+00
         0.30000E+00
         0.30000E+00
         0.30000E+00
         0.30000E+00
         0.30000E+00
         0.30000E+00
         0.30000E+00
         0.30000E+00
         0.30000E+00
         0.30000E+00
         0.30000E+00
         0.30000E+00
         0.30000E+00
         0.30000E+00
         0.30000E+00
         0.30000E+00
         0.30000E+00
         0.30000E+00
         0.30000E+00
         0.30000E+00
         0.30000E+00
         0.30000E+00
         0.30000E+00
         0.30000E+00
         0.30000E+00
         0.30000E+00
         0.30000E+00
         0.30000E+00
         0.30000E+00
         0.30000E+00
         0.30000E+00
         0.30000E+00
         0.30000E+00
         0.30000E+00
         0.30000E+00
         0.30000E+00
         0.30000E+00
         0.30000E+00
         0.30000E+00
         0.30000E+00
         0.30000E+00
         0.30000E+00
         0.30000E+00
         0.30000E+00
         0.30000E+00
         0.30000E+00
         0.30000E+00
         0.30000E+00
         0.30000E+00
         0.30000E+00
         0.30000E+00
         0.30000E+00
         0.30000E+00
         0.30000E+00
         0.30000E+00
         0.30000E+00
         0.30000E+00
         0.30000E+00
         0.30000E+00
         0.30000E+00
         0.30000E+00
         0.30000E+00
         0.30000E+00
         0.30000E+00
         0.30000E+00
         0.30000E+00
         0.30000E+00
         0.30000E+00
         0.30000E+00
         0.30000E+00
         0.30000E+00
         0.30000E+00
         0.30000E+00
         0.30000E+00
         0.30000E+00
         0.30000E+00
         0.30000E+00
         0.30000E+00
         0.30000E+00
         0.30000E+00
         0.30000E+00
         0.30000E+00
         0.30000E+00
         0.30000E+00
         0.30000E+00
         0.30000E+00
         0.30000E+00
         0.30000E+00
         0.30000E+00
         0.30000E+00
         0.30000E+00
         0.30000E+00
         0.30000E+00
         0.30000E+00
         0.30000E+00
         0.30000E+00
         0.30000E+00
         0.30000E+00
         0.30000E+00
         0.30000E+00
         0.30000E+00
         0.30000E+00
         0.30000E+00
         0.30000E+00
         0.30000E+00
         0.30000E+00
         0.30000E+00
         0.30000E+00
         0.30000E+00
         0.30000E+00
         0.30000E+00
         0.30000E+00
         0.30000E+00
         0.30000E+00
         0.30000E+00
         0.30000E+00
         0.30000E+00
         0.30000E+00
         0.30000E+00
         0.30000E+00
         0.30000E+00
         0.30000E+00
         0.30000E+00
         0.30000E+00
         0.30000E+00
         0.30000E+00
         0.30000E+00
         0.30000E+00
         0.30000E+00
         0.30000E+00
         0.30000E+00
         0.30000E+00
         0.30000E+00
         0.30000E+00
         0.30000E+00
         0.30000E+00
         0.30000E+00
         0.30000E+00
         0.30000E+00
         0.30000E+00
         0.30000E+00
         0.30000E+00
         0.30000E+00
         0.30000E+00
         0.30000E+00
         0.30000E+00
         0.30000E+00
         0.30000E+00
         0.30000E+00
         0.30000E+00
         0.30000E+00
         0.30000E+00
         0.30000E+00
         0.30000E+00
         0.30000E+00
         0.30000E+00
         0.30000E+00
         0.30000E+00
         0.30000E+00
         0.30000E+00
         0.30000E+00
         0.30000E+00
         0.30000E+00
         0.30000E+00
         0.30000E+00
         0.30000E+00
         0.30000E+00
         0.30000E+00
         0.30000E+00
         0.30000E+00
         0.30000E+00
         0.30000E+00
         0.30000E+00
         0.30000E+00
         0.30000E+00
         0.30000E+00
         0.30000E+00
         0.30000E+00
         0.30000E+00
         0.30000E+00
         0.30000E+00
         0.30000E+00
         0.30000E+00
         0.30000E+00
         0.30000E+00
         0.30000E+00
         0.30000E+00
         0.30000E+00
         0.30000E+00
         0.30000E+00
         0.30000E+00
         0.30000E+00
         0.30000E+00
         0.30000E+00
         0.30000E+00
         0.30000E+00
         0.30000E+00
         0.30000E+00
         0.30000E+00
         0.30000E+00
         0.30000E+00
         0.30000E+00
         0.30000E+00
         0.30000E+00
         0.30000E+00
         0.30000E+00
         0.30000E+00
         0.30000E+00
         0.30000E+00
         0.30000E+00
         0.30000E+00
         0.30000E+00
         0.30000E+00
         0.30000E+00
         0.30000E+00
         0.30000E+00
         0.30000E+00
         0.30000E+00
         0.30000E+00
         0.30000E+00
         0.30000E+00
         0.30000E+00
         0.30000E+00
         0.30000E+00
         0.30000E+00
         0.30000E+00
         0.30000E+00
         0.30000E+00
         0.30000E+00
         0.30000E+00
         0.30000E+00
         0.30000E+00
         0.30000E+00
         0.30000E+00
         0.30000E+00
         0.30000E+00
         0.30000E+00
         0.30000E+00
         0.30000E+00
         0.30000E+00
         0.30000E+00
         0.30000E+00
         0.30000E+00
         0.30000E+00
         0.30000E+00
         0.30000E+00
         0.30000E+00
         0.30000E+00
         0.30000E+00
         0.30000E+00
         0.30000E+00
         0.30000E+00
         0.30000E+00
         0.30000E+00
         0.30000E+00
         0.30000E+00
         0.30000E+00
         0.30000E+00
         0.30000E+00
         0.30000E+00
         0.30000E+00
         0.30000E+00
         0.30000E+00
         0.30000E+00
         0.30000E+00
         0.30000E+00
         0.30000E+00
         0.30000E+00
         0.30000E+00
         0.30000E+00
         0.30000E+00
         0.30000E+00
         0.30000E+00
         0.30000E+00
         0.30000E+00
         0.30000E+00
         0.30000E+00
         0.30000E+00
         0.30000E+00
         0.30000E+00
         0.30000E+00
         0.30000E+00
         0.30000E+00
         0.30000E+00
         0.30000E+00
         0.30000E+00
         0.30000E+00
         0.30000E+00
         0.30000E+00
         0.30000E+00
         0.30000E+00
         0.30000E+00
         0.30000E+00
         0.30000E+00
         0.30000E+00
         0.30000E+00
         0.30000E+00
         0.30000E+00
         0.30000E+00
         0.30000E+00
         0.30000E+00
         0.30000E+00
         0.30000E+00
         0.30000E+00
         0.30000E+00
         0.30000E+00
         0.30000E+00
         0.30000E+00
         0.30000E+00
         0.30000E+00
         0.30000E+00
         0.30000E+00
         0.30000E+00
         0.30000E+00
         0.30000E+00
         0.30000E+00
         0.30000E+00
         0.30000E+00
         0.30000E+00
         0.30000E+00
         0.30000E+00
         0.30000E+00
         0.30000E+00
         0.30000E+00
         0.30000E+00
         0.30000E+00
         0.30000E+00
         0.30000E+00
         0.30000E+00
         0.30000E+00
         0.30000E+00
         0.30000E+00
         0.30000E+00
         0.30000E+00
         0.30000E+00
         0.30000E+00
         0.30000E+00
         0.30000E+00
         0.30000E+00
         0.30000E+00
         0.30000E+00
         0.30000E+00
         0.30000E+00
         0.30000E+00
         0.30000E+00
         0.30000E+00
         0.30000E+00
         0.30000E+00
         0.30000E+00
         0.30000E+00
         0.30000E+00
         0.30000E+00
         0.30000E+00
         0.30000E+00
         0.30000E+00
         0.30000E+00
         0.30000E+00
         0.30000E+00
         0.30000E+00
         0.30000E+00
         0.30000E+00
         0.30000E+00
         0.30000E+00
         0.30000E+00
         0.30000E+00
         0.30000E+00
         0.30000E+00
         0.30000E+00
         0.30000E+00
         0.30000E+00
         0.30000E+00
         0.30000E+00
         0.30000E+00
         0.30000E+00
         0.30000E+00
         0.30000E+00
         0.30000E+00
         0.30000E+00
         0.30000E+00
         0.30000E+00
         0.30000E+00
         0.30000E+00
         0.30000E+00
         0.30000E+00
         0.30000E+00
         0.30000E+00
         0.30000E+00
         0.30000E+00
         0.30000E+00
         0.30000E+00
         0.30000E+00
         0.30000E+00
         0.30000E+00
         0.30000E+00
         0.30000E+00
         0.30000E+00
         0.30000E+00
         0.30000E+00
         0.30000E+00
         0.30000E+00
         0.30000E+00
         0.30000E+00
         0.30000E+00
         0.30000E+00
         0.30000E+00
         0.30000E+00
         0.30000E+00
         0.30000E+00
         0.30000E+00
         0.30000E+00
         0.30000E+00
         0.30000E+00
         0.30000E+00
         0.30000E+00
         0.30000E+00
         0.30000E+00
         0.30000E+00
         0.30000E+00
         0.30000E+00
         0.30000E+00
         0.30000E+00
         0.30000E+00
         0.30000E+00
         0.30000E+00
         0.30000E+00
         0.30000E+00
         0.30000E+00
         0.30000E+00
         0.30000E+00
         0.30000E+00
         0.30000E+00
         0.30000E+00
         0.30000E+00
         0.30000E+00
         0.30000E+00
         0.30000E+00
         0.30000E+00
         0.30000E+00
         0.30000E+00
         0.30000E+00
         0.30000E+00
         0.30000E+00
         0.30000E+00
         0.30000E+00
         0.30000E+00
         0.30000E+00
         0.30000E+00
         0.30000E+00
         0.30000E+00
         0.30000E+00
         0.30000E+00
         0.30000E+00
         0.30000E+00
         0.30000E+00
         0.30000E+00
         0.30000E+00
         0.30000E+00
         0.30000E+00
         0.30000E+00
         0.30000E+00
         0.30000E+00
         0.30000E+00
         0.30000E+00
         0.30000E+00
         0.30000E+00
         0.30000E+00
         0.30000E+00
         0.30000E+00
         0.30000E+00
         0.30000E+00
         0.30000E+00
         0.30000E+00
         0.30000E+00
         0.30000E+00
         0.30000E+00
         0.30000E+00
         0.30000E+00
         0.30000E+00
         0.30000E+00
         0.30000E+00
         0.30000E+00
         0.30000E+00
         0.30000E+00
         0.30000E+00
         0.30000E+00
         0.30000E+00
         0.30000E+00
         0.30000E+00
         0.30000E+00
         0.30000E+00
         0.30000E+00
         0.30000E+00
         0.30000E+00
         0.30000E+00
         0.30000E+00
         0.30000E+00
         0.30000E+00
         0.30000E+00
         0.30000E+00
         0.30000E+00
         0.30000E+00
         0.30000E+00
         0.30000E+00
         0.30000E+00
         0.30000E+00
         0.30000E+00
         0.30000E+00
         0.30000E+00
         0.30000E+00
         0.30000E+00
         0.30000E+00
         0.30000E+00
         0.30000E+00
         0.30000E+00
         0.30000E+00
         0.30000E+00
         0.30000E+00
         0.30000E+00
         0.30000E+00
         0.30000E+00
         0.30000E+00
         0.30000E+00
         0.30000E+00
         0.30000E+00
         0.30000E+00
         0.30000E+00
         0.30000E+00
         0.30000E+00
         0.30000E+00
         0.30000E+00
         0.30000E+00
         0.30000E+00
         0.30000E+00
         0.30000E+00
         0.30000E+00
         0.30000E+00
         0.30000E+00
         0.30000E+00
         0.30000E+00
         0.30000E+00
         0.30000E+00
         0.30000E+00
         0.30000E+00
         0.30000E+00
         0.30000E+00
         0.30000E+00
         0.30000E+00
         0.30000E+00
         0.30000E+00
         0.30000E+00
         0.30000E+00
         0.30000E+00
         0.30000E+00
         0.30000E+00
         0.30000E+00
         0.30000E+00
         0.30000E+00
         0.30000E+00
         0.30000E+00
         0.30000E+00
         0.30000E+00
         0.30000E+00
         0.30000E+00
         0.30000E+00
         0.30000E+00
         0.30000E+00
         0.30000E+00
         0.30000E+00
         0.30000E+00
         0.30000E+00
         0.30000E+00
         0.30000E+00
         0.30000E+00
         0.30000E+00
         0.30000E+00
         0.30000E+00
         0.30000E+00
         0.30000E+00
         0.30000E+00
         0.30000E+00
         0.30000E+00
         0.30000E+00
         0.30000E+00
         0.30000E+00
         0.30000E+00
         0.30000E+00
         0.30000E+00
         0.30000E+00
         0.30000E+00
         0.30000E+00
         0.30000E+00
         0.30000E+00
         0.30000E+00
         0.30000E+00
         0.30000E+00
         0.30000E+00
         0.30000E+00
         0.30000E+00
         0.30000E+00
         0.30000E+00
         0.30000E+00
         0.30000E+00
         0.30000E+00
         0.30000E+00
         0.30000E+00
         0.30000E+00
         0.30000E+00
         0.30000E+00
         0.30000E+00
         0.30000E+00
         0.30000E+00
         0.30000E+00
         0.30000E+00
         0.30000E+00
         0.30000E+00
         0.30000E+00
         0.30000E+00
         0.30000E+00
         0.30000E+00
         0.30000E+00
         0.30000E+00
         0.30000E+00
         0.30000E+00
         0.30000E+00
         0.30000E+00
         0.30000E+00
         0.30000E+00
         0.30000E+00
         0.30000E+00
         0.30000E+00
         0.30000E+00
         0.30000E+00
         0.30000E+00
         0.30000E+00
         0.30000E+00
         0.30000E+00
         0.30000E+00
         0.30000E+00
         0.30000E+00
         0.30000E+00
         0.30000E+00
         0.30000E+00
         0.30000E+00
         0.30000E+00
         0.30000E+00
         0.30000E+00
         0.30000E+00
         0.30000E+00
         0.30000E+00
         0.30000E+00
         0.30000E+00
         0.30000E+00
         0.30000E+00
         0.30000E+00
         0.30000E+00
         0.30000E+00
         0.30000E+00
         0.30000E+00
         0.30000E+00
         0.30000E+00
         0.30000E+00
         0.30000E+00
         0.30000E+00
         0.30000E+00
         0.30000E+00
         0.30000E+00
         0.30000E+00
         0.30000E+00
         0.30000E+00
         0.30000E+00
         0.30000E+00
         0.30000E+00
         0.30000E+00
         0.30000E+00
         0.30000E+00
         0.30000E+00
         0.30000E+00
  
SCALARS                 Youngs_modulus  double 1
LOOKUP_TABLE default
         0.78200E+11
         0.78200E+11
         0.78200E+11
         0.78200E+11
         0.78200E+11
         0.78200E+11
         0.78200E+11
         0.78200E+11
         0.78200E+11
         0.78200E+11
         0.78200E+11
         0.78200E+11
         0.78200E+11
         0.78200E+11
         0.78200E+11
         0.78200E+11
         0.78200E+11
         0.78200E+11
         0.78200E+11
         0.78200E+11
         0.78200E+11
         0.78200E+11
         0.78200E+11
         0.78200E+11
         0.78200E+11
         0.78200E+11
         0.78200E+11
         0.78200E+11
         0.78200E+11
         0.78200E+11
         0.78200E+11
         0.78200E+11
         0.78200E+11
         0.78200E+11
         0.78200E+11
         0.78200E+11
         0.78200E+11
         0.78200E+11
         0.78200E+11
         0.78200E+11
         0.78200E+11
         0.78200E+11
         0.78200E+11
         0.78200E+11
         0.78200E+11
         0.78200E+11
         0.78200E+11
         0.78200E+11
         0.78200E+11
         0.78200E+11
         0.78200E+11
         0.78200E+11
         0.78200E+11
         0.78200E+11
         0.78200E+11
         0.78200E+11
         0.78200E+11
         0.78200E+11
         0.78200E+11
         0.78200E+11
         0.78200E+11
         0.78200E+11
         0.78200E+11
         0.78200E+11
         0.78200E+11
         0.78200E+11
         0.78200E+11
         0.78200E+11
         0.78200E+11
         0.78200E+11
         0.78200E+11
         0.78200E+11
         0.78200E+11
         0.78200E+11
         0.78200E+11
         0.78200E+11
         0.78200E+11
         0.78200E+11
         0.78200E+11
         0.78200E+11
         0.78200E+11
         0.78200E+11
         0.78200E+11
         0.78200E+11
         0.78200E+11
         0.78200E+11
         0.78200E+11
         0.78200E+11
         0.78200E+11
         0.78200E+11
         0.78200E+11
         0.78200E+11
         0.78200E+11
         0.78200E+11
         0.78200E+11
         0.78200E+11
         0.78200E+11
         0.78200E+11
         0.78200E+11
         0.78200E+11
         0.78200E+11
         0.78200E+11
         0.78200E+11
         0.78200E+11
         0.78200E+11
         0.78200E+11
         0.78200E+11
         0.78200E+11
         0.78200E+11
         0.78200E+11
         0.78200E+11
         0.78200E+11
         0.78200E+11
         0.78200E+11
         0.78200E+11
         0.78200E+11
         0.78200E+11
         0.78200E+11
         0.78200E+11
         0.78200E+11
         0.78200E+11
         0.78200E+11
         0.78200E+11
         0.78200E+11
         0.78200E+11
         0.78200E+11
         0.78200E+11
         0.78200E+11
         0.78200E+11
         0.78200E+11
         0.78200E+11
         0.78200E+11
         0.78200E+11
         0.78200E+11
         0.78200E+11
         0.78200E+11
         0.78200E+11
         0.78200E+11
         0.78200E+11
         0.78200E+11
         0.78200E+11
         0.78200E+11
         0.78200E+11
         0.78200E+11
         0.78200E+11
         0.78200E+11
         0.78200E+11
         0.78200E+11
         0.78200E+11
         0.78200E+11
         0.78200E+11
         0.78200E+11
         0.78200E+11
         0.78200E+11
         0.78200E+11
         0.78200E+11
         0.78200E+11
         0.78200E+11
         0.78200E+11
         0.78200E+11
         0.78200E+11
         0.78200E+11
         0.78200E+11
         0.78200E+11
         0.78200E+11
         0.78200E+11
         0.78200E+11
         0.78200E+11
         0.78200E+11
         0.78200E+11
         0.78200E+11
         0.78200E+11
         0.78200E+11
         0.78200E+11
         0.78200E+11
         0.78200E+11
         0.78200E+11
         0.78200E+11
         0.78200E+11
         0.78200E+11
         0.78200E+11
         0.78200E+11
         0.78200E+11
         0.78200E+11
         0.78200E+11
         0.78200E+11
         0.78200E+11
         0.78200E+11
         0.78200E+11
         0.78200E+11
         0.78200E+11
         0.78200E+11
         0.78200E+11
         0.78200E+11
         0.78200E+11
         0.78200E+11
         0.78200E+11
         0.78200E+11
         0.78200E+11
         0.78200E+11
         0.78200E+11
         0.78200E+11
         0.78200E+11
         0.78200E+11
         0.78200E+11
         0.78200E+11
         0.78200E+11
         0.78200E+11
         0.78200E+11
         0.78200E+11
         0.78200E+11
         0.78200E+11
         0.78200E+11
         0.78200E+11
         0.78200E+11
         0.78200E+11
         0.78200E+11
         0.78200E+11
         0.78200E+11
         0.78200E+11
         0.78200E+11
         0.78200E+11
         0.78200E+11
         0.78200E+11
         0.78200E+11
         0.78200E+11
         0.78200E+11
         0.78200E+11
         0.78200E+11
         0.78200E+11
         0.78200E+11
         0.78200E+11
         0.78200E+11
         0.78200E+11
         0.78200E+11
         0.78200E+11
         0.78200E+11
         0.78200E+11
         0.78200E+11
         0.78200E+11
         0.78200E+11
         0.78200E+11
         0.78200E+11
         0.78200E+11
         0.78200E+11
         0.78200E+11
         0.78200E+11
         0.78200E+11
         0.78200E+11
         0.78200E+11
         0.78200E+11
         0.78200E+11
         0.78200E+11
         0.78200E+11
         0.78200E+11
         0.78200E+11
         0.78200E+11
         0.78200E+11
         0.78200E+11
         0.78200E+11
         0.78200E+11
         0.78200E+11
         0.78200E+11
         0.78200E+11
         0.78200E+11
         0.78200E+11
         0.78200E+11
         0.78200E+11
         0.78200E+11
         0.78200E+11
         0.78200E+11
         0.78200E+11
         0.78200E+11
         0.78200E+11
         0.78200E+11
         0.78200E+11
         0.78200E+11
         0.78200E+11
         0.78200E+11
         0.78200E+11
         0.78200E+11
         0.78200E+11
         0.78200E+11
         0.78200E+11
         0.78200E+11
         0.78200E+11
         0.78200E+11
         0.78200E+11
         0.78200E+11
         0.78200E+11
         0.78200E+11
         0.78200E+11
         0.78200E+11
         0.78200E+11
         0.78200E+11
         0.78200E+11
         0.78200E+11
         0.78200E+11
         0.78200E+11
         0.78200E+11
         0.78200E+11
         0.78200E+11
         0.78200E+11
         0.78200E+11
         0.78200E+11
         0.78200E+11
         0.78200E+11
         0.78200E+11
         0.78200E+11
         0.78200E+11
         0.78200E+11
         0.78200E+11
         0.78200E+11
         0.78200E+11
         0.78200E+11
         0.78200E+11
         0.78200E+11
         0.78200E+11
         0.78200E+11
         0.78200E+11
         0.78200E+11
         0.78200E+11
         0.78200E+11
         0.78200E+11
         0.78200E+11
         0.78200E+11
         0.78200E+11
         0.78200E+11
         0.78200E+11
         0.78200E+11
         0.78200E+11
         0.78200E+11
         0.78200E+11
         0.78200E+11
         0.78200E+11
         0.78200E+11
         0.78200E+11
         0.78200E+11
         0.78200E+11
         0.78200E+11
         0.78200E+11
         0.78200E+11
         0.78200E+11
         0.78200E+11
         0.78200E+11
         0.78200E+11
         0.78200E+11
         0.78200E+11
         0.78200E+11
         0.78200E+11
         0.78200E+11
         0.78200E+11
         0.78200E+11
         0.78200E+11
         0.78200E+11
         0.78200E+11
         0.78200E+11
         0.78200E+11
         0.78200E+11
         0.78200E+11
         0.78200E+11
         0.78200E+11
         0.78200E+11
         0.78200E+11
         0.78200E+11
         0.78200E+11
         0.78200E+11
         0.78200E+11
         0.78200E+11
         0.78200E+11
         0.78200E+11
         0.78200E+11
         0.78200E+11
         0.78200E+11
         0.78200E+11
         0.78200E+11
         0.78200E+11
         0.78200E+11
         0.78200E+11
         0.78200E+11
         0.78200E+11
         0.78200E+11
         0.78200E+11
         0.78200E+11
         0.78200E+11
         0.78200E+11
         0.78200E+11
         0.78200E+11
         0.78200E+11
         0.78200E+11
         0.78200E+11
         0.78200E+11
         0.78200E+11
         0.78200E+11
         0.78200E+11
         0.78200E+11
         0.78200E+11
         0.78200E+11
         0.78200E+11
         0.78200E+11
         0.78200E+11
         0.78200E+11
         0.78200E+11
         0.78200E+11
         0.78200E+11
         0.78200E+11
         0.78200E+11
         0.78200E+11
         0.78200E+11
         0.78200E+11
         0.78200E+11
         0.78200E+11
         0.78200E+11
         0.78200E+11
         0.78200E+11
         0.78200E+11
         0.78200E+11
         0.78200E+11
         0.78200E+11
         0.78200E+11
         0.78200E+11
         0.78200E+11
         0.78200E+11
         0.78200E+11
         0.78200E+11
         0.78200E+11
         0.78200E+11
         0.78200E+11
         0.78200E+11
         0.78200E+11
         0.78200E+11
         0.78200E+11
         0.78200E+11
         0.78200E+11
         0.78200E+11
         0.78200E+11
         0.78200E+11
         0.78200E+11
         0.78200E+11
         0.78200E+11
         0.78200E+11
         0.78200E+11
         0.78200E+11
         0.78200E+11
         0.78200E+11
         0.78200E+11
         0.78200E+11
         0.78200E+11
         0.78200E+11
         0.78200E+11
         0.78200E+11
         0.78200E+11
         0.78200E+11
         0.78200E+11
         0.78200E+11
         0.78200E+11
         0.78200E+11
         0.78200E+11
         0.78200E+11
         0.78200E+11
         0.78200E+11
         0.78200E+11
         0.78200E+11
         0.78200E+11
         0.78200E+11
         0.78200E+11
         0.78200E+11
         0.78200E+11
         0.78200E+11
         0.78200E+11
         0.78200E+11
         0.78200E+11
         0.78200E+11
         0.78200E+11
         0.78200E+11
         0.78200E+11
         0.78200E+11
         0.78200E+11
         0.78200E+11
         0.78200E+11
         0.78200E+11
         0.78200E+11
         0.78200E+11
         0.78200E+11
         0.78200E+11
         0.78200E+11
         0.78200E+11
         0.78200E+11
         0.78200E+11
         0.78200E+11
         0.78200E+11
         0.78200E+11
         0.78200E+11
         0.78200E+11
         0.78200E+11
         0.78200E+11
         0.78200E+11
         0.78200E+11
         0.78200E+11
         0.78200E+11
         0.78200E+11
         0.78200E+11
         0.78200E+11
         0.78200E+11
         0.78200E+11
         0.78200E+11
         0.78200E+11
         0.78200E+11
         0.78200E+11
         0.78200E+11
         0.78200E+11
         0.78200E+11
         0.78200E+11
         0.78200E+11
         0.78200E+11
         0.78200E+11
         0.78200E+11
         0.78200E+11
         0.78200E+11
         0.78200E+11
         0.78200E+11
         0.78200E+11
         0.78200E+11
         0.78200E+11
         0.78200E+11
         0.78200E+11
         0.78200E+11
         0.78200E+11
         0.78200E+11
         0.78200E+11
         0.78200E+11
         0.78200E+11
         0.78200E+11
         0.78200E+11
         0.78200E+11
         0.78200E+11
         0.78200E+11
         0.78200E+11
         0.78200E+11
         0.78200E+11
         0.78200E+11
         0.78200E+11
         0.78200E+11
         0.78200E+11
         0.78200E+11
         0.78200E+11
         0.78200E+11
         0.78200E+11
         0.78200E+11
         0.78200E+11
         0.78200E+11
         0.78200E+11
         0.78200E+11
         0.78200E+11
         0.78200E+11
         0.78200E+11
         0.78200E+11
         0.78200E+11
         0.78200E+11
         0.78200E+11
         0.78200E+11
         0.78200E+11
         0.78200E+11
         0.78200E+11
         0.78200E+11
         0.78200E+11
         0.78200E+11
         0.78200E+11
         0.78200E+11
         0.78200E+11
         0.78200E+11
         0.78200E+11
         0.78200E+11
         0.78200E+11
         0.78200E+11
         0.78200E+11
         0.78200E+11
         0.78200E+11
         0.78200E+11
         0.78200E+11
         0.78200E+11
         0.78200E+11
         0.78200E+11
         0.78200E+11
         0.78200E+11
         0.78200E+11
         0.78200E+11
         0.78200E+11
         0.78200E+11
         0.78200E+11
         0.78200E+11
         0.78200E+11
         0.78200E+11
         0.78200E+11
         0.78200E+11
         0.78200E+11
         0.78200E+11
         0.78200E+11
         0.78200E+11
         0.78200E+11
         0.78200E+11
         0.78200E+11
         0.78200E+11
         0.78200E+11
         0.78200E+11
         0.78200E+11
         0.78200E+11
         0.78200E+11
         0.78200E+11
         0.78200E+11
         0.78200E+11
         0.78200E+11
         0.78200E+11
         0.78200E+11
         0.78200E+11
         0.78200E+11
         0.78200E+11
         0.78200E+11
         0.78200E+11
         0.78200E+11
         0.78200E+11
         0.78200E+11
         0.78200E+11
         0.78200E+11
         0.78200E+11
         0.78200E+11
         0.78200E+11
         0.78200E+11
         0.78200E+11
         0.78200E+11
         0.78200E+11
         0.78200E+11
         0.78200E+11
         0.78200E+11
         0.78200E+11
         0.78200E+11
         0.78200E+11
         0.78200E+11
         0.78200E+11
         0.78200E+11
         0.78200E+11
         0.78200E+11
         0.78200E+11
         0.78200E+11
         0.78200E+11
         0.78200E+11
         0.78200E+11
         0.78200E+11
         0.78200E+11
         0.78200E+11
         0.78200E+11
         0.78200E+11
         0.78200E+11
         0.78200E+11
         0.78200E+11
         0.78200E+11
         0.78200E+11
         0.78200E+11
         0.78200E+11
         0.78200E+11
         0.78200E+11
         0.78200E+11
         0.78200E+11
         0.78200E+11
         0.78200E+11
         0.78200E+11
         0.78200E+11
         0.78200E+11
         0.78200E+11
         0.78200E+11
         0.78200E+11
         0.78200E+11
         0.78200E+11
         0.78200E+11
         0.78200E+11
         0.78200E+11
         0.78200E+11
         0.78200E+11
         0.78200E+11
         0.78200E+11
         0.78200E+11
         0.78200E+11
         0.78200E+11
         0.78200E+11
         0.78200E+11
         0.78200E+11
         0.78200E+11
         0.78200E+11
         0.78200E+11
         0.78200E+11
         0.78200E+11
         0.78200E+11
         0.78200E+11
         0.78200E+11
         0.78200E+11
         0.78200E+11
         0.78200E+11
         0.78200E+11
         0.78200E+11
         0.78200E+11
         0.78200E+11
         0.78200E+11
         0.78200E+11
         0.78200E+11
         0.78200E+11
         0.78200E+11
         0.78200E+11
         0.78200E+11
         0.78200E+11
         0.78200E+11
         0.78200E+11
         0.78200E+11
         0.78200E+11
         0.78200E+11
         0.78200E+11
         0.78200E+11
         0.78200E+11
         0.78200E+11
         0.78200E+11
         0.78200E+11
         0.78200E+11
         0.78200E+11
         0.78200E+11
         0.78200E+11
         0.78200E+11
         0.78200E+11
         0.78200E+11
         0.78200E+11
         0.78200E+11
         0.78200E+11
         0.78200E+11
         0.78200E+11
         0.78200E+11
         0.78200E+11
         0.78200E+11
         0.78200E+11
         0.78200E+11
         0.78200E+11
         0.78200E+11
         0.78200E+11
         0.78200E+11
         0.78200E+11
         0.78200E+11
         0.78200E+11
         0.78200E+11
         0.78200E+11
         0.78200E+11
         0.78200E+11
         0.78200E+11
         0.78200E+11
         0.78200E+11
         0.78200E+11
         0.78200E+11
         0.78200E+11
         0.78200E+11
         0.78200E+11
         0.78200E+11
         0.78200E+11
         0.78200E+11
         0.78200E+11
         0.78200E+11
         0.78200E+11
         0.78200E+11
         0.78200E+11
         0.78200E+11
         0.78200E+11
         0.78200E+11
         0.78200E+11
         0.78200E+11
         0.78200E+11
         0.78200E+11
         0.78200E+11
         0.78200E+11
         0.78200E+11
         0.78200E+11
         0.78200E+11
         0.78200E+11
         0.78200E+11
         0.78200E+11
         0.78200E+11
         0.78200E+11
         0.78200E+11
         0.78200E+11
         0.78200E+11
         0.78200E+11
         0.78200E+11
         0.78200E+11
         0.78200E+11
         0.78200E+11
         0.78200E+11
         0.78200E+11
         0.78200E+11
         0.78200E+11
         0.78200E+11
         0.78200E+11
         0.78200E+11
         0.78200E+11
         0.78200E+11
         0.78200E+11
         0.78200E+11
         0.78200E+11
         0.78200E+11
         0.78200E+11
         0.78200E+11
         0.78200E+11
         0.78200E+11
         0.78200E+11
         0.78200E+11
         0.78200E+11
         0.78200E+11
         0.78200E+11
         0.78200E+11
         0.78200E+11
         0.78200E+11
         0.78200E+11
         0.78200E+11
         0.78200E+11
         0.78200E+11
         0.78200E+11
         0.78200E+11
         0.78200E+11
         0.78200E+11
         0.78200E+11
         0.78200E+11
         0.78200E+11
         0.78200E+11
         0.78200E+11
         0.78200E+11
         0.78200E+11
         0.78200E+11
         0.78200E+11
         0.78200E+11
         0.78200E+11
         0.78200E+11
         0.78200E+11
         0.78200E+11
         0.78200E+11
         0.78200E+11
         0.78200E+11
         0.78200E+11
         0.78200E+11
         0.78200E+11
         0.78200E+11
         0.78200E+11
         0.78200E+11
         0.78200E+11
         0.78200E+11
         0.78200E+11
         0.78200E+11
         0.78200E+11
         0.78200E+11
         0.78200E+11
         0.78200E+11
         0.78200E+11
         0.78200E+11
         0.78200E+11
         0.78200E+11
         0.78200E+11
         0.78200E+11
         0.78200E+11
         0.78200E+11
         0.78200E+11
         0.78200E+11
         0.78200E+11
         0.78200E+11
         0.78200E+11
         0.78200E+11
         0.78200E+11
         0.78200E+11
         0.78200E+11
         0.78200E+11
         0.78200E+11
         0.78200E+11
         0.78200E+11
         0.78200E+11
         0.78200E+11
         0.78200E+11
         0.78200E+11
         0.78200E+11
         0.78200E+11
         0.78200E+11
         0.78200E+11
         0.78200E+11
         0.78200E+11
         0.78200E+11
         0.78200E+11
         0.78200E+11
         0.78200E+11
         0.78200E+11
         0.78200E+11
         0.78200E+11
         0.78200E+11
         0.78200E+11
         0.78200E+11
         0.78200E+11
         0.78200E+11
         0.78200E+11
         0.78200E+11
         0.78200E+11
         0.78200E+11
         0.78200E+11
         0.78200E+11
         0.78200E+11
         0.78200E+11
         0.78200E+11
         0.78200E+11
         0.78200E+11
         0.78200E+11
         0.78200E+11
         0.78200E+11
         0.78200E+11
         0.78200E+11
         0.78200E+11
         0.78200E+11
         0.78200E+11
         0.78200E+11
         0.78200E+11
         0.78200E+11
         0.78200E+11
         0.78200E+11
         0.78200E+11
         0.78200E+11
         0.78200E+11
         0.78200E+11
         0.78200E+11
         0.78200E+11
         0.78200E+11
         0.78200E+11
         0.78200E+11
         0.78200E+11
         0.78200E+11
         0.78200E+11
         0.78200E+11
         0.78200E+11
         0.78200E+11
         0.78200E+11
         0.78200E+11
         0.78200E+11
         0.78200E+11
         0.78200E+11
         0.78200E+11
         0.78200E+11
         0.78200E+11
         0.78200E+11
         0.78200E+11
         0.78200E+11
         0.78200E+11
         0.78200E+11
         0.78200E+11
         0.78200E+11
         0.78200E+11
         0.78200E+11
         0.78200E+11
         0.78200E+11
         0.78200E+11
         0.78200E+11
         0.78200E+11
         0.78200E+11
         0.78200E+11
         0.78200E+11
         0.78200E+11
         0.78200E+11
         0.78200E+11
         0.78200E+11
         0.78200E+11
         0.78200E+11
         0.78200E+11
         0.78200E+11
         0.78200E+11
         0.78200E+11
         0.78200E+11
         0.78200E+11
         0.78200E+11
         0.78200E+11
         0.78200E+11
         0.78200E+11
         0.78200E+11
         0.78200E+11
         0.78200E+11
         0.78200E+11
         0.78200E+11
         0.78200E+11
         0.78200E+11
         0.78200E+11
         0.78200E+11
         0.78200E+11
         0.78200E+11
         0.78200E+11
         0.78200E+11
         0.78200E+11
         0.78200E+11
         0.78200E+11
         0.78200E+11
         0.78200E+11
         0.78200E+11
         0.78200E+11
         0.78200E+11
         0.78200E+11
         0.78200E+11
         0.78200E+11
         0.78200E+11
         0.78200E+11
         0.78200E+11
         0.78200E+11
         0.78200E+11
         0.78200E+11
         0.78200E+11
         0.78200E+11
         0.78200E+11
         0.78200E+11
         0.78200E+11
         0.78200E+11
         0.78200E+11
         0.78200E+11
         0.78200E+11
         0.78200E+11
         0.78200E+11
         0.78200E+11
         0.78200E+11
         0.78200E+11
         0.78200E+11
         0.78200E+11
         0.78200E+11
         0.78200E+11
         0.78200E+11
         0.78200E+11
         0.78200E+11
         0.78200E+11
         0.78200E+11
         0.78200E+11
         0.78200E+11
         0.78200E+11
         0.78200E+11
         0.78200E+11
         0.78200E+11
         0.78200E+11
         0.78200E+11
         0.78200E+11
         0.78200E+11
         0.78200E+11
         0.78200E+11
         0.78200E+11
         0.78200E+11
         0.78200E+11
         0.78200E+11
         0.78200E+11
         0.78200E+11
         0.78200E+11
         0.78200E+11
         0.78200E+11
         0.78200E+11
         0.78200E+11
         0.78200E+11
         0.78200E+11
         0.78200E+11
         0.78200E+11
         0.78200E+11
         0.78200E+11
         0.78200E+11
         0.78200E+11
         0.78200E+11
         0.78200E+11
         0.78200E+11
         0.78200E+11
         0.78200E+11
         0.78200E+11
         0.78200E+11
         0.78200E+11
         0.78200E+11
         0.78200E+11
         0.78200E+11
         0.78200E+11
         0.78200E+11
         0.78200E+11
         0.78200E+11
         0.78200E+11
         0.78200E+11
         0.78200E+11
         0.78200E+11
         0.78200E+11
         0.78200E+11
         0.78200E+11
         0.78200E+11
         0.78200E+11
         0.78200E+11
         0.78200E+11
         0.78200E+11
         0.78200E+11
         0.78200E+11
         0.78200E+11
         0.78200E+11
         0.78200E+11
         0.78200E+11
         0.78200E+11
         0.78200E+11
         0.78200E+11
         0.78200E+11
         0.78200E+11
         0.78200E+11
         0.78200E+11
         0.78200E+11
         0.78200E+11
         0.78200E+11
         0.78200E+11
         0.78200E+11
         0.78200E+11
         0.78200E+11
         0.78200E+11
         0.78200E+11
         0.78200E+11
         0.78200E+11
         0.78200E+11
         0.78200E+11
         0.78200E+11
         0.78200E+11
         0.78200E+11
         0.78200E+11
         0.78200E+11
         0.78200E+11
         0.78200E+11
         0.78200E+11
         0.78200E+11
         0.78200E+11
         0.78200E+11
         0.78200E+11
         0.78200E+11
         0.78200E+11
         0.78200E+11
         0.78200E+11
         0.78200E+11
         0.78200E+11
         0.78200E+11
         0.78200E+11
         0.78200E+11
         0.78200E+11
         0.78200E+11
         0.78200E+11
         0.78200E+11
         0.78200E+11
         0.78200E+11
         0.78200E+11
         0.78200E+11
         0.78200E+11
         0.78200E+11
         0.78200E+11
         0.78200E+11
         0.78200E+11
         0.78200E+11
         0.78200E+11
         0.78200E+11
         0.78200E+11
         0.78200E+11
         0.78200E+11
         0.78200E+11
         0.78200E+11
         0.78200E+11
         0.78200E+11
         0.78200E+11
         0.78200E+11
         0.78200E+11
         0.78200E+11
         0.78200E+11
         0.78200E+11
         0.78200E+11
         0.78200E+11
         0.78200E+11
         0.78200E+11
         0.78200E+11
         0.78200E+11
         0.78200E+11
         0.78200E+11
         0.78200E+11
         0.78200E+11
         0.78200E+11
         0.78200E+11
         0.78200E+11
         0.78200E+11
         0.78200E+11
         0.78200E+11
         0.78200E+11
         0.78200E+11
         0.78200E+11
         0.78200E+11
         0.78200E+11
         0.78200E+11
         0.78200E+11
         0.78200E+11
         0.78200E+11
         0.78200E+11
         0.78200E+11
         0.78200E+11
         0.78200E+11
         0.78200E+11
         0.78200E+11
         0.78200E+11
         0.78200E+11
         0.78200E+11
         0.78200E+11
         0.78200E+11
         0.78200E+11
         0.78200E+11
         0.78200E+11
         0.78200E+11
         0.78200E+11
         0.78200E+11
         0.78200E+11
         0.78200E+11
         0.78200E+11
         0.78200E+11
         0.78200E+11
         0.78200E+11
         0.78200E+11
         0.78200E+11
         0.78200E+11
         0.78200E+11
         0.78200E+11
         0.78200E+11
         0.78200E+11
         0.78200E+11
         0.78200E+11
         0.78200E+11
         0.78200E+11
         0.78200E+11
         0.78200E+11
         0.78200E+11
         0.78200E+11
         0.78200E+11
         0.78200E+11
         0.78200E+11
         0.78200E+11
         0.78200E+11
         0.78200E+11
         0.78200E+11
         0.78200E+11
         0.78200E+11
         0.78200E+11
         0.78200E+11
         0.78200E+11
         0.78200E+11
         0.78200E+11
         0.78200E+11
         0.78200E+11
         0.78200E+11
         0.78200E+11
         0.78200E+11
         0.78200E+11
         0.78200E+11
         0.78200E+11
         0.78200E+11
         0.78200E+11
         0.78200E+11
         0.78200E+11
         0.78200E+11
         0.78200E+11
         0.78200E+11
         0.78200E+11
         0.78200E+11
         0.78200E+11
         0.78200E+11
         0.78200E+11
         0.78200E+11
         0.78200E+11
         0.78200E+11
         0.78200E+11
         0.78200E+11
         0.78200E+11
         0.78200E+11
         0.78200E+11
         0.78200E+11
         0.78200E+11
         0.78200E+11
         0.78200E+11
         0.78200E+11
         0.78200E+11
         0.78200E+11
         0.78200E+11
         0.78200E+11
         0.78200E+11
         0.78200E+11
         0.78200E+11
         0.78200E+11
         0.78200E+11
         0.78200E+11
         0.78200E+11
         0.78200E+11
         0.78200E+11
         0.78200E+11
         0.78200E+11
         0.78200E+11
         0.78200E+11
         0.78200E+11
         0.78200E+11
         0.78200E+11
         0.78200E+11
         0.78200E+11
         0.78200E+11
         0.78200E+11
         0.78200E+11
         0.78200E+11
         0.78200E+11
         0.78200E+11
         0.78200E+11
         0.78200E+11
         0.78200E+11
         0.78200E+11
         0.78200E+11
         0.78200E+11
         0.78200E+11
         0.78200E+11
         0.78200E+11
         0.78200E+11
         0.78200E+11
         0.78200E+11
         0.78200E+11
         0.78200E+11
         0.78200E+11
         0.78200E+11
         0.78200E+11
         0.78200E+11
         0.78200E+11
         0.78200E+11
         0.78200E+11
         0.78200E+11
         0.78200E+11
         0.78200E+11
         0.78200E+11
         0.78200E+11
         0.78200E+11
         0.78200E+11
         0.78200E+11
         0.78200E+11
         0.78200E+11
         0.78200E+11
         0.78200E+11
         0.78200E+11
         0.78200E+11
         0.78200E+11
         0.78200E+11
         0.78200E+11
         0.78200E+11
         0.78200E+11
         0.78200E+11
         0.78200E+11
         0.78200E+11
         0.78200E+11
         0.78200E+11
         0.78200E+11
         0.78200E+11
         0.78200E+11
         0.78200E+11
         0.78200E+11
         0.78200E+11
         0.78200E+11
         0.78200E+11
         0.78200E+11
         0.78200E+11
         0.78200E+11
         0.78200E+11
         0.78200E+11
         0.78200E+11
         0.78200E+11
         0.78200E+11
         0.78200E+11
         0.78200E+11
         0.78200E+11
         0.78200E+11
         0.78200E+11
         0.78200E+11
         0.78200E+11
         0.78200E+11
         0.78200E+11
         0.78200E+11
         0.78200E+11
         0.78200E+11
         0.78200E+11
         0.78200E+11
         0.78200E+11
         0.78200E+11
         0.78200E+11
         0.78200E+11
         0.78200E+11
         0.78200E+11
         0.78200E+11
         0.78200E+11
         0.78200E+11
         0.78200E+11
         0.78200E+11
         0.78200E+11
         0.78200E+11
         0.78200E+11
         0.78200E+11
         0.78200E+11
         0.78200E+11
         0.78200E+11
         0.78200E+11
         0.78200E+11
         0.78200E+11
         0.78200E+11
         0.78200E+11
         0.78200E+11
         0.78200E+11
         0.78200E+11
         0.78200E+11
         0.78200E+11
         0.78200E+11
         0.78200E+11
         0.78200E+11
         0.78200E+11
         0.78200E+11
         0.78200E+11
         0.78200E+11
         0.78200E+11
         0.78200E+11
         0.78200E+11
         0.78200E+11
         0.78200E+11
         0.78200E+11
         0.78200E+11
         0.78200E+11
         0.78200E+11
         0.78200E+11
         0.78200E+11
         0.78200E+11
         0.78200E+11
         0.78200E+11
         0.78200E+11
         0.78200E+11
         0.78200E+11
         0.78200E+11
         0.78200E+11
         0.78200E+11
         0.78200E+11
         0.78200E+11
         0.78200E+11
         0.78200E+11
         0.78200E+11
         0.78200E+11
         0.78200E+11
         0.78200E+11
         0.78200E+11
         0.78200E+11
         0.78200E+11
         0.78200E+11
         0.78200E+11
         0.78200E+11
         0.78200E+11
         0.78200E+11
         0.78200E+11
         0.78200E+11
         0.78200E+11
         0.78200E+11
         0.78200E+11
         0.78200E+11
         0.78200E+11
         0.78200E+11
         0.78200E+11
         0.78200E+11
         0.78200E+11
         0.78200E+11
         0.78200E+11
         0.78200E+11
         0.78200E+11
         0.78200E+11
         0.78200E+11
         0.78200E+11
         0.78200E+11
         0.78200E+11
         0.78200E+11
         0.78200E+11
         0.78200E+11
         0.78200E+11
         0.78200E+11
         0.78200E+11
         0.78200E+11
         0.78200E+11
         0.78200E+11
         0.78200E+11
         0.78200E+11
         0.78200E+11
         0.78200E+11
         0.78200E+11
         0.78200E+11
         0.78200E+11
         0.78200E+11
         0.78200E+11
         0.78200E+11
         0.78200E+11
         0.78200E+11
         0.78200E+11
         0.78200E+11
         0.78200E+11
         0.78200E+11
         0.78200E+11
         0.78200E+11
         0.78200E+11
         0.78200E+11
         0.78200E+11
         0.78200E+11
         0.78200E+11
         0.78200E+11
         0.78200E+11
         0.78200E+11
         0.78200E+11
         0.78200E+11
         0.78200E+11
         0.78200E+11
         0.78200E+11
         0.78200E+11
         0.78200E+11
         0.78200E+11
         0.78200E+11
         0.78200E+11
         0.78200E+11
         0.78200E+11
         0.78200E+11
         0.78200E+11
         0.78200E+11
         0.78200E+11
         0.78200E+11
         0.78200E+11
         0.78200E+11
         0.78200E+11
         0.78200E+11
         0.78200E+11
         0.78200E+11
         0.78200E+11
         0.78200E+11
         0.78200E+11
         0.78200E+11
         0.78200E+11
         0.78200E+11
         0.78200E+11
         0.78200E+11
         0.78200E+11
         0.78200E+11
         0.78200E+11
         0.78200E+11
         0.78200E+11
         0.78200E+11
         0.78200E+11
         0.78200E+11
         0.78200E+11
         0.78200E+11
         0.78200E+11
         0.78200E+11
         0.78200E+11
         0.78200E+11
         0.78200E+11
         0.78200E+11
         0.78200E+11
         0.78200E+11
         0.78200E+11
         0.78200E+11
         0.78200E+11
         0.78200E+11
         0.78200E+11
         0.78200E+11
         0.78200E+11
         0.78200E+11
         0.78200E+11
         0.78200E+11
         0.78200E+11
         0.78200E+11
         0.78200E+11
         0.78200E+11
         0.78200E+11
         0.78200E+11
         0.78200E+11
         0.78200E+11
         0.78200E+11
         0.78200E+11
         0.78200E+11
         0.78200E+11
         0.78200E+11
         0.78200E+11
         0.78200E+11
         0.78200E+11
         0.78200E+11
         0.78200E+11
         0.78200E+11
         0.78200E+11
         0.78200E+11
         0.78200E+11
         0.78200E+11
         0.78200E+11
         0.78200E+11
         0.78200E+11
         0.78200E+11
         0.78200E+11
         0.78200E+11
         0.78200E+11
         0.78200E+11
         0.78200E+11
         0.78200E+11
         0.78200E+11
         0.78200E+11
         0.78200E+11
         0.78200E+11
         0.78200E+11
         0.78200E+11
         0.78200E+11
         0.78200E+11
         0.78200E+11
         0.78200E+11
         0.78200E+11
         0.78200E+11
         0.78200E+11
         0.78200E+11
         0.78200E+11
         0.78200E+11
         0.78200E+11
         0.78200E+11
         0.78200E+11
         0.78200E+11
         0.78200E+11
         0.78200E+11
         0.78200E+11
         0.78200E+11
         0.78200E+11
         0.78200E+11
         0.78200E+11
         0.78200E+11
         0.78200E+11
         0.78200E+11
         0.78200E+11
         0.78200E+11
         0.78200E+11
         0.78200E+11
         0.78200E+11
         0.78200E+11
         0.78200E+11
         0.78200E+11
         0.78200E+11
         0.78200E+11
         0.78200E+11
         0.78200E+11
         0.78200E+11
         0.78200E+11
         0.78200E+11
         0.78200E+11
         0.78200E+11
         0.78200E+11
         0.78200E+11
         0.78200E+11
         0.78200E+11
         0.78200E+11
         0.78200E+11
         0.78200E+11
         0.78200E+11
         0.78200E+11
         0.78200E+11
         0.78200E+11
         0.78200E+11
         0.78200E+11
         0.78200E+11
         0.78200E+11
         0.78200E+11
         0.78200E+11
         0.78200E+11
         0.78200E+11
         0.78200E+11
         0.78200E+11
         0.78200E+11
         0.78200E+11
         0.78200E+11
         0.78200E+11
         0.78200E+11
         0.78200E+11
         0.78200E+11
         0.78200E+11
         0.78200E+11
         0.78200E+11
         0.78200E+11
         0.78200E+11
         0.78200E+11
         0.78200E+11
         0.78200E+11
         0.78200E+11
         0.78200E+11
         0.78200E+11
         0.78200E+11
         0.78200E+11
         0.78200E+11
         0.78200E+11
         0.78200E+11
         0.78200E+11
         0.78200E+11
         0.78200E+11
         0.78200E+11
         0.78200E+11
         0.78200E+11
         0.78200E+11
         0.78200E+11
         0.78200E+11
         0.78200E+11
         0.78200E+11
         0.78200E+11
         0.78200E+11
         0.78200E+11
         0.78200E+11
         0.78200E+11
         0.78200E+11
         0.78200E+11
         0.78200E+11
         0.78200E+11
         0.78200E+11
         0.78200E+11
         0.78200E+11
         0.78200E+11
         0.78200E+11
         0.78200E+11
         0.78200E+11
         0.78200E+11
         0.78200E+11
         0.78200E+11
         0.78200E+11
         0.78200E+11
         0.78200E+11
         0.78200E+11
         0.78200E+11
         0.78200E+11
         0.78200E+11
         0.78200E+11
         0.78200E+11
         0.78200E+11
         0.78200E+11
         0.78200E+11
         0.78200E+11
         0.78200E+11
         0.78200E+11
         0.78200E+11
         0.78200E+11
         0.78200E+11
         0.78200E+11
         0.78200E+11
         0.78200E+11
         0.78200E+11
         0.78200E+11
         0.78200E+11
         0.78200E+11
         0.78200E+11
         0.78200E+11
         0.78200E+11
         0.78200E+11
         0.78200E+11
         0.78200E+11
         0.78200E+11
         0.78200E+11
         0.78200E+11
         0.78200E+11
         0.78200E+11
         0.78200E+11
         0.78200E+11
         0.78200E+11
         0.78200E+11
         0.78200E+11
         0.78200E+11
         0.78200E+11
         0.78200E+11
         0.78200E+11
         0.78200E+11
         0.78200E+11
         0.78200E+11
         0.78200E+11
         0.78200E+11
         0.78200E+11
         0.78200E+11
         0.78200E+11
         0.78200E+11
         0.78200E+11
         0.78200E+11
         0.78200E+11
         0.78200E+11
         0.78200E+11
         0.78200E+11
         0.78200E+11
         0.78200E+11
         0.78200E+11
         0.78200E+11
         0.78200E+11
         0.78200E+11
         0.78200E+11
         0.78200E+11
         0.78200E+11
         0.78200E+11
         0.78200E+11
         0.78200E+11
         0.78200E+11
         0.78200E+11
         0.78200E+11
         0.78200E+11
         0.78200E+11
         0.78200E+11
         0.78200E+11
         0.78200E+11
         0.78200E+11
         0.78200E+11
         0.78200E+11
         0.78200E+11
         0.78200E+11
         0.78200E+11
         0.78200E+11
         0.78200E+11
         0.78200E+11
         0.78200E+11
         0.78200E+11
         0.78200E+11
         0.78200E+11
         0.78200E+11
         0.78200E+11
         0.78200E+11
         0.78200E+11
         0.78200E+11
         0.78200E+11
         0.78200E+11
         0.78200E+11
         0.78200E+11
         0.78200E+11
         0.78200E+11
         0.78200E+11
         0.78200E+11
         0.78200E+11
         0.78200E+11
         0.78200E+11
         0.78200E+11
         0.78200E+11
         0.78200E+11
         0.78200E+11
         0.78200E+11
         0.78200E+11
         0.78200E+11
         0.78200E+11
         0.78200E+11
         0.78200E+11
         0.78200E+11
         0.78200E+11
         0.78200E+11
         0.78200E+11
         0.78200E+11
         0.78200E+11
         0.78200E+11
         0.78200E+11
         0.78200E+11
         0.78200E+11
         0.78200E+11
         0.78200E+11
         0.78200E+11
         0.78200E+11
         0.78200E+11
         0.78200E+11
         0.78200E+11
         0.78200E+11
         0.78200E+11
         0.78200E+11
         0.78200E+11
         0.78200E+11
         0.78200E+11
         0.78200E+11
         0.78200E+11
         0.78200E+11
         0.78200E+11
         0.78200E+11
         0.78200E+11
         0.78200E+11
         0.78200E+11
         0.78200E+11
         0.78200E+11
         0.78200E+11
         0.78200E+11
         0.78200E+11
         0.78200E+11
         0.78200E+11
         0.78200E+11
         0.78200E+11
         0.78200E+11
         0.78200E+11
         0.78200E+11
         0.78200E+11
         0.78200E+11
         0.78200E+11
         0.78200E+11
         0.78200E+11
         0.78200E+11
         0.78200E+11
         0.78200E+11
         0.78200E+11
         0.78200E+11
         0.78200E+11
         0.78200E+11
         0.78200E+11
         0.78200E+11
         0.78200E+11
         0.78200E+11
         0.78200E+11
         0.78200E+11
         0.78200E+11
         0.78200E+11
         0.78200E+11
         0.78200E+11
         0.78200E+11
         0.78200E+11
         0.78200E+11
         0.78200E+11
         0.78200E+11
         0.78200E+11
         0.78200E+11
         0.78200E+11
         0.78200E+11
         0.78200E+11
         0.78200E+11
         0.78200E+11
         0.78200E+11
         0.78200E+11
         0.78200E+11
         0.78200E+11
         0.78200E+11
         0.78200E+11
         0.78200E+11
         0.78200E+11
         0.78200E+11
         0.78200E+11
         0.78200E+11
         0.78200E+11
         0.78200E+11
         0.78200E+11
         0.78200E+11
         0.78200E+11
         0.78200E+11
         0.78200E+11
         0.78200E+11
         0.78200E+11
         0.78200E+11
         0.78200E+11
         0.78200E+11
         0.78200E+11
         0.78200E+11
         0.78200E+11
         0.78200E+11
         0.78200E+11
         0.78200E+11
         0.78200E+11
         0.78200E+11
         0.78200E+11
         0.78200E+11
         0.78200E+11
         0.78200E+11
         0.78200E+11
         0.78200E+11
         0.78200E+11
         0.78200E+11
  
SCALARS                        density  double 1
LOOKUP_TABLE default
         0.27000E+04
         0.27000E+04
         0.27000E+04
         0.27000E+04
         0.27000E+04
         0.27000E+04
         0.27000E+04
         0.27000E+04
         0.27000E+04
         0.27000E+04
         0.27000E+04
         0.27000E+04
         0.27000E+04
         0.27000E+04
         0.27000E+04
         0.27000E+04
         0.27000E+04
         0.27000E+04
         0.27000E+04
         0.27000E+04
         0.27000E+04
         0.27000E+04
         0.27000E+04
         0.27000E+04
         0.27000E+04
         0.27000E+04
         0.27000E+04
         0.27000E+04
         0.27000E+04
         0.27000E+04
         0.27000E+04
         0.27000E+04
         0.27000E+04
         0.27000E+04
         0.27000E+04
         0.27000E+04
         0.27000E+04
         0.27000E+04
         0.27000E+04
         0.27000E+04
         0.27000E+04
         0.27000E+04
         0.27000E+04
         0.27000E+04
         0.27000E+04
         0.27000E+04
         0.27000E+04
         0.27000E+04
         0.27000E+04
         0.27000E+04
         0.27000E+04
         0.27000E+04
         0.27000E+04
         0.27000E+04
         0.27000E+04
         0.27000E+04
         0.27000E+04
         0.27000E+04
         0.27000E+04
         0.27000E+04
         0.27000E+04
         0.27000E+04
         0.27000E+04
         0.27000E+04
         0.27000E+04
         0.27000E+04
         0.27000E+04
         0.27000E+04
         0.27000E+04
         0.27000E+04
         0.27000E+04
         0.27000E+04
         0.27000E+04
         0.27000E+04
         0.27000E+04
         0.27000E+04
         0.27000E+04
         0.27000E+04
         0.27000E+04
         0.27000E+04
         0.27000E+04
         0.27000E+04
         0.27000E+04
         0.27000E+04
         0.27000E+04
         0.27000E+04
         0.27000E+04
         0.27000E+04
         0.27000E+04
         0.27000E+04
         0.27000E+04
         0.27000E+04
         0.27000E+04
         0.27000E+04
         0.27000E+04
         0.27000E+04
         0.27000E+04
         0.27000E+04
         0.27000E+04
         0.27000E+04
         0.27000E+04
         0.27000E+04
         0.27000E+04
         0.27000E+04
         0.27000E+04
         0.27000E+04
         0.27000E+04
         0.27000E+04
         0.27000E+04
         0.27000E+04
         0.27000E+04
         0.27000E+04
         0.27000E+04
         0.27000E+04
         0.27000E+04
         0.27000E+04
         0.27000E+04
         0.27000E+04
         0.27000E+04
         0.27000E+04
         0.27000E+04
         0.27000E+04
         0.27000E+04
         0.27000E+04
         0.27000E+04
         0.27000E+04
         0.27000E+04
         0.27000E+04
         0.27000E+04
         0.27000E+04
         0.27000E+04
         0.27000E+04
         0.27000E+04
         0.27000E+04
         0.27000E+04
         0.27000E+04
         0.27000E+04
         0.27000E+04
         0.27000E+04
         0.27000E+04
         0.27000E+04
         0.27000E+04
         0.27000E+04
         0.27000E+04
         0.27000E+04
         0.27000E+04
         0.27000E+04
         0.27000E+04
         0.27000E+04
         0.27000E+04
         0.27000E+04
         0.27000E+04
         0.27000E+04
         0.27000E+04
         0.27000E+04
         0.27000E+04
         0.27000E+04
         0.27000E+04
         0.27000E+04
         0.27000E+04
         0.27000E+04
         0.27000E+04
         0.27000E+04
         0.27000E+04
         0.27000E+04
         0.27000E+04
         0.27000E+04
         0.27000E+04
         0.27000E+04
         0.27000E+04
         0.27000E+04
         0.27000E+04
         0.27000E+04
         0.27000E+04
         0.27000E+04
         0.27000E+04
         0.27000E+04
         0.27000E+04
         0.27000E+04
         0.27000E+04
         0.27000E+04
         0.27000E+04
         0.27000E+04
         0.27000E+04
         0.27000E+04
         0.27000E+04
         0.27000E+04
         0.27000E+04
         0.27000E+04
         0.27000E+04
         0.27000E+04
         0.27000E+04
         0.27000E+04
         0.27000E+04
         0.27000E+04
         0.27000E+04
         0.27000E+04
         0.27000E+04
         0.27000E+04
         0.27000E+04
         0.27000E+04
         0.27000E+04
         0.27000E+04
         0.27000E+04
         0.27000E+04
         0.27000E+04
         0.27000E+04
         0.27000E+04
         0.27000E+04
         0.27000E+04
         0.27000E+04
         0.27000E+04
         0.27000E+04
         0.27000E+04
         0.27000E+04
         0.27000E+04
         0.27000E+04
         0.27000E+04
         0.27000E+04
         0.27000E+04
         0.27000E+04
         0.27000E+04
         0.27000E+04
         0.27000E+04
         0.27000E+04
         0.27000E+04
         0.27000E+04
         0.27000E+04
         0.27000E+04
         0.27000E+04
         0.27000E+04
         0.27000E+04
         0.27000E+04
         0.27000E+04
         0.27000E+04
         0.27000E+04
         0.27000E+04
         0.27000E+04
         0.27000E+04
         0.27000E+04
         0.27000E+04
         0.27000E+04
         0.27000E+04
         0.27000E+04
         0.27000E+04
         0.27000E+04
         0.27000E+04
         0.27000E+04
         0.27000E+04
         0.27000E+04
         0.27000E+04
         0.27000E+04
         0.27000E+04
         0.27000E+04
         0.27000E+04
         0.27000E+04
         0.27000E+04
         0.27000E+04
         0.27000E+04
         0.27000E+04
         0.27000E+04
         0.27000E+04
         0.27000E+04
         0.27000E+04
         0.27000E+04
         0.27000E+04
         0.27000E+04
         0.27000E+04
         0.27000E+04
         0.27000E+04
         0.27000E+04
         0.27000E+04
         0.27000E+04
         0.27000E+04
         0.27000E+04
         0.27000E+04
         0.27000E+04
         0.27000E+04
         0.27000E+04
         0.27000E+04
         0.27000E+04
         0.27000E+04
         0.27000E+04
         0.27000E+04
         0.27000E+04
         0.27000E+04
         0.27000E+04
         0.27000E+04
         0.27000E+04
         0.27000E+04
         0.27000E+04
         0.27000E+04
         0.27000E+04
         0.27000E+04
         0.27000E+04
         0.27000E+04
         0.27000E+04
         0.27000E+04
         0.27000E+04
         0.27000E+04
         0.27000E+04
         0.27000E+04
         0.27000E+04
         0.27000E+04
         0.27000E+04
         0.27000E+04
         0.27000E+04
         0.27000E+04
         0.27000E+04
         0.27000E+04
         0.27000E+04
         0.27000E+04
         0.27000E+04
         0.27000E+04
         0.27000E+04
         0.27000E+04
         0.27000E+04
         0.27000E+04
         0.27000E+04
         0.27000E+04
         0.27000E+04
         0.27000E+04
         0.27000E+04
         0.27000E+04
         0.27000E+04
         0.27000E+04
         0.27000E+04
         0.27000E+04
         0.27000E+04
         0.27000E+04
         0.27000E+04
         0.27000E+04
         0.27000E+04
         0.27000E+04
         0.27000E+04
         0.27000E+04
         0.27000E+04
         0.27000E+04
         0.27000E+04
         0.27000E+04
         0.27000E+04
         0.27000E+04
         0.27000E+04
         0.27000E+04
         0.27000E+04
         0.27000E+04
         0.27000E+04
         0.27000E+04
         0.27000E+04
         0.27000E+04
         0.27000E+04
         0.27000E+04
         0.27000E+04
         0.27000E+04
         0.27000E+04
         0.27000E+04
         0.27000E+04
         0.27000E+04
         0.27000E+04
         0.27000E+04
         0.27000E+04
         0.27000E+04
         0.27000E+04
         0.27000E+04
         0.27000E+04
         0.27000E+04
         0.27000E+04
         0.27000E+04
         0.27000E+04
         0.27000E+04
         0.27000E+04
         0.27000E+04
         0.27000E+04
         0.27000E+04
         0.27000E+04
         0.27000E+04
         0.27000E+04
         0.27000E+04
         0.27000E+04
         0.27000E+04
         0.27000E+04
         0.27000E+04
         0.27000E+04
         0.27000E+04
         0.27000E+04
         0.27000E+04
         0.27000E+04
         0.27000E+04
         0.27000E+04
         0.27000E+04
         0.27000E+04
         0.27000E+04
         0.27000E+04
         0.27000E+04
         0.27000E+04
         0.27000E+04
         0.27000E+04
         0.27000E+04
         0.27000E+04
         0.27000E+04
         0.27000E+04
         0.27000E+04
         0.27000E+04
         0.27000E+04
         0.27000E+04
         0.27000E+04
         0.27000E+04
         0.27000E+04
         0.27000E+04
         0.27000E+04
         0.27000E+04
         0.27000E+04
         0.27000E+04
         0.27000E+04
         0.27000E+04
         0.27000E+04
         0.27000E+04
         0.27000E+04
         0.27000E+04
         0.27000E+04
         0.27000E+04
         0.27000E+04
         0.27000E+04
         0.27000E+04
         0.27000E+04
         0.27000E+04
         0.27000E+04
         0.27000E+04
         0.27000E+04
         0.27000E+04
         0.27000E+04
         0.27000E+04
         0.27000E+04
         0.27000E+04
         0.27000E+04
         0.27000E+04
         0.27000E+04
         0.27000E+04
         0.27000E+04
         0.27000E+04
         0.27000E+04
         0.27000E+04
         0.27000E+04
         0.27000E+04
         0.27000E+04
         0.27000E+04
         0.27000E+04
         0.27000E+04
         0.27000E+04
         0.27000E+04
         0.27000E+04
         0.27000E+04
         0.27000E+04
         0.27000E+04
         0.27000E+04
         0.27000E+04
         0.27000E+04
         0.27000E+04
         0.27000E+04
         0.27000E+04
         0.27000E+04
         0.27000E+04
         0.27000E+04
         0.27000E+04
         0.27000E+04
         0.27000E+04
         0.27000E+04
         0.27000E+04
         0.27000E+04
         0.27000E+04
         0.27000E+04
         0.27000E+04
         0.27000E+04
         0.27000E+04
         0.27000E+04
         0.27000E+04
         0.27000E+04
         0.27000E+04
         0.27000E+04
         0.27000E+04
         0.27000E+04
         0.27000E+04
         0.27000E+04
         0.27000E+04
         0.27000E+04
         0.27000E+04
         0.27000E+04
         0.27000E+04
         0.27000E+04
         0.27000E+04
         0.27000E+04
         0.27000E+04
         0.27000E+04
         0.27000E+04
         0.27000E+04
         0.27000E+04
         0.27000E+04
         0.27000E+04
         0.27000E+04
         0.27000E+04
         0.27000E+04
         0.27000E+04
         0.27000E+04
         0.27000E+04
         0.27000E+04
         0.27000E+04
         0.27000E+04
         0.27000E+04
         0.27000E+04
         0.27000E+04
         0.27000E+04
         0.27000E+04
         0.27000E+04
         0.27000E+04
         0.27000E+04
         0.27000E+04
         0.27000E+04
         0.27000E+04
         0.27000E+04
         0.27000E+04
         0.27000E+04
         0.27000E+04
         0.27000E+04
         0.27000E+04
         0.27000E+04
         0.27000E+04
         0.27000E+04
         0.27000E+04
         0.27000E+04
         0.27000E+04
         0.27000E+04
         0.27000E+04
         0.27000E+04
         0.27000E+04
         0.27000E+04
         0.27000E+04
         0.27000E+04
         0.27000E+04
         0.27000E+04
         0.27000E+04
         0.27000E+04
         0.27000E+04
         0.27000E+04
         0.27000E+04
         0.27000E+04
         0.27000E+04
         0.27000E+04
         0.27000E+04
         0.27000E+04
         0.27000E+04
         0.27000E+04
         0.27000E+04
         0.27000E+04
         0.27000E+04
         0.27000E+04
         0.27000E+04
         0.27000E+04
         0.27000E+04
         0.27000E+04
         0.27000E+04
         0.27000E+04
         0.27000E+04
         0.27000E+04
         0.27000E+04
         0.27000E+04
         0.27000E+04
         0.27000E+04
         0.27000E+04
         0.27000E+04
         0.27000E+04
         0.27000E+04
         0.27000E+04
         0.27000E+04
         0.27000E+04
         0.27000E+04
         0.27000E+04
         0.27000E+04
         0.27000E+04
         0.27000E+04
         0.27000E+04
         0.27000E+04
         0.27000E+04
         0.27000E+04
         0.27000E+04
         0.27000E+04
         0.27000E+04
         0.27000E+04
         0.27000E+04
         0.27000E+04
         0.27000E+04
         0.27000E+04
         0.27000E+04
         0.27000E+04
         0.27000E+04
         0.27000E+04
         0.27000E+04
         0.27000E+04
         0.27000E+04
         0.27000E+04
         0.27000E+04
         0.27000E+04
         0.27000E+04
         0.27000E+04
         0.27000E+04
         0.27000E+04
         0.27000E+04
         0.27000E+04
         0.27000E+04
         0.27000E+04
         0.27000E+04
         0.27000E+04
         0.27000E+04
         0.27000E+04
         0.27000E+04
         0.27000E+04
         0.27000E+04
         0.27000E+04
         0.27000E+04
         0.27000E+04
         0.27000E+04
         0.27000E+04
         0.27000E+04
         0.27000E+04
         0.27000E+04
         0.27000E+04
         0.27000E+04
         0.27000E+04
         0.27000E+04
         0.27000E+04
         0.27000E+04
         0.27000E+04
         0.27000E+04
         0.27000E+04
         0.27000E+04
         0.27000E+04
         0.27000E+04
         0.27000E+04
         0.27000E+04
         0.27000E+04
         0.27000E+04
         0.27000E+04
         0.27000E+04
         0.27000E+04
         0.27000E+04
         0.27000E+04
         0.27000E+04
         0.27000E+04
         0.27000E+04
         0.27000E+04
         0.27000E+04
         0.27000E+04
         0.27000E+04
         0.27000E+04
         0.27000E+04
         0.27000E+04
         0.27000E+04
         0.27000E+04
         0.27000E+04
         0.27000E+04
         0.27000E+04
         0.27000E+04
         0.27000E+04
         0.27000E+04
         0.27000E+04
         0.27000E+04
         0.27000E+04
         0.27000E+04
         0.27000E+04
         0.27000E+04
         0.27000E+04
         0.27000E+04
         0.27000E+04
         0.27000E+04
         0.27000E+04
         0.27000E+04
         0.27000E+04
         0.27000E+04
         0.27000E+04
         0.27000E+04
         0.27000E+04
         0.27000E+04
         0.27000E+04
         0.27000E+04
         0.27000E+04
         0.27000E+04
         0.27000E+04
         0.27000E+04
         0.27000E+04
         0.27000E+04
         0.27000E+04
         0.27000E+04
         0.27000E+04
         0.27000E+04
         0.27000E+04
         0.27000E+04
         0.27000E+04
         0.27000E+04
         0.27000E+04
         0.27000E+04
         0.27000E+04
         0.27000E+04
         0.27000E+04
         0.27000E+04
         0.27000E+04
         0.27000E+04
         0.27000E+04
         0.27000E+04
         0.27000E+04
         0.27000E+04
         0.27000E+04
         0.27000E+04
         0.27000E+04
         0.27000E+04
         0.27000E+04
         0.27000E+04
         0.27000E+04
         0.27000E+04
         0.27000E+04
         0.27000E+04
         0.27000E+04
         0.27000E+04
         0.27000E+04
         0.27000E+04
         0.27000E+04
         0.27000E+04
         0.27000E+04
         0.27000E+04
         0.27000E+04
         0.27000E+04
         0.27000E+04
         0.27000E+04
         0.27000E+04
         0.27000E+04
         0.27000E+04
         0.27000E+04
         0.27000E+04
         0.27000E+04
         0.27000E+04
         0.27000E+04
         0.27000E+04
         0.27000E+04
         0.27000E+04
         0.27000E+04
         0.27000E+04
         0.27000E+04
         0.27000E+04
         0.27000E+04
         0.27000E+04
         0.27000E+04
         0.27000E+04
         0.27000E+04
         0.27000E+04
         0.27000E+04
         0.27000E+04
         0.27000E+04
         0.27000E+04
         0.27000E+04
         0.27000E+04
         0.27000E+04
         0.27000E+04
         0.27000E+04
         0.27000E+04
         0.27000E+04
         0.27000E+04
         0.27000E+04
         0.27000E+04
         0.27000E+04
         0.27000E+04
         0.27000E+04
         0.27000E+04
         0.27000E+04
         0.27000E+04
         0.27000E+04
         0.27000E+04
         0.27000E+04
         0.27000E+04
         0.27000E+04
         0.27000E+04
         0.27000E+04
         0.27000E+04
         0.27000E+04
         0.27000E+04
         0.27000E+04
         0.27000E+04
         0.27000E+04
         0.27000E+04
         0.27000E+04
         0.27000E+04
         0.27000E+04
         0.27000E+04
         0.27000E+04
         0.27000E+04
         0.27000E+04
         0.27000E+04
         0.27000E+04
         0.27000E+04
         0.27000E+04
         0.27000E+04
         0.27000E+04
         0.27000E+04
         0.27000E+04
         0.27000E+04
         0.27000E+04
         0.27000E+04
         0.27000E+04
         0.27000E+04
         0.27000E+04
         0.27000E+04
         0.27000E+04
         0.27000E+04
         0.27000E+04
         0.27000E+04
         0.27000E+04
         0.27000E+04
         0.27000E+04
         0.27000E+04
         0.27000E+04
         0.27000E+04
         0.27000E+04
         0.27000E+04
         0.27000E+04
         0.27000E+04
         0.27000E+04
         0.27000E+04
         0.27000E+04
         0.27000E+04
         0.27000E+04
         0.27000E+04
         0.27000E+04
         0.27000E+04
         0.27000E+04
         0.27000E+04
         0.27000E+04
         0.27000E+04
         0.27000E+04
         0.27000E+04
         0.27000E+04
         0.27000E+04
         0.27000E+04
         0.27000E+04
         0.27000E+04
         0.27000E+04
         0.27000E+04
         0.27000E+04
         0.27000E+04
         0.27000E+04
         0.27000E+04
         0.27000E+04
         0.27000E+04
         0.27000E+04
         0.27000E+04
         0.27000E+04
         0.27000E+04
         0.27000E+04
         0.27000E+04
         0.27000E+04
         0.27000E+04
         0.27000E+04
         0.27000E+04
         0.27000E+04
         0.27000E+04
         0.27000E+04
         0.27000E+04
         0.27000E+04
         0.27000E+04
         0.27000E+04
         0.27000E+04
         0.27000E+04
         0.27000E+04
         0.27000E+04
         0.27000E+04
         0.27000E+04
         0.27000E+04
         0.27000E+04
         0.27000E+04
         0.27000E+04
         0.27000E+04
         0.27000E+04
         0.27000E+04
         0.27000E+04
         0.27000E+04
         0.27000E+04
         0.27000E+04
         0.27000E+04
         0.27000E+04
         0.27000E+04
         0.27000E+04
         0.27000E+04
         0.27000E+04
         0.27000E+04
         0.27000E+04
         0.27000E+04
         0.27000E+04
         0.27000E+04
         0.27000E+04
         0.27000E+04
         0.27000E+04
         0.27000E+04
         0.27000E+04
         0.27000E+04
         0.27000E+04
         0.27000E+04
         0.27000E+04
         0.27000E+04
         0.27000E+04
         0.27000E+04
         0.27000E+04
         0.27000E+04
         0.27000E+04
         0.27000E+04
         0.27000E+04
         0.27000E+04
         0.27000E+04
         0.27000E+04
         0.27000E+04
         0.27000E+04
         0.27000E+04
         0.27000E+04
         0.27000E+04
         0.27000E+04
         0.27000E+04
         0.27000E+04
         0.27000E+04
         0.27000E+04
         0.27000E+04
         0.27000E+04
         0.27000E+04
         0.27000E+04
         0.27000E+04
         0.27000E+04
         0.27000E+04
         0.27000E+04
         0.27000E+04
         0.27000E+04
         0.27000E+04
         0.27000E+04
         0.27000E+04
         0.27000E+04
         0.27000E+04
         0.27000E+04
         0.27000E+04
         0.27000E+04
         0.27000E+04
         0.27000E+04
         0.27000E+04
         0.27000E+04
         0.27000E+04
         0.27000E+04
         0.27000E+04
         0.27000E+04
         0.27000E+04
         0.27000E+04
         0.27000E+04
         0.27000E+04
         0.27000E+04
         0.27000E+04
         0.27000E+04
         0.27000E+04
         0.27000E+04
         0.27000E+04
         0.27000E+04
         0.27000E+04
         0.27000E+04
         0.27000E+04
         0.27000E+04
         0.27000E+04
         0.27000E+04
         0.27000E+04
         0.27000E+04
         0.27000E+04
         0.27000E+04
         0.27000E+04
         0.27000E+04
         0.27000E+04
         0.27000E+04
         0.27000E+04
         0.27000E+04
         0.27000E+04
         0.27000E+04
         0.27000E+04
         0.27000E+04
         0.27000E+04
         0.27000E+04
         0.27000E+04
         0.27000E+04
         0.27000E+04
         0.27000E+04
         0.27000E+04
         0.27000E+04
         0.27000E+04
         0.27000E+04
         0.27000E+04
         0.27000E+04
         0.27000E+04
         0.27000E+04
         0.27000E+04
         0.27000E+04
         0.27000E+04
         0.27000E+04
         0.27000E+04
         0.27000E+04
         0.27000E+04
         0.27000E+04
         0.27000E+04
         0.27000E+04
         0.27000E+04
         0.27000E+04
         0.27000E+04
         0.27000E+04
         0.27000E+04
         0.27000E+04
         0.27000E+04
         0.27000E+04
         0.27000E+04
         0.27000E+04
         0.27000E+04
         0.27000E+04
         0.27000E+04
         0.27000E+04
         0.27000E+04
         0.27000E+04
         0.27000E+04
         0.27000E+04
         0.27000E+04
         0.27000E+04
         0.27000E+04
         0.27000E+04
         0.27000E+04
         0.27000E+04
         0.27000E+04
         0.27000E+04
         0.27000E+04
         0.27000E+04
         0.27000E+04
         0.27000E+04
         0.27000E+04
         0.27000E+04
         0.27000E+04
         0.27000E+04
         0.27000E+04
         0.27000E+04
         0.27000E+04
         0.27000E+04
         0.27000E+04
         0.27000E+04
         0.27000E+04
         0.27000E+04
         0.27000E+04
         0.27000E+04
         0.27000E+04
         0.27000E+04
         0.27000E+04
         0.27000E+04
         0.27000E+04
         0.27000E+04
         0.27000E+04
         0.27000E+04
         0.27000E+04
         0.27000E+04
         0.27000E+04
         0.27000E+04
         0.27000E+04
         0.27000E+04
         0.27000E+04
         0.27000E+04
         0.27000E+04
         0.27000E+04
         0.27000E+04
         0.27000E+04
         0.27000E+04
         0.27000E+04
         0.27000E+04
         0.27000E+04
         0.27000E+04
         0.27000E+04
         0.27000E+04
         0.27000E+04
         0.27000E+04
         0.27000E+04
         0.27000E+04
         0.27000E+04
         0.27000E+04
         0.27000E+04
         0.27000E+04
         0.27000E+04
         0.27000E+04
         0.27000E+04
         0.27000E+04
         0.27000E+04
         0.27000E+04
         0.27000E+04
         0.27000E+04
         0.27000E+04
         0.27000E+04
         0.27000E+04
         0.27000E+04
         0.27000E+04
         0.27000E+04
         0.27000E+04
         0.27000E+04
         0.27000E+04
         0.27000E+04
         0.27000E+04
         0.27000E+04
         0.27000E+04
         0.27000E+04
         0.27000E+04
         0.27000E+04
         0.27000E+04
         0.27000E+04
         0.27000E+04
         0.27000E+04
         0.27000E+04
         0.27000E+04
         0.27000E+04
         0.27000E+04
         0.27000E+04
         0.27000E+04
         0.27000E+04
         0.27000E+04
         0.27000E+04
         0.27000E+04
         0.27000E+04
         0.27000E+04
         0.27000E+04
         0.27000E+04
         0.27000E+04
         0.27000E+04
         0.27000E+04
         0.27000E+04
         0.27000E+04
         0.27000E+04
         0.27000E+04
         0.27000E+04
         0.27000E+04
         0.27000E+04
         0.27000E+04
         0.27000E+04
         0.27000E+04
         0.27000E+04
         0.27000E+04
         0.27000E+04
         0.27000E+04
         0.27000E+04
         0.27000E+04
         0.27000E+04
         0.27000E+04
         0.27000E+04
         0.27000E+04
         0.27000E+04
         0.27000E+04
         0.27000E+04
         0.27000E+04
         0.27000E+04
         0.27000E+04
         0.27000E+04
         0.27000E+04
         0.27000E+04
         0.27000E+04
         0.27000E+04
         0.27000E+04
         0.27000E+04
         0.27000E+04
         0.27000E+04
         0.27000E+04
         0.27000E+04
         0.27000E+04
         0.27000E+04
         0.27000E+04
         0.27000E+04
         0.27000E+04
         0.27000E+04
         0.27000E+04
         0.27000E+04
         0.27000E+04
         0.27000E+04
         0.27000E+04
         0.27000E+04
         0.27000E+04
         0.27000E+04
         0.27000E+04
         0.27000E+04
         0.27000E+04
         0.27000E+04
         0.27000E+04
         0.27000E+04
         0.27000E+04
         0.27000E+04
         0.27000E+04
         0.27000E+04
         0.27000E+04
         0.27000E+04
         0.27000E+04
         0.27000E+04
         0.27000E+04
         0.27000E+04
         0.27000E+04
         0.27000E+04
         0.27000E+04
         0.27000E+04
         0.27000E+04
         0.27000E+04
         0.27000E+04
         0.27000E+04
         0.27000E+04
         0.27000E+04
         0.27000E+04
         0.27000E+04
         0.27000E+04
         0.27000E+04
         0.27000E+04
         0.27000E+04
         0.27000E+04
         0.27000E+04
         0.27000E+04
         0.27000E+04
         0.27000E+04
         0.27000E+04
         0.27000E+04
         0.27000E+04
         0.27000E+04
         0.27000E+04
         0.27000E+04
         0.27000E+04
         0.27000E+04
         0.27000E+04
         0.27000E+04
         0.27000E+04
         0.27000E+04
         0.27000E+04
         0.27000E+04
         0.27000E+04
         0.27000E+04
         0.27000E+04
         0.27000E+04
         0.27000E+04
         0.27000E+04
         0.27000E+04
         0.27000E+04
         0.27000E+04
         0.27000E+04
         0.27000E+04
         0.27000E+04
         0.27000E+04
         0.27000E+04
         0.27000E+04
         0.27000E+04
         0.27000E+04
         0.27000E+04
         0.27000E+04
         0.27000E+04
         0.27000E+04
         0.27000E+04
         0.27000E+04
         0.27000E+04
         0.27000E+04
         0.27000E+04
         0.27000E+04
         0.27000E+04
         0.27000E+04
         0.27000E+04
         0.27000E+04
         0.27000E+04
         0.27000E+04
         0.27000E+04
         0.27000E+04
         0.27000E+04
         0.27000E+04
         0.27000E+04
         0.27000E+04
         0.27000E+04
         0.27000E+04
         0.27000E+04
         0.27000E+04
         0.27000E+04
         0.27000E+04
         0.27000E+04
         0.27000E+04
         0.27000E+04
         0.27000E+04
         0.27000E+04
         0.27000E+04
         0.27000E+04
         0.27000E+04
         0.27000E+04
         0.27000E+04
         0.27000E+04
         0.27000E+04
         0.27000E+04
         0.27000E+04
         0.27000E+04
         0.27000E+04
         0.27000E+04
         0.27000E+04
         0.27000E+04
         0.27000E+04
         0.27000E+04
         0.27000E+04
         0.27000E+04
         0.27000E+04
         0.27000E+04
         0.27000E+04
         0.27000E+04
         0.27000E+04
         0.27000E+04
         0.27000E+04
         0.27000E+04
         0.27000E+04
         0.27000E+04
         0.27000E+04
         0.27000E+04
         0.27000E+04
         0.27000E+04
         0.27000E+04
         0.27000E+04
         0.27000E+04
         0.27000E+04
         0.27000E+04
         0.27000E+04
         0.27000E+04
         0.27000E+04
         0.27000E+04
         0.27000E+04
         0.27000E+04
         0.27000E+04
         0.27000E+04
         0.27000E+04
         0.27000E+04
         0.27000E+04
         0.27000E+04
         0.27000E+04
         0.27000E+04
         0.27000E+04
         0.27000E+04
         0.27000E+04
         0.27000E+04
         0.27000E+04
         0.27000E+04
         0.27000E+04
         0.27000E+04
         0.27000E+04
         0.27000E+04
         0.27000E+04
         0.27000E+04
         0.27000E+04
         0.27000E+04
         0.27000E+04
         0.27000E+04
         0.27000E+04
         0.27000E+04
         0.27000E+04
         0.27000E+04
         0.27000E+04
         0.27000E+04
         0.27000E+04
         0.27000E+04
         0.27000E+04
         0.27000E+04
         0.27000E+04
         0.27000E+04
         0.27000E+04
         0.27000E+04
         0.27000E+04
         0.27000E+04
         0.27000E+04
         0.27000E+04
         0.27000E+04
         0.27000E+04
         0.27000E+04
         0.27000E+04
         0.27000E+04
         0.27000E+04
         0.27000E+04
         0.27000E+04
         0.27000E+04
         0.27000E+04
         0.27000E+04
         0.27000E+04
         0.27000E+04
         0.27000E+04
         0.27000E+04
         0.27000E+04
         0.27000E+04
         0.27000E+04
         0.27000E+04
         0.27000E+04
         0.27000E+04
         0.27000E+04
         0.27000E+04
         0.27000E+04
         0.27000E+04
         0.27000E+04
         0.27000E+04
         0.27000E+04
         0.27000E+04
         0.27000E+04
         0.27000E+04
         0.27000E+04
         0.27000E+04
         0.27000E+04
         0.27000E+04
         0.27000E+04
         0.27000E+04
         0.27000E+04
         0.27000E+04
         0.27000E+04
         0.27000E+04
         0.27000E+04
         0.27000E+04
         0.27000E+04
         0.27000E+04
         0.27000E+04
         0.27000E+04
         0.27000E+04
         0.27000E+04
         0.27000E+04
         0.27000E+04
         0.27000E+04
         0.27000E+04
         0.27000E+04
         0.27000E+04
         0.27000E+04
         0.27000E+04
         0.27000E+04
         0.27000E+04
         0.27000E+04
         0.27000E+04
         0.27000E+04
         0.27000E+04
         0.27000E+04
         0.27000E+04
         0.27000E+04
         0.27000E+04
         0.27000E+04
         0.27000E+04
         0.27000E+04
         0.27000E+04
         0.27000E+04
         0.27000E+04
         0.27000E+04
         0.27000E+04
         0.27000E+04
         0.27000E+04
         0.27000E+04
         0.27000E+04
         0.27000E+04
         0.27000E+04
         0.27000E+04
         0.27000E+04
         0.27000E+04
         0.27000E+04
         0.27000E+04
         0.27000E+04
         0.27000E+04
         0.27000E+04
         0.27000E+04
         0.27000E+04
         0.27000E+04
         0.27000E+04
         0.27000E+04
         0.27000E+04
         0.27000E+04
         0.27000E+04
         0.27000E+04
         0.27000E+04
         0.27000E+04
         0.27000E+04
         0.27000E+04
         0.27000E+04
         0.27000E+04
         0.27000E+04
         0.27000E+04
         0.27000E+04
         0.27000E+04
         0.27000E+04
         0.27000E+04
         0.27000E+04
         0.27000E+04
         0.27000E+04
         0.27000E+04
         0.27000E+04
         0.27000E+04
         0.27000E+04
         0.27000E+04
         0.27000E+04
         0.27000E+04
         0.27000E+04
         0.27000E+04
         0.27000E+04
         0.27000E+04
         0.27000E+04
         0.27000E+04
         0.27000E+04
         0.27000E+04
         0.27000E+04
         0.27000E+04
         0.27000E+04
         0.27000E+04
         0.27000E+04
         0.27000E+04
         0.27000E+04
         0.27000E+04
         0.27000E+04
         0.27000E+04
         0.27000E+04
         0.27000E+04
         0.27000E+04
         0.27000E+04
         0.27000E+04
         0.27000E+04
         0.27000E+04
         0.27000E+04
         0.27000E+04
         0.27000E+04
         0.27000E+04
         0.27000E+04
         0.27000E+04
         0.27000E+04
         0.27000E+04
         0.27000E+04
         0.27000E+04
         0.27000E+04
         0.27000E+04
         0.27000E+04
         0.27000E+04
         0.27000E+04
         0.27000E+04
         0.27000E+04
         0.27000E+04
         0.27000E+04
         0.27000E+04
         0.27000E+04
         0.27000E+04
         0.27000E+04
         0.27000E+04
         0.27000E+04
         0.27000E+04
         0.27000E+04
         0.27000E+04
         0.27000E+04
         0.27000E+04
         0.27000E+04
         0.27000E+04
         0.27000E+04
         0.27000E+04
         0.27000E+04
         0.27000E+04
         0.27000E+04
         0.27000E+04
         0.27000E+04
         0.27000E+04
         0.27000E+04
         0.27000E+04
         0.27000E+04
         0.27000E+04
         0.27000E+04
         0.27000E+04
         0.27000E+04
         0.27000E+04
         0.27000E+04
         0.27000E+04
         0.27000E+04
         0.27000E+04
         0.27000E+04
         0.27000E+04
         0.27000E+04
         0.27000E+04
         0.27000E+04
         0.27000E+04
         0.27000E+04
         0.27000E+04
         0.27000E+04
         0.27000E+04
         0.27000E+04
         0.27000E+04
         0.27000E+04
         0.27000E+04
         0.27000E+04
         0.27000E+04
         0.27000E+04
         0.27000E+04
         0.27000E+04
         0.27000E+04
         0.27000E+04
         0.27000E+04
         0.27000E+04
         0.27000E+04
         0.27000E+04
         0.27000E+04
         0.27000E+04
         0.27000E+04
         0.27000E+04
         0.27000E+04
         0.27000E+04
         0.27000E+04
         0.27000E+04
         0.27000E+04
         0.27000E+04
         0.27000E+04
         0.27000E+04
         0.27000E+04
         0.27000E+04
         0.27000E+04
         0.27000E+04
         0.27000E+04
         0.27000E+04
         0.27000E+04
         0.27000E+04
         0.27000E+04
         0.27000E+04
         0.27000E+04
         0.27000E+04
         0.27000E+04
         0.27000E+04
         0.27000E+04
         0.27000E+04
         0.27000E+04
         0.27000E+04
         0.27000E+04
         0.27000E+04
         0.27000E+04
         0.27000E+04
         0.27000E+04
         0.27000E+04
         0.27000E+04
         0.27000E+04
         0.27000E+04
         0.27000E+04
         0.27000E+04
         0.27000E+04
         0.27000E+04
         0.27000E+04
         0.27000E+04
         0.27000E+04
         0.27000E+04
         0.27000E+04
         0.27000E+04
         0.27000E+04
         0.27000E+04
         0.27000E+04
         0.27000E+04
         0.27000E+04
         0.27000E+04
         0.27000E+04
         0.27000E+04
         0.27000E+04
         0.27000E+04
         0.27000E+04
         0.27000E+04
         0.27000E+04
         0.27000E+04
         0.27000E+04
         0.27000E+04
         0.27000E+04
         0.27000E+04
         0.27000E+04
         0.27000E+04
         0.27000E+04
         0.27000E+04
         0.27000E+04
         0.27000E+04
         0.27000E+04
         0.27000E+04
         0.27000E+04
         0.27000E+04
         0.27000E+04
         0.27000E+04
         0.27000E+04
         0.27000E+04
         0.27000E+04
         0.27000E+04
         0.27000E+04
         0.27000E+04
         0.27000E+04
         0.27000E+04
         0.27000E+04
         0.27000E+04
         0.27000E+04
         0.27000E+04
         0.27000E+04
         0.27000E+04
         0.27000E+04
         0.27000E+04
         0.27000E+04
         0.27000E+04
         0.27000E+04
         0.27000E+04
         0.27000E+04
         0.27000E+04
         0.27000E+04
         0.27000E+04
         0.27000E+04
         0.27000E+04
         0.27000E+04
         0.27000E+04
         0.27000E+04
         0.27000E+04
         0.27000E+04
         0.27000E+04
         0.27000E+04
         0.27000E+04
         0.27000E+04
         0.27000E+04
         0.27000E+04
         0.27000E+04
         0.27000E+04
         0.27000E+04
         0.27000E+04
         0.27000E+04
         0.27000E+04
         0.27000E+04
         0.27000E+04
         0.27000E+04
         0.27000E+04
         0.27000E+04
         0.27000E+04
         0.27000E+04
         0.27000E+04
         0.27000E+04
         0.27000E+04
         0.27000E+04
         0.27000E+04
         0.27000E+04
         0.27000E+04
         0.27000E+04
         0.27000E+04
         0.27000E+04
         0.27000E+04
         0.27000E+04
         0.27000E+04
         0.27000E+04
         0.27000E+04
         0.27000E+04
         0.27000E+04
         0.27000E+04
         0.27000E+04
         0.27000E+04
         0.27000E+04
         0.27000E+04
         0.27000E+04
         0.27000E+04
         0.27000E+04
         0.27000E+04
         0.27000E+04
         0.27000E+04
         0.27000E+04
         0.27000E+04
         0.27000E+04
         0.27000E+04
         0.27000E+04
         0.27000E+04
         0.27000E+04
         0.27000E+04
         0.27000E+04
         0.27000E+04
         0.27000E+04
         0.27000E+04
         0.27000E+04
         0.27000E+04
         0.27000E+04
         0.27000E+04
         0.27000E+04
         0.27000E+04
         0.27000E+04
         0.27000E+04
         0.27000E+04
         0.27000E+04
         0.27000E+04
         0.27000E+04
         0.27000E+04
         0.27000E+04
         0.27000E+04
         0.27000E+04
         0.27000E+04
         0.27000E+04
         0.27000E+04
         0.27000E+04
         0.27000E+04
         0.27000E+04
         0.27000E+04
         0.27000E+04
         0.27000E+04
         0.27000E+04
         0.27000E+04
         0.27000E+04
         0.27000E+04
         0.27000E+04
         0.27000E+04
         0.27000E+04
         0.27000E+04
         0.27000E+04
         0.27000E+04
         0.27000E+04
         0.27000E+04
         0.27000E+04
         0.27000E+04
         0.27000E+04
         0.27000E+04
         0.27000E+04
         0.27000E+04
         0.27000E+04
         0.27000E+04
         0.27000E+04
         0.27000E+04
         0.27000E+04
         0.27000E+04
         0.27000E+04
         0.27000E+04
         0.27000E+04
         0.27000E+04
         0.27000E+04
         0.27000E+04
         0.27000E+04
         0.27000E+04
         0.27000E+04
         0.27000E+04
         0.27000E+04
         0.27000E+04
         0.27000E+04
         0.27000E+04
         0.27000E+04
         0.27000E+04
         0.27000E+04
         0.27000E+04
         0.27000E+04
         0.27000E+04
         0.27000E+04
         0.27000E+04
         0.27000E+04
         0.27000E+04
         0.27000E+04
         0.27000E+04
         0.27000E+04
         0.27000E+04
         0.27000E+04
         0.27000E+04
         0.27000E+04
         0.27000E+04
         0.27000E+04
         0.27000E+04
         0.27000E+04
         0.27000E+04
         0.27000E+04
         0.27000E+04
         0.27000E+04
         0.27000E+04
         0.27000E+04
         0.27000E+04
         0.27000E+04
         0.27000E+04
         0.27000E+04
         0.27000E+04
         0.27000E+04
         0.27000E+04
         0.27000E+04
         0.27000E+04
         0.27000E+04
         0.27000E+04
         0.27000E+04
         0.27000E+04
         0.27000E+04
         0.27000E+04
         0.27000E+04
         0.27000E+04
         0.27000E+04
         0.27000E+04
         0.27000E+04
         0.27000E+04
         0.27000E+04
         0.27000E+04
         0.27000E+04
         0.27000E+04
         0.27000E+04
         0.27000E+04
         0.27000E+04
         0.27000E+04
         0.27000E+04
         0.27000E+04
         0.27000E+04
         0.27000E+04
         0.27000E+04
         0.27000E+04
         0.27000E+04
         0.27000E+04
         0.27000E+04
         0.27000E+04
         0.27000E+04
         0.27000E+04
         0.27000E+04
         0.27000E+04
         0.27000E+04
         0.27000E+04
         0.27000E+04
         0.27000E+04
         0.27000E+04
         0.27000E+04
         0.27000E+04
         0.27000E+04
         0.27000E+04
         0.27000E+04
         0.27000E+04
         0.27000E+04
         0.27000E+04
         0.27000E+04
         0.27000E+04
         0.27000E+04
         0.27000E+04
         0.27000E+04
         0.27000E+04
         0.27000E+04
         0.27000E+04
         0.27000E+04
         0.27000E+04
         0.27000E+04
         0.27000E+04
         0.27000E+04
         0.27000E+04
         0.27000E+04
         0.27000E+04
         0.27000E+04
         0.27000E+04
         0.27000E+04
         0.27000E+04
         0.27000E+04
         0.27000E+04
         0.27000E+04
         0.27000E+04
         0.27000E+04
         0.27000E+04
         0.27000E+04
         0.27000E+04
         0.27000E+04
         0.27000E+04
         0.27000E+04
         0.27000E+04
         0.27000E+04
         0.27000E+04
         0.27000E+04
         0.27000E+04
         0.27000E+04
         0.27000E+04
         0.27000E+04
         0.27000E+04
         0.27000E+04
         0.27000E+04
         0.27000E+04
         0.27000E+04
         0.27000E+04
         0.27000E+04
         0.27000E+04
