# vtk DataFile Version 2.0
               (MEGA VTK FILE)
ASCII
DATASET UNSTRUCTURED_GRID
POINTS       1950    double
  0.27793E-02  0.21215E-02 -0.14365E-01
  0.43179E-02  0.32791E-02 -0.13907E-01
  0.57514E-02  0.15624E-02 -0.13634E-01
  0.46085E-02 -0.86926E-03 -0.13976E-01
  0.29716E-02  0.21989E-02 -0.11750E-01
  0.33868E-02  0.47403E-02 -0.11750E-01
  0.75949E-02  0.69742E-03 -0.11750E-01
  0.50562E-02 -0.88618E-03 -0.11750E-01
  0.68030E-02  0.39156E-03 -0.13142E-01
  0.64523E-02 -0.15725E-02 -0.13261E-01
  0.59617E-02  0.63316E-03 -0.11750E-01
  0.66351E-02 -0.59184E-03 -0.11750E-01
  0.30606E-02  0.45882E-02 -0.13923E-01
  0.16727E-02  0.39409E-02 -0.14304E-01
  0.10123E-02  0.34955E-02 -0.11750E-01
  0.13085E-02  0.31541E-02 -0.11750E-01
  0.92916E-04  0.11514E-02 -0.14610E-01
 -0.44159E-03  0.33261E-02 -0.14474E-01
 -0.80718E-03  0.18643E-02 -0.11750E-01
 -0.47089E-03  0.32035E-02 -0.11750E-01
  0.22731E-02  0.53432E-02 -0.13815E-01
  0.25034E-02  0.61544E-02 -0.13426E-01
  0.37505E-02  0.54601E-02 -0.13440E-01
  0.28810E-02  0.43686E-02 -0.11750E-01
  0.25811E-02  0.62835E-02 -0.11750E-01
  0.29771E-02  0.64802E-02 -0.11750E-01
  0.10993E-02  0.52074E-02 -0.14010E-01
  0.94769E-03  0.64080E-02 -0.13531E-01
  0.18994E-02  0.36449E-02 -0.11750E-01
  0.80247E-03  0.65897E-02 -0.11750E-01
 -0.23027E-02 -0.27953E-02 -0.14266E-01
 -0.26580E-02  0.31879E-03 -0.14498E-01
  0.11872E-02 -0.19585E-02 -0.14360E-01
 -0.28451E-02 -0.17071E-02 -0.11750E-01
 -0.31380E-02  0.27047E-03 -0.11750E-01
  0.78107E-03 -0.18961E-02 -0.11750E-01
 -0.46857E-02 -0.19304E-02 -0.13895E-01
 -0.47598E-02  0.15102E-03 -0.14027E-01
 -0.39823E-02 -0.25256E-02 -0.11750E-01
 -0.38306E-02 -0.25479E-03 -0.11750E-01
 -0.61823E-02 -0.18739E-02 -0.13346E-01
 -0.63964E-02  0.32049E-04 -0.13433E-01
 -0.62330E-02 -0.17363E-02 -0.11750E-01
 -0.67267E-02  0.13778E-03 -0.11750E-01
 -0.56520E-02 -0.34441E-02 -0.13217E-01
 -0.47031E-02 -0.33321E-02 -0.13616E-01
 -0.61502E-02 -0.30779E-02 -0.11750E-01
 -0.32715E-02 -0.25940E-02 -0.11750E-01
 -0.27132E-02  0.27001E-02 -0.14357E-01
 -0.21505E-02  0.22588E-02 -0.11750E-01
 -0.36437E-02 -0.44057E-02 -0.13680E-01
 -0.31049E-02 -0.48047E-02 -0.11750E-01
 -0.71493E-03  0.49748E-02 -0.14108E-01
  0.34414E-04  0.44050E-02 -0.11750E-01
 -0.26700E-02  0.45544E-02 -0.14041E-01
 -0.25926E-02  0.35453E-02 -0.11750E-01
 -0.43104E-02  0.40841E-02 -0.13798E-01
 -0.46159E-02  0.22735E-02 -0.13982E-01
 -0.39882E-02  0.44782E-02 -0.11750E-01
 -0.39880E-02  0.18952E-02 -0.11750E-01
 -0.51352E-03 -0.52321E-02 -0.13800E-01
 -0.23996E-02 -0.57217E-02 -0.13487E-01
 -0.13720E-02 -0.54449E-02 -0.11750E-01
 -0.30654E-02 -0.61077E-02 -0.11750E-01
  0.21343E-02 -0.46451E-02 -0.13834E-01
  0.30883E-02 -0.48746E-02 -0.11750E-01
  0.44311E-02 -0.39193E-02 -0.13611E-01
  0.47821E-02 -0.49782E-02 -0.11750E-01
  0.67891E-02  0.17119E-02 -0.13004E-01
  0.61324E-02  0.28365E-02 -0.13223E-01
  0.65086E-02  0.18945E-02 -0.11750E-01
  0.54558E-02  0.22341E-02 -0.11750E-01
  0.50340E-02  0.42703E-02 -0.13393E-01
  0.57080E-02  0.37718E-02 -0.11750E-01
 -0.90803E-03  0.63962E-02 -0.13578E-01
 -0.14826E-02  0.67449E-02 -0.11750E-01
 -0.26672E-02  0.59831E-02 -0.13570E-01
 -0.28736E-02  0.59238E-02 -0.11750E-01
 -0.40858E-02  0.53530E-02 -0.13458E-01
 -0.41519E-02  0.51081E-02 -0.11750E-01
 -0.50194E-02  0.47567E-02 -0.13279E-01
 -0.55709E-02  0.36712E-02 -0.13410E-01
 -0.42320E-02  0.44867E-02 -0.11750E-01
 -0.54249E-02  0.38742E-02 -0.11750E-01
 -0.61561E-02  0.19857E-02 -0.13459E-01
 -0.64213E-02  0.23436E-02 -0.11750E-01
 -0.47028E-02 -0.47800E-02 -0.13193E-01
 -0.50154E-02 -0.41423E-02 -0.11750E-01
 -0.35803E-02 -0.58875E-02 -0.13102E-01
 -0.28760E-02 -0.62452E-02 -0.11750E-01
 -0.26302E-02 -0.65477E-02 -0.12928E-01
 -0.13762E-02 -0.66806E-02 -0.13103E-01
 -0.22224E-02 -0.60801E-02 -0.11750E-01
 -0.18560E-02 -0.63368E-02 -0.11750E-01
  0.47883E-03 -0.66013E-02 -0.13245E-01
  0.38789E-03 -0.64398E-02 -0.11750E-01
  0.25283E-02 -0.62007E-02 -0.13270E-01
  0.29441E-02 -0.59376E-02 -0.11750E-01
  0.41850E-02 -0.55233E-02 -0.13142E-01
  0.42898E-02 -0.49546E-02 -0.11750E-01
  0.52318E-02 -0.48097E-02 -0.12968E-01
  0.58423E-02 -0.35298E-02 -0.13169E-01
  0.38162E-02 -0.45871E-02 -0.11750E-01
  0.56425E-02 -0.44840E-02 -0.11750E-01
  0.71196E-02  0.19298E-02 -0.12554E-01
  0.74336E-02  0.41489E-04 -0.12497E-01
  0.72942E-02  0.21505E-02 -0.11750E-01
  0.72662E-02 -0.17081E-03 -0.11750E-01
  0.63709E-02  0.35384E-02 -0.12611E-01
  0.55945E-02  0.39206E-02 -0.11750E-01
  0.54201E-02  0.49637E-02 -0.12719E-01
  0.55991E-02  0.44912E-02 -0.11750E-01
  0.41006E-02  0.61593E-02 -0.12769E-01
  0.35847E-02  0.60492E-02 -0.11750E-01
  0.26804E-02  0.68316E-02 -0.12756E-01
  0.28689E-02  0.61416E-02 -0.11750E-01
  0.89030E-03  0.72322E-02 -0.12808E-01
  0.82606E-03  0.68608E-02 -0.11750E-01
 -0.99624E-03  0.72436E-02 -0.12838E-01
 -0.93230E-03  0.66748E-02 -0.11750E-01
 -0.26240E-02  0.68703E-02 -0.12892E-01
 -0.23835E-02  0.65814E-02 -0.11750E-01
 -0.40121E-02  0.60489E-02 -0.12901E-01
 -0.37396E-02  0.57658E-02 -0.11750E-01
 -0.52584E-02  0.49527E-02 -0.12861E-01
 -0.52510E-02  0.50164E-02 -0.11750E-01
 -0.63554E-02  0.33991E-02 -0.12823E-01
 -0.60485E-02  0.30419E-02 -0.11750E-01
 -0.71410E-02  0.17193E-02 -0.12720E-01
 -0.68833E-02  0.16039E-02 -0.11750E-01
 -0.74150E-02 -0.65855E-04 -0.12640E-01
 -0.70440E-02 -0.10689E-03 -0.11750E-01
 -0.71978E-02 -0.18347E-02 -0.12597E-01
 -0.68369E-02 -0.18045E-02 -0.11750E-01
 -0.65758E-02 -0.34501E-02 -0.12567E-01
 -0.63000E-02 -0.33944E-02 -0.11750E-01
 -0.55146E-02 -0.48697E-02 -0.12587E-01
 -0.52930E-02 -0.49113E-02 -0.11750E-01
 -0.42525E-02 -0.59998E-02 -0.12537E-01
 -0.42783E-02 -0.57477E-02 -0.11750E-01
 -0.28109E-02 -0.68126E-02 -0.12517E-01
 -0.37468E-02 -0.66074E-02 -0.11750E-01
 -0.77631E-03 -0.73315E-02 -0.12543E-01
  0.63938E-04 -0.74068E-02 -0.11750E-01
  0.10180E-02 -0.73977E-02 -0.12554E-01
  0.85040E-03 -0.72075E-02 -0.11750E-01
  0.26979E-02 -0.70280E-02 -0.12571E-01
  0.26117E-02 -0.67943E-02 -0.11750E-01
  0.41940E-02 -0.62515E-02 -0.12514E-01
  0.36641E-02 -0.61588E-02 -0.11750E-01
  0.55131E-02 -0.50721E-02 -0.12509E-01
  0.61009E-02 -0.47252E-02 -0.11750E-01
  0.65109E-02 -0.34817E-02 -0.12539E-01
  0.61395E-02 -0.28805E-02 -0.11750E-01
  0.72331E-02 -0.17887E-02 -0.12526E-01
  0.71566E-02 -0.20565E-02 -0.11750E-01
  0.25136E-02  0.19381E-02 -0.13737E-01
  0.37760E-02  0.29015E-02 -0.13422E-01
  0.49685E-02  0.14148E-02 -0.13266E-01
  0.40517E-02 -0.74680E-03 -0.13471E-01
  0.59028E-02  0.37971E-03 -0.12920E-01
  0.55911E-02 -0.13543E-02 -0.12996E-01
  0.26879E-02  0.40180E-02 -0.13398E-01
  0.15143E-02  0.35699E-02 -0.13656E-01
  0.13664E-03  0.10661E-02 -0.13915E-01
 -0.37053E-03  0.30593E-02 -0.13798E-01
  0.19601E-02  0.46593E-02 -0.13333E-01
  0.21386E-02  0.53143E-02 -0.13125E-01
  0.32472E-02  0.47004E-02 -0.13102E-01
  0.95418E-03  0.46036E-02 -0.13471E-01
  0.82397E-03  0.55485E-02 -0.13243E-01
 -0.20128E-02 -0.25273E-02 -0.13671E-01
 -0.23518E-02  0.31242E-03 -0.13836E-01
  0.10909E-02 -0.17958E-02 -0.13729E-01
 -0.40927E-02 -0.16954E-02 -0.13413E-01
 -0.41767E-02  0.16848E-03 -0.13503E-01
 -0.53235E-02 -0.16455E-02 -0.13045E-01
 -0.55024E-02  0.42867E-04 -0.13143E-01
 -0.48682E-02 -0.30323E-02 -0.12908E-01
 -0.40732E-02 -0.29287E-02 -0.13200E-01
 -0.24074E-02  0.24655E-02 -0.13717E-01
 -0.31590E-02 -0.38547E-02 -0.13249E-01
 -0.61751E-03  0.44168E-02 -0.13546E-01
 -0.23258E-02  0.40208E-02 -0.13494E-01
 -0.37508E-02  0.35658E-02 -0.13330E-01
 -0.40408E-02  0.20328E-02 -0.13466E-01
 -0.45117E-03 -0.46064E-02 -0.13342E-01
 -0.20875E-02 -0.49778E-02 -0.13121E-01
  0.18536E-02 -0.41062E-02 -0.13354E-01
  0.38598E-02 -0.34109E-02 -0.13200E-01
  0.59091E-02  0.15316E-02 -0.12809E-01
  0.53058E-02  0.25069E-02 -0.12955E-01
  0.43551E-02  0.37208E-02 -0.13075E-01
 -0.74126E-03  0.55130E-02 -0.13277E-01
 -0.22826E-02  0.51416E-02 -0.13234E-01
 -0.35531E-02  0.46085E-02 -0.13115E-01
 -0.43866E-02  0.41582E-02 -0.12993E-01
 -0.48156E-02  0.32341E-02 -0.13111E-01
 -0.52920E-02  0.17600E-02 -0.13170E-01
 -0.40610E-02 -0.41842E-02 -0.12879E-01
 -0.31094E-02 -0.51427E-02 -0.12821E-01
 -0.23092E-02 -0.57592E-02 -0.12697E-01
 -0.12408E-02 -0.58351E-02 -0.12837E-01
  0.36999E-03 -0.57442E-02 -0.12920E-01
  0.21676E-02 -0.53881E-02 -0.12929E-01
  0.36470E-02 -0.47931E-02 -0.12833E-01
  0.45923E-02 -0.41971E-02 -0.12710E-01
  0.50925E-02 -0.30652E-02 -0.12904E-01
  0.63436E-02  0.17131E-02 -0.12441E-01
  0.66134E-02  0.93006E-04 -0.12399E-01
  0.56681E-02  0.31148E-02 -0.12476E-01
  0.47884E-02  0.44295E-02 -0.12617E-01
  0.35951E-02  0.54454E-02 -0.12686E-01
  0.23447E-02  0.60841E-02 -0.12706E-01
  0.83261E-03  0.64678E-02 -0.12813E-01
 -0.84798E-03  0.64324E-02 -0.12819E-01
 -0.23446E-02  0.60509E-02 -0.12826E-01
 -0.36196E-02  0.53511E-02 -0.12752E-01
 -0.47389E-02  0.44730E-02 -0.12707E-01
 -0.56387E-02  0.31509E-02 -0.12742E-01
 -0.63103E-02  0.16158E-02 -0.12687E-01
 -0.65566E-02 -0.36911E-04 -0.12604E-01
 -0.63612E-02 -0.16516E-02 -0.12510E-01
 -0.58046E-02 -0.30912E-02 -0.12443E-01
 -0.48894E-02 -0.43552E-02 -0.12448E-01
 -0.37520E-02 -0.53784E-02 -0.12366E-01
 -0.24892E-02 -0.61411E-02 -0.12373E-01
 -0.83129E-03 -0.65612E-02 -0.12412E-01
  0.81512E-03 -0.65769E-02 -0.12403E-01
  0.23991E-02 -0.62325E-02 -0.12397E-01
  0.37646E-02 -0.55151E-02 -0.12304E-01
  0.49259E-02 -0.45352E-02 -0.12325E-01
  0.58049E-02 -0.31384E-02 -0.12422E-01
  0.64155E-02 -0.15634E-02 -0.12415E-01
  0.23077E-02  0.17143E-02 -0.14215E-01
  0.35415E-02  0.26731E-02 -0.13763E-01
  0.46439E-02  0.13014E-02 -0.13568E-01
  0.37212E-02 -0.70115E-03 -0.13881E-01
  0.55678E-02  0.35190E-03 -0.13072E-01
  0.52657E-02 -0.12717E-02 -0.13163E-01
  0.25435E-02  0.37579E-02 -0.13692E-01
  0.14098E-02  0.32630E-02 -0.14086E-01
  0.17810E-03  0.87860E-03 -0.14445E-01
 -0.30396E-03  0.27404E-02 -0.14280E-01
  0.18477E-02  0.44129E-02 -0.13545E-01
  0.20250E-02  0.50687E-02 -0.13130E-01
  0.31078E-02  0.44410E-02 -0.13152E-01
  0.88194E-03  0.43397E-02 -0.13753E-01
  0.75908E-03  0.53078E-02 -0.13276E-01
 -0.18254E-02 -0.23238E-02 -0.14145E-01
 -0.20857E-02  0.21640E-03 -0.14326E-01
  0.10030E-02 -0.16480E-02 -0.14251E-01
 -0.38181E-02 -0.15831E-02 -0.13780E-01
 -0.38850E-02  0.12558E-03 -0.13868E-01
 -0.50540E-02 -0.15440E-02 -0.13185E-01
 -0.52252E-02  0.33805E-04 -0.13266E-01
 -0.46176E-02 -0.28622E-02 -0.13030E-01
 -0.38337E-02 -0.27382E-02 -0.13505E-01
 -0.21891E-02  0.22231E-02 -0.14165E-01
 -0.29480E-02 -0.35988E-02 -0.13574E-01
 -0.58451E-03  0.41424E-02 -0.13867E-01
 -0.21884E-02  0.37775E-02 -0.13790E-01
 -0.35615E-02  0.33612E-02 -0.13533E-01
 -0.37902E-02  0.18705E-02 -0.13783E-01
 -0.40646E-03 -0.42751E-02 -0.13724E-01
 -0.19294E-02 -0.46667E-02 -0.13381E-01
  0.17118E-02 -0.37965E-02 -0.13757E-01
  0.35923E-02 -0.31761E-02 -0.13509E-01
  0.55949E-02  0.14331E-02 -0.12895E-01
  0.50285E-02  0.23488E-02 -0.13085E-01
  0.41524E-02  0.34931E-02 -0.13188E-01
 -0.71213E-03  0.52745E-02 -0.13331E-01
 -0.21674E-02  0.49231E-02 -0.13284E-01
 -0.33918E-02  0.44035E-02 -0.13126E-01
 -0.42070E-02  0.39483E-02 -0.12944E-01
 -0.46097E-02  0.30478E-02 -0.13144E-01
 -0.50419E-02  0.16433E-02 -0.13256E-01
 -0.38224E-02 -0.39568E-02 -0.12995E-01
 -0.28991E-02 -0.48569E-02 -0.12905E-01
 -0.21450E-02 -0.54392E-02 -0.12724E-01
 -0.11403E-02 -0.55180E-02 -0.12945E-01
  0.36848E-03 -0.54336E-02 -0.13083E-01
  0.20472E-02 -0.50886E-02 -0.13108E-01
  0.34428E-02 -0.45213E-02 -0.12981E-01
  0.43566E-02 -0.39599E-02 -0.12785E-01
  0.48146E-02 -0.28844E-02 -0.13028E-01
  0.60083E-02  0.16036E-02 -0.12344E-01
  0.62745E-02  0.84441E-04 -0.12299E-01
  0.53978E-02  0.29746E-02 -0.12336E-01
  0.45770E-02  0.42279E-02 -0.12421E-01
  0.34270E-02  0.51908E-02 -0.12432E-01
  0.22183E-02  0.58455E-02 -0.12461E-01
  0.78563E-03  0.62143E-02 -0.12625E-01
 -0.79824E-03  0.62108E-02 -0.12638E-01
 -0.22176E-02  0.58282E-02 -0.12614E-01
 -0.34464E-02  0.51166E-02 -0.12512E-01
 -0.45367E-02  0.42193E-02 -0.12475E-01
 -0.54022E-02  0.29841E-02 -0.12541E-01
 -0.60337E-02  0.15598E-02 -0.12516E-01
 -0.62698E-02 -0.16741E-04 -0.12434E-01
 -0.60655E-02 -0.15526E-02 -0.12318E-01
 -0.55009E-02 -0.29232E-02 -0.12226E-01
 -0.46117E-02 -0.41185E-02 -0.12240E-01
 -0.35210E-02 -0.50704E-02 -0.12170E-01
 -0.23211E-02 -0.57973E-02 -0.12205E-01
 -0.78876E-03 -0.62307E-02 -0.12223E-01
  0.76376E-03 -0.62682E-02 -0.12213E-01
  0.22834E-02 -0.59452E-02 -0.12237E-01
  0.35873E-02 -0.52452E-02 -0.12169E-01
  0.47004E-02 -0.42818E-02 -0.12204E-01
  0.55550E-02 -0.29706E-02 -0.12281E-01
  0.61108E-02 -0.14830E-02 -0.12280E-01
  0.18825E-02  0.13542E-02 -0.13415E-01
  0.29180E-02  0.21681E-02 -0.13131E-01
  0.38293E-02  0.10584E-02 -0.13034E-01
  0.30194E-02 -0.58895E-03 -0.13239E-01
  0.47013E-02  0.30608E-03 -0.12703E-01
  0.44212E-02 -0.10600E-02 -0.12773E-01
  0.21012E-02  0.30824E-02 -0.13042E-01
  0.11486E-02  0.26564E-02 -0.13299E-01
  0.18718E-03  0.67917E-03 -0.13565E-01
 -0.23817E-03  0.22403E-02 -0.13448E-01
  0.15185E-02  0.36608E-02 -0.12931E-01
  0.16937E-02  0.42920E-02 -0.12658E-01
  0.26375E-02  0.37293E-02 -0.12681E-01
  0.70911E-03  0.35967E-02 -0.13080E-01
  0.61997E-03  0.45026E-02 -0.12780E-01
 -0.14412E-02 -0.18919E-02 -0.13405E-01
 -0.16500E-02  0.16933E-03 -0.13508E-01
  0.83480E-03 -0.13555E-02 -0.13473E-01
 -0.31116E-02 -0.12894E-02 -0.13164E-01
 -0.31770E-02  0.11860E-03 -0.13223E-01
 -0.42350E-02 -0.12814E-02 -0.12768E-01
 -0.43854E-02  0.41894E-04 -0.12825E-01
 -0.38790E-02 -0.24092E-02 -0.12648E-01
 -0.31477E-02 -0.22524E-02 -0.12976E-01
 -0.17761E-02  0.18319E-02 -0.13394E-01
 -0.24029E-02 -0.29605E-02 -0.13024E-01
 -0.49154E-03  0.34352E-02 -0.13175E-01
 -0.18101E-02  0.31315E-02 -0.13125E-01
 -0.29689E-02  0.27983E-02 -0.12945E-01
 -0.31238E-02  0.15570E-02 -0.13150E-01
 -0.32198E-03 -0.35020E-02 -0.13152E-01
 -0.15786E-02 -0.38835E-02 -0.12900E-01
  0.13923E-02 -0.30965E-02 -0.13170E-01
  0.29519E-02 -0.26098E-02 -0.12991E-01
  0.47874E-02  0.12273E-02 -0.12549E-01
  0.42683E-02  0.19805E-02 -0.12679E-01
  0.35275E-02  0.29288E-02 -0.12737E-01
 -0.59494E-03  0.44651E-02 -0.12820E-01
 -0.18145E-02  0.41574E-02 -0.12764E-01
 -0.28754E-02  0.37230E-02 -0.12628E-01
 -0.36155E-02  0.33627E-02 -0.12493E-01
 -0.39156E-02  0.25767E-02 -0.12681E-01
 -0.42476E-02  0.13905E-02 -0.12801E-01
 -0.32117E-02 -0.33558E-02 -0.12613E-01
 -0.24411E-02 -0.41532E-02 -0.12534E-01
 -0.18252E-02 -0.47029E-02 -0.12390E-01
 -0.95944E-03 -0.47130E-02 -0.12579E-01
  0.30639E-03 -0.45888E-02 -0.12691E-01
  0.17074E-02 -0.42697E-02 -0.12697E-01
  0.29019E-02 -0.38022E-02 -0.12587E-01
  0.37315E-02 -0.33638E-02 -0.12442E-01
  0.40757E-02 -0.24286E-02 -0.12654E-01
  0.53356E-02  0.14135E-02 -0.12080E-01
  0.55664E-02  0.96985E-04 -0.12060E-01
  0.48191E-02  0.26501E-02 -0.12044E-01
  0.40777E-02  0.37325E-02 -0.12091E-01
  0.30446E-02  0.45690E-02 -0.12078E-01
  0.19174E-02  0.51757E-02 -0.12108E-01
  0.66614E-03  0.55059E-02 -0.12238E-01
 -0.66838E-03  0.54869E-02 -0.12242E-01
 -0.19188E-02  0.51358E-02 -0.12212E-01
 -0.30498E-02  0.45145E-02 -0.12116E-01
 -0.40443E-02  0.37152E-02 -0.12094E-01
 -0.47895E-02  0.26378E-02 -0.12186E-01
 -0.53197E-02  0.13931E-02 -0.12185E-01
 -0.55256E-02  0.36587E-05 -0.12125E-01
 -0.53412E-02 -0.13459E-02 -0.12035E-01
 -0.48504E-02 -0.25905E-02 -0.11965E-01
 -0.40899E-02 -0.36790E-02 -0.11978E-01
 -0.31278E-02 -0.45444E-02 -0.11882E-01
 -0.20483E-02 -0.51860E-02 -0.11938E-01
 -0.73040E-03 -0.55651E-02 -0.11961E-01
  0.64363E-03 -0.55568E-02 -0.11935E-01
  0.19961E-02 -0.52381E-02 -0.11950E-01
  0.31801E-02 -0.46275E-02 -0.11892E-01
  0.41859E-02 -0.37572E-02 -0.11952E-01
  0.49529E-02 -0.26273E-02 -0.12026E-01
  0.54225E-02 -0.12965E-02 -0.12043E-01
  0.16961E-02  0.12081E-02 -0.13717E-01
  0.27285E-02  0.19981E-02 -0.13279E-01
  0.35733E-02  0.97298E-03 -0.13111E-01
  0.27371E-02 -0.53749E-03 -0.13457E-01
  0.44577E-02  0.27375E-03 -0.12636E-01
  0.41698E-02 -0.10067E-02 -0.12742E-01
  0.19891E-02  0.28859E-02 -0.13172E-01
  0.10468E-02  0.24198E-02 -0.13565E-01
  0.18475E-03  0.58528E-03 -0.13923E-01
 -0.21574E-03  0.19951E-02 -0.13757E-01
  0.14418E-02  0.34689E-02 -0.12998E-01
  0.16336E-02  0.41304E-02 -0.12552E-01
  0.25555E-02  0.35601E-02 -0.12609E-01
  0.64957E-03  0.33718E-02 -0.13209E-01
  0.57956E-03  0.43231E-02 -0.12678E-01
 -0.13039E-02 -0.16954E-02 -0.13679E-01
 -0.14523E-02  0.14740E-03 -0.13822E-01
  0.74853E-03 -0.11966E-02 -0.13808E-01
 -0.28911E-02 -0.11761E-02 -0.13331E-01
 -0.29235E-02  0.11034E-03 -0.13415E-01
 -0.40242E-02 -0.11906E-02 -0.12743E-01
 -0.41610E-02  0.37785E-04 -0.12796E-01
 -0.36981E-02 -0.22701E-02 -0.12601E-01
 -0.29679E-02 -0.20924E-02 -0.13068E-01
 -0.16052E-02  0.16491E-02 -0.13669E-01
 -0.22475E-02 -0.27513E-02 -0.13132E-01
 -0.47188E-03  0.31872E-02 -0.13339E-01
 -0.16958E-02  0.29122E-02 -0.13269E-01
 -0.28127E-02  0.26283E-02 -0.13001E-01
 -0.29005E-02  0.14353E-02 -0.13306E-01
 -0.28845E-03 -0.32283E-02 -0.13330E-01
 -0.14568E-02 -0.36428E-02 -0.12951E-01
  0.12752E-02 -0.28349E-02 -0.13380E-01
  0.27355E-02 -0.24188E-02 -0.13112E-01
  0.45922E-02  0.11459E-02 -0.12424E-01
  0.40908E-02  0.18582E-02 -0.12602E-01
  0.33951E-02  0.27661E-02 -0.12679E-01
 -0.57761E-03  0.42827E-02 -0.12734E-01
 -0.17365E-02  0.39959E-02 -0.12687E-01
 -0.27727E-02  0.35816E-02 -0.12522E-01
 -0.35140E-02  0.32215E-02 -0.12326E-01
 -0.37716E-02  0.24322E-02 -0.12577E-01
 -0.40509E-02  0.12961E-02 -0.12746E-01
 -0.30506E-02 -0.31809E-02 -0.12549E-01
 -0.22979E-02 -0.39523E-02 -0.12434E-01
 -0.17046E-02 -0.45003E-02 -0.12246E-01
 -0.87584E-03 -0.44941E-02 -0.12505E-01
  0.31279E-03 -0.43542E-02 -0.12687E-01
  0.16239E-02 -0.40349E-02 -0.12712E-01
  0.27628E-02 -0.35990E-02 -0.12561E-01
  0.35810E-02 -0.31997E-02 -0.12344E-01
  0.38735E-02 -0.22991E-02 -0.12598E-01
  0.51926E-02  0.13314E-02 -0.11830E-01
  0.54133E-02  0.71018E-04 -0.11819E-01
  0.47365E-02  0.25619E-02 -0.11793E-01
  0.40064E-02  0.36249E-02 -0.11818E-01
  0.30092E-02  0.44710E-02 -0.11795E-01
  0.18600E-02  0.50900E-02 -0.11830E-01
  0.62240E-03  0.54093E-02 -0.11937E-01
 -0.65666E-03  0.54129E-02 -0.11942E-01
 -0.18715E-02  0.50841E-02 -0.11915E-01
 -0.29946E-02  0.44470E-02 -0.11831E-01
 -0.39747E-02  0.35947E-02 -0.11803E-01
 -0.47196E-02  0.25311E-02 -0.11901E-01
 -0.52260E-02  0.13430E-02 -0.11916E-01
 -0.54043E-02  0.19550E-04 -0.11868E-01
 -0.52205E-02 -0.12724E-02 -0.11795E-01
 -0.47318E-02 -0.24939E-02 -0.11722E-01
 -0.39845E-02 -0.35615E-02 -0.11710E-01
 -0.30384E-02 -0.44148E-02 -0.11612E-01
 -0.19339E-02 -0.50206E-02 -0.11668E-01
 -0.68734E-03 -0.53938E-02 -0.11700E-01
  0.64299E-03 -0.54164E-02 -0.11693E-01
  0.19518E-02 -0.51102E-02 -0.11709E-01
  0.31114E-02 -0.45119E-02 -0.11650E-01
  0.40853E-02 -0.36259E-02 -0.11709E-01
  0.48439E-02 -0.25522E-02 -0.11774E-01
  0.52872E-02 -0.12705E-02 -0.11805E-01
  0.12363E-02  0.83969E-03 -0.12687E-01
  0.21059E-02  0.15067E-02 -0.12510E-01
  0.28030E-02  0.75099E-03 -0.12444E-01
  0.20326E-02 -0.40180E-03 -0.12635E-01
  0.37028E-02  0.21589E-03 -0.12162E-01
  0.34181E-02 -0.82897E-03 -0.12249E-01
  0.15510E-02  0.22098E-02 -0.12429E-01
  0.77819E-03  0.17477E-02 -0.12610E-01
  0.17692E-03  0.37972E-03 -0.12752E-01
 -0.14087E-03  0.14072E-02 -0.12706E-01
  0.11376E-02  0.27244E-02 -0.12329E-01
  0.13603E-02  0.34263E-02 -0.12036E-01
  0.21322E-02  0.29271E-02 -0.12083E-01
  0.49216E-03  0.25947E-02 -0.12463E-01
  0.47016E-03  0.35748E-02 -0.12135E-01
 -0.90458E-03 -0.12214E-02 -0.12715E-01
 -0.98783E-03  0.10292E-03 -0.12758E-01
  0.56341E-03 -0.84836E-03 -0.12771E-01
 -0.21774E-02 -0.87439E-03 -0.12562E-01
 -0.21904E-02  0.10402E-03 -0.12622E-01
 -0.32827E-02 -0.95128E-03 -0.12220E-01
 -0.33936E-02  0.53745E-04 -0.12260E-01
 -0.30498E-02 -0.18709E-02 -0.12111E-01
 -0.23107E-02 -0.16271E-02 -0.12404E-01
 -0.11639E-02  0.12054E-02 -0.12704E-01
 -0.17250E-02 -0.21368E-02 -0.12443E-01
 -0.37180E-03  0.24278E-02 -0.12549E-01
 -0.13213E-02  0.22460E-02 -0.12504E-01
 -0.22535E-02  0.20971E-02 -0.12333E-01
 -0.22269E-02  0.11210E-02 -0.12549E-01
 -0.19867E-03 -0.24615E-02 -0.12591E-01
 -0.11331E-02 -0.29140E-02 -0.12352E-01
  0.96992E-03 -0.21335E-02 -0.12617E-01
  0.21332E-02 -0.18755E-02 -0.12456E-01
  0.39120E-02  0.96068E-03 -0.11979E-01
  0.34268E-02  0.15345E-02 -0.12101E-01
  0.28278E-02  0.22674E-02 -0.12150E-01
 -0.48390E-03  0.35283E-02 -0.12176E-01
 -0.14404E-02  0.32972E-02 -0.12128E-01
 -0.23311E-02  0.29908E-02 -0.11990E-01
 -0.30168E-02  0.27342E-02 -0.11835E-01
 -0.31705E-02  0.20291E-02 -0.12051E-01
 -0.33394E-02  0.10812E-02 -0.12209E-01
 -0.25293E-02 -0.26558E-02 -0.12072E-01
 -0.19224E-02 -0.33491E-02 -0.11985E-01
 -0.14454E-02 -0.38879E-02 -0.11833E-01
 -0.71289E-03 -0.37909E-02 -0.12049E-01
  0.26744E-03 -0.35895E-02 -0.12200E-01
  0.13260E-02 -0.32915E-02 -0.12204E-01
  0.22917E-02 -0.29642E-02 -0.12075E-01
  0.30487E-02 -0.26913E-02 -0.11911E-01
  0.32247E-02 -0.18990E-02 -0.12122E-01
  0.46713E-02  0.11728E-02 -0.11491E-01
  0.48617E-02  0.37802E-04 -0.11507E-01
  0.42838E-02  0.22839E-02 -0.11447E-01
  0.36106E-02  0.32273E-02 -0.11451E-01
  0.27139E-02  0.39864E-02 -0.11430E-01
  0.16632E-02  0.45375E-02 -0.11447E-01
  0.56103E-03  0.48142E-02 -0.11492E-01
 -0.56912E-03  0.47997E-02 -0.11488E-01
 -0.16593E-02  0.45116E-02 -0.11471E-01
 -0.26888E-02  0.39718E-02 -0.11411E-01
 -0.35782E-02  0.32071E-02 -0.11385E-01
 -0.42391E-02  0.22524E-02 -0.11491E-01
 -0.46552E-02  0.11961E-02 -0.11517E-01
 -0.48071E-02  0.21058E-04 -0.11480E-01
 -0.46540E-02 -0.11289E-02 -0.11448E-01
 -0.42481E-02 -0.22350E-02 -0.11410E-01
 -0.36043E-02 -0.32219E-02 -0.11389E-01
 -0.27659E-02 -0.40195E-02 -0.11301E-01
 -0.17282E-02 -0.45584E-02 -0.11331E-01
 -0.61872E-03 -0.48791E-02 -0.11363E-01
  0.57325E-03 -0.48652E-02 -0.11366E-01
  0.17357E-02 -0.45537E-02 -0.11373E-01
  0.27943E-02 -0.40237E-02 -0.11332E-01
  0.36671E-02 -0.32176E-02 -0.11387E-01
  0.43505E-02 -0.22713E-02 -0.11454E-01
  0.47431E-02 -0.11496E-02 -0.11503E-01
  0.13331E-02  0.87551E-03 -0.12568E-01
  0.22029E-02  0.15478E-02 -0.12250E-01
  0.28813E-02  0.73645E-03 -0.12138E-01
  0.21187E-02 -0.44146E-03 -0.12436E-01
  0.37324E-02  0.18311E-03 -0.11805E-01
  0.34449E-02 -0.84403E-03 -0.11907E-01
  0.16275E-02  0.23083E-02 -0.12174E-01
  0.83356E-03  0.18695E-02 -0.12451E-01
  0.16315E-03  0.40125E-03 -0.12726E-01
 -0.17564E-03  0.15170E-02 -0.12599E-01
  0.11849E-02  0.28330E-02 -0.12053E-01
  0.13938E-02  0.34850E-02 -0.11711E-01
  0.21783E-02  0.29782E-02 -0.11757E-01
  0.51430E-03  0.27150E-02 -0.12213E-01
  0.48373E-03  0.36245E-02 -0.11806E-01
 -0.96805E-03 -0.13045E-02 -0.12574E-01
 -0.11123E-02  0.10779E-03 -0.12669E-01
  0.60182E-03 -0.92579E-03 -0.12697E-01
 -0.22843E-02 -0.90287E-03 -0.12331E-01
 -0.22999E-02  0.10120E-03 -0.12408E-01
 -0.33200E-02 -0.95280E-03 -0.11884E-01
 -0.34199E-02  0.47493E-04 -0.11927E-01
 -0.30865E-02 -0.18733E-02 -0.11767E-01
 -0.23860E-02 -0.16643E-02 -0.12119E-01
 -0.12634E-02  0.12702E-02 -0.12559E-01
 -0.17695E-02 -0.21953E-02 -0.12161E-01
 -0.38583E-03  0.25382E-02 -0.12314E-01
 -0.13605E-02  0.23250E-02 -0.12262E-01
 -0.23059E-02  0.21248E-02 -0.12053E-01
 -0.23160E-02  0.11321E-02 -0.12314E-01
 -0.17691E-03 -0.25332E-02 -0.12345E-01
 -0.11230E-02 -0.29550E-02 -0.12038E-01
  0.10055E-02 -0.22008E-02 -0.12402E-01
  0.21747E-02 -0.19071E-02 -0.12196E-01
  0.39356E-02  0.93234E-03 -0.11609E-01
  0.34688E-02  0.15220E-02 -0.11741E-01
  0.28776E-02  0.22820E-02 -0.11809E-01
 -0.48490E-03  0.35758E-02 -0.11841E-01
 -0.14514E-02  0.33524E-02 -0.11802E-01
 -0.23538E-02  0.30295E-02 -0.11669E-01
 -0.30441E-02  0.27325E-02 -0.11501E-01
 -0.32076E-02  0.20069E-02 -0.11717E-01
 -0.33695E-02  0.10598E-02 -0.11877E-01
 -0.25533E-02 -0.26599E-02 -0.11725E-01
 -0.19204E-02 -0.33456E-02 -0.11632E-01
 -0.14184E-02 -0.38636E-02 -0.11476E-01
 -0.67928E-03 -0.37793E-02 -0.11702E-01
  0.28490E-03 -0.35949E-02 -0.11877E-01
  0.13277E-02 -0.33065E-02 -0.11891E-01
  0.22984E-02 -0.29679E-02 -0.11758E-01
  0.30527E-02 -0.26741E-02 -0.11573E-01
  0.32395E-02 -0.18886E-02 -0.11782E-01
  0.46587E-02  0.11348E-02 -0.11140E-01
  0.48485E-02  0.26606E-06 -0.11169E-01
  0.42965E-02  0.22513E-02 -0.11111E-01
  0.36322E-02  0.32068E-02 -0.11115E-01
  0.27415E-02  0.39990E-02 -0.11091E-01
  0.16857E-02  0.45513E-02 -0.11100E-01
  0.56472E-03  0.48201E-02 -0.11128E-01
 -0.58061E-03  0.48229E-02 -0.11132E-01
 -0.16839E-02  0.45468E-02 -0.11128E-01
 -0.27156E-02  0.39987E-02 -0.11088E-01
 -0.35878E-02  0.31867E-02 -0.11056E-01
 -0.42635E-02  0.22205E-02 -0.11144E-01
 -0.46678E-02  0.11785E-02 -0.11166E-01
 -0.48199E-02  0.21559E-04 -0.11135E-01
 -0.46682E-02 -0.11214E-02 -0.11110E-01
 -0.42617E-02 -0.22131E-02 -0.11082E-01
 -0.36032E-02 -0.31967E-02 -0.11056E-01
 -0.27576E-02 -0.39898E-02 -0.10982E-01
 -0.16882E-02 -0.44979E-02 -0.10986E-01
 -0.57882E-03 -0.48216E-02 -0.11026E-01
  0.59100E-03 -0.48480E-02 -0.11052E-01
  0.17402E-02 -0.45500E-02 -0.11056E-01
  0.27931E-02 -0.40142E-02 -0.11014E-01
  0.36420E-02 -0.31882E-02 -0.11041E-01
  0.43324E-02 -0.22490E-02 -0.11100E-01
  0.47269E-02 -0.11552E-02 -0.11161E-01
  0.10259E-02  0.62632E-03 -0.11281E-01
  0.17681E-02  0.12139E-02 -0.11203E-01
  0.23701E-02  0.58320E-03 -0.11179E-01
  0.16665E-02 -0.36186E-03 -0.11292E-01
  0.32289E-02  0.14019E-03 -0.11064E-01
  0.29403E-02 -0.72284E-03 -0.11127E-01
  0.13079E-02  0.18302E-02 -0.11163E-01
  0.65057E-03  0.14067E-02 -0.11247E-01
  0.15067E-03  0.26396E-03 -0.11322E-01
 -0.11259E-03  0.11165E-02 -0.11299E-01
  0.96891E-03  0.22923E-02 -0.11119E-01
  0.11981E-02  0.29654E-02 -0.10979E-01
  0.18578E-02  0.25316E-02 -0.11006E-01
  0.41733E-03  0.21574E-02 -0.11193E-01
  0.42261E-03  0.30696E-02 -0.11036E-01
 -0.70652E-03 -0.98622E-03 -0.11326E-01
 -0.80271E-03  0.66186E-04 -0.11329E-01
  0.47349E-03 -0.70074E-03 -0.11351E-01
 -0.17831E-02 -0.70418E-03 -0.11266E-01
 -0.17881E-02  0.81228E-04 -0.11295E-01
 -0.27962E-02 -0.80420E-03 -0.11098E-01
 -0.28788E-02  0.44331E-04 -0.11125E-01
 -0.26235E-02 -0.16017E-02 -0.11032E-01
 -0.19149E-02 -0.13405E-02 -0.11181E-01
 -0.94800E-03  0.95283E-03 -0.11302E-01
 -0.14045E-02 -0.17609E-02 -0.11194E-01
 -0.29986E-03  0.19988E-02 -0.11241E-01
 -0.10860E-02  0.18438E-02 -0.11217E-01
 -0.18951E-02  0.17382E-02 -0.11130E-01
 -0.18357E-02  0.89985E-03 -0.11252E-01
 -0.11848E-03 -0.20019E-02 -0.11265E-01
 -0.90809E-03 -0.24335E-02 -0.11150E-01
  0.80101E-03 -0.17269E-02 -0.11286E-01
  0.17622E-02 -0.15413E-02 -0.11224E-01
  0.34629E-02  0.80555E-03 -0.10931E-01
  0.29953E-02  0.13068E-02 -0.10995E-01
  0.24572E-02  0.19463E-02 -0.11039E-01
 -0.40280E-03  0.30191E-02 -0.11049E-01
 -0.12338E-02  0.28345E-02 -0.11016E-01
 -0.20262E-02  0.25929E-02 -0.10938E-01
 -0.26664E-02  0.23845E-02 -0.10840E-01
 -0.27614E-02  0.17238E-02 -0.10979E-01
 -0.28587E-02  0.90354E-03 -0.11090E-01
 -0.21887E-02 -0.22835E-02 -0.11015E-01
 -0.16704E-02 -0.29064E-02 -0.10959E-01
 -0.12526E-02 -0.34174E-02 -0.10853E-01
 -0.57500E-03 -0.32684E-02 -0.10990E-01
  0.25307E-03 -0.30501E-02 -0.11088E-01
  0.11227E-02 -0.27855E-02 -0.11085E-01
  0.19611E-02 -0.25224E-02 -0.11013E-01
  0.26626E-02 -0.23156E-02 -0.10913E-01
  0.27797E-02 -0.16084E-02 -0.11046E-01
  0.42880E-02  0.10273E-02 -0.10633E-01
  0.44531E-02 -0.19334E-04 -0.10682E-01
  0.39476E-02  0.20551E-02 -0.10611E-01
  0.33340E-02  0.29233E-02 -0.10614E-01
  0.25237E-02  0.36331E-02 -0.10604E-01
  0.15656E-02  0.41305E-02 -0.10602E-01
  0.54697E-03  0.43822E-02 -0.10592E-01
 -0.50645E-03  0.43698E-02 -0.10579E-01
 -0.15325E-02  0.41109E-02 -0.10577E-01
 -0.24853E-02  0.36322E-02 -0.10564E-01
 -0.32860E-02  0.29110E-02 -0.10540E-01
 -0.39021E-02  0.20360E-02 -0.10618E-01
 -0.42611E-02  0.10701E-02 -0.10630E-01
 -0.43945E-02 -0.76404E-06 -0.10616E-01
 -0.42641E-02 -0.10631E-02 -0.10614E-01
 -0.39021E-02 -0.20648E-02 -0.10618E-01
 -0.33185E-02 -0.29677E-02 -0.10601E-01
 -0.25566E-02 -0.37024E-02 -0.10540E-01
 -0.15669E-02 -0.41700E-02 -0.10510E-01
 -0.53242E-03 -0.44475E-02 -0.10546E-01
  0.54100E-03 -0.44327E-02 -0.10582E-01
  0.15872E-02 -0.41428E-02 -0.10576E-01
  0.25528E-02 -0.36606E-02 -0.10547E-01
  0.33349E-02 -0.29056E-02 -0.10559E-01
  0.39639E-02 -0.20431E-02 -0.10617E-01
  0.43269E-02 -0.10575E-02 -0.10676E-01
  0.12227E-02  0.76312E-03 -0.10846E-01
  0.20292E-02  0.13971E-02 -0.10682E-01
  0.26709E-02  0.64927E-03 -0.10624E-01
  0.19416E-02 -0.40733E-03 -0.10776E-01
  0.34847E-02  0.13488E-03 -0.10484E-01
  0.31957E-02 -0.78591E-03 -0.10541E-01
  0.14992E-02  0.21023E-02 -0.10646E-01
  0.76655E-03  0.16742E-02 -0.10796E-01
  0.16461E-03  0.34679E-03 -0.10954E-01
 -0.13836E-03  0.13509E-02 -0.10883E-01
  0.11013E-02  0.25971E-02 -0.10587E-01
  0.13162E-02  0.32265E-02 -0.10435E-01
  0.20296E-02  0.27626E-02 -0.10464E-01
  0.48156E-03  0.24731E-02 -0.10668E-01
  0.47054E-03  0.33457E-02 -0.10474E-01
 -0.86271E-03 -0.11660E-02 -0.10854E-01
 -0.98610E-03  0.84459E-04 -0.10905E-01
  0.55521E-03 -0.81221E-03 -0.10907E-01
 -0.20812E-02 -0.82474E-03 -0.10732E-01
 -0.20883E-02  0.75656E-04 -0.10760E-01
 -0.30797E-02 -0.89313E-03 -0.10523E-01
 -0.31663E-02  0.32289E-04 -0.10540E-01
 -0.28666E-02 -0.17414E-02 -0.10469E-01
 -0.21875E-02 -0.15221E-02 -0.10628E-01
 -0.11228E-02  0.11286E-02 -0.10838E-01
 -0.16172E-02 -0.19986E-02 -0.10644E-01
 -0.33993E-03  0.23037E-02 -0.10717E-01
 -0.12330E-02  0.21098E-02 -0.10687E-01
 -0.21204E-02  0.19370E-02 -0.10585E-01
 -0.21108E-02  0.10108E-02 -0.10709E-01
 -0.14528E-03 -0.22733E-02 -0.10704E-01
 -0.10274E-02 -0.26958E-02 -0.10576E-01
  0.92037E-03 -0.19620E-02 -0.10735E-01
  0.19817E-02 -0.17170E-02 -0.10660E-01
  0.36825E-02  0.83987E-03 -0.10368E-01
  0.32295E-02  0.13987E-02 -0.10435E-01
  0.26704E-02  0.21121E-02 -0.10489E-01
 -0.43808E-03  0.32980E-02 -0.10481E-01
 -0.13477E-02  0.30986E-02 -0.10463E-01
 -0.21916E-02  0.28097E-02 -0.10405E-01
 -0.28417E-02  0.25358E-02 -0.10318E-01
 -0.29904E-02  0.18462E-02 -0.10428E-01
 -0.31281E-02  0.96577E-03 -0.10512E-01
 -0.23774E-02 -0.24565E-02 -0.10457E-01
 -0.17949E-02 -0.30927E-02 -0.10402E-01
 -0.13208E-02 -0.35840E-02 -0.10304E-01
 -0.61470E-03 -0.34793E-02 -0.10413E-01
  0.27955E-03 -0.32931E-02 -0.10499E-01
  0.12285E-02 -0.30271E-02 -0.10505E-01
  0.21171E-02 -0.27188E-02 -0.10452E-01
  0.28202E-02 -0.24546E-02 -0.10360E-01
  0.29864E-02 -0.17210E-02 -0.10469E-01
  0.43967E-02  0.10387E-02 -0.10138E-01
  0.45451E-02 -0.31364E-04 -0.10172E-01
  0.40383E-02  0.20840E-02 -0.10131E-01
  0.34165E-02  0.29788E-02 -0.10141E-01
  0.25984E-02  0.37166E-02 -0.10133E-01
  0.16268E-02  0.42347E-02 -0.10133E-01
  0.56651E-03  0.44905E-02 -0.10122E-01
 -0.52336E-03  0.45043E-02 -0.10117E-01
 -0.15870E-02  0.42431E-02 -0.10117E-01
 -0.25581E-02  0.37333E-02 -0.10114E-01
 -0.33641E-02  0.29685E-02 -0.10087E-01
 -0.39986E-02  0.20651E-02 -0.10150E-01
 -0.43786E-02  0.10725E-02 -0.10152E-01
 -0.45103E-02 -0.11601E-04 -0.10145E-01
 -0.43685E-02 -0.10909E-02 -0.10143E-01
 -0.39796E-02 -0.21048E-02 -0.10147E-01
 -0.33567E-02 -0.29990E-02 -0.10132E-01
 -0.25728E-02 -0.37331E-02 -0.10089E-01
 -0.15841E-02 -0.42188E-02 -0.10039E-01
 -0.51551E-03 -0.44999E-02 -0.10068E-01
  0.57033E-03 -0.45150E-02 -0.10110E-01
  0.16340E-02 -0.42439E-02 -0.10109E-01
  0.26080E-02 -0.37490E-02 -0.10090E-01
  0.34036E-02 -0.29828E-02 -0.10078E-01
  0.40344E-02 -0.20914E-02 -0.10118E-01
  0.44137E-02 -0.10887E-02 -0.10158E-01
  0.10223E-02  0.60887E-03 -0.95410E-02
  0.17291E-02  0.11799E-02 -0.95477E-02
  0.23147E-02  0.56037E-03 -0.95522E-02
  0.16531E-02 -0.35034E-03 -0.95734E-02
  0.31091E-02  0.12298E-03 -0.95612E-02
  0.28390E-02 -0.69894E-03 -0.95826E-02
  0.12808E-02  0.17732E-02 -0.95326E-02
  0.65132E-03  0.13646E-02 -0.95396E-02
  0.16140E-03  0.25570E-03 -0.95406E-02
 -0.85786E-04  0.10821E-02 -0.95439E-02
  0.95420E-03  0.22136E-02 -0.95276E-02
  0.11698E-02  0.28317E-02 -0.95203E-02
  0.17883E-02  0.24245E-02 -0.95318E-02
  0.42329E-03  0.20837E-02 -0.95489E-02
  0.42731E-03  0.29327E-02 -0.95415E-02
 -0.69728E-03 -0.97283E-03 -0.95750E-02
 -0.77665E-03  0.51068E-04 -0.95500E-02
  0.47319E-03 -0.67485E-03 -0.95698E-02
 -0.17393E-02 -0.70624E-03 -0.95786E-02
 -0.17406E-02  0.58333E-04 -0.95820E-02
 -0.26957E-02 -0.79922E-03 -0.95741E-02
 -0.27734E-02  0.24220E-04 -0.95812E-02
 -0.25197E-02 -0.15502E-02 -0.95530E-02
 -0.18597E-02 -0.13123E-02 -0.95586E-02
 -0.90625E-03  0.92119E-03 -0.95495E-02
 -0.13749E-02 -0.17126E-02 -0.95563E-02
 -0.27253E-03  0.19316E-02 -0.95614E-02
 -0.10427E-02  0.17822E-02 -0.95575E-02
 -0.18313E-02  0.16738E-02 -0.95502E-02
 -0.17811E-02  0.86231E-03 -0.95752E-02
 -0.12218E-03 -0.19388E-02 -0.95581E-02
 -0.89734E-03 -0.23428E-02 -0.95526E-02
  0.79087E-03 -0.16709E-02 -0.95602E-02
  0.17236E-02 -0.14895E-02 -0.95674E-02
  0.33104E-02  0.76144E-03 -0.95110E-02
  0.28693E-02  0.12485E-02 -0.95241E-02
  0.23532E-02  0.18642E-02 -0.95503E-02
 -0.37500E-03  0.28876E-02 -0.95400E-02
 -0.11839E-02  0.27147E-02 -0.95293E-02
 -0.19409E-02  0.24784E-02 -0.95111E-02
 -0.25387E-02  0.22662E-02 -0.94833E-02
 -0.26490E-02  0.16440E-02 -0.95326E-02
 -0.27515E-02  0.85851E-03 -0.95718E-02
 -0.21018E-02 -0.21782E-02 -0.95542E-02
 -0.16065E-02 -0.27586E-02 -0.95356E-02
 -0.11977E-02 -0.32343E-02 -0.94964E-02
 -0.55567E-03 -0.31072E-02 -0.95310E-02
  0.24548E-03 -0.29165E-02 -0.95519E-02
  0.10864E-02 -0.26744E-02 -0.95374E-02
  0.18827E-02 -0.24156E-02 -0.95231E-02
  0.25323E-02 -0.22065E-02 -0.95042E-02
  0.26638E-02 -0.15379E-02 -0.95483E-02
  0.40409E-02  0.96355E-03 -0.94443E-02
  0.41766E-02 -0.19745E-04 -0.94736E-02
  0.36996E-02  0.19089E-02 -0.94433E-02
  0.31295E-02  0.27204E-02 -0.94538E-02
  0.23772E-02  0.33822E-02 -0.94560E-02
  0.15019E-02  0.38504E-02 -0.94561E-02
  0.54118E-03  0.40934E-02 -0.94256E-02
 -0.46166E-03  0.41002E-02 -0.94069E-02
 -0.14401E-02  0.38586E-02 -0.94046E-02
 -0.23328E-02  0.33967E-02 -0.94093E-02
 -0.30771E-02  0.27219E-02 -0.93973E-02
 -0.36558E-02  0.19037E-02 -0.94450E-02
 -0.40023E-02  0.98112E-03 -0.94501E-02
 -0.41175E-02 -0.26296E-04 -0.94573E-02
 -0.39890E-02 -0.10316E-02 -0.94716E-02
 -0.36413E-02 -0.19630E-02 -0.94875E-02
 -0.30787E-02 -0.27803E-02 -0.94818E-02
 -0.23539E-02 -0.34523E-02 -0.94497E-02
 -0.14601E-02 -0.39059E-02 -0.94010E-02
 -0.47680E-03 -0.41564E-02 -0.94093E-02
  0.52030E-03 -0.41474E-02 -0.94302E-02
  0.14955E-02 -0.38796E-02 -0.94255E-02
  0.23822E-02 -0.34213E-02 -0.94248E-02
  0.31151E-02 -0.27388E-02 -0.94176E-02
  0.36961E-02 -0.19293E-02 -0.94446E-02
  0.40561E-02 -0.10036E-02 -0.94637E-02
  0.12303E-02  0.76205E-03 -0.90223E-02
  0.20198E-02  0.13899E-02 -0.89365E-02
  0.26525E-02  0.64797E-03 -0.89012E-02
  0.19446E-02 -0.40063E-03 -0.89809E-02
  0.34280E-02  0.13783E-03 -0.88474E-02
  0.31504E-02 -0.77209E-03 -0.88720E-02
  0.14968E-02  0.20850E-02 -0.89156E-02
  0.77875E-03  0.16690E-02 -0.89912E-02
  0.16956E-03  0.34681E-03 -0.90789E-02
 -0.12507E-03  0.13496E-02 -0.90336E-02
  0.11028E-02  0.25692E-02 -0.88878E-02
  0.13045E-02  0.31616E-02 -0.88393E-02
  0.19963E-02  0.27129E-02 -0.88515E-02
  0.49388E-03  0.24521E-02 -0.89290E-02
  0.47737E-03  0.32829E-02 -0.88626E-02
 -0.86567E-03 -0.11734E-02 -0.90237E-02
 -0.98758E-03  0.78741E-04 -0.90484E-02
  0.55737E-03 -0.81053E-03 -0.90592E-02
 -0.20781E-02 -0.83439E-03 -0.89577E-02
 -0.20886E-02  0.63655E-04 -0.89741E-02
 -0.30437E-02 -0.89971E-03 -0.88889E-02
 -0.31295E-02  0.16814E-04 -0.88958E-02
 -0.28251E-02 -0.17234E-02 -0.88560E-02
 -0.21736E-02 -0.15189E-02 -0.89006E-02
 -0.11183E-02  0.11271E-02 -0.90108E-02
 -0.16137E-02 -0.19890E-02 -0.89054E-02
 -0.32630E-03  0.22894E-02 -0.89531E-02
 -0.12242E-02  0.20959E-02 -0.89444E-02
 -0.21033E-02  0.19162E-02 -0.89089E-02
 -0.21052E-02  0.10019E-02 -0.89556E-02
 -0.15299E-03 -0.22652E-02 -0.89294E-02
 -0.10347E-02 -0.26699E-02 -0.88762E-02
  0.92138E-03 -0.19541E-02 -0.89464E-02
  0.19774E-02 -0.17056E-02 -0.89116E-02
  0.36068E-02  0.82661E-03 -0.87996E-02
  0.31695E-02  0.13760E-02 -0.88300E-02
  0.26207E-02  0.20757E-02 -0.88675E-02
 -0.42351E-03  0.32399E-02 -0.88642E-02
 -0.13265E-02  0.30447E-02 -0.88602E-02
 -0.21530E-02  0.27527E-02 -0.88466E-02
 -0.27754E-02  0.24751E-02 -0.88181E-02
 -0.29357E-02  0.18120E-02 -0.88573E-02
 -0.30844E-02  0.94656E-03 -0.88851E-02
 -0.23430E-02 -0.24115E-02 -0.88534E-02
 -0.17687E-02 -0.30282E-02 -0.88324E-02
 -0.12970E-02 -0.35002E-02 -0.87915E-02
 -0.61623E-03 -0.34088E-02 -0.88227E-02
  0.26819E-03 -0.32352E-02 -0.88496E-02
  0.12119E-02 -0.29811E-02 -0.88454E-02
  0.20851E-02 -0.26751E-02 -0.88237E-02
  0.27599E-02 -0.24108E-02 -0.87904E-02
  0.29362E-02 -0.16974E-02 -0.88348E-02
  0.42489E-02  0.10035E-02 -0.87457E-02
  0.43772E-02 -0.30534E-04 -0.87552E-02
  0.38866E-02  0.19989E-02 -0.87547E-02
  0.32928E-02  0.28608E-02 -0.87678E-02
  0.25106E-02  0.35660E-02 -0.87684E-02
  0.15903E-02  0.40646E-02 -0.87749E-02
  0.56396E-03  0.43228E-02 -0.87673E-02
 -0.49938E-03  0.43405E-02 -0.87655E-02
 -0.15247E-02  0.40919E-02 -0.87665E-02
 -0.24616E-02  0.35933E-02 -0.87692E-02
 -0.32426E-02  0.28586E-02 -0.87563E-02
 -0.38546E-02  0.19904E-02 -0.87894E-02
 -0.42293E-02  0.10150E-02 -0.87900E-02
 -0.43502E-02 -0.32602E-04 -0.87945E-02
 -0.42121E-02 -0.10810E-02 -0.87946E-02
 -0.38300E-02 -0.20529E-02 -0.87966E-02
 -0.32263E-02 -0.28981E-02 -0.87893E-02
 -0.24493E-02 -0.35902E-02 -0.87627E-02
 -0.15159E-02 -0.40713E-02 -0.87256E-02
 -0.48304E-03 -0.43253E-02 -0.87278E-02
  0.55914E-03 -0.43337E-02 -0.87444E-02
  0.15716E-02 -0.40817E-02 -0.87412E-02
  0.24987E-02 -0.36016E-02 -0.87348E-02
  0.32740E-02 -0.28862E-02 -0.87218E-02
  0.38675E-02 -0.20256E-02 -0.87346E-02
  0.42436E-02 -0.10576E-02 -0.87472E-02
  0.10447E-02  0.62321E-03 -0.77977E-02
  0.17476E-02  0.11945E-02 -0.78235E-02
  0.23286E-02  0.57221E-03 -0.78288E-02
  0.16724E-02 -0.34758E-03 -0.78293E-02
  0.30851E-02  0.13610E-03 -0.78575E-02
  0.28215E-02 -0.69034E-03 -0.78642E-02
  0.12956E-02  0.17883E-02 -0.78154E-02
  0.66739E-03  0.13913E-02 -0.78023E-02
  0.16538E-03  0.26202E-03 -0.77772E-02
 -0.85201E-04  0.11095E-02 -0.77920E-02
  0.96379E-03  0.22262E-02 -0.78217E-02
  0.11657E-02  0.28147E-02 -0.78511E-02
  0.17780E-02  0.24119E-02 -0.78471E-02
  0.43277E-03  0.21059E-02 -0.78306E-02
  0.43155E-03  0.29227E-02 -0.78726E-02
 -0.71110E-03 -0.99832E-03 -0.78291E-02
 -0.79691E-03  0.50558E-04 -0.77963E-02
  0.48107E-03 -0.69355E-03 -0.78178E-02
 -0.17691E-02 -0.72219E-03 -0.78421E-02
 -0.17764E-02  0.55586E-04 -0.78463E-02
 -0.27025E-02 -0.80791E-03 -0.78897E-02
 -0.27840E-02  0.19020E-04 -0.78988E-02
 -0.25174E-02 -0.15499E-02 -0.78692E-02
 -0.18805E-02 -0.13282E-02 -0.78352E-02
 -0.92629E-03  0.94300E-03 -0.78107E-02
 -0.13944E-02 -0.17308E-02 -0.78324E-02
 -0.27397E-03  0.19600E-02 -0.78376E-02
 -0.10567E-02  0.18069E-02 -0.78491E-02
 -0.18480E-02  0.16880E-02 -0.78682E-02
 -0.18123E-02  0.87549E-03 -0.78589E-02
 -0.13267E-03 -0.19667E-02 -0.78295E-02
 -0.91634E-03 -0.23562E-02 -0.78402E-02
  0.79660E-03 -0.16936E-02 -0.78251E-02
  0.17332E-02 -0.14982E-02 -0.78332E-02
  0.32696E-02  0.76514E-03 -0.78447E-02
  0.28465E-02  0.12452E-02 -0.78438E-02
  0.23380E-02  0.18551E-02 -0.78597E-02
 -0.37305E-03  0.28793E-02 -0.78738E-02
 -0.11845E-02  0.27059E-02 -0.78762E-02
 -0.19345E-02  0.24634E-02 -0.78776E-02
 -0.25131E-02  0.22460E-02 -0.78745E-02
 -0.26382E-02  0.16452E-02 -0.78917E-02
 -0.27556E-02  0.86273E-03 -0.79031E-02
 -0.20973E-02 -0.21662E-02 -0.78706E-02
 -0.15993E-02 -0.27337E-02 -0.78675E-02
 -0.11889E-02 -0.31886E-02 -0.78576E-02
 -0.56967E-03 -0.30801E-02 -0.78576E-02
  0.22980E-03 -0.29008E-02 -0.78525E-02
  0.10788E-02 -0.26637E-02 -0.78361E-02
  0.18711E-02 -0.23991E-02 -0.78328E-02
  0.25003E-02 -0.21863E-02 -0.78356E-02
  0.26413E-02 -0.15329E-02 -0.78486E-02
  0.39184E-02  0.94558E-03 -0.78676E-02
  0.40385E-02 -0.12179E-04 -0.78737E-02
  0.35750E-02  0.18487E-02 -0.78772E-02
  0.30277E-02  0.26371E-02 -0.78931E-02
  0.23082E-02  0.32749E-02 -0.78936E-02
  0.14596E-02  0.37296E-02 -0.79034E-02
  0.52407E-03  0.39708E-02 -0.79066E-02
 -0.44893E-03  0.39728E-02 -0.78939E-02
 -0.13955E-02  0.37401E-02 -0.78886E-02
 -0.22583E-02  0.32902E-02 -0.78903E-02
 -0.29833E-02  0.26422E-02 -0.78840E-02
 -0.35441E-02  0.18516E-02 -0.79159E-02
 -0.38874E-02  0.93905E-03 -0.79239E-02
 -0.39938E-02 -0.35845E-04 -0.79299E-02
 -0.38704E-02 -0.10027E-02 -0.79336E-02
 -0.35264E-02 -0.19044E-02 -0.79346E-02
 -0.29779E-02 -0.26899E-02 -0.79320E-02
 -0.22583E-02 -0.33233E-02 -0.79073E-02
 -0.14067E-02 -0.37727E-02 -0.78764E-02
 -0.46563E-03 -0.40070E-02 -0.78755E-02
  0.50356E-03 -0.39995E-02 -0.78744E-02
  0.14439E-02 -0.37526E-02 -0.78661E-02
  0.22951E-02 -0.33023E-02 -0.78638E-02
  0.30141E-02 -0.26635E-02 -0.78560E-02
  0.35664E-02 -0.18760E-02 -0.78675E-02
  0.39177E-02 -0.97537E-03 -0.78762E-02
  0.12270E-02  0.77512E-03 -0.72337E-02
  0.20115E-02  0.13985E-02 -0.71623E-02
  0.26410E-02  0.65720E-03 -0.71256E-02
  0.19344E-02 -0.39179E-03 -0.71949E-02
  0.33995E-02  0.14958E-03 -0.70796E-02
  0.31261E-02 -0.76285E-03 -0.70984E-02
  0.14869E-02  0.20890E-02 -0.71484E-02
  0.77286E-03  0.16848E-02 -0.72115E-02
  0.15996E-03  0.35717E-03 -0.72696E-02
 -0.13500E-03  0.13677E-02 -0.72410E-02
  0.10905E-02  0.25669E-02 -0.71291E-02
  0.12852E-02  0.31430E-02 -0.70990E-02
  0.19745E-02  0.27023E-02 -0.70984E-02
  0.48600E-03  0.24544E-02 -0.71661E-02
  0.46978E-03  0.32623E-02 -0.71263E-02
 -0.87520E-03 -0.11760E-02 -0.72368E-02
 -0.10023E-02  0.88843E-04 -0.72558E-02
  0.54880E-03 -0.81500E-03 -0.72611E-02
 -0.20857E-02 -0.82880E-03 -0.71832E-02
 -0.20967E-02  0.73191E-04 -0.72057E-02
 -0.30328E-02 -0.88973E-03 -0.71374E-02
 -0.31146E-02  0.21589E-04 -0.71531E-02
 -0.28197E-02 -0.17106E-02 -0.71026E-02
 -0.21795E-02 -0.15132E-02 -0.71303E-02
 -0.11305E-02  0.11422E-02 -0.72328E-02
 -0.16220E-02 -0.19814E-02 -0.71348E-02
 -0.33375E-03  0.22952E-02 -0.71889E-02
 -0.12302E-02  0.20992E-02 -0.71906E-02
 -0.21018E-02  0.19147E-02 -0.71722E-02
 -0.21107E-02  0.10107E-02 -0.72018E-02
 -0.16350E-03 -0.22639E-02 -0.71585E-02
 -0.10476E-02 -0.26569E-02 -0.71105E-02
  0.91075E-03 -0.19540E-02 -0.71685E-02
  0.19640E-02 -0.16971E-02 -0.71305E-02
  0.35696E-02  0.83443E-03 -0.70501E-02
  0.31414E-02  0.13766E-02 -0.70725E-02
  0.25978E-02  0.20703E-02 -0.71057E-02
 -0.42473E-03  0.32183E-02 -0.71348E-02
 -0.13250E-02  0.30241E-02 -0.71392E-02
 -0.21426E-02  0.27302E-02 -0.71326E-02
 -0.27524E-02  0.24560E-02 -0.71146E-02
 -0.29153E-02  0.18066E-02 -0.71412E-02
 -0.30678E-02  0.94775E-03 -0.71568E-02
 -0.23404E-02 -0.23943E-02 -0.70982E-02
 -0.17682E-02 -0.30015E-02 -0.70829E-02
 -0.12991E-02 -0.34632E-02 -0.70571E-02
 -0.63267E-03 -0.33788E-02 -0.70746E-02
  0.25000E-03 -0.32127E-02 -0.70896E-02
  0.11971E-02 -0.29625E-02 -0.70811E-02
  0.20662E-02 -0.26521E-02 -0.70591E-02
  0.27311E-02 -0.23893E-02 -0.70350E-02
  0.29107E-02 -0.16869E-02 -0.70688E-02
  0.41678E-02  0.10011E-02 -0.70443E-02
  0.42925E-02 -0.19847E-04 -0.70423E-02
  0.38124E-02  0.19692E-02 -0.70576E-02
  0.32347E-02  0.28215E-02 -0.70785E-02
  0.24653E-02  0.35187E-02 -0.70833E-02
  0.15509E-02  0.40084E-02 -0.70997E-02
  0.54468E-03  0.42512E-02 -0.71143E-02
 -0.48869E-03  0.42596E-02 -0.71213E-02
 -0.14978E-02  0.40154E-02 -0.71243E-02
 -0.24222E-02  0.35271E-02 -0.71185E-02
 -0.31932E-02  0.28178E-02 -0.71058E-02
 -0.37856E-02  0.19602E-02 -0.71318E-02
 -0.41488E-02  0.99327E-03 -0.71368E-02
 -0.42687E-02 -0.30602E-04 -0.71294E-02
 -0.41446E-02 -0.10501E-02 -0.71196E-02
 -0.37775E-02 -0.20090E-02 -0.71116E-02
 -0.31842E-02 -0.28496E-02 -0.71072E-02
 -0.24079E-02 -0.35283E-02 -0.70784E-02
 -0.14932E-02 -0.39990E-02 -0.70530E-02
 -0.49072E-03 -0.42404E-02 -0.70550E-02
  0.53547E-03 -0.42469E-02 -0.70607E-02
  0.15377E-02 -0.40062E-02 -0.70512E-02
  0.24485E-02 -0.35303E-02 -0.70322E-02
  0.32109E-02 -0.28404E-02 -0.70178E-02
  0.37938E-02 -0.19949E-02 -0.70271E-02
  0.41644E-02 -0.10394E-02 -0.70418E-02
  0.10271E-02  0.63776E-03 -0.60649E-02
  0.17242E-02  0.12031E-02 -0.60738E-02
  0.23001E-02  0.58257E-03 -0.60707E-02
  0.16490E-02 -0.33372E-03 -0.60802E-02
  0.30448E-02  0.14708E-03 -0.60822E-02
  0.27852E-02 -0.67525E-03 -0.60891E-02
  0.12745E-02  0.17914E-02 -0.60663E-02
  0.65113E-03  0.14058E-02 -0.60688E-02
  0.14737E-03  0.27658E-03 -0.60564E-02
 -0.10263E-03  0.11287E-02 -0.60669E-02
  0.94317E-03  0.22241E-02 -0.60721E-02
  0.11404E-02  0.27990E-02 -0.60986E-02
  0.17473E-02  0.24030E-02 -0.60879E-02
  0.41647E-03  0.21093E-02 -0.60880E-02
  0.41601E-03  0.29077E-02 -0.61254E-02
 -0.72508E-03 -0.99142E-03 -0.60944E-02
 -0.81401E-03  0.65478E-04 -0.60727E-02
  0.46226E-03 -0.69067E-03 -0.60834E-02
 -0.17743E-02 -0.70885E-03 -0.60954E-02
 -0.17823E-02  0.68925E-04 -0.61030E-02
 -0.26899E-02 -0.78785E-03 -0.61308E-02
 -0.27678E-02  0.31169E-04 -0.61466E-02
 -0.25114E-02 -0.15268E-02 -0.61036E-02
 -0.18853E-02 -0.13123E-02 -0.60792E-02
 -0.94246E-03  0.95943E-03 -0.60795E-02
 -0.14039E-02 -0.17135E-02 -0.60807E-02
 -0.28855E-03  0.19672E-02 -0.60989E-02
 -0.10661E-02  0.18097E-02 -0.61116E-02
 -0.18463E-02  0.16845E-02 -0.61320E-02
 -0.18168E-02  0.88442E-03 -0.61162E-02
 -0.14890E-03 -0.19565E-02 -0.60843E-02
 -0.92981E-03 -0.23352E-02 -0.60836E-02
  0.77765E-03 -0.16860E-02 -0.60795E-02
  0.17101E-02 -0.14816E-02 -0.60746E-02
  0.32261E-02  0.77095E-03 -0.60706E-02
  0.28081E-02  0.12468E-02 -0.60752E-02
  0.23037E-02  0.18524E-02 -0.60942E-02
 -0.38285E-03  0.28630E-02 -0.61326E-02
 -0.11873E-02  0.26874E-02 -0.61393E-02
 -0.19250E-02  0.24413E-02 -0.61449E-02
 -0.24930E-02  0.22278E-02 -0.61441E-02
 -0.26193E-02  0.16387E-02 -0.61555E-02
 -0.27382E-02  0.86589E-03 -0.61578E-02
 -0.20960E-02 -0.21415E-02 -0.61043E-02
 -0.16007E-02 -0.27026E-02 -0.60995E-02
 -0.11921E-02 -0.31499E-02 -0.60853E-02
 -0.58356E-03 -0.30470E-02 -0.60869E-02
  0.21060E-03 -0.28726E-02 -0.60844E-02
  0.10573E-02 -0.26383E-02 -0.60711E-02
  0.18438E-02 -0.23705E-02 -0.60621E-02
  0.24649E-02 -0.21585E-02 -0.60572E-02
  0.26062E-02 -0.15127E-02 -0.60727E-02
  0.38525E-02  0.94244E-03 -0.60892E-02
  0.39670E-02 -0.59075E-05 -0.60915E-02
  0.35102E-02  0.18312E-02 -0.61029E-02
  0.29686E-02  0.26119E-02 -0.61281E-02
  0.22604E-02  0.32420E-02 -0.61394E-02
  0.14218E-02  0.36888E-02 -0.61620E-02
  0.50060E-03  0.39198E-02 -0.61759E-02
 -0.45466E-03  0.39146E-02 -0.61732E-02
 -0.13850E-02  0.36825E-02 -0.61712E-02
 -0.22295E-02  0.32403E-02 -0.61608E-02
 -0.29443E-02  0.26127E-02 -0.61536E-02
 -0.34941E-02  0.18339E-02 -0.61871E-02
 -0.38319E-02  0.93589E-03 -0.61926E-02
 -0.39415E-02 -0.18271E-04 -0.61848E-02
 -0.38229E-02 -0.96789E-03 -0.61788E-02
 -0.34879E-02 -0.18591E-02 -0.61724E-02
 -0.29491E-02 -0.26385E-02 -0.61681E-02
 -0.22362E-02 -0.32670E-02 -0.61332E-02
 -0.13946E-02 -0.37096E-02 -0.61059E-02
 -0.47029E-03 -0.39375E-02 -0.61085E-02
  0.48437E-03 -0.39281E-02 -0.61092E-02
  0.14091E-02 -0.36899E-02 -0.60973E-02
  0.22495E-02 -0.32484E-02 -0.60808E-02
  0.29611E-02 -0.26237E-02 -0.60728E-02
  0.35034E-02 -0.18445E-02 -0.60816E-02
  0.38468E-02 -0.95543E-03 -0.60962E-02
  0.11820E-02  0.77883E-03 -0.54207E-02
  0.19581E-02  0.13912E-02 -0.53477E-02
  0.25804E-02  0.66325E-03 -0.53146E-02
  0.18790E-02 -0.37030E-03 -0.53801E-02
  0.33323E-02  0.16442E-03 -0.52707E-02
  0.30619E-02 -0.73744E-03 -0.52840E-02
  0.14418E-02  0.20695E-02 -0.53365E-02
  0.73746E-03  0.16748E-02 -0.54021E-02
  0.13592E-03  0.36800E-03 -0.54621E-02
 -0.15102E-03  0.13638E-02 -0.54357E-02
  0.10523E-02  0.25403E-02 -0.53213E-02
  0.12472E-02  0.31070E-02 -0.52990E-02
  0.19255E-02  0.26742E-02 -0.52921E-02
  0.45829E-03  0.24295E-02 -0.53576E-02
  0.44606E-03  0.32251E-02 -0.53271E-02
 -0.87639E-03 -0.11429E-02 -0.54231E-02
 -0.99857E-03  0.10449E-03 -0.54463E-02
  0.51593E-03 -0.79171E-03 -0.54450E-02
 -0.20616E-02 -0.80035E-03 -0.53676E-02
 -0.20712E-02  0.88165E-04 -0.53912E-02
 -0.29958E-02 -0.85982E-03 -0.53279E-02
 -0.30756E-02  0.39779E-04 -0.53503E-02
 -0.27895E-02 -0.16721E-02 -0.52918E-02
 -0.21580E-02 -0.14757E-02 -0.53164E-02
 -0.11245E-02  0.11406E-02 -0.54243E-02
 -0.16115E-02 -0.19350E-02 -0.53240E-02
 -0.34408E-03  0.22724E-02 -0.53819E-02
 -0.12224E-02  0.20778E-02 -0.53867E-02
 -0.20804E-02  0.18966E-02 -0.53716E-02
 -0.20867E-02  0.10096E-02 -0.53920E-02
 -0.17996E-03 -0.22185E-02 -0.53504E-02
 -0.10502E-02 -0.26035E-02 -0.53022E-02
  0.87634E-03 -0.19168E-02 -0.53564E-02
  0.19169E-02 -0.16619E-02 -0.53147E-02
  0.35055E-02  0.84056E-03 -0.52449E-02
  0.30809E-02  0.13716E-02 -0.52642E-02
  0.25416E-02  0.20529E-02 -0.52937E-02
 -0.43318E-03  0.31779E-02 -0.53407E-02
 -0.13178E-02  0.29862E-02 -0.53487E-02
 -0.21232E-02  0.26974E-02 -0.53423E-02
 -0.27252E-02  0.24317E-02 -0.53268E-02
 -0.28815E-02  0.17943E-02 -0.53497E-02
 -0.30292E-02  0.95134E-03 -0.53622E-02
 -0.23199E-02 -0.23479E-02 -0.52870E-02
 -0.17589E-02 -0.29467E-02 -0.52726E-02
 -0.12997E-02 -0.34043E-02 -0.52469E-02
 -0.64372E-03 -0.33215E-02 -0.52645E-02
  0.22721E-03 -0.31579E-02 -0.52779E-02
  0.11633E-02 -0.29121E-02 -0.52665E-02
  0.20234E-02 -0.26052E-02 -0.52418E-02
  0.26808E-02 -0.23475E-02 -0.52166E-02
  0.28542E-02 -0.16527E-02 -0.52511E-02
  0.40948E-02  0.10031E-02 -0.52413E-02
  0.42145E-02 -0.60575E-05 -0.52352E-02
  0.37425E-02  0.19576E-02 -0.52548E-02
  0.31698E-02  0.27987E-02 -0.52793E-02
  0.24103E-02  0.34835E-02 -0.52915E-02
  0.15087E-02  0.39596E-02 -0.53159E-02
  0.51714E-03  0.41965E-02 -0.53350E-02
 -0.49784E-03  0.42022E-02 -0.53483E-02
 -0.14882E-02  0.39599E-02 -0.53559E-02
 -0.23980E-02  0.34817E-02 -0.53445E-02
 -0.31593E-02  0.27888E-02 -0.53334E-02
 -0.37373E-02  0.19458E-02 -0.53573E-02
 -0.40937E-02  0.99728E-03 -0.53615E-02
 -0.42146E-02 -0.70787E-05 -0.53446E-02
 -0.40916E-02 -0.10106E-02 -0.53296E-02
 -0.37346E-02 -0.19596E-02 -0.53141E-02
 -0.31531E-02 -0.27958E-02 -0.53054E-02
 -0.23922E-02 -0.34679E-02 -0.52745E-02
 -0.14923E-02 -0.39329E-02 -0.52474E-02
 -0.50351E-03 -0.41731E-02 -0.52497E-02
  0.50998E-03 -0.41800E-02 -0.52509E-02
  0.14964E-02 -0.39434E-02 -0.52390E-02
  0.23974E-02 -0.34713E-02 -0.52178E-02
  0.31555E-02 -0.27922E-02 -0.52044E-02
  0.37303E-02 -0.19549E-02 -0.52128E-02
  0.40927E-02 -0.10100E-02 -0.52318E-02
  0.99481E-03  0.64911E-03 -0.42817E-02
  0.16837E-02  0.12052E-02 -0.42752E-02
  0.22499E-02  0.59261E-03 -0.42681E-02
  0.16070E-02 -0.31049E-03 -0.42893E-02
  0.29826E-02  0.16445E-03 -0.42653E-02
  0.27285E-02 -0.64643E-03 -0.42715E-02
  0.12397E-02  0.17864E-02 -0.42658E-02
  0.62454E-03  0.14085E-02 -0.42814E-02
  0.12803E-03  0.29233E-03 -0.42856E-02
 -0.11704E-03  0.11350E-02 -0.42896E-02
  0.91069E-03  0.22136E-02 -0.42688E-02
  0.11038E-02  0.27775E-02 -0.42911E-02
  0.17049E-02  0.23872E-02 -0.42793E-02
  0.39229E-03  0.21001E-02 -0.42881E-02
  0.38837E-03  0.28852E-02 -0.43186E-02
 -0.73212E-03 -0.96533E-03 -0.43024E-02
 -0.81838E-03  0.82620E-04 -0.42947E-02
  0.43673E-03 -0.66671E-03 -0.43003E-02
 -0.17684E-02 -0.68365E-03 -0.42965E-02
 -0.17755E-02  0.86528E-04 -0.43062E-02
 -0.26709E-02 -0.75638E-03 -0.43191E-02
 -0.27468E-02  0.53752E-04 -0.43365E-02
 -0.24958E-02 -0.14905E-02 -0.42894E-02
 -0.18794E-02 -0.12816E-02 -0.42728E-02
 -0.94528E-03  0.96733E-03 -0.42948E-02
 -0.14030E-02 -0.16782E-02 -0.42749E-02
 -0.30071E-03  0.19596E-02 -0.43027E-02
 -0.10669E-02  0.18043E-02 -0.43158E-02
 -0.18368E-02  0.16813E-02 -0.43333E-02
 -0.18094E-02  0.89260E-03 -0.43173E-02
 -0.16503E-03 -0.19181E-02 -0.42844E-02
 -0.93524E-03 -0.22901E-02 -0.42769E-02
  0.74682E-03 -0.16511E-02 -0.42846E-02
  0.16686E-02 -0.14465E-02 -0.42750E-02
  0.31638E-02  0.77921E-03 -0.42537E-02
  0.27516E-02  0.12456E-02 -0.42638E-02
  0.22547E-02  0.18426E-02 -0.42841E-02
 -0.39808E-03  0.28380E-02 -0.43298E-02
 -0.11886E-02  0.26660E-02 -0.43402E-02
 -0.19134E-02  0.24239E-02 -0.43477E-02
 -0.24717E-02  0.22147E-02 -0.43461E-02
 -0.25955E-02  0.16358E-02 -0.43539E-02
 -0.27151E-02  0.87619E-03 -0.43518E-02
 -0.20849E-02 -0.21001E-02 -0.42875E-02
 -0.15957E-02 -0.26521E-02 -0.42831E-02
 -0.11939E-02 -0.30926E-02 -0.42666E-02
 -0.59518E-03 -0.29912E-02 -0.42721E-02
  0.18706E-03 -0.28200E-02 -0.42704E-02
  0.10227E-02 -0.25902E-02 -0.42575E-02
  0.18015E-02 -0.23254E-02 -0.42475E-02
  0.24171E-02 -0.21164E-02 -0.42362E-02
  0.25549E-02 -0.14755E-02 -0.42538E-02
  0.37826E-02  0.94653E-03 -0.42625E-02
  0.38915E-02  0.12514E-04 -0.42635E-02
  0.34450E-02  0.18222E-02 -0.42780E-02
  0.29106E-02  0.25934E-02 -0.43089E-02
  0.22103E-02  0.32153E-02 -0.43265E-02
  0.13809E-02  0.36520E-02 -0.43527E-02
  0.46870E-03  0.38788E-02 -0.43692E-02
 -0.47115E-03  0.38725E-02 -0.43724E-02
 -0.13827E-02  0.36412E-02 -0.43736E-02
 -0.22119E-02  0.32067E-02 -0.43614E-02
 -0.29175E-02  0.25934E-02 -0.43504E-02
 -0.34518E-02  0.18265E-02 -0.43798E-02
 -0.37869E-02  0.94581E-03 -0.43853E-02
 -0.39016E-02  0.79334E-05 -0.43726E-02
 -0.37866E-02 -0.92790E-03 -0.43607E-02
 -0.34552E-02 -0.18097E-02 -0.43495E-02
 -0.29253E-02 -0.25844E-02 -0.43378E-02
 -0.22240E-02 -0.32086E-02 -0.43005E-02
 -0.13932E-02 -0.36465E-02 -0.42718E-02
 -0.48249E-03 -0.38695E-02 -0.42759E-02
  0.45819E-03 -0.38616E-02 -0.42785E-02
  0.13700E-02 -0.36313E-02 -0.42662E-02
  0.22030E-02 -0.31967E-02 -0.42490E-02
  0.29097E-02 -0.25788E-02 -0.42415E-02
  0.34424E-02 -0.18030E-02 -0.42498E-02
  0.37752E-02 -0.92174E-03 -0.42661E-02
  0.11249E-02  0.77609E-03 -0.35370E-02
  0.18881E-02  0.13783E-02 -0.34735E-02
  0.25017E-02  0.66877E-03 -0.34468E-02
  0.18105E-02 -0.34118E-03 -0.35047E-02
  0.32508E-02  0.18229E-03 -0.34142E-02
  0.29855E-02 -0.70400E-03 -0.34223E-02
  0.13870E-02  0.20407E-02 -0.34661E-02
  0.69635E-03  0.16503E-02 -0.35260E-02
  0.11250E-03  0.37530E-03 -0.35807E-02
 -0.16601E-03  0.13442E-02 -0.35624E-02
  0.10100E-02  0.25049E-02 -0.34575E-02
  0.12041E-02  0.30659E-02 -0.34488E-02
  0.18665E-02  0.26396E-02 -0.34370E-02
  0.42948E-03  0.23936E-02 -0.34900E-02
  0.41831E-03  0.31833E-02 -0.34743E-02
 -0.86888E-03 -0.10921E-02 -0.35412E-02
 -0.98401E-03  0.12067E-03 -0.35706E-02
  0.48254E-03 -0.74858E-03 -0.35596E-02
 -0.20301E-02 -0.76077E-03 -0.34999E-02
 -0.20348E-02  0.10753E-03 -0.35224E-02
 -0.29569E-02 -0.82036E-03 -0.34732E-02
 -0.30309E-02  0.63393E-04 -0.34942E-02
 -0.27569E-02 -0.16200E-02 -0.34360E-02
 -0.21303E-02 -0.14231E-02 -0.34504E-02
 -0.11097E-02  0.11295E-02 -0.35513E-02
 -0.15932E-02 -0.18708E-02 -0.34531E-02
 -0.35446E-03  0.22361E-02 -0.35124E-02
 -0.12109E-02  0.20447E-02 -0.35170E-02
 -0.20489E-02  0.18746E-02 -0.35049E-02
 -0.20505E-02  0.10081E-02 -0.35209E-02
 -0.19315E-03 -0.21460E-02 -0.34732E-02
 -0.10455E-02 -0.25274E-02 -0.34347E-02
  0.83676E-03 -0.18534E-02 -0.34832E-02
  0.18576E-02 -0.16104E-02 -0.34520E-02
  0.34248E-02  0.84713E-03 -0.33966E-02
  0.30019E-02  0.13646E-02 -0.34119E-02
  0.24695E-02  0.20307E-02 -0.34363E-02
 -0.44435E-03  0.31303E-02 -0.34839E-02
 -0.13089E-02  0.29399E-02 -0.34906E-02
 -0.20951E-02  0.26603E-02 -0.34894E-02
 -0.26863E-02  0.24065E-02 -0.34801E-02
 -0.28372E-02  0.17819E-02 -0.34943E-02
 -0.29820E-02  0.95679E-03 -0.35039E-02
 -0.22940E-02 -0.22845E-02 -0.34284E-02
 -0.17418E-02 -0.28729E-02 -0.34169E-02
 -0.12929E-02 -0.33253E-02 -0.33956E-02
 -0.65072E-03 -0.32403E-02 -0.34064E-02
  0.20242E-03 -0.30790E-02 -0.34146E-02
  0.11219E-02 -0.28407E-02 -0.34061E-02
  0.19698E-02 -0.25428E-02 -0.33891E-02
  0.26191E-02 -0.22934E-02 -0.33672E-02
  0.27855E-02 -0.16067E-02 -0.33943E-02
  0.40136E-02  0.10080E-02 -0.34019E-02
  0.41337E-02  0.15866E-04 -0.33934E-02
  0.36622E-02  0.19448E-02 -0.34208E-02
  0.30971E-02  0.27709E-02 -0.34456E-02
  0.23511E-02  0.34422E-02 -0.34599E-02
  0.14640E-02  0.39110E-02 -0.34839E-02
  0.48614E-03  0.41451E-02 -0.34997E-02
 -0.51429E-03  0.41442E-02 -0.35150E-02
 -0.14815E-02  0.39038E-02 -0.35191E-02
 -0.23664E-02  0.34354E-02 -0.35150E-02
 -0.31157E-02  0.27626E-02 -0.35015E-02
 -0.36834E-02  0.19364E-02 -0.35240E-02
 -0.40403E-02  0.10084E-02 -0.35247E-02
 -0.41651E-02  0.20894E-04 -0.35089E-02
 -0.40466E-02 -0.96958E-03 -0.34916E-02
 -0.36950E-02 -0.19081E-02 -0.34752E-02
 -0.31214E-02 -0.27351E-02 -0.34618E-02
 -0.23685E-02 -0.33972E-02 -0.34309E-02
 -0.14846E-02 -0.38559E-02 -0.34038E-02
 -0.51668E-03 -0.40941E-02 -0.34034E-02
  0.48109E-03 -0.41029E-02 -0.34068E-02
  0.14548E-02 -0.38701E-02 -0.33955E-02
  0.23437E-02 -0.34034E-02 -0.33761E-02
  0.30915E-02 -0.27349E-02 -0.33634E-02
  0.36596E-02 -0.19096E-02 -0.33697E-02
  0.40157E-02 -0.97561E-03 -0.33886E-02
  0.97093E-03  0.66360E-03 -0.24306E-02
  0.16546E-02  0.12167E-02 -0.24236E-02
  0.22174E-02  0.60752E-03 -0.24144E-02
  0.15800E-02 -0.28972E-03 -0.24396E-02
  0.29414E-02  0.18268E-03 -0.24097E-02
  0.26897E-02 -0.62339E-03 -0.24174E-02
  0.12115E-02  0.17942E-02 -0.24135E-02
  0.60114E-03  0.14204E-02 -0.24302E-02
  0.10889E-03  0.31114E-03 -0.24304E-02
 -0.13390E-03  0.11493E-02 -0.24396E-02
  0.88415E-03  0.22182E-02 -0.24134E-02
  0.10752E-02  0.27727E-02 -0.24347E-02
  0.16716E-02  0.23869E-02 -0.24238E-02
  0.37168E-03  0.21054E-02 -0.24327E-02
  0.36792E-03  0.28792E-02 -0.24607E-02
 -0.74636E-03 -0.93783E-03 -0.24455E-02
 -0.83144E-03  0.10275E-03 -0.24397E-02
  0.41708E-03 -0.64020E-03 -0.24434E-02
 -0.17748E-02 -0.65786E-03 -0.24431E-02
 -0.17810E-02  0.10534E-03 -0.24541E-02
 -0.26673E-02 -0.72951E-03 -0.24641E-02
 -0.27417E-02  0.74228E-04 -0.24818E-02
 -0.24935E-02 -0.14573E-02 -0.24349E-02
 -0.18846E-02 -0.12507E-02 -0.24197E-02
 -0.95601E-03  0.98231E-03 -0.24432E-02
 -0.14118E-02 -0.16453E-02 -0.24204E-02
 -0.31420E-03  0.19657E-02 -0.24501E-02
 -0.10755E-02  0.18113E-02 -0.24613E-02
 -0.18419E-02  0.16904E-02 -0.24739E-02
 -0.18146E-02  0.90643E-03 -0.24627E-02
 -0.18068E-03 -0.18832E-02 -0.24277E-02
 -0.94679E-03 -0.22526E-02 -0.24187E-02
  0.72486E-03 -0.16183E-02 -0.24308E-02
  0.16389E-02 -0.14186E-02 -0.24233E-02
  0.31208E-02  0.79425E-03 -0.23962E-02
  0.27130E-02  0.12552E-02 -0.24061E-02
  0.22200E-02  0.18461E-02 -0.24272E-02
 -0.41118E-03  0.28308E-02 -0.24721E-02
 -0.11962E-02  0.26632E-02 -0.24808E-02
 -0.19166E-02  0.24258E-02 -0.24876E-02
 -0.24696E-02  0.22189E-02 -0.24870E-02
 -0.25919E-02  0.16442E-02 -0.24934E-02
 -0.27094E-02  0.89025E-03 -0.24948E-02
 -0.20855E-02 -0.20626E-02 -0.24306E-02
 -0.15997E-02 -0.26104E-02 -0.24229E-02
 -0.12015E-02 -0.30469E-02 -0.24056E-02
 -0.60769E-03 -0.29470E-02 -0.24118E-02
  0.16927E-03 -0.27784E-02 -0.24135E-02
  0.99816E-03 -0.25513E-02 -0.24019E-02
  0.17694E-02 -0.22893E-02 -0.23911E-02
  0.23783E-02 -0.20837E-02 -0.23783E-02
  0.25153E-02 -0.14474E-02 -0.23976E-02
  0.37307E-02  0.95706E-03 -0.24078E-02
  0.38379E-02  0.30331E-04 -0.24069E-02
  0.33959E-02  0.18250E-02 -0.24247E-02
  0.28633E-02  0.25875E-02 -0.24517E-02
  0.21678E-02  0.32014E-02 -0.24689E-02
  0.13464E-02  0.36314E-02 -0.24956E-02
  0.44456E-03  0.38541E-02 -0.25104E-02
 -0.48476E-03  0.38501E-02 -0.25165E-02
 -0.13858E-02  0.36244E-02 -0.25127E-02
 -0.22076E-02  0.31972E-02 -0.25059E-02
 -0.29074E-02  0.25919E-02 -0.24977E-02
 -0.34340E-02  0.18292E-02 -0.25211E-02
 -0.37643E-02  0.95911E-03 -0.25264E-02
 -0.38801E-02  0.32609E-04 -0.25157E-02
 -0.37690E-02 -0.89545E-03 -0.25035E-02
 -0.34428E-02 -0.17715E-02 -0.24920E-02
 -0.29161E-02 -0.25406E-02 -0.24754E-02
 -0.22212E-02 -0.31602E-02 -0.24400E-02
 -0.13995E-02 -0.35966E-02 -0.24133E-02
 -0.49539E-03 -0.38182E-02 -0.24173E-02
  0.43913E-03 -0.38115E-02 -0.24238E-02
  0.13423E-02 -0.35836E-02 -0.24097E-02
  0.21673E-02 -0.31522E-02 -0.23906E-02
  0.28671E-02 -0.25397E-02 -0.23831E-02
  0.33937E-02 -0.17712E-02 -0.23904E-02
  0.37220E-02 -0.89750E-03 -0.24077E-02
  0.10844E-02  0.77296E-03 -0.16132E-02
  0.18371E-02  0.13678E-02 -0.15670E-02
  0.24434E-02  0.67177E-03 -0.15421E-02
  0.17599E-02 -0.31861E-03 -0.15837E-02
  0.31877E-02  0.19422E-03 -0.15228E-02
  0.29249E-02 -0.67744E-03 -0.15268E-02
  0.13432E-02  0.20148E-02 -0.15580E-02
  0.66056E-03  0.16286E-02 -0.16056E-02
  0.90777E-04  0.38546E-03 -0.16455E-02
 -0.18475E-03  0.13321E-02 -0.16363E-02
  0.97295E-03  0.24701E-02 -0.15500E-02
  0.11677E-02  0.30296E-02 -0.15554E-02
  0.18205E-02  0.26147E-02 -0.15453E-02
  0.40082E-03  0.23586E-02 -0.15774E-02
  0.39479E-03  0.31447E-02 -0.15783E-02
 -0.86675E-03 -0.10464E-02 -0.16134E-02
 -0.98103E-03  0.14120E-03 -0.16394E-02
  0.45683E-03 -0.71132E-03 -0.16235E-02
 -0.20072E-02 -0.71991E-03 -0.15885E-02
 -0.20116E-02  0.12795E-03 -0.16084E-02
 -0.29261E-02 -0.78463E-03 -0.15816E-02
 -0.30012E-02  0.83351E-04 -0.15986E-02
 -0.27290E-02 -0.15710E-02 -0.15470E-02
 -0.21069E-02 -0.13719E-02 -0.15463E-02
 -0.11046E-02  0.11251E-02 -0.16274E-02
 -0.15788E-02 -0.18145E-02 -0.15446E-02
 -0.36851E-03  0.22065E-02 -0.15996E-02
 -0.12073E-02  0.20212E-02 -0.16052E-02
 -0.20335E-02  0.18613E-02 -0.15984E-02
 -0.20298E-02  0.10087E-02 -0.16085E-02
 -0.20415E-03 -0.20836E-02 -0.15551E-02
 -0.10429E-02 -0.24656E-02 -0.15308E-02
  0.80295E-03 -0.17945E-02 -0.15624E-02
  0.18062E-02 -0.15629E-02 -0.15418E-02
  0.33623E-02  0.85169E-03 -0.15112E-02
  0.29435E-02  0.13603E-02 -0.15218E-02
  0.24179E-02  0.20164E-02 -0.15459E-02
 -0.45524E-03  0.30956E-02 -0.15860E-02
 -0.13091E-02  0.29128E-02 -0.15924E-02
 -0.20852E-02  0.26410E-02 -0.15939E-02
 -0.26693E-02  0.23963E-02 -0.15900E-02
 -0.28168E-02  0.17789E-02 -0.15993E-02
 -0.29571E-02  0.96363E-03 -0.16063E-02
 -0.22737E-02 -0.22274E-02 -0.15380E-02
 -0.17313E-02 -0.28125E-02 -0.15283E-02
 -0.12901E-02 -0.32624E-02 -0.15132E-02
 -0.65541E-03 -0.31741E-02 -0.15169E-02
  0.18439E-03 -0.30099E-02 -0.15191E-02
  0.10859E-02 -0.27733E-02 -0.15103E-02
  0.19201E-02 -0.24831E-02 -0.14987E-02
  0.25639E-02 -0.22432E-02 -0.14832E-02
  0.27267E-02 -0.15654E-02 -0.15025E-02
  0.39520E-02  0.10112E-02 -0.15338E-02
  0.40729E-02  0.32155E-04 -0.15245E-02
  0.36080E-02  0.19356E-02 -0.15482E-02
  0.30475E-02  0.27542E-02 -0.15685E-02
  0.23057E-02  0.34192E-02 -0.15815E-02
  0.14299E-02  0.38815E-02 -0.16035E-02
  0.46501E-03  0.41136E-02 -0.16169E-02
 -0.52078E-03  0.41137E-02 -0.16314E-02
 -0.14816E-02  0.38777E-02 -0.16364E-02
 -0.23601E-02  0.34144E-02 -0.16328E-02
 -0.30969E-02  0.27537E-02 -0.16221E-02
 -0.36599E-02  0.19394E-02 -0.16419E-02
 -0.40162E-02  0.10162E-02 -0.16422E-02
 -0.41383E-02  0.37567E-04 -0.16340E-02
 -0.40187E-02 -0.94316E-03 -0.16178E-02
 -0.36675E-02 -0.18685E-02 -0.16053E-02
 -0.30996E-02 -0.26809E-02 -0.15894E-02
 -0.23578E-02 -0.33379E-02 -0.15576E-02
 -0.14835E-02 -0.37937E-02 -0.15362E-02
 -0.52577E-03 -0.40287E-02 -0.15379E-02
  0.46155E-03 -0.40365E-02 -0.15374E-02
  0.14212E-02 -0.38060E-02 -0.15258E-02
  0.22978E-02 -0.33454E-02 -0.15087E-02
  0.30388E-02 -0.26866E-02 -0.14955E-02
  0.36011E-02 -0.18725E-02 -0.15003E-02
  0.39545E-02 -0.94963E-03 -0.15184E-02
  0.95108E-03  0.68109E-03 -0.53788E-03
  0.16329E-02  0.12305E-02 -0.53928E-03
  0.21909E-02  0.62188E-03 -0.52780E-03
  0.15530E-02 -0.26805E-03 -0.54174E-03
  0.29089E-02  0.19638E-03 -0.52571E-03
  0.26550E-02 -0.60313E-03 -0.52990E-03
  0.11945E-02  0.18073E-02 -0.53024E-03
  0.58373E-03  0.14351E-02 -0.53821E-03
  0.93682E-04  0.32960E-03 -0.52519E-03
 -0.14555E-03  0.11593E-02 -0.53576E-03
  0.86725E-03  0.22326E-02 -0.53104E-03
  0.10591E-02  0.27836E-02 -0.55585E-03
  0.16534E-02  0.23935E-02 -0.54240E-03
  0.35304E-03  0.21189E-02 -0.54477E-03
  0.35075E-03  0.28933E-02 -0.58193E-03
 -0.76473E-03 -0.91448E-03 -0.54943E-03
 -0.84091E-03  0.12056E-03 -0.52877E-03
  0.39646E-03 -0.61169E-03 -0.54211E-03
 -0.17869E-02 -0.63818E-03 -0.54950E-03
 -0.17857E-02  0.12281E-03 -0.55542E-03
 -0.26765E-02 -0.70841E-03 -0.58525E-03
 -0.27460E-02  0.92516E-04 -0.60116E-03
 -0.25055E-02 -0.14355E-02 -0.55538E-03
 -0.18996E-02 -0.12308E-02 -0.53549E-03
 -0.96028E-03  0.99184E-03 -0.53920E-03
 -0.14279E-02 -0.16235E-02 -0.53641E-03
 -0.32802E-03  0.19715E-02 -0.55731E-03
 -0.10830E-02  0.18135E-02 -0.57163E-03
 -0.18510E-02  0.17002E-02 -0.58889E-03
 -0.18194E-02  0.92001E-03 -0.57029E-03
 -0.19762E-03 -0.18524E-02 -0.53719E-03
 -0.96173E-03 -0.22254E-02 -0.53353E-03
  0.70372E-03 -0.15871E-02 -0.53330E-03
  0.16116E-02 -0.13922E-02 -0.52493E-03
  0.30906E-02  0.80551E-03 -0.51205E-03
  0.26866E-02  0.12638E-02 -0.52148E-03
  0.21969E-02  0.18513E-02 -0.54431E-03
 -0.42486E-03  0.28376E-02 -0.59102E-03
 -0.12062E-02  0.26661E-02 -0.60050E-03
 -0.19262E-02  0.24326E-02 -0.60493E-03
 -0.24779E-02  0.22299E-02 -0.60097E-03
 -0.26008E-02  0.16566E-02 -0.61181E-03
 -0.27152E-02  0.90416E-03 -0.61442E-03
 -0.20966E-02 -0.20384E-02 -0.54870E-03
 -0.16093E-02 -0.25828E-02 -0.53919E-03
 -0.12095E-02 -0.30144E-02 -0.52071E-03
 -0.61939E-03 -0.29127E-02 -0.52479E-03
  0.15283E-03 -0.27422E-02 -0.52401E-03
  0.97703E-03 -0.25176E-02 -0.51278E-03
  0.17436E-02 -0.22586E-02 -0.50373E-03
  0.23468E-02 -0.20539E-02 -0.49334E-03
  0.24803E-02 -0.14207E-02 -0.50856E-03
  0.36915E-02  0.96251E-03 -0.52427E-03
  0.37954E-02  0.42905E-04 -0.52586E-03
  0.33632E-02  0.18265E-02 -0.54021E-03
  0.28363E-02  0.25822E-02 -0.56723E-03
  0.21476E-02  0.31967E-02 -0.58123E-03
  0.13314E-02  0.36317E-02 -0.60637E-03
  0.43476E-03  0.38579E-02 -0.62312E-03
 -0.49438E-03  0.38543E-02 -0.63153E-03
 -0.13958E-02  0.36253E-02 -0.62652E-03
 -0.22154E-02  0.31984E-02 -0.61480E-03
 -0.29094E-02  0.25990E-02 -0.60394E-03
 -0.34354E-02  0.18403E-02 -0.63437E-03
 -0.37664E-02  0.97133E-03 -0.64042E-03
 -0.38828E-02  0.48398E-04 -0.63572E-03
 -0.37721E-02 -0.87472E-03 -0.62300E-03
 -0.34463E-02 -0.17480E-02 -0.60771E-03
 -0.29181E-02 -0.25116E-02 -0.58966E-03
 -0.22218E-02 -0.31265E-02 -0.55526E-03
 -0.14021E-02 -0.35566E-02 -0.53125E-03
 -0.50405E-03 -0.37760E-02 -0.54067E-03
  0.42061E-03 -0.37689E-02 -0.54616E-03
  0.13182E-02 -0.35450E-02 -0.53504E-03
  0.21389E-02 -0.31159E-02 -0.51794E-03
  0.28320E-02 -0.25047E-02 -0.50826E-03
  0.33545E-02 -0.17426E-02 -0.51160E-03
  0.36796E-02 -0.87653E-03 -0.52698E-03
  0.10413E-02  0.77035E-03  0.35064E-03
  0.17805E-02  0.13512E-02  0.37499E-03
  0.23759E-02  0.67335E-03  0.39715E-03
  0.17063E-02 -0.29290E-03  0.37294E-03
  0.31122E-02  0.20626E-03  0.40062E-03
  0.28569E-02 -0.64746E-03  0.40280E-03
  0.12944E-02  0.19791E-02  0.37735E-03
  0.62594E-03  0.15969E-02  0.35407E-03
  0.71132E-04  0.39632E-03  0.34826E-03
 -0.19609E-03  0.13114E-02  0.34727E-03
  0.93063E-03  0.24235E-02  0.37535E-03
  0.11272E-02  0.29839E-02  0.34997E-03
  0.17695E-02  0.25820E-02  0.36338E-03
  0.37348E-03  0.23084E-02  0.35903E-03
  0.37046E-03  0.30941E-02  0.33256E-03
 -0.85883E-03 -0.99814E-03  0.35685E-03
 -0.96681E-03  0.15791E-03  0.35488E-03
  0.42477E-03 -0.67360E-03  0.34947E-03
 -0.19691E-02 -0.68056E-03  0.35801E-03
 -0.19727E-02  0.14316E-03  0.34552E-03
 -0.28843E-02 -0.75134E-03  0.32675E-03
 -0.29596E-02  0.10055E-03  0.31415E-03
 -0.26954E-02 -0.15242E-02  0.35668E-03
 -0.20748E-02 -0.13196E-02  0.38386E-03
 -0.10910E-02  0.11120E-02  0.35266E-03
 -0.15594E-02 -0.17527E-02  0.39162E-03
 -0.37352E-03  0.21632E-02  0.34467E-03
 -0.11932E-02  0.19871E-02  0.33622E-03
 -0.20048E-02  0.18351E-02  0.32892E-03
 -0.19951E-02  0.10001E-02  0.33766E-03
 -0.21896E-03 -0.20252E-02  0.39074E-03
 -0.10393E-02 -0.23967E-02  0.39936E-03
  0.76452E-03 -0.17442E-02  0.39309E-03
  0.17522E-02 -0.15158E-02  0.41149E-03
  0.32856E-02  0.85280E-03  0.40521E-03
  0.28713E-02  0.13507E-02  0.39939E-03
  0.23572E-02  0.19956E-02  0.37080E-03
 -0.46121E-03  0.30487E-02  0.32539E-03
 -0.12997E-02  0.28765E-02  0.31311E-03
 -0.20638E-02  0.26121E-02  0.30989E-03
 -0.26440E-02  0.23755E-02  0.31074E-03
 -0.27858E-02  0.17652E-02  0.30348E-03
 -0.29199E-02  0.96551E-03  0.30139E-03
 -0.22513E-02 -0.21686E-02  0.36834E-03
 -0.17193E-02 -0.27428E-02  0.38060E-03
 -0.12874E-02 -0.31873E-02  0.39458E-03
 -0.66161E-03 -0.31007E-02  0.39945E-03
  0.16437E-03 -0.29412E-02  0.40290E-03
  0.10484E-02 -0.27074E-02  0.41794E-03
  0.18648E-02 -0.24196E-02  0.43035E-03
  0.24963E-02 -0.21860E-02  0.43463E-03
  0.26589E-02 -0.15191E-02  0.42548E-03
  0.38793E-02  0.10125E-02  0.36025E-03
  0.39985E-02  0.49710E-04  0.36802E-03
  0.35453E-02  0.19232E-02  0.34345E-03
  0.30005E-02  0.27384E-02  0.31949E-03
  0.22696E-02  0.34007E-02  0.30549E-03
  0.14010E-02  0.38496E-02  0.29032E-03
  0.44759E-03  0.40752E-02  0.28609E-03
 -0.52777E-03  0.40803E-02  0.26451E-03
 -0.14773E-02  0.38553E-02  0.25234E-03
 -0.23488E-02  0.33990E-02  0.26299E-03
 -0.30791E-02  0.27417E-02  0.27708E-03
 -0.36425E-02  0.19369E-02  0.25170E-03
 -0.39928E-02  0.10195E-02  0.24813E-03
 -0.41069E-02  0.48519E-04  0.25315E-03
 -0.39872E-02 -0.91930E-03  0.26502E-03
 -0.36419E-02 -0.18325E-02  0.28084E-03
 -0.30832E-02 -0.26362E-02  0.30009E-03
 -0.23455E-02 -0.32806E-02  0.32757E-03
 -0.14837E-02 -0.37222E-02  0.35271E-03
 -0.54067E-03 -0.39553E-02  0.35122E-03
  0.43764E-03 -0.39640E-02  0.35074E-03
  0.13868E-02 -0.37311E-02  0.35898E-03
  0.22464E-02 -0.32760E-02  0.36804E-03
  0.29709E-02 -0.26264E-02  0.38179E-03
  0.35283E-02 -0.18296E-02  0.38446E-03
  0.38807E-02 -0.91920E-03  0.37272E-03
  0.92304E-03  0.68723E-03  0.14704E-02
  0.16071E-02  0.12356E-02  0.14126E-02
  0.21403E-02  0.64558E-03  0.14289E-02
  0.14968E-02 -0.22528E-03  0.14262E-02
  0.28510E-02  0.22638E-03  0.14059E-02
  0.26023E-02 -0.56901E-03  0.14011E-02
  0.11823E-02  0.18167E-02  0.13928E-02
  0.56893E-03  0.14374E-02  0.14306E-02
  0.10170E-03  0.34061E-03  0.15099E-02
 -0.14842E-03  0.11629E-02  0.14523E-02
  0.85288E-03  0.22539E-02  0.13768E-02
  0.10460E-02  0.28004E-02  0.13361E-02
  0.16442E-02  0.24080E-02  0.13495E-02
  0.33556E-03  0.21345E-02  0.13803E-02
  0.33226E-03  0.29084E-02  0.13163E-02
 -0.76173E-03 -0.88521E-03  0.14180E-02
 -0.81722E-03  0.13426E-03  0.14716E-02
  0.37308E-03 -0.56149E-03  0.14592E-02
 -0.17989E-02 -0.61548E-03  0.13789E-02
 -0.17904E-02  0.14220E-03  0.13823E-02
 -0.26891E-02 -0.68613E-03  0.13214E-02
 -0.27580E-02  0.10968E-03  0.13027E-02
 -0.25230E-02 -0.14122E-02  0.13423E-02
 -0.19238E-02 -0.12126E-02  0.13736E-02
 -0.96207E-03  0.10082E-02  0.14320E-02
 -0.14446E-02 -0.16085E-02  0.13805E-02
 -0.34789E-03  0.19895E-02  0.13725E-02
 -0.11092E-02  0.18460E-02  0.13510E-02
 -0.18820E-02  0.17373E-02  0.13143E-02
 -0.18343E-02  0.94384E-03  0.13561E-02
 -0.22277E-03 -0.18132E-02  0.14102E-02
 -0.97990E-03 -0.22076E-02  0.13914E-02
  0.65949E-03 -0.15314E-02  0.14208E-02
  0.15673E-02 -0.13510E-02  0.14128E-02
  0.30491E-02  0.82759E-03  0.14067E-02
  0.26571E-02  0.12832E-02  0.13982E-02
  0.21822E-02  0.18638E-02  0.13620E-02
 -0.44896E-03  0.28562E-02  0.13066E-02
 -0.12342E-02  0.26993E-02  0.12919E-02
 -0.19588E-02  0.24743E-02  0.12801E-02
 -0.25131E-02  0.22646E-02  0.12793E-02
 -0.26275E-02  0.16818E-02  0.12720E-02
 -0.27313E-02  0.92361E-03  0.12776E-02
 -0.21138E-02 -0.20206E-02  0.13493E-02
 -0.16279E-02 -0.25655E-02  0.13698E-02
 -0.12358E-02 -0.29968E-02  0.13894E-02
 -0.64372E-03 -0.28926E-02  0.13924E-02
  0.12756E-03 -0.27090E-02  0.14010E-02
  0.94085E-03 -0.24732E-02  0.14243E-02
  0.17033E-02 -0.22230E-02  0.14295E-02
  0.23108E-02 -0.20318E-02  0.14254E-02
  0.24432E-02 -0.13955E-02  0.14137E-02
  0.36456E-02  0.97676E-03  0.13684E-02
  0.37371E-02  0.65707E-04  0.13675E-02
  0.33296E-02  0.18424E-02  0.13446E-02
  0.28060E-02  0.26037E-02  0.13090E-02
  0.21194E-02  0.32010E-02  0.13007E-02
  0.13123E-02  0.36275E-02  0.12842E-02
  0.41847E-03  0.38526E-02  0.12712E-02
 -0.50711E-03  0.38578E-02  0.12602E-02
 -0.14086E-02  0.36325E-02  0.12640E-02
 -0.22231E-02  0.32177E-02  0.12804E-02
 -0.29324E-02  0.26177E-02  0.12959E-02
 -0.34356E-02  0.18403E-02  0.12691E-02
 -0.37599E-02  0.97734E-03  0.12515E-02
 -0.38689E-02  0.55784E-04  0.12537E-02
 -0.37549E-02 -0.85533E-03  0.12660E-02
 -0.34281E-02 -0.17094E-02  0.12862E-02
 -0.29151E-02 -0.24722E-02  0.13033E-02
 -0.22372E-02 -0.30878E-02  0.13419E-02
 -0.14288E-02 -0.35312E-02  0.13632E-02
 -0.52983E-03 -0.37456E-02  0.13449E-02
  0.39583E-03 -0.37320E-02  0.13371E-02
  0.12873E-02 -0.34962E-02  0.13518E-02
  0.21005E-02 -0.30759E-02  0.13722E-02
  0.27927E-02 -0.24722E-02  0.13860E-02
  0.33159E-02 -0.17115E-02  0.13798E-02
  0.36251E-02 -0.84424E-03  0.13646E-02
  0.95776E-03  0.78676E-03  0.25024E-02
  0.16725E-02  0.13326E-02  0.24022E-02
  0.22563E-02  0.67565E-03  0.24153E-02
  0.15989E-02 -0.24899E-03  0.24414E-02
  0.29979E-02  0.23251E-03  0.23391E-02
  0.27388E-02 -0.60083E-03  0.23333E-02
  0.12147E-02  0.19506E-02  0.23541E-02
  0.56719E-03  0.16058E-02  0.23865E-02
  0.16533E-04  0.41992E-03  0.25141E-02
 -0.22896E-03  0.13216E-02  0.23765E-02
  0.87360E-03  0.23959E-02  0.23314E-02
  0.10719E-02  0.29361E-02  0.23070E-02
  0.16857E-02  0.25220E-02  0.23153E-02
  0.33160E-03  0.23026E-02  0.23223E-02
  0.33553E-03  0.30641E-02  0.22890E-02
 -0.87995E-03 -0.93603E-03  0.24056E-02
 -0.99102E-03  0.18798E-03  0.24014E-02
  0.36650E-03 -0.60815E-03  0.25133E-02
 -0.19564E-02 -0.63751E-03  0.23194E-02
 -0.19725E-02  0.17164E-03  0.23001E-02
 -0.28582E-02 -0.71216E-03  0.22924E-02
 -0.29426E-02  0.11877E-03  0.22713E-02
 -0.26579E-02 -0.14575E-02  0.23195E-02
 -0.20468E-02 -0.12557E-02  0.23375E-02
 -0.11053E-02  0.11321E-02  0.23387E-02
 -0.15430E-02 -0.16693E-02  0.23554E-02
 -0.39913E-03  0.21609E-02  0.23048E-02
 -0.12048E-02  0.19881E-02  0.22955E-02
 -0.20024E-02  0.18398E-02  0.22810E-02
 -0.19996E-02  0.10200E-02  0.22837E-02
 -0.24161E-03 -0.19118E-02  0.23929E-02
 -0.10364E-02 -0.22899E-02  0.23635E-02
  0.70761E-03 -0.16347E-02  0.24001E-02
  0.16562E-02 -0.14321E-02  0.23754E-02
  0.31724E-02  0.86086E-03  0.23326E-02
  0.27511E-02  0.13294E-02  0.23444E-02
  0.22466E-02  0.19431E-02  0.23207E-02
 -0.48143E-03  0.30217E-02  0.22801E-02
 -0.13031E-02  0.28486E-02  0.22751E-02
 -0.20476E-02  0.25889E-02  0.22684E-02
 -0.26067E-02  0.23559E-02  0.22581E-02
 -0.27548E-02  0.17570E-02  0.22602E-02
 -0.29003E-02  0.96628E-03  0.22574E-02
 -0.22118E-02 -0.20769E-02  0.23285E-02
 -0.16912E-02 -0.26396E-02  0.23314E-02
 -0.12759E-02 -0.30836E-02  0.23249E-02
 -0.67135E-03 -0.29894E-02  0.23331E-02
  0.12705E-03 -0.28314E-02  0.23425E-02
  0.98593E-03 -0.26082E-02  0.23612E-02
  0.17862E-02 -0.23343E-02  0.23676E-02
  0.24142E-02 -0.21155E-02  0.23596E-02
  0.25549E-02 -0.14558E-02  0.23515E-02
  0.37770E-02  0.10203E-02  0.22430E-02
  0.39090E-02  0.73118E-04  0.22365E-02
  0.34338E-02  0.19076E-02  0.22285E-02
  0.28896E-02  0.26914E-02  0.22190E-02
  0.21843E-02  0.33382E-02  0.22296E-02
  0.13520E-02  0.37959E-02  0.22003E-02
  0.42736E-03  0.40255E-02  0.21834E-02
 -0.53667E-03  0.40340E-02  0.21613E-02
 -0.14704E-02  0.38053E-02  0.21519E-02
 -0.23255E-02  0.33532E-02  0.21581E-02
 -0.30361E-02  0.27130E-02  0.21722E-02
 -0.35809E-02  0.19172E-02  0.21534E-02
 -0.39417E-02  0.10218E-02  0.21405E-02
 -0.40719E-02  0.70051E-04  0.21363E-02
 -0.39555E-02 -0.88741E-03  0.21473E-02
 -0.35984E-02 -0.17787E-02  0.21722E-02
 -0.30370E-02 -0.25439E-02  0.21943E-02
 -0.23222E-02 -0.31754E-02  0.22287E-02
 -0.14807E-02 -0.36297E-02  0.22557E-02
 -0.56381E-03 -0.38698E-02  0.22469E-02
  0.39662E-03 -0.38870E-02  0.22457E-02
  0.13342E-02 -0.36638E-02  0.22572E-02
  0.21898E-02 -0.32064E-02  0.22601E-02
  0.28997E-02 -0.25648E-02  0.22607E-02
  0.34520E-02 -0.17790E-02  0.22609E-02
  0.37960E-02 -0.88046E-03  0.22429E-02
  0.83858E-03  0.72013E-03  0.34398E-02
  0.15545E-02  0.13237E-02  0.33356E-02
  0.22048E-02  0.68256E-03  0.33270E-02
  0.15459E-02 -0.24412E-03  0.33712E-02
  0.28757E-02  0.21953E-03  0.33532E-02
  0.26249E-02 -0.58589E-03  0.33226E-02
  0.10505E-02  0.17777E-02  0.34085E-02
  0.43657E-03  0.13463E-02  0.35426E-02
  0.36506E-05  0.30593E-03  0.36483E-02
 -0.16882E-03  0.10154E-02  0.36969E-02
  0.73918E-03  0.21022E-02  0.34125E-02
  0.94244E-03  0.26860E-02  0.32984E-02
  0.15391E-02  0.24027E-02  0.32965E-02
  0.25691E-03  0.19692E-02  0.34479E-02
  0.28487E-03  0.27706E-02  0.32950E-02
 -0.74220E-03 -0.77402E-03  0.34724E-02
 -0.72135E-03  0.18567E-03  0.37391E-02
  0.34126E-03 -0.60135E-03  0.34669E-02
 -0.15881E-02 -0.47404E-03  0.34854E-02
 -0.15336E-02  0.18626E-03  0.35757E-02
 -0.25229E-02 -0.61160E-03  0.32925E-02
 -0.25576E-02  0.14042E-03  0.33191E-02
 -0.24439E-02 -0.13338E-02  0.32767E-02
 -0.17917E-02 -0.10702E-02  0.33744E-02
 -0.77946E-03  0.88942E-03  0.37174E-02
 -0.14382E-02 -0.14863E-02  0.33334E-02
 -0.32945E-03  0.18247E-02  0.34672E-02
 -0.96167E-03  0.16669E-02  0.34536E-02
 -0.17196E-02  0.15922E-02  0.33354E-02
 -0.16014E-02  0.85085E-03  0.34889E-02
 -0.23800E-03 -0.18353E-02  0.33185E-02
 -0.10329E-02 -0.21403E-02  0.33061E-02
  0.67945E-03 -0.15941E-02  0.33856E-02
  0.15246E-02 -0.13471E-02  0.34204E-02
  0.29580E-02  0.83060E-03  0.33862E-02
  0.25834E-02  0.13056E-02  0.33523E-02
  0.21117E-02  0.19316E-02  0.32903E-02
 -0.44153E-03  0.27279E-02  0.32842E-02
 -0.11908E-02  0.25739E-02  0.32495E-02
 -0.18798E-02  0.23531E-02  0.32243E-02
 -0.24263E-02  0.22173E-02  0.32070E-02
 -0.25571E-02  0.16766E-02  0.31974E-02
 -0.26026E-02  0.91600E-03  0.32506E-02
 -0.21157E-02 -0.19510E-02  0.32799E-02
 -0.16377E-02 -0.24772E-02  0.33022E-02
 -0.12021E-02 -0.28369E-02  0.33624E-02
 -0.66334E-03 -0.27742E-02  0.33458E-02
  0.83961E-04 -0.26637E-02  0.33374E-02
  0.91258E-03 -0.24423E-02  0.33509E-02
  0.16422E-02 -0.21473E-02  0.33853E-02
  0.22199E-02 -0.19369E-02  0.33941E-02
  0.23673E-02 -0.13549E-02  0.33711E-02
  0.34489E-02  0.96498E-03  0.33296E-02
  0.36078E-02  0.96132E-04  0.33188E-02
  0.31467E-02  0.17688E-02  0.33234E-02
  0.27036E-02  0.25197E-02  0.32893E-02
  0.20347E-02  0.31493E-02  0.32565E-02
  0.11943E-02  0.35336E-02  0.32079E-02
  0.36103E-03  0.37532E-02  0.31918E-02
 -0.50689E-03  0.36796E-02  0.32082E-02
 -0.13811E-02  0.34927E-02  0.31850E-02
 -0.21697E-02  0.30882E-02  0.31776E-02
 -0.28081E-02  0.25787E-02  0.32121E-02
 -0.33730E-02  0.18729E-02  0.31771E-02
 -0.36042E-02  0.96260E-03  0.31772E-02
 -0.37063E-02  0.89463E-04  0.31614E-02
 -0.36403E-02 -0.77529E-03  0.31566E-02
 -0.33604E-02 -0.16279E-02  0.32175E-02
 -0.28518E-02 -0.23815E-02  0.32523E-02
 -0.21588E-02 -0.29557E-02  0.32736E-02
 -0.13461E-02 -0.32562E-02  0.33630E-02
 -0.55251E-03 -0.34988E-02  0.33410E-02
  0.32167E-03 -0.35347E-02  0.33263E-02
  0.11807E-02 -0.33471E-02  0.33078E-02
  0.19713E-02 -0.29233E-02  0.32841E-02
  0.26523E-02 -0.23573E-02  0.32974E-02
  0.31682E-02 -0.16359E-02  0.32848E-02
  0.35060E-02 -0.79690E-03  0.32920E-02
  
CELLS       3486               17724
       1       0
       1       1
       1       2
       1       3
       1       4
       1       5
       1       6
       1       7
       1       8
       1       9
       1      10
       1      11
       1      12
       1      13
       1      14
       1      15
       1      16
       1      17
       1      18
       1      19
       1      20
       1      21
       1      22
       1      23
       1      24
       1      25
       1      26
       1      27
       1      28
       1      29
       1      30
       1      31
       1      32
       1      33
       1      34
       1      35
       1      36
       1      37
       1      38
       1      39
       1      40
       1      41
       1      42
       1      43
       1      44
       1      45
       1      46
       1      47
       1      48
       1      49
       1      50
       1      51
       1      52
       1      53
       1      54
       1      55
       1      56
       1      57
       1      58
       1      59
       1      60
       1      61
       1      62
       1      63
       1      64
       1      65
       1      66
       1      67
       1      68
       1      69
       1      70
       1      71
       1      72
       1      73
       1      74
       1      75
       1      76
       1      77
       1      78
       1      79
       1      80
       1      81
       1      82
       1      83
       1      84
       1      85
       1      86
       1      87
       1      88
       1      89
       1      90
       1      91
       1      92
       1      93
       1      94
       1      95
       1      96
       1      97
       1      98
       1      99
       1     100
       1     101
       1     102
       1     103
       1     104
       1     105
       1     106
       1     107
       1     108
       1     109
       1     110
       1     111
       1     112
       1     113
       1     114
       1     115
       1     116
       1     117
       1     118
       1     119
       1     120
       1     121
       1     122
       1     123
       1     124
       1     125
       1     126
       1     127
       1     128
       1     129
       1     130
       1     131
       1     132
       1     133
       1     134
       1     135
       1     136
       1     137
       1     138
       1     139
       1     140
       1     141
       1     142
       1     143
       1     144
       1     145
       1     146
       1     147
       1     148
       1     149
       1     150
       1     151
       1     152
       1     153
       1     154
       1     155
       1     156
       1     157
       1     158
       1     159
       1     160
       1     161
       1     162
       1     163
       1     164
       1     165
       1     166
       1     167
       1     168
       1     169
       1     170
       1     171
       1     172
       1     173
       1     174
       1     175
       1     176
       1     177
       1     178
       1     179
       1     180
       1     181
       1     182
       1     183
       1     184
       1     185
       1     186
       1     187
       1     188
       1     189
       1     190
       1     191
       1     192
       1     193
       1     194
       1     195
       1     196
       1     197
       1     198
       1     199
       1     200
       1     201
       1     202
       1     203
       1     204
       1     205
       1     206
       1     207
       1     208
       1     209
       1     210
       1     211
       1     212
       1     213
       1     214
       1     215
       1     216
       1     217
       1     218
       1     219
       1     220
       1     221
       1     222
       1     223
       1     224
       1     225
       1     226
       1     227
       1     228
       1     229
       1     230
       1     231
       1     232
       1     233
       1     234
       1     235
       1     236
       1     237
       1     238
       1     239
       1     240
       1     241
       1     242
       1     243
       1     244
       1     245
       1     246
       1     247
       1     248
       1     249
       1     250
       1     251
       1     252
       1     253
       1     254
       1     255
       1     256
       1     257
       1     258
       1     259
       1     260
       1     261
       1     262
       1     263
       1     264
       1     265
       1     266
       1     267
       1     268
       1     269
       1     270
       1     271
       1     272
       1     273
       1     274
       1     275
       1     276
       1     277
       1     278
       1     279
       1     280
       1     281
       1     282
       1     283
       1     284
       1     285
       1     286
       1     287
       1     288
       1     289
       1     290
       1     291
       1     292
       1     293
       1     294
       1     295
       1     296
       1     297
       1     298
       1     299
       1     300
       1     301
       1     302
       1     303
       1     304
       1     305
       1     306
       1     307
       1     308
       1     309
       1     310
       1     311
       1     312
       1     313
       1     314
       1     315
       1     316
       1     317
       1     318
       1     319
       1     320
       1     321
       1     322
       1     323
       1     324
       1     325
       1     326
       1     327
       1     328
       1     329
       1     330
       1     331
       1     332
       1     333
       1     334
       1     335
       1     336
       1     337
       1     338
       1     339
       1     340
       1     341
       1     342
       1     343
       1     344
       1     345
       1     346
       1     347
       1     348
       1     349
       1     350
       1     351
       1     352
       1     353
       1     354
       1     355
       1     356
       1     357
       1     358
       1     359
       1     360
       1     361
       1     362
       1     363
       1     364
       1     365
       1     366
       1     367
       1     368
       1     369
       1     370
       1     371
       1     372
       1     373
       1     374
       1     375
       1     376
       1     377
       1     378
       1     379
       1     380
       1     381
       1     382
       1     383
       1     384
       1     385
       1     386
       1     387
       1     388
       1     389
       1     390
       1     391
       1     392
       1     393
       1     394
       1     395
       1     396
       1     397
       1     398
       1     399
       1     400
       1     401
       1     402
       1     403
       1     404
       1     405
       1     406
       1     407
       1     408
       1     409
       1     410
       1     411
       1     412
       1     413
       1     414
       1     415
       1     416
       1     417
       1     418
       1     419
       1     420
       1     421
       1     422
       1     423
       1     424
       1     425
       1     426
       1     427
       1     428
       1     429
       1     430
       1     431
       1     432
       1     433
       1     434
       1     435
       1     436
       1     437
       1     438
       1     439
       1     440
       1     441
       1     442
       1     443
       1     444
       1     445
       1     446
       1     447
       1     448
       1     449
       1     450
       1     451
       1     452
       1     453
       1     454
       1     455
       1     456
       1     457
       1     458
       1     459
       1     460
       1     461
       1     462
       1     463
       1     464
       1     465
       1     466
       1     467
       1     468
       1     469
       1     470
       1     471
       1     472
       1     473
       1     474
       1     475
       1     476
       1     477
       1     478
       1     479
       1     480
       1     481
       1     482
       1     483
       1     484
       1     485
       1     486
       1     487
       1     488
       1     489
       1     490
       1     491
       1     492
       1     493
       1     494
       1     495
       1     496
       1     497
       1     498
       1     499
       1     500
       1     501
       1     502
       1     503
       1     504
       1     505
       1     506
       1     507
       1     508
       1     509
       1     510
       1     511
       1     512
       1     513
       1     514
       1     515
       1     516
       1     517
       1     518
       1     519
       1     520
       1     521
       1     522
       1     523
       1     524
       1     525
       1     526
       1     527
       1     528
       1     529
       1     530
       1     531
       1     532
       1     533
       1     534
       1     535
       1     536
       1     537
       1     538
       1     539
       1     540
       1     541
       1     542
       1     543
       1     544
       1     545
       1     546
       1     547
       1     548
       1     549
       1     550
       1     551
       1     552
       1     553
       1     554
       1     555
       1     556
       1     557
       1     558
       1     559
       1     560
       1     561
       1     562
       1     563
       1     564
       1     565
       1     566
       1     567
       1     568
       1     569
       1     570
       1     571
       1     572
       1     573
       1     574
       1     575
       1     576
       1     577
       1     578
       1     579
       1     580
       1     581
       1     582
       1     583
       1     584
       1     585
       1     586
       1     587
       1     588
       1     589
       1     590
       1     591
       1     592
       1     593
       1     594
       1     595
       1     596
       1     597
       1     598
       1     599
       1     600
       1     601
       1     602
       1     603
       1     604
       1     605
       1     606
       1     607
       1     608
       1     609
       1     610
       1     611
       1     612
       1     613
       1     614
       1     615
       1     616
       1     617
       1     618
       1     619
       1     620
       1     621
       1     622
       1     623
       1     624
       1     625
       1     626
       1     627
       1     628
       1     629
       1     630
       1     631
       1     632
       1     633
       1     634
       1     635
       1     636
       1     637
       1     638
       1     639
       1     640
       1     641
       1     642
       1     643
       1     644
       1     645
       1     646
       1     647
       1     648
       1     649
       1     650
       1     651
       1     652
       1     653
       1     654
       1     655
       1     656
       1     657
       1     658
       1     659
       1     660
       1     661
       1     662
       1     663
       1     664
       1     665
       1     666
       1     667
       1     668
       1     669
       1     670
       1     671
       1     672
       1     673
       1     674
       1     675
       1     676
       1     677
       1     678
       1     679
       1     680
       1     681
       1     682
       1     683
       1     684
       1     685
       1     686
       1     687
       1     688
       1     689
       1     690
       1     691
       1     692
       1     693
       1     694
       1     695
       1     696
       1     697
       1     698
       1     699
       1     700
       1     701
       1     702
       1     703
       1     704
       1     705
       1     706
       1     707
       1     708
       1     709
       1     710
       1     711
       1     712
       1     713
       1     714
       1     715
       1     716
       1     717
       1     718
       1     719
       1     720
       1     721
       1     722
       1     723
       1     724
       1     725
       1     726
       1     727
       1     728
       1     729
       1     730
       1     731
       1     732
       1     733
       1     734
       1     735
       1     736
       1     737
       1     738
       1     739
       1     740
       1     741
       1     742
       1     743
       1     744
       1     745
       1     746
       1     747
       1     748
       1     749
       1     750
       1     751
       1     752
       1     753
       1     754
       1     755
       1     756
       1     757
       1     758
       1     759
       1     760
       1     761
       1     762
       1     763
       1     764
       1     765
       1     766
       1     767
       1     768
       1     769
       1     770
       1     771
       1     772
       1     773
       1     774
       1     775
       1     776
       1     777
       1     778
       1     779
       1     780
       1     781
       1     782
       1     783
       1     784
       1     785
       1     786
       1     787
       1     788
       1     789
       1     790
       1     791
       1     792
       1     793
       1     794
       1     795
       1     796
       1     797
       1     798
       1     799
       1     800
       1     801
       1     802
       1     803
       1     804
       1     805
       1     806
       1     807
       1     808
       1     809
       1     810
       1     811
       1     812
       1     813
       1     814
       1     815
       1     816
       1     817
       1     818
       1     819
       1     820
       1     821
       1     822
       1     823
       1     824
       1     825
       1     826
       1     827
       1     828
       1     829
       1     830
       1     831
       1     832
       1     833
       1     834
       1     835
       1     836
       1     837
       1     838
       1     839
       1     840
       1     841
       1     842
       1     843
       1     844
       1     845
       1     846
       1     847
       1     848
       1     849
       1     850
       1     851
       1     852
       1     853
       1     854
       1     855
       1     856
       1     857
       1     858
       1     859
       1     860
       1     861
       1     862
       1     863
       1     864
       1     865
       1     866
       1     867
       1     868
       1     869
       1     870
       1     871
       1     872
       1     873
       1     874
       1     875
       1     876
       1     877
       1     878
       1     879
       1     880
       1     881
       1     882
       1     883
       1     884
       1     885
       1     886
       1     887
       1     888
       1     889
       1     890
       1     891
       1     892
       1     893
       1     894
       1     895
       1     896
       1     897
       1     898
       1     899
       1     900
       1     901
       1     902
       1     903
       1     904
       1     905
       1     906
       1     907
       1     908
       1     909
       1     910
       1     911
       1     912
       1     913
       1     914
       1     915
       1     916
       1     917
       1     918
       1     919
       1     920
       1     921
       1     922
       1     923
       1     924
       1     925
       1     926
       1     927
       1     928
       1     929
       1     930
       1     931
       1     932
       1     933
       1     934
       1     935
       1     936
       1     937
       1     938
       1     939
       1     940
       1     941
       1     942
       1     943
       1     944
       1     945
       1     946
       1     947
       1     948
       1     949
       1     950
       1     951
       1     952
       1     953
       1     954
       1     955
       1     956
       1     957
       1     958
       1     959
       1     960
       1     961
       1     962
       1     963
       1     964
       1     965
       1     966
       1     967
       1     968
       1     969
       1     970
       1     971
       1     972
       1     973
       1     974
       1     975
       1     976
       1     977
       1     978
       1     979
       1     980
       1     981
       1     982
       1     983
       1     984
       1     985
       1     986
       1     987
       1     988
       1     989
       1     990
       1     991
       1     992
       1     993
       1     994
       1     995
       1     996
       1     997
       1     998
       1     999
       1    1000
       1    1001
       1    1002
       1    1003
       1    1004
       1    1005
       1    1006
       1    1007
       1    1008
       1    1009
       1    1010
       1    1011
       1    1012
       1    1013
       1    1014
       1    1015
       1    1016
       1    1017
       1    1018
       1    1019
       1    1020
       1    1021
       1    1022
       1    1023
       1    1024
       1    1025
       1    1026
       1    1027
       1    1028
       1    1029
       1    1030
       1    1031
       1    1032
       1    1033
       1    1034
       1    1035
       1    1036
       1    1037
       1    1038
       1    1039
       1    1040
       1    1041
       1    1042
       1    1043
       1    1044
       1    1045
       1    1046
       1    1047
       1    1048
       1    1049
       1    1050
       1    1051
       1    1052
       1    1053
       1    1054
       1    1055
       1    1056
       1    1057
       1    1058
       1    1059
       1    1060
       1    1061
       1    1062
       1    1063
       1    1064
       1    1065
       1    1066
       1    1067
       1    1068
       1    1069
       1    1070
       1    1071
       1    1072
       1    1073
       1    1074
       1    1075
       1    1076
       1    1077
       1    1078
       1    1079
       1    1080
       1    1081
       1    1082
       1    1083
       1    1084
       1    1085
       1    1086
       1    1087
       1    1088
       1    1089
       1    1090
       1    1091
       1    1092
       1    1093
       1    1094
       1    1095
       1    1096
       1    1097
       1    1098
       1    1099
       1    1100
       1    1101
       1    1102
       1    1103
       1    1104
       1    1105
       1    1106
       1    1107
       1    1108
       1    1109
       1    1110
       1    1111
       1    1112
       1    1113
       1    1114
       1    1115
       1    1116
       1    1117
       1    1118
       1    1119
       1    1120
       1    1121
       1    1122
       1    1123
       1    1124
       1    1125
       1    1126
       1    1127
       1    1128
       1    1129
       1    1130
       1    1131
       1    1132
       1    1133
       1    1134
       1    1135
       1    1136
       1    1137
       1    1138
       1    1139
       1    1140
       1    1141
       1    1142
       1    1143
       1    1144
       1    1145
       1    1146
       1    1147
       1    1148
       1    1149
       1    1150
       1    1151
       1    1152
       1    1153
       1    1154
       1    1155
       1    1156
       1    1157
       1    1158
       1    1159
       1    1160
       1    1161
       1    1162
       1    1163
       1    1164
       1    1165
       1    1166
       1    1167
       1    1168
       1    1169
       1    1170
       1    1171
       1    1172
       1    1173
       1    1174
       1    1175
       1    1176
       1    1177
       1    1178
       1    1179
       1    1180
       1    1181
       1    1182
       1    1183
       1    1184
       1    1185
       1    1186
       1    1187
       1    1188
       1    1189
       1    1190
       1    1191
       1    1192
       1    1193
       1    1194
       1    1195
       1    1196
       1    1197
       1    1198
       1    1199
       1    1200
       1    1201
       1    1202
       1    1203
       1    1204
       1    1205
       1    1206
       1    1207
       1    1208
       1    1209
       1    1210
       1    1211
       1    1212
       1    1213
       1    1214
       1    1215
       1    1216
       1    1217
       1    1218
       1    1219
       1    1220
       1    1221
       1    1222
       1    1223
       1    1224
       1    1225
       1    1226
       1    1227
       1    1228
       1    1229
       1    1230
       1    1231
       1    1232
       1    1233
       1    1234
       1    1235
       1    1236
       1    1237
       1    1238
       1    1239
       1    1240
       1    1241
       1    1242
       1    1243
       1    1244
       1    1245
       1    1246
       1    1247
       1    1248
       1    1249
       1    1250
       1    1251
       1    1252
       1    1253
       1    1254
       1    1255
       1    1256
       1    1257
       1    1258
       1    1259
       1    1260
       1    1261
       1    1262
       1    1263
       1    1264
       1    1265
       1    1266
       1    1267
       1    1268
       1    1269
       1    1270
       1    1271
       1    1272
       1    1273
       1    1274
       1    1275
       1    1276
       1    1277
       1    1278
       1    1279
       1    1280
       1    1281
       1    1282
       1    1283
       1    1284
       1    1285
       1    1286
       1    1287
       1    1288
       1    1289
       1    1290
       1    1291
       1    1292
       1    1293
       1    1294
       1    1295
       1    1296
       1    1297
       1    1298
       1    1299
       1    1300
       1    1301
       1    1302
       1    1303
       1    1304
       1    1305
       1    1306
       1    1307
       1    1308
       1    1309
       1    1310
       1    1311
       1    1312
       1    1313
       1    1314
       1    1315
       1    1316
       1    1317
       1    1318
       1    1319
       1    1320
       1    1321
       1    1322
       1    1323
       1    1324
       1    1325
       1    1326
       1    1327
       1    1328
       1    1329
       1    1330
       1    1331
       1    1332
       1    1333
       1    1334
       1    1335
       1    1336
       1    1337
       1    1338
       1    1339
       1    1340
       1    1341
       1    1342
       1    1343
       1    1344
       1    1345
       1    1346
       1    1347
       1    1348
       1    1349
       1    1350
       1    1351
       1    1352
       1    1353
       1    1354
       1    1355
       1    1356
       1    1357
       1    1358
       1    1359
       1    1360
       1    1361
       1    1362
       1    1363
       1    1364
       1    1365
       1    1366
       1    1367
       1    1368
       1    1369
       1    1370
       1    1371
       1    1372
       1    1373
       1    1374
       1    1375
       1    1376
       1    1377
       1    1378
       1    1379
       1    1380
       1    1381
       1    1382
       1    1383
       1    1384
       1    1385
       1    1386
       1    1387
       1    1388
       1    1389
       1    1390
       1    1391
       1    1392
       1    1393
       1    1394
       1    1395
       1    1396
       1    1397
       1    1398
       1    1399
       1    1400
       1    1401
       1    1402
       1    1403
       1    1404
       1    1405
       1    1406
       1    1407
       1    1408
       1    1409
       1    1410
       1    1411
       1    1412
       1    1413
       1    1414
       1    1415
       1    1416
       1    1417
       1    1418
       1    1419
       1    1420
       1    1421
       1    1422
       1    1423
       1    1424
       1    1425
       1    1426
       1    1427
       1    1428
       1    1429
       1    1430
       1    1431
       1    1432
       1    1433
       1    1434
       1    1435
       1    1436
       1    1437
       1    1438
       1    1439
       1    1440
       1    1441
       1    1442
       1    1443
       1    1444
       1    1445
       1    1446
       1    1447
       1    1448
       1    1449
       1    1450
       1    1451
       1    1452
       1    1453
       1    1454
       1    1455
       1    1456
       1    1457
       1    1458
       1    1459
       1    1460
       1    1461
       1    1462
       1    1463
       1    1464
       1    1465
       1    1466
       1    1467
       1    1468
       1    1469
       1    1470
       1    1471
       1    1472
       1    1473
       1    1474
       1    1475
       1    1476
       1    1477
       1    1478
       1    1479
       1    1480
       1    1481
       1    1482
       1    1483
       1    1484
       1    1485
       1    1486
       1    1487
       1    1488
       1    1489
       1    1490
       1    1491
       1    1492
       1    1493
       1    1494
       1    1495
       1    1496
       1    1497
       1    1498
       1    1499
       1    1500
       1    1501
       1    1502
       1    1503
       1    1504
       1    1505
       1    1506
       1    1507
       1    1508
       1    1509
       1    1510
       1    1511
       1    1512
       1    1513
       1    1514
       1    1515
       1    1516
       1    1517
       1    1518
       1    1519
       1    1520
       1    1521
       1    1522
       1    1523
       1    1524
       1    1525
       1    1526
       1    1527
       1    1528
       1    1529
       1    1530
       1    1531
       1    1532
       1    1533
       1    1534
       1    1535
       1    1536
       1    1537
       1    1538
       1    1539
       1    1540
       1    1541
       1    1542
       1    1543
       1    1544
       1    1545
       1    1546
       1    1547
       1    1548
       1    1549
       1    1550
       1    1551
       1    1552
       1    1553
       1    1554
       1    1555
       1    1556
       1    1557
       1    1558
       1    1559
       1    1560
       1    1561
       1    1562
       1    1563
       1    1564
       1    1565
       1    1566
       1    1567
       1    1568
       1    1569
       1    1570
       1    1571
       1    1572
       1    1573
       1    1574
       1    1575
       1    1576
       1    1577
       1    1578
       1    1579
       1    1580
       1    1581
       1    1582
       1    1583
       1    1584
       1    1585
       1    1586
       1    1587
       1    1588
       1    1589
       1    1590
       1    1591
       1    1592
       1    1593
       1    1594
       1    1595
       1    1596
       1    1597
       1    1598
       1    1599
       1    1600
       1    1601
       1    1602
       1    1603
       1    1604
       1    1605
       1    1606
       1    1607
       1    1608
       1    1609
       1    1610
       1    1611
       1    1612
       1    1613
       1    1614
       1    1615
       1    1616
       1    1617
       1    1618
       1    1619
       1    1620
       1    1621
       1    1622
       1    1623
       1    1624
       1    1625
       1    1626
       1    1627
       1    1628
       1    1629
       1    1630
       1    1631
       1    1632
       1    1633
       1    1634
       1    1635
       1    1636
       1    1637
       1    1638
       1    1639
       1    1640
       1    1641
       1    1642
       1    1643
       1    1644
       1    1645
       1    1646
       1    1647
       1    1648
       1    1649
       1    1650
       1    1651
       1    1652
       1    1653
       1    1654
       1    1655
       1    1656
       1    1657
       1    1658
       1    1659
       1    1660
       1    1661
       1    1662
       1    1663
       1    1664
       1    1665
       1    1666
       1    1667
       1    1668
       1    1669
       1    1670
       1    1671
       1    1672
       1    1673
       1    1674
       1    1675
       1    1676
       1    1677
       1    1678
       1    1679
       1    1680
       1    1681
       1    1682
       1    1683
       1    1684
       1    1685
       1    1686
       1    1687
       1    1688
       1    1689
       1    1690
       1    1691
       1    1692
       1    1693
       1    1694
       1    1695
       1    1696
       1    1697
       1    1698
       1    1699
       1    1700
       1    1701
       1    1702
       1    1703
       1    1704
       1    1705
       1    1706
       1    1707
       1    1708
       1    1709
       1    1710
       1    1711
       1    1712
       1    1713
       1    1714
       1    1715
       1    1716
       1    1717
       1    1718
       1    1719
       1    1720
       1    1721
       1    1722
       1    1723
       1    1724
       1    1725
       1    1726
       1    1727
       1    1728
       1    1729
       1    1730
       1    1731
       1    1732
       1    1733
       1    1734
       1    1735
       1    1736
       1    1737
       1    1738
       1    1739
       1    1740
       1    1741
       1    1742
       1    1743
       1    1744
       1    1745
       1    1746
       1    1747
       1    1748
       1    1749
       1    1750
       1    1751
       1    1752
       1    1753
       1    1754
       1    1755
       1    1756
       1    1757
       1    1758
       1    1759
       1    1760
       1    1761
       1    1762
       1    1763
       1    1764
       1    1765
       1    1766
       1    1767
       1    1768
       1    1769
       1    1770
       1    1771
       1    1772
       1    1773
       1    1774
       1    1775
       1    1776
       1    1777
       1    1778
       1    1779
       1    1780
       1    1781
       1    1782
       1    1783
       1    1784
       1    1785
       1    1786
       1    1787
       1    1788
       1    1789
       1    1790
       1    1791
       1    1792
       1    1793
       1    1794
       1    1795
       1    1796
       1    1797
       1    1798
       1    1799
       1    1800
       1    1801
       1    1802
       1    1803
       1    1804
       1    1805
       1    1806
       1    1807
       1    1808
       1    1809
       1    1810
       1    1811
       1    1812
       1    1813
       1    1814
       1    1815
       1    1816
       1    1817
       1    1818
       1    1819
       1    1820
       1    1821
       1    1822
       1    1823
       1    1824
       1    1825
       1    1826
       1    1827
       1    1828
       1    1829
       1    1830
       1    1831
       1    1832
       1    1833
       1    1834
       1    1835
       1    1836
       1    1837
       1    1838
       1    1839
       1    1840
       1    1841
       1    1842
       1    1843
       1    1844
       1    1845
       1    1846
       1    1847
       1    1848
       1    1849
       1    1850
       1    1851
       1    1852
       1    1853
       1    1854
       1    1855
       1    1856
       1    1857
       1    1858
       1    1859
       1    1860
       1    1861
       1    1862
       1    1863
       1    1864
       1    1865
       1    1866
       1    1867
       1    1868
       1    1869
       1    1870
       1    1871
       1    1872
       1    1873
       1    1874
       1    1875
       1    1876
       1    1877
       1    1878
       1    1879
       1    1880
       1    1881
       1    1882
       1    1883
       1    1884
       1    1885
       1    1886
       1    1887
       1    1888
       1    1889
       1    1890
       1    1891
       1    1892
       1    1893
       1    1894
       1    1895
       1    1896
       1    1897
       1    1898
       1    1899
       1    1900
       1    1901
       1    1902
       1    1903
       1    1904
       1    1905
       1    1906
       1    1907
       1    1908
       1    1909
       1    1910
       1    1911
       1    1912
       1    1913
       1    1914
       1    1915
       1    1916
       1    1917
       1    1918
       1    1919
       1    1920
       1    1921
       1    1922
       1    1923
       1    1924
       1    1925
       1    1926
       1    1927
       1    1928
       1    1929
       1    1930
       1    1931
       1    1932
       1    1933
       1    1934
       1    1935
       1    1936
       1    1937
       1    1938
       1    1939
       1    1940
       1    1941
       1    1942
       1    1943
       1    1944
       1    1945
       1    1946
       1    1947
       1    1948
       1    1949
       8       0       1       2       3       4       5       6       7
       8       2       8       9       3       6      10      11       7
       8      12       1       0      13      14       5       4      15
       8       0      16      17      13       4      18      19      15
       8      20      21      22      12      23      24      25      14
       8      26      27      21      20      28      29      24      23
       8      13      26      20      12      15      28      23      14
       8      30      31      16      32      33      34      18      35
       8      36      37      31      30      38      39      34      33
       8      40      41      37      36      42      43      39      38
       8      44      40      36      45      46      42      38      47
       8      48      17      16      31      49      19      18      34
       8      30      50      45      36      33      51      47      38
       8       0       3      32      16       4       7      35      18
       8      52      26      13      17      53      28      15      19
       8      54      52      17      48      55      53      19      49
       8      56      54      48      57      58      55      49      59
       8      37      57      48      31      39      59      49      34
       8      60      61      50      30      62      63      51      33
       8      64      60      30      32      65      62      33      35
       8      66      64      32       3      67      65      35       7
       8      68       8       2      69      70      10       6      71
       8      72      69       2       1      73      71       6       5
       8      22      72       1      12      25      73       5      14
       8      74      27      26      52      75      29      28      53
       8      76      74      52      54      77      75      53      55
       8      78      76      54      56      79      77      55      58
       8      80      78      56      81      82      79      58      83
       8      84      81      56      57      85      83      58      59
       8      41      84      57      37      43      85      59      39
       8      86      44      45      50      87      46      47      51
       8      88      86      50      61      89      87      51      63
       8      90      88      61      91      92      89      63      93
       8      94      91      61      60      95      93      63      62
       8      96      94      60      64      97      95      62      65
       8      98      96      64      66      99      97      65      67
       8     100      98      66     101     102      99      67     103
       8       9     101      66       3      11     103      67       7
       8     104     105       8      68     106     107      10      70
       8     108     104      68      69     109     106      70      71
       8     110     108      69      72     111     109      71      73
       8     112     110      72      22     113     111      73      25
       8     114     112      22      21     115     113      25      24
       8     116     114      21      27     117     115      24      29
       8     118     116      27      74     119     117      29      75
       8     120     118      74      76     121     119      75      77
       8     122     120      76      78     123     121      77      79
       8     124     122      78      80     125     123      79      82
       8     126     124      80      81     127     125      82      83
       8     128     126      81      84     129     127      83      85
       8     130     128      84      41     131     129      85      43
       8     132     130      41      40     133     131      43      42
       8     134     132      40      44     135     133      42      46
       8     136     134      44      86     137     135      46      87
       8     138     136      86      88     139     137      87      89
       8     140     138      88      90     141     139      89      92
       8     142     140      90      91     143     141      92      93
       8     144     142      91      94     145     143      93      95
       8     146     144      94      96     147     145      95      97
       8     148     146      96      98     149     147      97      99
       8     150     148      98     100     151     149      99     102
       8     152     150     100     101     153     151     102     103
       8     154     152     101       9     155     153     103      11
       8     105     154       9       8     107     155      11      10
       8     156     157     158     159       0       1       2       3
       8     158     160     161     159       2       8       9       3
       8     162     157     156     163      12       1       0      13
       8     156     164     165     163       0      16      17      13
       8     166     167     168     162      20      21      22      12
       8     169     170     167     166      26      27      21      20
       8     163     169     166     162      13      26      20      12
       8     171     172     164     173      30      31      16      32
       8     174     175     172     171      36      37      31      30
       8     176     177     175     174      40      41      37      36
       8     178     176     174     179      44      40      36      45
       8     180     165     164     172      48      17      16      31
       8     171     181     179     174      30      50      45      36
       8     156     159     173     164       0       3      32      16
       8     182     169     163     165      52      26      13      17
       8     183     182     165     180      54      52      17      48
       8     184     183     180     185      56      54      48      57
       8     175     185     180     172      37      57      48      31
       8     186     187     181     171      60      61      50      30
       8     188     186     171     173      64      60      30      32
       8     189     188     173     159      66      64      32       3
       8     190     160     158     191      68       8       2      69
       8     192     191     158     157      72      69       2       1
       8     168     192     157     162      22      72       1      12
       8     193     170     169     182      74      27      26      52
       8     194     193     182     183      76      74      52      54
       8     195     194     183     184      78      76      54      56
       8     196     195     184     197      80      78      56      81
       8     198     197     184     185      84      81      56      57
       8     177     198     185     175      41      84      57      37
       8     199     178     179     181      86      44      45      50
       8     200     199     181     187      88      86      50      61
       8     201     200     187     202      90      88      61      91
       8     203     202     187     186      94      91      61      60
       8     204     203     186     188      96      94      60      64
       8     205     204     188     189      98      96      64      66
       8     206     205     189     207     100      98      66     101
       8     161     207     189     159       9     101      66       3
       8     208     209     160     190     104     105       8      68
       8     210     208     190     191     108     104      68      69
       8     211     210     191     192     110     108      69      72
       8     212     211     192     168     112     110      72      22
       8     213     212     168     167     114     112      22      21
       8     214     213     167     170     116     114      21      27
       8     215     214     170     193     118     116      27      74
       8     216     215     193     194     120     118      74      76
       8     217     216     194     195     122     120      76      78
       8     218     217     195     196     124     122      78      80
       8     219     218     196     197     126     124      80      81
       8     220     219     197     198     128     126      81      84
       8     221     220     198     177     130     128      84      41
       8     222     221     177     176     132     130      41      40
       8     223     222     176     178     134     132      40      44
       8     224     223     178     199     136     134      44      86
       8     225     224     199     200     138     136      86      88
       8     226     225     200     201     140     138      88      90
       8     227     226     201     202     142     140      90      91
       8     228     227     202     203     144     142      91      94
       8     229     228     203     204     146     144      94      96
       8     230     229     204     205     148     146      96      98
       8     231     230     205     206     150     148      98     100
       8     232     231     206     207     152     150     100     101
       8     233     232     207     161     154     152     101       9
       8     209     233     161     160     105     154       9       8
       8     234     235     236     237     156     157     158     159
       8     236     238     239     237     158     160     161     159
       8     240     235     234     241     162     157     156     163
       8     234     242     243     241     156     164     165     163
       8     244     245     246     240     166     167     168     162
       8     247     248     245     244     169     170     167     166
       8     241     247     244     240     163     169     166     162
       8     249     250     242     251     171     172     164     173
       8     252     253     250     249     174     175     172     171
       8     254     255     253     252     176     177     175     174
       8     256     254     252     257     178     176     174     179
       8     258     243     242     250     180     165     164     172
       8     249     259     257     252     171     181     179     174
       8     234     237     251     242     156     159     173     164
       8     260     247     241     243     182     169     163     165
       8     261     260     243     258     183     182     165     180
       8     262     261     258     263     184     183     180     185
       8     253     263     258     250     175     185     180     172
       8     264     265     259     249     186     187     181     171
       8     266     264     249     251     188     186     171     173
       8     267     266     251     237     189     188     173     159
       8     268     238     236     269     190     160     158     191
       8     270     269     236     235     192     191     158     157
       8     246     270     235     240     168     192     157     162
       8     271     248     247     260     193     170     169     182
       8     272     271     260     261     194     193     182     183
       8     273     272     261     262     195     194     183     184
       8     274     273     262     275     196     195     184     197
       8     276     275     262     263     198     197     184     185
       8     255     276     263     253     177     198     185     175
       8     277     256     257     259     199     178     179     181
       8     278     277     259     265     200     199     181     187
       8     279     278     265     280     201     200     187     202
       8     281     280     265     264     203     202     187     186
       8     282     281     264     266     204     203     186     188
       8     283     282     266     267     205     204     188     189
       8     284     283     267     285     206     205     189     207
       8     239     285     267     237     161     207     189     159
       8     286     287     238     268     208     209     160     190
       8     288     286     268     269     210     208     190     191
       8     289     288     269     270     211     210     191     192
       8     290     289     270     246     212     211     192     168
       8     291     290     246     245     213     212     168     167
       8     292     291     245     248     214     213     167     170
       8     293     292     248     271     215     214     170     193
       8     294     293     271     272     216     215     193     194
       8     295     294     272     273     217     216     194     195
       8     296     295     273     274     218     217     195     196
       8     297     296     274     275     219     218     196     197
       8     298     297     275     276     220     219     197     198
       8     299     298     276     255     221     220     198     177
       8     300     299     255     254     222     221     177     176
       8     301     300     254     256     223     222     176     178
       8     302     301     256     277     224     223     178     199
       8     303     302     277     278     225     224     199     200
       8     304     303     278     279     226     225     200     201
       8     305     304     279     280     227     226     201     202
       8     306     305     280     281     228     227     202     203
       8     307     306     281     282     229     228     203     204
       8     308     307     282     283     230     229     204     205
       8     309     308     283     284     231     230     205     206
       8     310     309     284     285     232     231     206     207
       8     311     310     285     239     233     232     207     161
       8     287     311     239     238     209     233     161     160
       8     312     313     314     315     234     235     236     237
       8     314     316     317     315     236     238     239     237
       8     318     313     312     319     240     235     234     241
       8     312     320     321     319     234     242     243     241
       8     322     323     324     318     244     245     246     240
       8     325     326     323     322     247     248     245     244
       8     319     325     322     318     241     247     244     240
       8     327     328     320     329     249     250     242     251
       8     330     331     328     327     252     253     250     249
       8     332     333     331     330     254     255     253     252
       8     334     332     330     335     256     254     252     257
       8     336     321     320     328     258     243     242     250
       8     327     337     335     330     249     259     257     252
       8     312     315     329     320     234     237     251     242
       8     338     325     319     321     260     247     241     243
       8     339     338     321     336     261     260     243     258
       8     340     339     336     341     262     261     258     263
       8     331     341     336     328     253     263     258     250
       8     342     343     337     327     264     265     259     249
       8     344     342     327     329     266     264     249     251
       8     345     344     329     315     267     266     251     237
       8     346     316     314     347     268     238     236     269
       8     348     347     314     313     270     269     236     235
       8     324     348     313     318     246     270     235     240
       8     349     326     325     338     271     248     247     260
       8     350     349     338     339     272     271     260     261
       8     351     350     339     340     273     272     261     262
       8     352     351     340     353     274     273     262     275
       8     354     353     340     341     276     275     262     263
       8     333     354     341     331     255     276     263     253
       8     355     334     335     337     277     256     257     259
       8     356     355     337     343     278     277     259     265
       8     357     356     343     358     279     278     265     280
       8     359     358     343     342     281     280     265     264
       8     360     359     342     344     282     281     264     266
       8     361     360     344     345     283     282     266     267
       8     362     361     345     363     284     283     267     285
       8     317     363     345     315     239     285     267     237
       8     364     365     316     346     286     287     238     268
       8     366     364     346     347     288     286     268     269
       8     367     366     347     348     289     288     269     270
       8     368     367     348     324     290     289     270     246
       8     369     368     324     323     291     290     246     245
       8     370     369     323     326     292     291     245     248
       8     371     370     326     349     293     292     248     271
       8     372     371     349     350     294     293     271     272
       8     373     372     350     351     295     294     272     273
       8     374     373     351     352     296     295     273     274
       8     375     374     352     353     297     296     274     275
       8     376     375     353     354     298     297     275     276
       8     377     376     354     333     299     298     276     255
       8     378     377     333     332     300     299     255     254
       8     379     378     332     334     301     300     254     256
       8     380     379     334     355     302     301     256     277
       8     381     380     355     356     303     302     277     278
       8     382     381     356     357     304     303     278     279
       8     383     382     357     358     305     304     279     280
       8     384     383     358     359     306     305     280     281
       8     385     384     359     360     307     306     281     282
       8     386     385     360     361     308     307     282     283
       8     387     386     361     362     309     308     283     284
       8     388     387     362     363     310     309     284     285
       8     389     388     363     317     311     310     285     239
       8     365     389     317     316     287     311     239     238
       8     390     391     392     393     312     313     314     315
       8     392     394     395     393     314     316     317     315
       8     396     391     390     397     318     313     312     319
       8     390     398     399     397     312     320     321     319
       8     400     401     402     396     322     323     324     318
       8     403     404     401     400     325     326     323     322
       8     397     403     400     396     319     325     322     318
       8     405     406     398     407     327     328     320     329
       8     408     409     406     405     330     331     328     327
       8     410     411     409     408     332     333     331     330
       8     412     410     408     413     334     332     330     335
       8     414     399     398     406     336     321     320     328
       8     405     415     413     408     327     337     335     330
       8     390     393     407     398     312     315     329     320
       8     416     403     397     399     338     325     319     321
       8     417     416     399     414     339     338     321     336
       8     418     417     414     419     340     339     336     341
       8     409     419     414     406     331     341     336     328
       8     420     421     415     405     342     343     337     327
       8     422     420     405     407     344     342     327     329
       8     423     422     407     393     345     344     329     315
       8     424     394     392     425     346     316     314     347
       8     426     425     392     391     348     347     314     313
       8     402     426     391     396     324     348     313     318
       8     427     404     403     416     349     326     325     338
       8     428     427     416     417     350     349     338     339
       8     429     428     417     418     351     350     339     340
       8     430     429     418     431     352     351     340     353
       8     432     431     418     419     354     353     340     341
       8     411     432     419     409     333     354     341     331
       8     433     412     413     415     355     334     335     337
       8     434     433     415     421     356     355     337     343
       8     435     434     421     436     357     356     343     358
       8     437     436     421     420     359     358     343     342
       8     438     437     420     422     360     359     342     344
       8     439     438     422     423     361     360     344     345
       8     440     439     423     441     362     361     345     363
       8     395     441     423     393     317     363     345     315
       8     442     443     394     424     364     365     316     346
       8     444     442     424     425     366     364     346     347
       8     445     444     425     426     367     366     347     348
       8     446     445     426     402     368     367     348     324
       8     447     446     402     401     369     368     324     323
       8     448     447     401     404     370     369     323     326
       8     449     448     404     427     371     370     326     349
       8     450     449     427     428     372     371     349     350
       8     451     450     428     429     373     372     350     351
       8     452     451     429     430     374     373     351     352
       8     453     452     430     431     375     374     352     353
       8     454     453     431     432     376     375     353     354
       8     455     454     432     411     377     376     354     333
       8     456     455     411     410     378     377     333     332
       8     457     456     410     412     379     378     332     334
       8     458     457     412     433     380     379     334     355
       8     459     458     433     434     381     380     355     356
       8     460     459     434     435     382     381     356     357
       8     461     460     435     436     383     382     357     358
       8     462     461     436     437     384     383     358     359
       8     463     462     437     438     385     384     359     360
       8     464     463     438     439     386     385     360     361
       8     465     464     439     440     387     386     361     362
       8     466     465     440     441     388     387     362     363
       8     467     466     441     395     389     388     363     317
       8     443     467     395     394     365     389     317     316
       8     468     469     470     471     390     391     392     393
       8     470     472     473     471     392     394     395     393
       8     474     469     468     475     396     391     390     397
       8     468     476     477     475     390     398     399     397
       8     478     479     480     474     400     401     402     396
       8     481     482     479     478     403     404     401     400
       8     475     481     478     474     397     403     400     396
       8     483     484     476     485     405     406     398     407
       8     486     487     484     483     408     409     406     405
       8     488     489     487     486     410     411     409     408
       8     490     488     486     491     412     410     408     413
       8     492     477     476     484     414     399     398     406
       8     483     493     491     486     405     415     413     408
       8     468     471     485     476     390     393     407     398
       8     494     481     475     477     416     403     397     399
       8     495     494     477     492     417     416     399     414
       8     496     495     492     497     418     417     414     419
       8     487     497     492     484     409     419     414     406
       8     498     499     493     483     420     421     415     405
       8     500     498     483     485     422     420     405     407
       8     501     500     485     471     423     422     407     393
       8     502     472     470     503     424     394     392     425
       8     504     503     470     469     426     425     392     391
       8     480     504     469     474     402     426     391     396
       8     505     482     481     494     427     404     403     416
       8     506     505     494     495     428     427     416     417
       8     507     506     495     496     429     428     417     418
       8     508     507     496     509     430     429     418     431
       8     510     509     496     497     432     431     418     419
       8     489     510     497     487     411     432     419     409
       8     511     490     491     493     433     412     413     415
       8     512     511     493     499     434     433     415     421
       8     513     512     499     514     435     434     421     436
       8     515     514     499     498     437     436     421     420
       8     516     515     498     500     438     437     420     422
       8     517     516     500     501     439     438     422     423
       8     518     517     501     519     440     439     423     441
       8     473     519     501     471     395     441     423     393
       8     520     521     472     502     442     443     394     424
       8     522     520     502     503     444     442     424     425
       8     523     522     503     504     445     444     425     426
       8     524     523     504     480     446     445     426     402
       8     525     524     480     479     447     446     402     401
       8     526     525     479     482     448     447     401     404
       8     527     526     482     505     449     448     404     427
       8     528     527     505     506     450     449     427     428
       8     529     528     506     507     451     450     428     429
       8     530     529     507     508     452     451     429     430
       8     531     530     508     509     453     452     430     431
       8     532     531     509     510     454     453     431     432
       8     533     532     510     489     455     454     432     411
       8     534     533     489     488     456     455     411     410
       8     535     534     488     490     457     456     410     412
       8     536     535     490     511     458     457     412     433
       8     537     536     511     512     459     458     433     434
       8     538     537     512     513     460     459     434     435
       8     539     538     513     514     461     460     435     436
       8     540     539     514     515     462     461     436     437
       8     541     540     515     516     463     462     437     438
       8     542     541     516     517     464     463     438     439
       8     543     542     517     518     465     464     439     440
       8     544     543     518     519     466     465     440     441
       8     545     544     519     473     467     466     441     395
       8     521     545     473     472     443     467     395     394
       8     546     547     548     549     468     469     470     471
       8     548     550     551     549     470     472     473     471
       8     552     547     546     553     474     469     468     475
       8     546     554     555     553     468     476     477     475
       8     556     557     558     552     478     479     480     474
       8     559     560     557     556     481     482     479     478
       8     553     559     556     552     475     481     478     474
       8     561     562     554     563     483     484     476     485
       8     564     565     562     561     486     487     484     483
       8     566     567     565     564     488     489     487     486
       8     568     566     564     569     490     488     486     491
       8     570     555     554     562     492     477     476     484
       8     561     571     569     564     483     493     491     486
       8     546     549     563     554     468     471     485     476
       8     572     559     553     555     494     481     475     477
       8     573     572     555     570     495     494     477     492
       8     574     573     570     575     496     495     492     497
       8     565     575     570     562     487     497     492     484
       8     576     577     571     561     498     499     493     483
       8     578     576     561     563     500     498     483     485
       8     579     578     563     549     501     500     485     471
       8     580     550     548     581     502     472     470     503
       8     582     581     548     547     504     503     470     469
       8     558     582     547     552     480     504     469     474
       8     583     560     559     572     505     482     481     494
       8     584     583     572     573     506     505     494     495
       8     585     584     573     574     507     506     495     496
       8     586     585     574     587     508     507     496     509
       8     588     587     574     575     510     509     496     497
       8     567     588     575     565     489     510     497     487
       8     589     568     569     571     511     490     491     493
       8     590     589     571     577     512     511     493     499
       8     591     590     577     592     513     512     499     514
       8     593     592     577     576     515     514     499     498
       8     594     593     576     578     516     515     498     500
       8     595     594     578     579     517     516     500     501
       8     596     595     579     597     518     517     501     519
       8     551     597     579     549     473     519     501     471
       8     598     599     550     580     520     521     472     502
       8     600     598     580     581     522     520     502     503
       8     601     600     581     582     523     522     503     504
       8     602     601     582     558     524     523     504     480
       8     603     602     558     557     525     524     480     479
       8     604     603     557     560     526     525     479     482
       8     605     604     560     583     527     526     482     505
       8     606     605     583     584     528     527     505     506
       8     607     606     584     585     529     528     506     507
       8     608     607     585     586     530     529     507     508
       8     609     608     586     587     531     530     508     509
       8     610     609     587     588     532     531     509     510
       8     611     610     588     567     533     532     510     489
       8     612     611     567     566     534     533     489     488
       8     613     612     566     568     535     534     488     490
       8     614     613     568     589     536     535     490     511
       8     615     614     589     590     537     536     511     512
       8     616     615     590     591     538     537     512     513
       8     617     616     591     592     539     538     513     514
       8     618     617     592     593     540     539     514     515
       8     619     618     593     594     541     540     515     516
       8     620     619     594     595     542     541     516     517
       8     621     620     595     596     543     542     517     518
       8     622     621     596     597     544     543     518     519
       8     623     622     597     551     545     544     519     473
       8     599     623     551     550     521     545     473     472
       8     624     625     626     627     546     547     548     549
       8     626     628     629     627     548     550     551     549
       8     630     625     624     631     552     547     546     553
       8     624     632     633     631     546     554     555     553
       8     634     635     636     630     556     557     558     552
       8     637     638     635     634     559     560     557     556
       8     631     637     634     630     553     559     556     552
       8     639     640     632     641     561     562     554     563
       8     642     643     640     639     564     565     562     561
       8     644     645     643     642     566     567     565     564
       8     646     644     642     647     568     566     564     569
       8     648     633     632     640     570     555     554     562
       8     639     649     647     642     561     571     569     564
       8     624     627     641     632     546     549     563     554
       8     650     637     631     633     572     559     553     555
       8     651     650     633     648     573     572     555     570
       8     652     651     648     653     574     573     570     575
       8     643     653     648     640     565     575     570     562
       8     654     655     649     639     576     577     571     561
       8     656     654     639     641     578     576     561     563
       8     657     656     641     627     579     578     563     549
       8     658     628     626     659     580     550     548     581
       8     660     659     626     625     582     581     548     547
       8     636     660     625     630     558     582     547     552
       8     661     638     637     650     583     560     559     572
       8     662     661     650     651     584     583     572     573
       8     663     662     651     652     585     584     573     574
       8     664     663     652     665     586     585     574     587
       8     666     665     652     653     588     587     574     575
       8     645     666     653     643     567     588     575     565
       8     667     646     647     649     589     568     569     571
       8     668     667     649     655     590     589     571     577
       8     669     668     655     670     591     590     577     592
       8     671     670     655     654     593     592     577     576
       8     672     671     654     656     594     593     576     578
       8     673     672     656     657     595     594     578     579
       8     674     673     657     675     596     595     579     597
       8     629     675     657     627     551     597     579     549
       8     676     677     628     658     598     599     550     580
       8     678     676     658     659     600     598     580     581
       8     679     678     659     660     601     600     581     582
       8     680     679     660     636     602     601     582     558
       8     681     680     636     635     603     602     558     557
       8     682     681     635     638     604     603     557     560
       8     683     682     638     661     605     604     560     583
       8     684     683     661     662     606     605     583     584
       8     685     684     662     663     607     606     584     585
       8     686     685     663     664     608     607     585     586
       8     687     686     664     665     609     608     586     587
       8     688     687     665     666     610     609     587     588
       8     689     688     666     645     611     610     588     567
       8     690     689     645     644     612     611     567     566
       8     691     690     644     646     613     612     566     568
       8     692     691     646     667     614     613     568     589
       8     693     692     667     668     615     614     589     590
       8     694     693     668     669     616     615     590     591
       8     695     694     669     670     617     616     591     592
       8     696     695     670     671     618     617     592     593
       8     697     696     671     672     619     618     593     594
       8     698     697     672     673     620     619     594     595
       8     699     698     673     674     621     620     595     596
       8     700     699     674     675     622     621     596     597
       8     701     700     675     629     623     622     597     551
       8     677     701     629     628     599     623     551     550
       8     702     703     704     705     624     625     626     627
       8     704     706     707     705     626     628     629     627
       8     708     703     702     709     630     625     624     631
       8     702     710     711     709     624     632     633     631
       8     712     713     714     708     634     635     636     630
       8     715     716     713     712     637     638     635     634
       8     709     715     712     708     631     637     634     630
       8     717     718     710     719     639     640     632     641
       8     720     721     718     717     642     643     640     639
       8     722     723     721     720     644     645     643     642
       8     724     722     720     725     646     644     642     647
       8     726     711     710     718     648     633     632     640
       8     717     727     725     720     639     649     647     642
       8     702     705     719     710     624     627     641     632
       8     728     715     709     711     650     637     631     633
       8     729     728     711     726     651     650     633     648
       8     730     729     726     731     652     651     648     653
       8     721     731     726     718     643     653     648     640
       8     732     733     727     717     654     655     649     639
       8     734     732     717     719     656     654     639     641
       8     735     734     719     705     657     656     641     627
       8     736     706     704     737     658     628     626     659
       8     738     737     704     703     660     659     626     625
       8     714     738     703     708     636     660     625     630
       8     739     716     715     728     661     638     637     650
       8     740     739     728     729     662     661     650     651
       8     741     740     729     730     663     662     651     652
       8     742     741     730     743     664     663     652     665
       8     744     743     730     731     666     665     652     653
       8     723     744     731     721     645     666     653     643
       8     745     724     725     727     667     646     647     649
       8     746     745     727     733     668     667     649     655
       8     747     746     733     748     669     668     655     670
       8     749     748     733     732     671     670     655     654
       8     750     749     732     734     672     671     654     656
       8     751     750     734     735     673     672     656     657
       8     752     751     735     753     674     673     657     675
       8     707     753     735     705     629     675     657     627
       8     754     755     706     736     676     677     628     658
       8     756     754     736     737     678     676     658     659
       8     757     756     737     738     679     678     659     660
       8     758     757     738     714     680     679     660     636
       8     759     758     714     713     681     680     636     635
       8     760     759     713     716     682     681     635     638
       8     761     760     716     739     683     682     638     661
       8     762     761     739     740     684     683     661     662
       8     763     762     740     741     685     684     662     663
       8     764     763     741     742     686     685     663     664
       8     765     764     742     743     687     686     664     665
       8     766     765     743     744     688     687     665     666
       8     767     766     744     723     689     688     666     645
       8     768     767     723     722     690     689     645     644
       8     769     768     722     724     691     690     644     646
       8     770     769     724     745     692     691     646     667
       8     771     770     745     746     693     692     667     668
       8     772     771     746     747     694     693     668     669
       8     773     772     747     748     695     694     669     670
       8     774     773     748     749     696     695     670     671
       8     775     774     749     750     697     696     671     672
       8     776     775     750     751     698     697     672     673
       8     777     776     751     752     699     698     673     674
       8     778     777     752     753     700     699     674     675
       8     779     778     753     707     701     700     675     629
       8     755     779     707     706     677     701     629     628
       8     780     781     782     783     702     703     704     705
       8     782     784     785     783     704     706     707     705
       8     786     781     780     787     708     703     702     709
       8     780     788     789     787     702     710     711     709
       8     790     791     792     786     712     713     714     708
       8     793     794     791     790     715     716     713     712
       8     787     793     790     786     709     715     712     708
       8     795     796     788     797     717     718     710     719
       8     798     799     796     795     720     721     718     717
       8     800     801     799     798     722     723     721     720
       8     802     800     798     803     724     722     720     725
       8     804     789     788     796     726     711     710     718
       8     795     805     803     798     717     727     725     720
       8     780     783     797     788     702     705     719     710
       8     806     793     787     789     728     715     709     711
       8     807     806     789     804     729     728     711     726
       8     808     807     804     809     730     729     726     731
       8     799     809     804     796     721     731     726     718
       8     810     811     805     795     732     733     727     717
       8     812     810     795     797     734     732     717     719
       8     813     812     797     783     735     734     719     705
       8     814     784     782     815     736     706     704     737
       8     816     815     782     781     738     737     704     703
       8     792     816     781     786     714     738     703     708
       8     817     794     793     806     739     716     715     728
       8     818     817     806     807     740     739     728     729
       8     819     818     807     808     741     740     729     730
       8     820     819     808     821     742     741     730     743
       8     822     821     808     809     744     743     730     731
       8     801     822     809     799     723     744     731     721
       8     823     802     803     805     745     724     725     727
       8     824     823     805     811     746     745     727     733
       8     825     824     811     826     747     746     733     748
       8     827     826     811     810     749     748     733     732
       8     828     827     810     812     750     749     732     734
       8     829     828     812     813     751     750     734     735
       8     830     829     813     831     752     751     735     753
       8     785     831     813     783     707     753     735     705
       8     832     833     784     814     754     755     706     736
       8     834     832     814     815     756     754     736     737
       8     835     834     815     816     757     756     737     738
       8     836     835     816     792     758     757     738     714
       8     837     836     792     791     759     758     714     713
       8     838     837     791     794     760     759     713     716
       8     839     838     794     817     761     760     716     739
       8     840     839     817     818     762     761     739     740
       8     841     840     818     819     763     762     740     741
       8     842     841     819     820     764     763     741     742
       8     843     842     820     821     765     764     742     743
       8     844     843     821     822     766     765     743     744
       8     845     844     822     801     767     766     744     723
       8     846     845     801     800     768     767     723     722
       8     847     846     800     802     769     768     722     724
       8     848     847     802     823     770     769     724     745
       8     849     848     823     824     771     770     745     746
       8     850     849     824     825     772     771     746     747
       8     851     850     825     826     773     772     747     748
       8     852     851     826     827     774     773     748     749
       8     853     852     827     828     775     774     749     750
       8     854     853     828     829     776     775     750     751
       8     855     854     829     830     777     776     751     752
       8     856     855     830     831     778     777     752     753
       8     857     856     831     785     779     778     753     707
       8     833     857     785     784     755     779     707     706
       8     858     859     860     861     780     781     782     783
       8     860     862     863     861     782     784     785     783
       8     864     859     858     865     786     781     780     787
       8     858     866     867     865     780     788     789     787
       8     868     869     870     864     790     791     792     786
       8     871     872     869     868     793     794     791     790
       8     865     871     868     864     787     793     790     786
       8     873     874     866     875     795     796     788     797
       8     876     877     874     873     798     799     796     795
       8     878     879     877     876     800     801     799     798
       8     880     878     876     881     802     800     798     803
       8     882     867     866     874     804     789     788     796
       8     873     883     881     876     795     805     803     798
       8     858     861     875     866     780     783     797     788
       8     884     871     865     867     806     793     787     789
       8     885     884     867     882     807     806     789     804
       8     886     885     882     887     808     807     804     809
       8     877     887     882     874     799     809     804     796
       8     888     889     883     873     810     811     805     795
       8     890     888     873     875     812     810     795     797
       8     891     890     875     861     813     812     797     783
       8     892     862     860     893     814     784     782     815
       8     894     893     860     859     816     815     782     781
       8     870     894     859     864     792     816     781     786
       8     895     872     871     884     817     794     793     806
       8     896     895     884     885     818     817     806     807
       8     897     896     885     886     819     818     807     808
       8     898     897     886     899     820     819     808     821
       8     900     899     886     887     822     821     808     809
       8     879     900     887     877     801     822     809     799
       8     901     880     881     883     823     802     803     805
       8     902     901     883     889     824     823     805     811
       8     903     902     889     904     825     824     811     826
       8     905     904     889     888     827     826     811     810
       8     906     905     888     890     828     827     810     812
       8     907     906     890     891     829     828     812     813
       8     908     907     891     909     830     829     813     831
       8     863     909     891     861     785     831     813     783
       8     910     911     862     892     832     833     784     814
       8     912     910     892     893     834     832     814     815
       8     913     912     893     894     835     834     815     816
       8     914     913     894     870     836     835     816     792
       8     915     914     870     869     837     836     792     791
       8     916     915     869     872     838     837     791     794
       8     917     916     872     895     839     838     794     817
       8     918     917     895     896     840     839     817     818
       8     919     918     896     897     841     840     818     819
       8     920     919     897     898     842     841     819     820
       8     921     920     898     899     843     842     820     821
       8     922     921     899     900     844     843     821     822
       8     923     922     900     879     845     844     822     801
       8     924     923     879     878     846     845     801     800
       8     925     924     878     880     847     846     800     802
       8     926     925     880     901     848     847     802     823
       8     927     926     901     902     849     848     823     824
       8     928     927     902     903     850     849     824     825
       8     929     928     903     904     851     850     825     826
       8     930     929     904     905     852     851     826     827
       8     931     930     905     906     853     852     827     828
       8     932     931     906     907     854     853     828     829
       8     933     932     907     908     855     854     829     830
       8     934     933     908     909     856     855     830     831
       8     935     934     909     863     857     856     831     785
       8     911     935     863     862     833     857     785     784
       8     936     937     938     939     858     859     860     861
       8     938     940     941     939     860     862     863     861
       8     942     937     936     943     864     859     858     865
       8     936     944     945     943     858     866     867     865
       8     946     947     948     942     868     869     870     864
       8     949     950     947     946     871     872     869     868
       8     943     949     946     942     865     871     868     864
       8     951     952     944     953     873     874     866     875
       8     954     955     952     951     876     877     874     873
       8     956     957     955     954     878     879     877     876
       8     958     956     954     959     880     878     876     881
       8     960     945     944     952     882     867     866     874
       8     951     961     959     954     873     883     881     876
       8     936     939     953     944     858     861     875     866
       8     962     949     943     945     884     871     865     867
       8     963     962     945     960     885     884     867     882
       8     964     963     960     965     886     885     882     887
       8     955     965     960     952     877     887     882     874
       8     966     967     961     951     888     889     883     873
       8     968     966     951     953     890     888     873     875
       8     969     968     953     939     891     890     875     861
       8     970     940     938     971     892     862     860     893
       8     972     971     938     937     894     893     860     859
       8     948     972     937     942     870     894     859     864
       8     973     950     949     962     895     872     871     884
       8     974     973     962     963     896     895     884     885
       8     975     974     963     964     897     896     885     886
       8     976     975     964     977     898     897     886     899
       8     978     977     964     965     900     899     886     887
       8     957     978     965     955     879     900     887     877
       8     979     958     959     961     901     880     881     883
       8     980     979     961     967     902     901     883     889
       8     981     980     967     982     903     902     889     904
       8     983     982     967     966     905     904     889     888
       8     984     983     966     968     906     905     888     890
       8     985     984     968     969     907     906     890     891
       8     986     985     969     987     908     907     891     909
       8     941     987     969     939     863     909     891     861
       8     988     989     940     970     910     911     862     892
       8     990     988     970     971     912     910     892     893
       8     991     990     971     972     913     912     893     894
       8     992     991     972     948     914     913     894     870
       8     993     992     948     947     915     914     870     869
       8     994     993     947     950     916     915     869     872
       8     995     994     950     973     917     916     872     895
       8     996     995     973     974     918     917     895     896
       8     997     996     974     975     919     918     896     897
       8     998     997     975     976     920     919     897     898
       8     999     998     976     977     921     920     898     899
       8    1000     999     977     978     922     921     899     900
       8    1001    1000     978     957     923     922     900     879
       8    1002    1001     957     956     924     923     879     878
       8    1003    1002     956     958     925     924     878     880
       8    1004    1003     958     979     926     925     880     901
       8    1005    1004     979     980     927     926     901     902
       8    1006    1005     980     981     928     927     902     903
       8    1007    1006     981     982     929     928     903     904
       8    1008    1007     982     983     930     929     904     905
       8    1009    1008     983     984     931     930     905     906
       8    1010    1009     984     985     932     931     906     907
       8    1011    1010     985     986     933     932     907     908
       8    1012    1011     986     987     934     933     908     909
       8    1013    1012     987     941     935     934     909     863
       8     989    1013     941     940     911     935     863     862
       8    1014    1015    1016    1017     936     937     938     939
       8    1016    1018    1019    1017     938     940     941     939
       8    1020    1015    1014    1021     942     937     936     943
       8    1014    1022    1023    1021     936     944     945     943
       8    1024    1025    1026    1020     946     947     948     942
       8    1027    1028    1025    1024     949     950     947     946
       8    1021    1027    1024    1020     943     949     946     942
       8    1029    1030    1022    1031     951     952     944     953
       8    1032    1033    1030    1029     954     955     952     951
       8    1034    1035    1033    1032     956     957     955     954
       8    1036    1034    1032    1037     958     956     954     959
       8    1038    1023    1022    1030     960     945     944     952
       8    1029    1039    1037    1032     951     961     959     954
       8    1014    1017    1031    1022     936     939     953     944
       8    1040    1027    1021    1023     962     949     943     945
       8    1041    1040    1023    1038     963     962     945     960
       8    1042    1041    1038    1043     964     963     960     965
       8    1033    1043    1038    1030     955     965     960     952
       8    1044    1045    1039    1029     966     967     961     951
       8    1046    1044    1029    1031     968     966     951     953
       8    1047    1046    1031    1017     969     968     953     939
       8    1048    1018    1016    1049     970     940     938     971
       8    1050    1049    1016    1015     972     971     938     937
       8    1026    1050    1015    1020     948     972     937     942
       8    1051    1028    1027    1040     973     950     949     962
       8    1052    1051    1040    1041     974     973     962     963
       8    1053    1052    1041    1042     975     974     963     964
       8    1054    1053    1042    1055     976     975     964     977
       8    1056    1055    1042    1043     978     977     964     965
       8    1035    1056    1043    1033     957     978     965     955
       8    1057    1036    1037    1039     979     958     959     961
       8    1058    1057    1039    1045     980     979     961     967
       8    1059    1058    1045    1060     981     980     967     982
       8    1061    1060    1045    1044     983     982     967     966
       8    1062    1061    1044    1046     984     983     966     968
       8    1063    1062    1046    1047     985     984     968     969
       8    1064    1063    1047    1065     986     985     969     987
       8    1019    1065    1047    1017     941     987     969     939
       8    1066    1067    1018    1048     988     989     940     970
       8    1068    1066    1048    1049     990     988     970     971
       8    1069    1068    1049    1050     991     990     971     972
       8    1070    1069    1050    1026     992     991     972     948
       8    1071    1070    1026    1025     993     992     948     947
       8    1072    1071    1025    1028     994     993     947     950
       8    1073    1072    1028    1051     995     994     950     973
       8    1074    1073    1051    1052     996     995     973     974
       8    1075    1074    1052    1053     997     996     974     975
       8    1076    1075    1053    1054     998     997     975     976
       8    1077    1076    1054    1055     999     998     976     977
       8    1078    1077    1055    1056    1000     999     977     978
       8    1079    1078    1056    1035    1001    1000     978     957
       8    1080    1079    1035    1034    1002    1001     957     956
       8    1081    1080    1034    1036    1003    1002     956     958
       8    1082    1081    1036    1057    1004    1003     958     979
       8    1083    1082    1057    1058    1005    1004     979     980
       8    1084    1083    1058    1059    1006    1005     980     981
       8    1085    1084    1059    1060    1007    1006     981     982
       8    1086    1085    1060    1061    1008    1007     982     983
       8    1087    1086    1061    1062    1009    1008     983     984
       8    1088    1087    1062    1063    1010    1009     984     985
       8    1089    1088    1063    1064    1011    1010     985     986
       8    1090    1089    1064    1065    1012    1011     986     987
       8    1091    1090    1065    1019    1013    1012     987     941
       8    1067    1091    1019    1018     989    1013     941     940
       8    1092    1093    1094    1095    1014    1015    1016    1017
       8    1094    1096    1097    1095    1016    1018    1019    1017
       8    1098    1093    1092    1099    1020    1015    1014    1021
       8    1092    1100    1101    1099    1014    1022    1023    1021
       8    1102    1103    1104    1098    1024    1025    1026    1020
       8    1105    1106    1103    1102    1027    1028    1025    1024
       8    1099    1105    1102    1098    1021    1027    1024    1020
       8    1107    1108    1100    1109    1029    1030    1022    1031
       8    1110    1111    1108    1107    1032    1033    1030    1029
       8    1112    1113    1111    1110    1034    1035    1033    1032
       8    1114    1112    1110    1115    1036    1034    1032    1037
       8    1116    1101    1100    1108    1038    1023    1022    1030
       8    1107    1117    1115    1110    1029    1039    1037    1032
       8    1092    1095    1109    1100    1014    1017    1031    1022
       8    1118    1105    1099    1101    1040    1027    1021    1023
       8    1119    1118    1101    1116    1041    1040    1023    1038
       8    1120    1119    1116    1121    1042    1041    1038    1043
       8    1111    1121    1116    1108    1033    1043    1038    1030
       8    1122    1123    1117    1107    1044    1045    1039    1029
       8    1124    1122    1107    1109    1046    1044    1029    1031
       8    1125    1124    1109    1095    1047    1046    1031    1017
       8    1126    1096    1094    1127    1048    1018    1016    1049
       8    1128    1127    1094    1093    1050    1049    1016    1015
       8    1104    1128    1093    1098    1026    1050    1015    1020
       8    1129    1106    1105    1118    1051    1028    1027    1040
       8    1130    1129    1118    1119    1052    1051    1040    1041
       8    1131    1130    1119    1120    1053    1052    1041    1042
       8    1132    1131    1120    1133    1054    1053    1042    1055
       8    1134    1133    1120    1121    1056    1055    1042    1043
       8    1113    1134    1121    1111    1035    1056    1043    1033
       8    1135    1114    1115    1117    1057    1036    1037    1039
       8    1136    1135    1117    1123    1058    1057    1039    1045
       8    1137    1136    1123    1138    1059    1058    1045    1060
       8    1139    1138    1123    1122    1061    1060    1045    1044
       8    1140    1139    1122    1124    1062    1061    1044    1046
       8    1141    1140    1124    1125    1063    1062    1046    1047
       8    1142    1141    1125    1143    1064    1063    1047    1065
       8    1097    1143    1125    1095    1019    1065    1047    1017
       8    1144    1145    1096    1126    1066    1067    1018    1048
       8    1146    1144    1126    1127    1068    1066    1048    1049
       8    1147    1146    1127    1128    1069    1068    1049    1050
       8    1148    1147    1128    1104    1070    1069    1050    1026
       8    1149    1148    1104    1103    1071    1070    1026    1025
       8    1150    1149    1103    1106    1072    1071    1025    1028
       8    1151    1150    1106    1129    1073    1072    1028    1051
       8    1152    1151    1129    1130    1074    1073    1051    1052
       8    1153    1152    1130    1131    1075    1074    1052    1053
       8    1154    1153    1131    1132    1076    1075    1053    1054
       8    1155    1154    1132    1133    1077    1076    1054    1055
       8    1156    1155    1133    1134    1078    1077    1055    1056
       8    1157    1156    1134    1113    1079    1078    1056    1035
       8    1158    1157    1113    1112    1080    1079    1035    1034
       8    1159    1158    1112    1114    1081    1080    1034    1036
       8    1160    1159    1114    1135    1082    1081    1036    1057
       8    1161    1160    1135    1136    1083    1082    1057    1058
       8    1162    1161    1136    1137    1084    1083    1058    1059
       8    1163    1162    1137    1138    1085    1084    1059    1060
       8    1164    1163    1138    1139    1086    1085    1060    1061
       8    1165    1164    1139    1140    1087    1086    1061    1062
       8    1166    1165    1140    1141    1088    1087    1062    1063
       8    1167    1166    1141    1142    1089    1088    1063    1064
       8    1168    1167    1142    1143    1090    1089    1064    1065
       8    1169    1168    1143    1097    1091    1090    1065    1019
       8    1145    1169    1097    1096    1067    1091    1019    1018
       8    1170    1171    1172    1173    1092    1093    1094    1095
       8    1172    1174    1175    1173    1094    1096    1097    1095
       8    1176    1171    1170    1177    1098    1093    1092    1099
       8    1170    1178    1179    1177    1092    1100    1101    1099
       8    1180    1181    1182    1176    1102    1103    1104    1098
       8    1183    1184    1181    1180    1105    1106    1103    1102
       8    1177    1183    1180    1176    1099    1105    1102    1098
       8    1185    1186    1178    1187    1107    1108    1100    1109
       8    1188    1189    1186    1185    1110    1111    1108    1107
       8    1190    1191    1189    1188    1112    1113    1111    1110
       8    1192    1190    1188    1193    1114    1112    1110    1115
       8    1194    1179    1178    1186    1116    1101    1100    1108
       8    1185    1195    1193    1188    1107    1117    1115    1110
       8    1170    1173    1187    1178    1092    1095    1109    1100
       8    1196    1183    1177    1179    1118    1105    1099    1101
       8    1197    1196    1179    1194    1119    1118    1101    1116
       8    1198    1197    1194    1199    1120    1119    1116    1121
       8    1189    1199    1194    1186    1111    1121    1116    1108
       8    1200    1201    1195    1185    1122    1123    1117    1107
       8    1202    1200    1185    1187    1124    1122    1107    1109
       8    1203    1202    1187    1173    1125    1124    1109    1095
       8    1204    1174    1172    1205    1126    1096    1094    1127
       8    1206    1205    1172    1171    1128    1127    1094    1093
       8    1182    1206    1171    1176    1104    1128    1093    1098
       8    1207    1184    1183    1196    1129    1106    1105    1118
       8    1208    1207    1196    1197    1130    1129    1118    1119
       8    1209    1208    1197    1198    1131    1130    1119    1120
       8    1210    1209    1198    1211    1132    1131    1120    1133
       8    1212    1211    1198    1199    1134    1133    1120    1121
       8    1191    1212    1199    1189    1113    1134    1121    1111
       8    1213    1192    1193    1195    1135    1114    1115    1117
       8    1214    1213    1195    1201    1136    1135    1117    1123
       8    1215    1214    1201    1216    1137    1136    1123    1138
       8    1217    1216    1201    1200    1139    1138    1123    1122
       8    1218    1217    1200    1202    1140    1139    1122    1124
       8    1219    1218    1202    1203    1141    1140    1124    1125
       8    1220    1219    1203    1221    1142    1141    1125    1143
       8    1175    1221    1203    1173    1097    1143    1125    1095
       8    1222    1223    1174    1204    1144    1145    1096    1126
       8    1224    1222    1204    1205    1146    1144    1126    1127
       8    1225    1224    1205    1206    1147    1146    1127    1128
       8    1226    1225    1206    1182    1148    1147    1128    1104
       8    1227    1226    1182    1181    1149    1148    1104    1103
       8    1228    1227    1181    1184    1150    1149    1103    1106
       8    1229    1228    1184    1207    1151    1150    1106    1129
       8    1230    1229    1207    1208    1152    1151    1129    1130
       8    1231    1230    1208    1209    1153    1152    1130    1131
       8    1232    1231    1209    1210    1154    1153    1131    1132
       8    1233    1232    1210    1211    1155    1154    1132    1133
       8    1234    1233    1211    1212    1156    1155    1133    1134
       8    1235    1234    1212    1191    1157    1156    1134    1113
       8    1236    1235    1191    1190    1158    1157    1113    1112
       8    1237    1236    1190    1192    1159    1158    1112    1114
       8    1238    1237    1192    1213    1160    1159    1114    1135
       8    1239    1238    1213    1214    1161    1160    1135    1136
       8    1240    1239    1214    1215    1162    1161    1136    1137
       8    1241    1240    1215    1216    1163    1162    1137    1138
       8    1242    1241    1216    1217    1164    1163    1138    1139
       8    1243    1242    1217    1218    1165    1164    1139    1140
       8    1244    1243    1218    1219    1166    1165    1140    1141
       8    1245    1244    1219    1220    1167    1166    1141    1142
       8    1246    1245    1220    1221    1168    1167    1142    1143
       8    1247    1246    1221    1175    1169    1168    1143    1097
       8    1223    1247    1175    1174    1145    1169    1097    1096
       8    1248    1249    1250    1251    1170    1171    1172    1173
       8    1250    1252    1253    1251    1172    1174    1175    1173
       8    1254    1249    1248    1255    1176    1171    1170    1177
       8    1248    1256    1257    1255    1170    1178    1179    1177
       8    1258    1259    1260    1254    1180    1181    1182    1176
       8    1261    1262    1259    1258    1183    1184    1181    1180
       8    1255    1261    1258    1254    1177    1183    1180    1176
       8    1263    1264    1256    1265    1185    1186    1178    1187
       8    1266    1267    1264    1263    1188    1189    1186    1185
       8    1268    1269    1267    1266    1190    1191    1189    1188
       8    1270    1268    1266    1271    1192    1190    1188    1193
       8    1272    1257    1256    1264    1194    1179    1178    1186
       8    1263    1273    1271    1266    1185    1195    1193    1188
       8    1248    1251    1265    1256    1170    1173    1187    1178
       8    1274    1261    1255    1257    1196    1183    1177    1179
       8    1275    1274    1257    1272    1197    1196    1179    1194
       8    1276    1275    1272    1277    1198    1197    1194    1199
       8    1267    1277    1272    1264    1189    1199    1194    1186
       8    1278    1279    1273    1263    1200    1201    1195    1185
       8    1280    1278    1263    1265    1202    1200    1185    1187
       8    1281    1280    1265    1251    1203    1202    1187    1173
       8    1282    1252    1250    1283    1204    1174    1172    1205
       8    1284    1283    1250    1249    1206    1205    1172    1171
       8    1260    1284    1249    1254    1182    1206    1171    1176
       8    1285    1262    1261    1274    1207    1184    1183    1196
       8    1286    1285    1274    1275    1208    1207    1196    1197
       8    1287    1286    1275    1276    1209    1208    1197    1198
       8    1288    1287    1276    1289    1210    1209    1198    1211
       8    1290    1289    1276    1277    1212    1211    1198    1199
       8    1269    1290    1277    1267    1191    1212    1199    1189
       8    1291    1270    1271    1273    1213    1192    1193    1195
       8    1292    1291    1273    1279    1214    1213    1195    1201
       8    1293    1292    1279    1294    1215    1214    1201    1216
       8    1295    1294    1279    1278    1217    1216    1201    1200
       8    1296    1295    1278    1280    1218    1217    1200    1202
       8    1297    1296    1280    1281    1219    1218    1202    1203
       8    1298    1297    1281    1299    1220    1219    1203    1221
       8    1253    1299    1281    1251    1175    1221    1203    1173
       8    1300    1301    1252    1282    1222    1223    1174    1204
       8    1302    1300    1282    1283    1224    1222    1204    1205
       8    1303    1302    1283    1284    1225    1224    1205    1206
       8    1304    1303    1284    1260    1226    1225    1206    1182
       8    1305    1304    1260    1259    1227    1226    1182    1181
       8    1306    1305    1259    1262    1228    1227    1181    1184
       8    1307    1306    1262    1285    1229    1228    1184    1207
       8    1308    1307    1285    1286    1230    1229    1207    1208
       8    1309    1308    1286    1287    1231    1230    1208    1209
       8    1310    1309    1287    1288    1232    1231    1209    1210
       8    1311    1310    1288    1289    1233    1232    1210    1211
       8    1312    1311    1289    1290    1234    1233    1211    1212
       8    1313    1312    1290    1269    1235    1234    1212    1191
       8    1314    1313    1269    1268    1236    1235    1191    1190
       8    1315    1314    1268    1270    1237    1236    1190    1192
       8    1316    1315    1270    1291    1238    1237    1192    1213
       8    1317    1316    1291    1292    1239    1238    1213    1214
       8    1318    1317    1292    1293    1240    1239    1214    1215
       8    1319    1318    1293    1294    1241    1240    1215    1216
       8    1320    1319    1294    1295    1242    1241    1216    1217
       8    1321    1320    1295    1296    1243    1242    1217    1218
       8    1322    1321    1296    1297    1244    1243    1218    1219
       8    1323    1322    1297    1298    1245    1244    1219    1220
       8    1324    1323    1298    1299    1246    1245    1220    1221
       8    1325    1324    1299    1253    1247    1246    1221    1175
       8    1301    1325    1253    1252    1223    1247    1175    1174
       8    1326    1327    1328    1329    1248    1249    1250    1251
       8    1328    1330    1331    1329    1250    1252    1253    1251
       8    1332    1327    1326    1333    1254    1249    1248    1255
       8    1326    1334    1335    1333    1248    1256    1257    1255
       8    1336    1337    1338    1332    1258    1259    1260    1254
       8    1339    1340    1337    1336    1261    1262    1259    1258
       8    1333    1339    1336    1332    1255    1261    1258    1254
       8    1341    1342    1334    1343    1263    1264    1256    1265
       8    1344    1345    1342    1341    1266    1267    1264    1263
       8    1346    1347    1345    1344    1268    1269    1267    1266
       8    1348    1346    1344    1349    1270    1268    1266    1271
       8    1350    1335    1334    1342    1272    1257    1256    1264
       8    1341    1351    1349    1344    1263    1273    1271    1266
       8    1326    1329    1343    1334    1248    1251    1265    1256
       8    1352    1339    1333    1335    1274    1261    1255    1257
       8    1353    1352    1335    1350    1275    1274    1257    1272
       8    1354    1353    1350    1355    1276    1275    1272    1277
       8    1345    1355    1350    1342    1267    1277    1272    1264
       8    1356    1357    1351    1341    1278    1279    1273    1263
       8    1358    1356    1341    1343    1280    1278    1263    1265
       8    1359    1358    1343    1329    1281    1280    1265    1251
       8    1360    1330    1328    1361    1282    1252    1250    1283
       8    1362    1361    1328    1327    1284    1283    1250    1249
       8    1338    1362    1327    1332    1260    1284    1249    1254
       8    1363    1340    1339    1352    1285    1262    1261    1274
       8    1364    1363    1352    1353    1286    1285    1274    1275
       8    1365    1364    1353    1354    1287    1286    1275    1276
       8    1366    1365    1354    1367    1288    1287    1276    1289
       8    1368    1367    1354    1355    1290    1289    1276    1277
       8    1347    1368    1355    1345    1269    1290    1277    1267
       8    1369    1348    1349    1351    1291    1270    1271    1273
       8    1370    1369    1351    1357    1292    1291    1273    1279
       8    1371    1370    1357    1372    1293    1292    1279    1294
       8    1373    1372    1357    1356    1295    1294    1279    1278
       8    1374    1373    1356    1358    1296    1295    1278    1280
       8    1375    1374    1358    1359    1297    1296    1280    1281
       8    1376    1375    1359    1377    1298    1297    1281    1299
       8    1331    1377    1359    1329    1253    1299    1281    1251
       8    1378    1379    1330    1360    1300    1301    1252    1282
       8    1380    1378    1360    1361    1302    1300    1282    1283
       8    1381    1380    1361    1362    1303    1302    1283    1284
       8    1382    1381    1362    1338    1304    1303    1284    1260
       8    1383    1382    1338    1337    1305    1304    1260    1259
       8    1384    1383    1337    1340    1306    1305    1259    1262
       8    1385    1384    1340    1363    1307    1306    1262    1285
       8    1386    1385    1363    1364    1308    1307    1285    1286
       8    1387    1386    1364    1365    1309    1308    1286    1287
       8    1388    1387    1365    1366    1310    1309    1287    1288
       8    1389    1388    1366    1367    1311    1310    1288    1289
       8    1390    1389    1367    1368    1312    1311    1289    1290
       8    1391    1390    1368    1347    1313    1312    1290    1269
       8    1392    1391    1347    1346    1314    1313    1269    1268
       8    1393    1392    1346    1348    1315    1314    1268    1270
       8    1394    1393    1348    1369    1316    1315    1270    1291
       8    1395    1394    1369    1370    1317    1316    1291    1292
       8    1396    1395    1370    1371    1318    1317    1292    1293
       8    1397    1396    1371    1372    1319    1318    1293    1294
       8    1398    1397    1372    1373    1320    1319    1294    1295
       8    1399    1398    1373    1374    1321    1320    1295    1296
       8    1400    1399    1374    1375    1322    1321    1296    1297
       8    1401    1400    1375    1376    1323    1322    1297    1298
       8    1402    1401    1376    1377    1324    1323    1298    1299
       8    1403    1402    1377    1331    1325    1324    1299    1253
       8    1379    1403    1331    1330    1301    1325    1253    1252
       8    1404    1405    1406    1407    1326    1327    1328    1329
       8    1406    1408    1409    1407    1328    1330    1331    1329
       8    1410    1405    1404    1411    1332    1327    1326    1333
       8    1404    1412    1413    1411    1326    1334    1335    1333
       8    1414    1415    1416    1410    1336    1337    1338    1332
       8    1417    1418    1415    1414    1339    1340    1337    1336
       8    1411    1417    1414    1410    1333    1339    1336    1332
       8    1419    1420    1412    1421    1341    1342    1334    1343
       8    1422    1423    1420    1419    1344    1345    1342    1341
       8    1424    1425    1423    1422    1346    1347    1345    1344
       8    1426    1424    1422    1427    1348    1346    1344    1349
       8    1428    1413    1412    1420    1350    1335    1334    1342
       8    1419    1429    1427    1422    1341    1351    1349    1344
       8    1404    1407    1421    1412    1326    1329    1343    1334
       8    1430    1417    1411    1413    1352    1339    1333    1335
       8    1431    1430    1413    1428    1353    1352    1335    1350
       8    1432    1431    1428    1433    1354    1353    1350    1355
       8    1423    1433    1428    1420    1345    1355    1350    1342
       8    1434    1435    1429    1419    1356    1357    1351    1341
       8    1436    1434    1419    1421    1358    1356    1341    1343
       8    1437    1436    1421    1407    1359    1358    1343    1329
       8    1438    1408    1406    1439    1360    1330    1328    1361
       8    1440    1439    1406    1405    1362    1361    1328    1327
       8    1416    1440    1405    1410    1338    1362    1327    1332
       8    1441    1418    1417    1430    1363    1340    1339    1352
       8    1442    1441    1430    1431    1364    1363    1352    1353
       8    1443    1442    1431    1432    1365    1364    1353    1354
       8    1444    1443    1432    1445    1366    1365    1354    1367
       8    1446    1445    1432    1433    1368    1367    1354    1355
       8    1425    1446    1433    1423    1347    1368    1355    1345
       8    1447    1426    1427    1429    1369    1348    1349    1351
       8    1448    1447    1429    1435    1370    1369    1351    1357
       8    1449    1448    1435    1450    1371    1370    1357    1372
       8    1451    1450    1435    1434    1373    1372    1357    1356
       8    1452    1451    1434    1436    1374    1373    1356    1358
       8    1453    1452    1436    1437    1375    1374    1358    1359
       8    1454    1453    1437    1455    1376    1375    1359    1377
       8    1409    1455    1437    1407    1331    1377    1359    1329
       8    1456    1457    1408    1438    1378    1379    1330    1360
       8    1458    1456    1438    1439    1380    1378    1360    1361
       8    1459    1458    1439    1440    1381    1380    1361    1362
       8    1460    1459    1440    1416    1382    1381    1362    1338
       8    1461    1460    1416    1415    1383    1382    1338    1337
       8    1462    1461    1415    1418    1384    1383    1337    1340
       8    1463    1462    1418    1441    1385    1384    1340    1363
       8    1464    1463    1441    1442    1386    1385    1363    1364
       8    1465    1464    1442    1443    1387    1386    1364    1365
       8    1466    1465    1443    1444    1388    1387    1365    1366
       8    1467    1466    1444    1445    1389    1388    1366    1367
       8    1468    1467    1445    1446    1390    1389    1367    1368
       8    1469    1468    1446    1425    1391    1390    1368    1347
       8    1470    1469    1425    1424    1392    1391    1347    1346
       8    1471    1470    1424    1426    1393    1392    1346    1348
       8    1472    1471    1426    1447    1394    1393    1348    1369
       8    1473    1472    1447    1448    1395    1394    1369    1370
       8    1474    1473    1448    1449    1396    1395    1370    1371
       8    1475    1474    1449    1450    1397    1396    1371    1372
       8    1476    1475    1450    1451    1398    1397    1372    1373
       8    1477    1476    1451    1452    1399    1398    1373    1374
       8    1478    1477    1452    1453    1400    1399    1374    1375
       8    1479    1478    1453    1454    1401    1400    1375    1376
       8    1480    1479    1454    1455    1402    1401    1376    1377
       8    1481    1480    1455    1409    1403    1402    1377    1331
       8    1457    1481    1409    1408    1379    1403    1331    1330
       8    1482    1483    1484    1485    1404    1405    1406    1407
       8    1484    1486    1487    1485    1406    1408    1409    1407
       8    1488    1483    1482    1489    1410    1405    1404    1411
       8    1482    1490    1491    1489    1404    1412    1413    1411
       8    1492    1493    1494    1488    1414    1415    1416    1410
       8    1495    1496    1493    1492    1417    1418    1415    1414
       8    1489    1495    1492    1488    1411    1417    1414    1410
       8    1497    1498    1490    1499    1419    1420    1412    1421
       8    1500    1501    1498    1497    1422    1423    1420    1419
       8    1502    1503    1501    1500    1424    1425    1423    1422
       8    1504    1502    1500    1505    1426    1424    1422    1427
       8    1506    1491    1490    1498    1428    1413    1412    1420
       8    1497    1507    1505    1500    1419    1429    1427    1422
       8    1482    1485    1499    1490    1404    1407    1421    1412
       8    1508    1495    1489    1491    1430    1417    1411    1413
       8    1509    1508    1491    1506    1431    1430    1413    1428
       8    1510    1509    1506    1511    1432    1431    1428    1433
       8    1501    1511    1506    1498    1423    1433    1428    1420
       8    1512    1513    1507    1497    1434    1435    1429    1419
       8    1514    1512    1497    1499    1436    1434    1419    1421
       8    1515    1514    1499    1485    1437    1436    1421    1407
       8    1516    1486    1484    1517    1438    1408    1406    1439
       8    1518    1517    1484    1483    1440    1439    1406    1405
       8    1494    1518    1483    1488    1416    1440    1405    1410
       8    1519    1496    1495    1508    1441    1418    1417    1430
       8    1520    1519    1508    1509    1442    1441    1430    1431
       8    1521    1520    1509    1510    1443    1442    1431    1432
       8    1522    1521    1510    1523    1444    1443    1432    1445
       8    1524    1523    1510    1511    1446    1445    1432    1433
       8    1503    1524    1511    1501    1425    1446    1433    1423
       8    1525    1504    1505    1507    1447    1426    1427    1429
       8    1526    1525    1507    1513    1448    1447    1429    1435
       8    1527    1526    1513    1528    1449    1448    1435    1450
       8    1529    1528    1513    1512    1451    1450    1435    1434
       8    1530    1529    1512    1514    1452    1451    1434    1436
       8    1531    1530    1514    1515    1453    1452    1436    1437
       8    1532    1531    1515    1533    1454    1453    1437    1455
       8    1487    1533    1515    1485    1409    1455    1437    1407
       8    1534    1535    1486    1516    1456    1457    1408    1438
       8    1536    1534    1516    1517    1458    1456    1438    1439
       8    1537    1536    1517    1518    1459    1458    1439    1440
       8    1538    1537    1518    1494    1460    1459    1440    1416
       8    1539    1538    1494    1493    1461    1460    1416    1415
       8    1540    1539    1493    1496    1462    1461    1415    1418
       8    1541    1540    1496    1519    1463    1462    1418    1441
       8    1542    1541    1519    1520    1464    1463    1441    1442
       8    1543    1542    1520    1521    1465    1464    1442    1443
       8    1544    1543    1521    1522    1466    1465    1443    1444
       8    1545    1544    1522    1523    1467    1466    1444    1445
       8    1546    1545    1523    1524    1468    1467    1445    1446
       8    1547    1546    1524    1503    1469    1468    1446    1425
       8    1548    1547    1503    1502    1470    1469    1425    1424
       8    1549    1548    1502    1504    1471    1470    1424    1426
       8    1550    1549    1504    1525    1472    1471    1426    1447
       8    1551    1550    1525    1526    1473    1472    1447    1448
       8    1552    1551    1526    1527    1474    1473    1448    1449
       8    1553    1552    1527    1528    1475    1474    1449    1450
       8    1554    1553    1528    1529    1476    1475    1450    1451
       8    1555    1554    1529    1530    1477    1476    1451    1452
       8    1556    1555    1530    1531    1478    1477    1452    1453
       8    1557    1556    1531    1532    1479    1478    1453    1454
       8    1558    1557    1532    1533    1480    1479    1454    1455
       8    1559    1558    1533    1487    1481    1480    1455    1409
       8    1535    1559    1487    1486    1457    1481    1409    1408
       8    1560    1561    1562    1563    1482    1483    1484    1485
       8    1562    1564    1565    1563    1484    1486    1487    1485
       8    1566    1561    1560    1567    1488    1483    1482    1489
       8    1560    1568    1569    1567    1482    1490    1491    1489
       8    1570    1571    1572    1566    1492    1493    1494    1488
       8    1573    1574    1571    1570    1495    1496    1493    1492
       8    1567    1573    1570    1566    1489    1495    1492    1488
       8    1575    1576    1568    1577    1497    1498    1490    1499
       8    1578    1579    1576    1575    1500    1501    1498    1497
       8    1580    1581    1579    1578    1502    1503    1501    1500
       8    1582    1580    1578    1583    1504    1502    1500    1505
       8    1584    1569    1568    1576    1506    1491    1490    1498
       8    1575    1585    1583    1578    1497    1507    1505    1500
       8    1560    1563    1577    1568    1482    1485    1499    1490
       8    1586    1573    1567    1569    1508    1495    1489    1491
       8    1587    1586    1569    1584    1509    1508    1491    1506
       8    1588    1587    1584    1589    1510    1509    1506    1511
       8    1579    1589    1584    1576    1501    1511    1506    1498
       8    1590    1591    1585    1575    1512    1513    1507    1497
       8    1592    1590    1575    1577    1514    1512    1497    1499
       8    1593    1592    1577    1563    1515    1514    1499    1485
       8    1594    1564    1562    1595    1516    1486    1484    1517
       8    1596    1595    1562    1561    1518    1517    1484    1483
       8    1572    1596    1561    1566    1494    1518    1483    1488
       8    1597    1574    1573    1586    1519    1496    1495    1508
       8    1598    1597    1586    1587    1520    1519    1508    1509
       8    1599    1598    1587    1588    1521    1520    1509    1510
       8    1600    1599    1588    1601    1522    1521    1510    1523
       8    1602    1601    1588    1589    1524    1523    1510    1511
       8    1581    1602    1589    1579    1503    1524    1511    1501
       8    1603    1582    1583    1585    1525    1504    1505    1507
       8    1604    1603    1585    1591    1526    1525    1507    1513
       8    1605    1604    1591    1606    1527    1526    1513    1528
       8    1607    1606    1591    1590    1529    1528    1513    1512
       8    1608    1607    1590    1592    1530    1529    1512    1514
       8    1609    1608    1592    1593    1531    1530    1514    1515
       8    1610    1609    1593    1611    1532    1531    1515    1533
       8    1565    1611    1593    1563    1487    1533    1515    1485
       8    1612    1613    1564    1594    1534    1535    1486    1516
       8    1614    1612    1594    1595    1536    1534    1516    1517
       8    1615    1614    1595    1596    1537    1536    1517    1518
       8    1616    1615    1596    1572    1538    1537    1518    1494
       8    1617    1616    1572    1571    1539    1538    1494    1493
       8    1618    1617    1571    1574    1540    1539    1493    1496
       8    1619    1618    1574    1597    1541    1540    1496    1519
       8    1620    1619    1597    1598    1542    1541    1519    1520
       8    1621    1620    1598    1599    1543    1542    1520    1521
       8    1622    1621    1599    1600    1544    1543    1521    1522
       8    1623    1622    1600    1601    1545    1544    1522    1523
       8    1624    1623    1601    1602    1546    1545    1523    1524
       8    1625    1624    1602    1581    1547    1546    1524    1503
       8    1626    1625    1581    1580    1548    1547    1503    1502
       8    1627    1626    1580    1582    1549    1548    1502    1504
       8    1628    1627    1582    1603    1550    1549    1504    1525
       8    1629    1628    1603    1604    1551    1550    1525    1526
       8    1630    1629    1604    1605    1552    1551    1526    1527
       8    1631    1630    1605    1606    1553    1552    1527    1528
       8    1632    1631    1606    1607    1554    1553    1528    1529
       8    1633    1632    1607    1608    1555    1554    1529    1530
       8    1634    1633    1608    1609    1556    1555    1530    1531
       8    1635    1634    1609    1610    1557    1556    1531    1532
       8    1636    1635    1610    1611    1558    1557    1532    1533
       8    1637    1636    1611    1565    1559    1558    1533    1487
       8    1613    1637    1565    1564    1535    1559    1487    1486
       8    1638    1639    1640    1641    1560    1561    1562    1563
       8    1640    1642    1643    1641    1562    1564    1565    1563
       8    1644    1639    1638    1645    1566    1561    1560    1567
       8    1638    1646    1647    1645    1560    1568    1569    1567
       8    1648    1649    1650    1644    1570    1571    1572    1566
       8    1651    1652    1649    1648    1573    1574    1571    1570
       8    1645    1651    1648    1644    1567    1573    1570    1566
       8    1653    1654    1646    1655    1575    1576    1568    1577
       8    1656    1657    1654    1653    1578    1579    1576    1575
       8    1658    1659    1657    1656    1580    1581    1579    1578
       8    1660    1658    1656    1661    1582    1580    1578    1583
       8    1662    1647    1646    1654    1584    1569    1568    1576
       8    1653    1663    1661    1656    1575    1585    1583    1578
       8    1638    1641    1655    1646    1560    1563    1577    1568
       8    1664    1651    1645    1647    1586    1573    1567    1569
       8    1665    1664    1647    1662    1587    1586    1569    1584
       8    1666    1665    1662    1667    1588    1587    1584    1589
       8    1657    1667    1662    1654    1579    1589    1584    1576
       8    1668    1669    1663    1653    1590    1591    1585    1575
       8    1670    1668    1653    1655    1592    1590    1575    1577
       8    1671    1670    1655    1641    1593    1592    1577    1563
       8    1672    1642    1640    1673    1594    1564    1562    1595
       8    1674    1673    1640    1639    1596    1595    1562    1561
       8    1650    1674    1639    1644    1572    1596    1561    1566
       8    1675    1652    1651    1664    1597    1574    1573    1586
       8    1676    1675    1664    1665    1598    1597    1586    1587
       8    1677    1676    1665    1666    1599    1598    1587    1588
       8    1678    1677    1666    1679    1600    1599    1588    1601
       8    1680    1679    1666    1667    1602    1601    1588    1589
       8    1659    1680    1667    1657    1581    1602    1589    1579
       8    1681    1660    1661    1663    1603    1582    1583    1585
       8    1682    1681    1663    1669    1604    1603    1585    1591
       8    1683    1682    1669    1684    1605    1604    1591    1606
       8    1685    1684    1669    1668    1607    1606    1591    1590
       8    1686    1685    1668    1670    1608    1607    1590    1592
       8    1687    1686    1670    1671    1609    1608    1592    1593
       8    1688    1687    1671    1689    1610    1609    1593    1611
       8    1643    1689    1671    1641    1565    1611    1593    1563
       8    1690    1691    1642    1672    1612    1613    1564    1594
       8    1692    1690    1672    1673    1614    1612    1594    1595
       8    1693    1692    1673    1674    1615    1614    1595    1596
       8    1694    1693    1674    1650    1616    1615    1596    1572
       8    1695    1694    1650    1649    1617    1616    1572    1571
       8    1696    1695    1649    1652    1618    1617    1571    1574
       8    1697    1696    1652    1675    1619    1618    1574    1597
       8    1698    1697    1675    1676    1620    1619    1597    1598
       8    1699    1698    1676    1677    1621    1620    1598    1599
       8    1700    1699    1677    1678    1622    1621    1599    1600
       8    1701    1700    1678    1679    1623    1622    1600    1601
       8    1702    1701    1679    1680    1624    1623    1601    1602
       8    1703    1702    1680    1659    1625    1624    1602    1581
       8    1704    1703    1659    1658    1626    1625    1581    1580
       8    1705    1704    1658    1660    1627    1626    1580    1582
       8    1706    1705    1660    1681    1628    1627    1582    1603
       8    1707    1706    1681    1682    1629    1628    1603    1604
       8    1708    1707    1682    1683    1630    1629    1604    1605
       8    1709    1708    1683    1684    1631    1630    1605    1606
       8    1710    1709    1684    1685    1632    1631    1606    1607
       8    1711    1710    1685    1686    1633    1632    1607    1608
       8    1712    1711    1686    1687    1634    1633    1608    1609
       8    1713    1712    1687    1688    1635    1634    1609    1610
       8    1714    1713    1688    1689    1636    1635    1610    1611
       8    1715    1714    1689    1643    1637    1636    1611    1565
       8    1691    1715    1643    1642    1613    1637    1565    1564
       8    1716    1717    1718    1719    1638    1639    1640    1641
       8    1718    1720    1721    1719    1640    1642    1643    1641
       8    1722    1717    1716    1723    1644    1639    1638    1645
       8    1716    1724    1725    1723    1638    1646    1647    1645
       8    1726    1727    1728    1722    1648    1649    1650    1644
       8    1729    1730    1727    1726    1651    1652    1649    1648
       8    1723    1729    1726    1722    1645    1651    1648    1644
       8    1731    1732    1724    1733    1653    1654    1646    1655
       8    1734    1735    1732    1731    1656    1657    1654    1653
       8    1736    1737    1735    1734    1658    1659    1657    1656
       8    1738    1736    1734    1739    1660    1658    1656    1661
       8    1740    1725    1724    1732    1662    1647    1646    1654
       8    1731    1741    1739    1734    1653    1663    1661    1656
       8    1716    1719    1733    1724    1638    1641    1655    1646
       8    1742    1729    1723    1725    1664    1651    1645    1647
       8    1743    1742    1725    1740    1665    1664    1647    1662
       8    1744    1743    1740    1745    1666    1665    1662    1667
       8    1735    1745    1740    1732    1657    1667    1662    1654
       8    1746    1747    1741    1731    1668    1669    1663    1653
       8    1748    1746    1731    1733    1670    1668    1653    1655
       8    1749    1748    1733    1719    1671    1670    1655    1641
       8    1750    1720    1718    1751    1672    1642    1640    1673
       8    1752    1751    1718    1717    1674    1673    1640    1639
       8    1728    1752    1717    1722    1650    1674    1639    1644
       8    1753    1730    1729    1742    1675    1652    1651    1664
       8    1754    1753    1742    1743    1676    1675    1664    1665
       8    1755    1754    1743    1744    1677    1676    1665    1666
       8    1756    1755    1744    1757    1678    1677    1666    1679
       8    1758    1757    1744    1745    1680    1679    1666    1667
       8    1737    1758    1745    1735    1659    1680    1667    1657
       8    1759    1738    1739    1741    1681    1660    1661    1663
       8    1760    1759    1741    1747    1682    1681    1663    1669
       8    1761    1760    1747    1762    1683    1682    1669    1684
       8    1763    1762    1747    1746    1685    1684    1669    1668
       8    1764    1763    1746    1748    1686    1685    1668    1670
       8    1765    1764    1748    1749    1687    1686    1670    1671
       8    1766    1765    1749    1767    1688    1687    1671    1689
       8    1721    1767    1749    1719    1643    1689    1671    1641
       8    1768    1769    1720    1750    1690    1691    1642    1672
       8    1770    1768    1750    1751    1692    1690    1672    1673
       8    1771    1770    1751    1752    1693    1692    1673    1674
       8    1772    1771    1752    1728    1694    1693    1674    1650
       8    1773    1772    1728    1727    1695    1694    1650    1649
       8    1774    1773    1727    1730    1696    1695    1649    1652
       8    1775    1774    1730    1753    1697    1696    1652    1675
       8    1776    1775    1753    1754    1698    1697    1675    1676
       8    1777    1776    1754    1755    1699    1698    1676    1677
       8    1778    1777    1755    1756    1700    1699    1677    1678
       8    1779    1778    1756    1757    1701    1700    1678    1679
       8    1780    1779    1757    1758    1702    1701    1679    1680
       8    1781    1780    1758    1737    1703    1702    1680    1659
       8    1782    1781    1737    1736    1704    1703    1659    1658
       8    1783    1782    1736    1738    1705    1704    1658    1660
       8    1784    1783    1738    1759    1706    1705    1660    1681
       8    1785    1784    1759    1760    1707    1706    1681    1682
       8    1786    1785    1760    1761    1708    1707    1682    1683
       8    1787    1786    1761    1762    1709    1708    1683    1684
       8    1788    1787    1762    1763    1710    1709    1684    1685
       8    1789    1788    1763    1764    1711    1710    1685    1686
       8    1790    1789    1764    1765    1712    1711    1686    1687
       8    1791    1790    1765    1766    1713    1712    1687    1688
       8    1792    1791    1766    1767    1714    1713    1688    1689
       8    1793    1792    1767    1721    1715    1714    1689    1643
       8    1769    1793    1721    1720    1691    1715    1643    1642
       8    1794    1795    1796    1797    1716    1717    1718    1719
       8    1796    1798    1799    1797    1718    1720    1721    1719
       8    1800    1795    1794    1801    1722    1717    1716    1723
       8    1794    1802    1803    1801    1716    1724    1725    1723
       8    1804    1805    1806    1800    1726    1727    1728    1722
       8    1807    1808    1805    1804    1729    1730    1727    1726
       8    1801    1807    1804    1800    1723    1729    1726    1722
       8    1809    1810    1802    1811    1731    1732    1724    1733
       8    1812    1813    1810    1809    1734    1735    1732    1731
       8    1814    1815    1813    1812    1736    1737    1735    1734
       8    1816    1814    1812    1817    1738    1736    1734    1739
       8    1818    1803    1802    1810    1740    1725    1724    1732
       8    1809    1819    1817    1812    1731    1741    1739    1734
       8    1794    1797    1811    1802    1716    1719    1733    1724
       8    1820    1807    1801    1803    1742    1729    1723    1725
       8    1821    1820    1803    1818    1743    1742    1725    1740
       8    1822    1821    1818    1823    1744    1743    1740    1745
       8    1813    1823    1818    1810    1735    1745    1740    1732
       8    1824    1825    1819    1809    1746    1747    1741    1731
       8    1826    1824    1809    1811    1748    1746    1731    1733
       8    1827    1826    1811    1797    1749    1748    1733    1719
       8    1828    1798    1796    1829    1750    1720    1718    1751
       8    1830    1829    1796    1795    1752    1751    1718    1717
       8    1806    1830    1795    1800    1728    1752    1717    1722
       8    1831    1808    1807    1820    1753    1730    1729    1742
       8    1832    1831    1820    1821    1754    1753    1742    1743
       8    1833    1832    1821    1822    1755    1754    1743    1744
       8    1834    1833    1822    1835    1756    1755    1744    1757
       8    1836    1835    1822    1823    1758    1757    1744    1745
       8    1815    1836    1823    1813    1737    1758    1745    1735
       8    1837    1816    1817    1819    1759    1738    1739    1741
       8    1838    1837    1819    1825    1760    1759    1741    1747
       8    1839    1838    1825    1840    1761    1760    1747    1762
       8    1841    1840    1825    1824    1763    1762    1747    1746
       8    1842    1841    1824    1826    1764    1763    1746    1748
       8    1843    1842    1826    1827    1765    1764    1748    1749
       8    1844    1843    1827    1845    1766    1765    1749    1767
       8    1799    1845    1827    1797    1721    1767    1749    1719
       8    1846    1847    1798    1828    1768    1769    1720    1750
       8    1848    1846    1828    1829    1770    1768    1750    1751
       8    1849    1848    1829    1830    1771    1770    1751    1752
       8    1850    1849    1830    1806    1772    1771    1752    1728
       8    1851    1850    1806    1805    1773    1772    1728    1727
       8    1852    1851    1805    1808    1774    1773    1727    1730
       8    1853    1852    1808    1831    1775    1774    1730    1753
       8    1854    1853    1831    1832    1776    1775    1753    1754
       8    1855    1854    1832    1833    1777    1776    1754    1755
       8    1856    1855    1833    1834    1778    1777    1755    1756
       8    1857    1856    1834    1835    1779    1778    1756    1757
       8    1858    1857    1835    1836    1780    1779    1757    1758
       8    1859    1858    1836    1815    1781    1780    1758    1737
       8    1860    1859    1815    1814    1782    1781    1737    1736
       8    1861    1860    1814    1816    1783    1782    1736    1738
       8    1862    1861    1816    1837    1784    1783    1738    1759
       8    1863    1862    1837    1838    1785    1784    1759    1760
       8    1864    1863    1838    1839    1786    1785    1760    1761
       8    1865    1864    1839    1840    1787    1786    1761    1762
       8    1866    1865    1840    1841    1788    1787    1762    1763
       8    1867    1866    1841    1842    1789    1788    1763    1764
       8    1868    1867    1842    1843    1790    1789    1764    1765
       8    1869    1868    1843    1844    1791    1790    1765    1766
       8    1870    1869    1844    1845    1792    1791    1766    1767
       8    1871    1870    1845    1799    1793    1792    1767    1721
       8    1847    1871    1799    1798    1769    1793    1721    1720
       8    1872    1873    1874    1875    1794    1795    1796    1797
       8    1874    1876    1877    1875    1796    1798    1799    1797
       8    1878    1873    1872    1879    1800    1795    1794    1801
       8    1872    1880    1881    1879    1794    1802    1803    1801
       8    1882    1883    1884    1878    1804    1805    1806    1800
       8    1885    1886    1883    1882    1807    1808    1805    1804
       8    1879    1885    1882    1878    1801    1807    1804    1800
       8    1887    1888    1880    1889    1809    1810    1802    1811
       8    1890    1891    1888    1887    1812    1813    1810    1809
       8    1892    1893    1891    1890    1814    1815    1813    1812
       8    1894    1892    1890    1895    1816    1814    1812    1817
       8    1896    1881    1880    1888    1818    1803    1802    1810
       8    1887    1897    1895    1890    1809    1819    1817    1812
       8    1872    1875    1889    1880    1794    1797    1811    1802
       8    1898    1885    1879    1881    1820    1807    1801    1803
       8    1899    1898    1881    1896    1821    1820    1803    1818
       8    1900    1899    1896    1901    1822    1821    1818    1823
       8    1891    1901    1896    1888    1813    1823    1818    1810
       8    1902    1903    1897    1887    1824    1825    1819    1809
       8    1904    1902    1887    1889    1826    1824    1809    1811
       8    1905    1904    1889    1875    1827    1826    1811    1797
       8    1906    1876    1874    1907    1828    1798    1796    1829
       8    1908    1907    1874    1873    1830    1829    1796    1795
       8    1884    1908    1873    1878    1806    1830    1795    1800
       8    1909    1886    1885    1898    1831    1808    1807    1820
       8    1910    1909    1898    1899    1832    1831    1820    1821
       8    1911    1910    1899    1900    1833    1832    1821    1822
       8    1912    1911    1900    1913    1834    1833    1822    1835
       8    1914    1913    1900    1901    1836    1835    1822    1823
       8    1893    1914    1901    1891    1815    1836    1823    1813
       8    1915    1894    1895    1897    1837    1816    1817    1819
       8    1916    1915    1897    1903    1838    1837    1819    1825
       8    1917    1916    1903    1918    1839    1838    1825    1840
       8    1919    1918    1903    1902    1841    1840    1825    1824
       8    1920    1919    1902    1904    1842    1841    1824    1826
       8    1921    1920    1904    1905    1843    1842    1826    1827
       8    1922    1921    1905    1923    1844    1843    1827    1845
       8    1877    1923    1905    1875    1799    1845    1827    1797
       8    1924    1925    1876    1906    1846    1847    1798    1828
       8    1926    1924    1906    1907    1848    1846    1828    1829
       8    1927    1926    1907    1908    1849    1848    1829    1830
       8    1928    1927    1908    1884    1850    1849    1830    1806
       8    1929    1928    1884    1883    1851    1850    1806    1805
       8    1930    1929    1883    1886    1852    1851    1805    1808
       8    1931    1930    1886    1909    1853    1852    1808    1831
       8    1932    1931    1909    1910    1854    1853    1831    1832
       8    1933    1932    1910    1911    1855    1854    1832    1833
       8    1934    1933    1911    1912    1856    1855    1833    1834
       8    1935    1934    1912    1913    1857    1856    1834    1835
       8    1936    1935    1913    1914    1858    1857    1835    1836
       8    1937    1936    1914    1893    1859    1858    1836    1815
       8    1938    1937    1893    1892    1860    1859    1815    1814
       8    1939    1938    1892    1894    1861    1860    1814    1816
       8    1940    1939    1894    1915    1862    1861    1816    1837
       8    1941    1940    1915    1916    1863    1862    1837    1838
       8    1942    1941    1916    1917    1864    1863    1838    1839
       8    1943    1942    1917    1918    1865    1864    1839    1840
       8    1944    1943    1918    1919    1866    1865    1840    1841
       8    1945    1944    1919    1920    1867    1866    1841    1842
       8    1946    1945    1920    1921    1868    1867    1842    1843
       8    1947    1946    1921    1922    1869    1868    1843    1844
       8    1948    1947    1922    1923    1870    1869    1844    1845
       8    1949    1948    1923    1877    1871    1870    1845    1799
       8    1925    1949    1877    1876    1847    1871    1799    1798
  
CELL_TYPES    3486
       1
       1
       1
       1
       1
       1
       1
       1
       1
       1
       1
       1
       1
       1
       1
       1
       1
       1
       1
       1
       1
       1
       1
       1
       1
       1
       1
       1
       1
       1
       1
       1
       1
       1
       1
       1
       1
       1
       1
       1
       1
       1
       1
       1
       1
       1
       1
       1
       1
       1
       1
       1
       1
       1
       1
       1
       1
       1
       1
       1
       1
       1
       1
       1
       1
       1
       1
       1
       1
       1
       1
       1
       1
       1
       1
       1
       1
       1
       1
       1
       1
       1
       1
       1
       1
       1
       1
       1
       1
       1
       1
       1
       1
       1
       1
       1
       1
       1
       1
       1
       1
       1
       1
       1
       1
       1
       1
       1
       1
       1
       1
       1
       1
       1
       1
       1
       1
       1
       1
       1
       1
       1
       1
       1
       1
       1
       1
       1
       1
       1
       1
       1
       1
       1
       1
       1
       1
       1
       1
       1
       1
       1
       1
       1
       1
       1
       1
       1
       1
       1
       1
       1
       1
       1
       1
       1
       1
       1
       1
       1
       1
       1
       1
       1
       1
       1
       1
       1
       1
       1
       1
       1
       1
       1
       1
       1
       1
       1
       1
       1
       1
       1
       1
       1
       1
       1
       1
       1
       1
       1
       1
       1
       1
       1
       1
       1
       1
       1
       1
       1
       1
       1
       1
       1
       1
       1
       1
       1
       1
       1
       1
       1
       1
       1
       1
       1
       1
       1
       1
       1
       1
       1
       1
       1
       1
       1
       1
       1
       1
       1
       1
       1
       1
       1
       1
       1
       1
       1
       1
       1
       1
       1
       1
       1
       1
       1
       1
       1
       1
       1
       1
       1
       1
       1
       1
       1
       1
       1
       1
       1
       1
       1
       1
       1
       1
       1
       1
       1
       1
       1
       1
       1
       1
       1
       1
       1
       1
       1
       1
       1
       1
       1
       1
       1
       1
       1
       1
       1
       1
       1
       1
       1
       1
       1
       1
       1
       1
       1
       1
       1
       1
       1
       1
       1
       1
       1
       1
       1
       1
       1
       1
       1
       1
       1
       1
       1
       1
       1
       1
       1
       1
       1
       1
       1
       1
       1
       1
       1
       1
       1
       1
       1
       1
       1
       1
       1
       1
       1
       1
       1
       1
       1
       1
       1
       1
       1
       1
       1
       1
       1
       1
       1
       1
       1
       1
       1
       1
       1
       1
       1
       1
       1
       1
       1
       1
       1
       1
       1
       1
       1
       1
       1
       1
       1
       1
       1
       1
       1
       1
       1
       1
       1
       1
       1
       1
       1
       1
       1
       1
       1
       1
       1
       1
       1
       1
       1
       1
       1
       1
       1
       1
       1
       1
       1
       1
       1
       1
       1
       1
       1
       1
       1
       1
       1
       1
       1
       1
       1
       1
       1
       1
       1
       1
       1
       1
       1
       1
       1
       1
       1
       1
       1
       1
       1
       1
       1
       1
       1
       1
       1
       1
       1
       1
       1
       1
       1
       1
       1
       1
       1
       1
       1
       1
       1
       1
       1
       1
       1
       1
       1
       1
       1
       1
       1
       1
       1
       1
       1
       1
       1
       1
       1
       1
       1
       1
       1
       1
       1
       1
       1
       1
       1
       1
       1
       1
       1
       1
       1
       1
       1
       1
       1
       1
       1
       1
       1
       1
       1
       1
       1
       1
       1
       1
       1
       1
       1
       1
       1
       1
       1
       1
       1
       1
       1
       1
       1
       1
       1
       1
       1
       1
       1
       1
       1
       1
       1
       1
       1
       1
       1
       1
       1
       1
       1
       1
       1
       1
       1
       1
       1
       1
       1
       1
       1
       1
       1
       1
       1
       1
       1
       1
       1
       1
       1
       1
       1
       1
       1
       1
       1
       1
       1
       1
       1
       1
       1
       1
       1
       1
       1
       1
       1
       1
       1
       1
       1
       1
       1
       1
       1
       1
       1
       1
       1
       1
       1
       1
       1
       1
       1
       1
       1
       1
       1
       1
       1
       1
       1
       1
       1
       1
       1
       1
       1
       1
       1
       1
       1
       1
       1
       1
       1
       1
       1
       1
       1
       1
       1
       1
       1
       1
       1
       1
       1
       1
       1
       1
       1
       1
       1
       1
       1
       1
       1
       1
       1
       1
       1
       1
       1
       1
       1
       1
       1
       1
       1
       1
       1
       1
       1
       1
       1
       1
       1
       1
       1
       1
       1
       1
       1
       1
       1
       1
       1
       1
       1
       1
       1
       1
       1
       1
       1
       1
       1
       1
       1
       1
       1
       1
       1
       1
       1
       1
       1
       1
       1
       1
       1
       1
       1
       1
       1
       1
       1
       1
       1
       1
       1
       1
       1
       1
       1
       1
       1
       1
       1
       1
       1
       1
       1
       1
       1
       1
       1
       1
       1
       1
       1
       1
       1
       1
       1
       1
       1
       1
       1
       1
       1
       1
       1
       1
       1
       1
       1
       1
       1
       1
       1
       1
       1
       1
       1
       1
       1
       1
       1
       1
       1
       1
       1
       1
       1
       1
       1
       1
       1
       1
       1
       1
       1
       1
       1
       1
       1
       1
       1
       1
       1
       1
       1
       1
       1
       1
       1
       1
       1
       1
       1
       1
       1
       1
       1
       1
       1
       1
       1
       1
       1
       1
       1
       1
       1
       1
       1
       1
       1
       1
       1
       1
       1
       1
       1
       1
       1
       1
       1
       1
       1
       1
       1
       1
       1
       1
       1
       1
       1
       1
       1
       1
       1
       1
       1
       1
       1
       1
       1
       1
       1
       1
       1
       1
       1
       1
       1
       1
       1
       1
       1
       1
       1
       1
       1
       1
       1
       1
       1
       1
       1
       1
       1
       1
       1
       1
       1
       1
       1
       1
       1
       1
       1
       1
       1
       1
       1
       1
       1
       1
       1
       1
       1
       1
       1
       1
       1
       1
       1
       1
       1
       1
       1
       1
       1
       1
       1
       1
       1
       1
       1
       1
       1
       1
       1
       1
       1
       1
       1
       1
       1
       1
       1
       1
       1
       1
       1
       1
       1
       1
       1
       1
       1
       1
       1
       1
       1
       1
       1
       1
       1
       1
       1
       1
       1
       1
       1
       1
       1
       1
       1
       1
       1
       1
       1
       1
       1
       1
       1
       1
       1
       1
       1
       1
       1
       1
       1
       1
       1
       1
       1
       1
       1
       1
       1
       1
       1
       1
       1
       1
       1
       1
       1
       1
       1
       1
       1
       1
       1
       1
       1
       1
       1
       1
       1
       1
       1
       1
       1
       1
       1
       1
       1
       1
       1
       1
       1
       1
       1
       1
       1
       1
       1
       1
       1
       1
       1
       1
       1
       1
       1
       1
       1
       1
       1
       1
       1
       1
       1
       1
       1
       1
       1
       1
       1
       1
       1
       1
       1
       1
       1
       1
       1
       1
       1
       1
       1
       1
       1
       1
       1
       1
       1
       1
       1
       1
       1
       1
       1
       1
       1
       1
       1
       1
       1
       1
       1
       1
       1
       1
       1
       1
       1
       1
       1
       1
       1
       1
       1
       1
       1
       1
       1
       1
       1
       1
       1
       1
       1
       1
       1
       1
       1
       1
       1
       1
       1
       1
       1
       1
       1
       1
       1
       1
       1
       1
       1
       1
       1
       1
       1
       1
       1
       1
       1
       1
       1
       1
       1
       1
       1
       1
       1
       1
       1
       1
       1
       1
       1
       1
       1
       1
       1
       1
       1
       1
       1
       1
       1
       1
       1
       1
       1
       1
       1
       1
       1
       1
       1
       1
       1
       1
       1
       1
       1
       1
       1
       1
       1
       1
       1
       1
       1
       1
       1
       1
       1
       1
       1
       1
       1
       1
       1
       1
       1
       1
       1
       1
       1
       1
       1
       1
       1
       1
       1
       1
       1
       1
       1
       1
       1
       1
       1
       1
       1
       1
       1
       1
       1
       1
       1
       1
       1
       1
       1
       1
       1
       1
       1
       1
       1
       1
       1
       1
       1
       1
       1
       1
       1
       1
       1
       1
       1
       1
       1
       1
       1
       1
       1
       1
       1
       1
       1
       1
       1
       1
       1
       1
       1
       1
       1
       1
       1
       1
       1
       1
       1
       1
       1
       1
       1
       1
       1
       1
       1
       1
       1
       1
       1
       1
       1
       1
       1
       1
       1
       1
       1
       1
       1
       1
       1
       1
       1
       1
       1
       1
       1
       1
       1
       1
       1
       1
       1
       1
       1
       1
       1
       1
       1
       1
       1
       1
       1
       1
       1
       1
       1
       1
       1
       1
       1
       1
       1
       1
       1
       1
       1
       1
       1
       1
       1
       1
       1
       1
       1
       1
       1
       1
       1
       1
       1
       1
       1
       1
       1
       1
       1
       1
       1
       1
       1
       1
       1
       1
       1
       1
       1
       1
       1
       1
       1
       1
       1
       1
       1
       1
       1
       1
       1
       1
       1
       1
       1
       1
       1
       1
       1
       1
       1
       1
       1
       1
       1
       1
       1
       1
       1
       1
       1
       1
       1
       1
       1
       1
       1
       1
       1
       1
       1
       1
       1
       1
       1
       1
       1
       1
       1
       1
       1
       1
       1
       1
       1
       1
       1
       1
       1
       1
       1
       1
       1
       1
       1
       1
       1
       1
       1
       1
       1
       1
       1
       1
       1
       1
       1
       1
       1
       1
       1
       1
       1
       1
       1
       1
       1
       1
       1
       1
       1
       1
       1
       1
       1
       1
       1
       1
       1
       1
       1
       1
       1
       1
       1
       1
       1
       1
       1
       1
       1
       1
       1
       1
       1
       1
       1
       1
       1
       1
       1
       1
       1
       1
       1
       1
       1
       1
       1
       1
       1
       1
       1
       1
       1
       1
       1
       1
       1
       1
       1
       1
       1
       1
       1
       1
       1
       1
       1
       1
       1
       1
       1
       1
       1
       1
       1
       1
       1
       1
       1
       1
       1
       1
       1
       1
       1
       1
       1
       1
       1
       1
       1
       1
       1
       1
       1
       1
       1
       1
       1
       1
       1
       1
       1
       1
       1
       1
       1
       1
       1
       1
       1
       1
       1
       1
       1
       1
       1
       1
       1
       1
       1
       1
       1
       1
       1
       1
       1
       1
       1
       1
       1
       1
       1
       1
       1
       1
       1
       1
       1
       1
       1
       1
       1
       1
       1
       1
       1
       1
       1
       1
       1
       1
       1
       1
       1
       1
       1
       1
       1
       1
       1
       1
       1
       1
       1
       1
       1
       1
       1
       1
       1
       1
       1
       1
       1
       1
       1
       1
       1
       1
       1
       1
       1
       1
       1
       1
       1
       1
       1
       1
       1
       1
       1
       1
       1
       1
       1
       1
       1
       1
       1
       1
       1
       1
       1
       1
       1
       1
       1
       1
       1
       1
       1
       1
       1
       1
       1
       1
       1
       1
       1
       1
       1
       1
       1
       1
       1
       1
       1
       1
       1
       1
       1
       1
       1
       1
       1
       1
       1
       1
       1
       1
       1
       1
       1
       1
       1
       1
       1
       1
       1
       1
       1
       1
       1
       1
       1
       1
       1
       1
       1
       1
       1
       1
       1
       1
       1
       1
       1
       1
       1
       1
       1
       1
       1
       1
       1
       1
       1
       1
       1
       1
       1
       1
       1
       1
       1
       1
       1
       1
       1
       1
       1
       1
       1
       1
       1
       1
       1
       1
       1
       1
       1
       1
       1
       1
       1
       1
       1
       1
       1
       1
       1
       1
       1
       1
       1
       1
       1
       1
       1
       1
       1
       1
       1
       1
       1
       1
       1
       1
       1
       1
       1
       1
       1
       1
       1
       1
       1
       1
       1
       1
       1
       1
       1
       1
       1
       1
       1
       1
       1
       1
       1
       1
       1
       1
       1
       1
       1
       1
       1
       1
       1
       1
       1
       1
       1
       1
       1
       1
       1
       1
       1
       1
       1
       1
       1
       1
       1
       1
       1
       1
       1
       1
       1
       1
       1
       1
       1
       1
       1
       1
       1
       1
       1
       1
       1
       1
       1
       1
       1
       1
       1
       1
       1
       1
       1
       1
       1
       1
       1
       1
       1
       1
       1
       1
       1
       1
       1
       1
       1
       1
       1
       1
       1
       1
       1
       1
       1
       1
       1
       1
       1
       1
       1
       1
       1
       1
       1
       1
       1
       1
       1
       1
       1
       1
       1
       1
       1
       1
       1
       1
       1
       1
       1
       1
       1
       1
       1
       1
       1
       1
       1
       1
       1
       1
       1
       1
       1
       1
       1
       1
       1
       1
       1
       1
       1
       1
       1
       1
       1
       1
       1
       1
       1
       1
       1
       1
       1
       1
       1
       1
       1
       1
       1
       1
       1
       1
       1
       1
       1
       1
       1
       1
       1
       1
       1
       1
       1
       1
       1
       1
       1
       1
       1
       1
       1
       1
       1
       1
       1
       1
       1
       1
       1
       1
       1
       1
       1
       1
       1
       1
       1
       1
       1
       1
       1
       1
       1
       1
       1
       1
       1
       1
       1
       1
       1
       1
       1
       1
       1
       1
       1
      12
      12
      12
      12
      12
      12
      12
      12
      12
      12
      12
      12
      12
      12
      12
      12
      12
      12
      12
      12
      12
      12
      12
      12
      12
      12
      12
      12
      12
      12
      12
      12
      12
      12
      12
      12
      12
      12
      12
      12
      12
      12
      12
      12
      12
      12
      12
      12
      12
      12
      12
      12
      12
      12
      12
      12
      12
      12
      12
      12
      12
      12
      12
      12
      12
      12
      12
      12
      12
      12
      12
      12
      12
      12
      12
      12
      12
      12
      12
      12
      12
      12
      12
      12
      12
      12
      12
      12
      12
      12
      12
      12
      12
      12
      12
      12
      12
      12
      12
      12
      12
      12
      12
      12
      12
      12
      12
      12
      12
      12
      12
      12
      12
      12
      12
      12
      12
      12
      12
      12
      12
      12
      12
      12
      12
      12
      12
      12
      12
      12
      12
      12
      12
      12
      12
      12
      12
      12
      12
      12
      12
      12
      12
      12
      12
      12
      12
      12
      12
      12
      12
      12
      12
      12
      12
      12
      12
      12
      12
      12
      12
      12
      12
      12
      12
      12
      12
      12
      12
      12
      12
      12
      12
      12
      12
      12
      12
      12
      12
      12
      12
      12
      12
      12
      12
      12
      12
      12
      12
      12
      12
      12
      12
      12
      12
      12
      12
      12
      12
      12
      12
      12
      12
      12
      12
      12
      12
      12
      12
      12
      12
      12
      12
      12
      12
      12
      12
      12
      12
      12
      12
      12
      12
      12
      12
      12
      12
      12
      12
      12
      12
      12
      12
      12
      12
      12
      12
      12
      12
      12
      12
      12
      12
      12
      12
      12
      12
      12
      12
      12
      12
      12
      12
      12
      12
      12
      12
      12
      12
      12
      12
      12
      12
      12
      12
      12
      12
      12
      12
      12
      12
      12
      12
      12
      12
      12
      12
      12
      12
      12
      12
      12
      12
      12
      12
      12
      12
      12
      12
      12
      12
      12
      12
      12
      12
      12
      12
      12
      12
      12
      12
      12
      12
      12
      12
      12
      12
      12
      12
      12
      12
      12
      12
      12
      12
      12
      12
      12
      12
      12
      12
      12
      12
      12
      12
      12
      12
      12
      12
      12
      12
      12
      12
      12
      12
      12
      12
      12
      12
      12
      12
      12
      12
      12
      12
      12
      12
      12
      12
      12
      12
      12
      12
      12
      12
      12
      12
      12
      12
      12
      12
      12
      12
      12
      12
      12
      12
      12
      12
      12
      12
      12
      12
      12
      12
      12
      12
      12
      12
      12
      12
      12
      12
      12
      12
      12
      12
      12
      12
      12
      12
      12
      12
      12
      12
      12
      12
      12
      12
      12
      12
      12
      12
      12
      12
      12
      12
      12
      12
      12
      12
      12
      12
      12
      12
      12
      12
      12
      12
      12
      12
      12
      12
      12
      12
      12
      12
      12
      12
      12
      12
      12
      12
      12
      12
      12
      12
      12
      12
      12
      12
      12
      12
      12
      12
      12
      12
      12
      12
      12
      12
      12
      12
      12
      12
      12
      12
      12
      12
      12
      12
      12
      12
      12
      12
      12
      12
      12
      12
      12
      12
      12
      12
      12
      12
      12
      12
      12
      12
      12
      12
      12
      12
      12
      12
      12
      12
      12
      12
      12
      12
      12
      12
      12
      12
      12
      12
      12
      12
      12
      12
      12
      12
      12
      12
      12
      12
      12
      12
      12
      12
      12
      12
      12
      12
      12
      12
      12
      12
      12
      12
      12
      12
      12
      12
      12
      12
      12
      12
      12
      12
      12
      12
      12
      12
      12
      12
      12
      12
      12
      12
      12
      12
      12
      12
      12
      12
      12
      12
      12
      12
      12
      12
      12
      12
      12
      12
      12
      12
      12
      12
      12
      12
      12
      12
      12
      12
      12
      12
      12
      12
      12
      12
      12
      12
      12
      12
      12
      12
      12
      12
      12
      12
      12
      12
      12
      12
      12
      12
      12
      12
      12
      12
      12
      12
      12
      12
      12
      12
      12
      12
      12
      12
      12
      12
      12
      12
      12
      12
      12
      12
      12
      12
      12
      12
      12
      12
      12
      12
      12
      12
      12
      12
      12
      12
      12
      12
      12
      12
      12
      12
      12
      12
      12
      12
      12
      12
      12
      12
      12
      12
      12
      12
      12
      12
      12
      12
      12
      12
      12
      12
      12
      12
      12
      12
      12
      12
      12
      12
      12
      12
      12
      12
      12
      12
      12
      12
      12
      12
      12
      12
      12
      12
      12
      12
      12
      12
      12
      12
      12
      12
      12
      12
      12
      12
      12
      12
      12
      12
      12
      12
      12
      12
      12
      12
      12
      12
      12
      12
      12
      12
      12
      12
      12
      12
      12
      12
      12
      12
      12
      12
      12
      12
      12
      12
      12
      12
      12
      12
      12
      12
      12
      12
      12
      12
      12
      12
      12
      12
      12
      12
      12
      12
      12
      12
      12
      12
      12
      12
      12
      12
      12
      12
      12
      12
      12
      12
      12
      12
      12
      12
      12
      12
      12
      12
      12
      12
      12
      12
      12
      12
      12
      12
      12
      12
      12
      12
      12
      12
      12
      12
      12
      12
      12
      12
      12
      12
      12
      12
      12
      12
      12
      12
      12
      12
      12
      12
      12
      12
      12
      12
      12
      12
      12
      12
      12
      12
      12
      12
      12
      12
      12
      12
      12
      12
      12
      12
      12
      12
      12
      12
      12
      12
      12
      12
      12
      12
      12
      12
      12
      12
      12
      12
      12
      12
      12
      12
      12
      12
      12
      12
      12
      12
      12
      12
      12
      12
      12
      12
      12
      12
      12
      12
      12
      12
      12
      12
      12
      12
      12
      12
      12
      12
      12
      12
      12
      12
      12
      12
      12
      12
      12
      12
      12
      12
      12
      12
      12
      12
      12
      12
      12
      12
      12
      12
      12
      12
      12
      12
      12
      12
      12
      12
      12
      12
      12
      12
      12
      12
      12
      12
      12
      12
      12
      12
      12
      12
      12
      12
      12
      12
      12
      12
      12
      12
      12
      12
      12
      12
      12
      12
      12
      12
      12
      12
      12
      12
      12
      12
      12
      12
      12
      12
      12
      12
      12
      12
      12
      12
      12
      12
      12
      12
      12
      12
      12
      12
      12
      12
      12
      12
      12
      12
      12
      12
      12
      12
      12
      12
      12
      12
      12
      12
      12
      12
      12
      12
      12
      12
      12
      12
      12
      12
      12
      12
      12
      12
      12
      12
      12
      12
      12
      12
      12
      12
      12
      12
      12
      12
      12
      12
      12
      12
      12
      12
      12
      12
      12
      12
      12
      12
      12
      12
      12
      12
      12
      12
      12
      12
      12
      12
      12
      12
      12
      12
      12
      12
      12
      12
      12
      12
      12
      12
      12
      12
      12
      12
      12
      12
      12
      12
      12
      12
      12
      12
      12
      12
      12
      12
      12
      12
      12
      12
      12
      12
      12
      12
      12
      12
      12
      12
      12
      12
      12
      12
      12
      12
      12
      12
      12
      12
      12
      12
      12
      12
      12
      12
      12
      12
      12
      12
      12
      12
      12
      12
      12
      12
      12
      12
      12
      12
      12
      12
      12
      12
      12
      12
      12
      12
      12
      12
      12
      12
      12
      12
      12
      12
      12
      12
      12
      12
      12
      12
      12
      12
      12
      12
      12
      12
      12
      12
      12
      12
      12
      12
      12
      12
      12
      12
      12
      12
      12
      12
      12
      12
      12
      12
      12
      12
      12
      12
      12
      12
      12
      12
      12
      12
      12
      12
      12
      12
      12
      12
      12
      12
      12
      12
      12
      12
      12
      12
      12
      12
      12
      12
      12
      12
      12
      12
      12
      12
      12
      12
      12
      12
      12
      12
      12
      12
      12
      12
      12
      12
      12
      12
      12
      12
      12
      12
      12
      12
      12
      12
      12
      12
      12
      12
      12
      12
      12
      12
      12
      12
      12
      12
      12
      12
      12
      12
      12
      12
      12
      12
      12
      12
      12
      12
      12
      12
      12
      12
      12
      12
      12
      12
      12
      12
      12
      12
      12
      12
      12
      12
      12
      12
      12
      12
      12
      12
      12
      12
      12
      12
      12
      12
      12
      12
      12
      12
      12
      12
      12
      12
      12
      12
      12
      12
      12
      12
      12
      12
      12
      12
      12
      12
      12
      12
      12
      12
      12
      12
      12
      12
      12
      12
      12
      12
      12
      12
      12
      12
      12
      12
      12
      12
      12
      12
      12
      12
      12
      12
      12
      12
      12
      12
      12
      12
      12
      12
      12
      12
      12
      12
      12
      12
      12
      12
      12
      12
      12
      12
      12
      12
      12
      12
      12
      12
      12
      12
      12
      12
      12
      12
      12
      12
      12
      12
      12
      12
      12
      12
      12
      12
      12
      12
      12
      12
      12
      12
      12
      12
      12
      12
      12
      12
      12
      12
      12
      12
      12
      12
      12
      12
      12
      12
      12
      12
      12
      12
      12
      12
      12
      12
      12
      12
      12
      12
      12
      12
      12
      12
      12
      12
      12
      12
      12
      12
      12
      12
      12
      12
      12
      12
      12
      12
      12
      12
      12
      12
      12
      12
      12
      12
      12
      12
      12
      12
      12
      12
      12
      12
      12
      12
      12
      12
      12
      12
      12
      12
      12
      12
      12
      12
      12
      12
      12
      12
      12
      12
      12
      12
      12
      12
      12
      12
      12
      12
      12
      12
      12
      12
      12
      12
      12
      12
      12
      12
      12
      12
      12
      12
      12
      12
      12
      12
      12
      12
      12
      12
      12
      12
      12
      12
      12
      12
      12
      12
      12
      12
      12
      12
      12
      12
      12
      12
      12
      12
      12
      12
      12
      12
      12
      12
      12
      12
      12
      12
      12
      12
      12
      12
      12
      12
      12
      12
      12
      12
      12
      12
      12
      12
      12
      12
      12
      12
      12
      12
      12
      12
      12
      12
      12
      12
      12
      12
      12
      12
      12
      12
      12
      12
      12
      12
      12
      12
      12
      12
      12
      12
      12
      12
      12
      12
      12
      12
      12
      12
      12
      12
      12
      12
      12
      12
      12
      12
      12
      12
      12
      12
      12
      12
      12
      12
      12
      12
      12
      12
      12
      12
      12
      12
      12
      12
      12
      12
      12
  
  
POINT_DATA       1950
  
SCALARS                  material_type  double 1
LOOKUP_TABLE default
                   2
                   2
                   2
                   2
                   2
                   2
                   2
                   2
                   2
                   2
                   2
                   2
                   2
                   2
                   2
                   2
                   2
                   2
                   2
                   2
                   2
                   2
                   2
                   2
                   2
                   2
                   2
                   2
                   2
                   2
                   2
                   2
                   2
                   2
                   2
                   2
                   2
                   2
                   2
                   2
                   2
                   2
                   2
                   2
                   2
                   2
                   2
                   2
                   2
                   2
                   2
                   2
                   2
                   2
                   2
                   2
                   2
                   2
                   2
                   2
                   2
                   2
                   2
                   2
                   2
                   2
                   2
                   2
                   2
                   2
                   2
                   2
                   2
                   2
                   2
                   2
                   2
                   2
                   2
                   2
                   2
                   2
                   2
                   2
                   2
                   2
                   2
                   2
                   2
                   2
                   2
                   2
                   2
                   2
                   2
                   2
                   2
                   2
                   2
                   2
                   2
                   2
                   2
                   2
                   2
                   2
                   2
                   2
                   2
                   2
                   2
                   2
                   2
                   2
                   2
                   2
                   2
                   2
                   2
                   2
                   2
                   2
                   2
                   2
                   2
                   2
                   2
                   2
                   2
                   2
                   2
                   2
                   2
                   2
                   2
                   2
                   2
                   2
                   2
                   2
                   2
                   2
                   2
                   2
                   2
                   2
                   2
                   2
                   2
                   2
                   2
                   2
                   2
                   2
                   2
                   2
                   2
                   2
                   2
                   2
                   2
                   2
                   2
                   2
                   2
                   2
                   2
                   2
                   2
                   2
                   2
                   2
                   2
                   2
                   2
                   2
                   2
                   2
                   2
                   2
                   2
                   2
                   2
                   2
                   2
                   2
                   2
                   2
                   2
                   2
                   2
                   2
                   2
                   2
                   2
                   2
                   2
                   2
                   2
                   2
                   2
                   2
                   2
                   2
                   2
                   2
                   2
                   2
                   2
                   2
                   2
                   2
                   2
                   2
                   2
                   2
                   2
                   2
                   2
                   2
                   2
                   2
                   2
                   2
                   2
                   2
                   2
                   2
                   2
                   2
                   2
                   2
                   2
                   2
                   2
                   2
                   2
                   2
                   2
                   2
                   2
                   2
                   2
                   2
                   2
                   2
                   2
                   2
                   2
                   2
                   2
                   2
                   2
                   2
                   2
                   2
                   2
                   2
                   2
                   2
                   2
                   2
                   2
                   2
                   2
                   2
                   2
                   2
                   2
                   2
                   2
                   2
                   2
                   2
                   2
                   2
                   2
                   2
                   2
                   2
                   2
                   2
                   2
                   2
                   2
                   2
                   2
                   2
                   2
                   2
                   2
                   2
                   2
                   2
                   2
                   2
                   2
                   2
                   2
                   2
                   2
                   2
                   2
                   2
                   2
                   2
                   2
                   2
                   2
                   2
                   2
                   2
                   2
                   2
                   2
                   2
                   2
                   2
                   2
                   2
                   2
                   2
                   2
                   2
                   2
                   2
                   2
                   2
                   2
                   2
                   2
                   2
                   2
                   2
                   2
                   2
                   2
                   2
                   2
                   2
                   2
                   2
                   2
                   2
                   2
                   2
                   2
                   2
                   2
                   2
                   2
                   2
                   2
                   2
                   2
                   2
                   2
                   2
                   2
                   2
                   2
                   2
                   2
                   2
                   2
                   2
                   2
                   2
                   2
                   2
                   2
                   2
                   2
                   2
                   2
                   2
                   2
                   2
                   2
                   2
                   2
                   2
                   2
                   2
                   2
                   2
                   2
                   2
                   2
                   2
                   2
                   2
                   2
                   2
                   2
                   2
                   2
                   2
                   2
                   2
                   2
                   2
                   2
                   2
                   2
                   2
                   2
                   2
                   2
                   2
                   2
                   2
                   2
                   2
                   2
                   2
                   2
                   2
                   2
                   2
                   2
                   2
                   2
                   2
                   2
                   2
                   2
                   2
                   2
                   2
                   2
                   2
                   2
                   2
                   2
                   2
                   2
                   2
                   2
                   2
                   2
                   2
                   2
                   2
                   2
                   2
                   2
                   2
                   2
                   2
                   2
                   2
                   2
                   2
                   2
                   2
                   2
                   2
                   2
                   2
                   2
                   2
                   2
                   2
                   2
                   2
                   2
                   2
                   2
                   2
                   2
                   2
                   2
                   2
                   2
                   2
                   2
                   2
                   2
                   2
                   2
                   2
                   2
                   2
                   2
                   2
                   2
                   2
                   2
                   2
                   2
                   2
                   2
                   2
                   2
                   2
                   2
                   2
                   2
                   2
                   2
                   2
                   2
                   2
                   2
                   2
                   2
                   2
                   2
                   2
                   2
                   2
                   2
                   2
                   2
                   2
                   2
                   2
                   2
                   2
                   2
                   2
                   2
                   2
                   2
                   2
                   2
                   2
                   2
                   2
                   2
                   2
                   2
                   2
                   2
                   2
                   2
                   2
                   2
                   2
                   2
                   2
                   2
                   2
                   2
                   2
                   2
                   2
                   2
                   2
                   2
                   2
                   2
                   2
                   2
                   2
                   2
                   2
                   2
                   2
                   2
                   2
                   2
                   2
                   2
                   2
                   2
                   2
                   2
                   2
                   2
                   2
                   2
                   2
                   2
                   2
                   2
                   2
                   2
                   2
                   2
                   2
                   2
                   2
                   2
                   2
                   2
                   2
                   2
                   2
                   2
                   2
                   2
                   2
                   2
                   2
                   2
                   2
                   2
                   2
                   2
                   2
                   2
                   2
                   2
                   2
                   2
                   2
                   2
                   2
                   2
                   2
                   2
                   2
                   2
                   2
                   2
                   2
                   2
                   2
                   2
                   2
                   2
                   2
                   2
                   2
                   2
                   2
                   2
                   2
                   2
                   2
                   2
                   2
                   2
                   2
                   2
                   2
                   2
                   2
                   2
                   2
                   2
                   2
                   2
                   2
                   2
                   2
                   2
                   2
                   2
                   2
                   2
                   2
                   2
                   2
                   2
                   2
                   2
                   2
                   2
                   2
                   2
                   2
                   2
                   2
                   2
                   2
                   2
                   2
                   2
                   2
                   2
                   2
                   2
                   2
                   2
                   2
                   2
                   2
                   2
                   2
                   2
                   2
                   2
                   2
                   2
                   2
                   2
                   2
                   2
                   2
                   2
                   2
                   2
                   2
                   2
                   2
                   2
                   2
                   2
                   2
                   2
                   2
                   2
                   2
                   2
                   2
                   2
                   2
                   2
                   2
                   2
                   2
                   2
                   2
                   2
                   2
                   2
                   2
                   2
                   2
                   2
                   2
                   2
                   2
                   2
                   2
                   2
                   2
                   2
                   2
                   2
                   2
                   2
                   2
                   2
                   2
                   2
                   2
                   2
                   2
                   2
                   2
                   2
                   2
                   2
                   2
                   2
                   2
                   2
                   2
                   2
                   2
                   2
                   2
                   2
                   2
                   2
                   2
                   2
                   2
                   2
                   2
                   2
                   2
                   2
                   2
                   2
                   2
                   2
                   2
                   2
                   2
                   2
                   2
                   2
                   2
                   2
                   2
                   2
                   2
                   2
                   2
                   2
                   2
                   2
                   2
                   2
                   2
                   2
                   2
                   2
                   2
                   2
                   2
                   2
                   2
                   2
                   2
                   2
                   2
                   2
                   2
                   2
                   2
                   2
                   2
                   2
                   2
                   2
                   2
                   2
                   2
                   2
                   2
                   2
                   2
                   2
                   2
                   2
                   2
                   2
                   2
                   2
                   2
                   2
                   2
                   2
                   2
                   2
                   2
                   2
                   2
                   2
                   2
                   2
                   2
                   2
                   2
                   2
                   2
                   2
                   2
                   2
                   2
                   2
                   2
                   2
                   2
                   2
                   2
                   2
                   2
                   2
                   2
                   2
                   2
                   2
                   2
                   2
                   2
                   2
                   2
                   2
                   2
                   2
                   2
                   2
                   2
                   2
                   2
                   2
                   2
                   2
                   2
                   2
                   2
                   2
                   2
                   2
                   2
                   2
                   2
                   2
                   2
                   2
                   2
                   2
                   2
                   2
                   2
                   2
                   2
                   2
                   2
                   2
                   2
                   2
                   2
                   2
                   2
                   2
                   2
                   2
                   2
                   2
                   2
                   2
                   2
                   2
                   2
                   2
                   2
                   2
                   2
                   2
                   2
                   2
                   2
                   2
                   2
                   2
                   2
                   2
                   2
                   2
                   2
                   2
                   2
                   2
                   2
                   2
                   2
                   2
                   2
                   2
                   2
                   2
                   2
                   2
                   2
                   2
                   2
                   2
                   2
                   2
                   2
                   2
                   2
                   2
                   2
                   2
                   2
                   2
                   2
                   2
                   2
                   2
                   2
                   2
                   2
                   2
                   2
                   2
                   2
                   2
                   2
                   2
                   2
                   2
                   2
                   2
                   2
                   2
                   2
                   2
                   2
                   2
                   2
                   2
                   2
                   2
                   2
                   2
                   2
                   2
                   2
                   2
                   2
                   2
                   2
                   2
                   2
                   2
                   2
                   2
                   2
                   2
                   2
                   2
                   2
                   2
                   2
                   2
                   2
                   2
                   2
                   2
                   2
                   2
                   2
                   2
                   2
                   2
                   2
                   2
                   2
                   2
                   2
                   2
                   2
                   2
                   2
                   2
                   2
                   2
                   2
                   2
                   2
                   2
                   2
                   2
                   2
                   2
                   2
                   2
                   2
                   2
                   2
                   2
                   2
                   2
                   2
                   2
                   2
                   2
                   2
                   2
                   2
                   2
                   2
                   2
                   2
                   2
                   2
                   2
                   2
                   2
                   2
                   2
                   2
                   2
                   2
                   2
                   2
                   2
                   2
                   2
                   2
                   2
                   2
                   2
                   2
                   2
                   2
                   2
                   2
                   2
                   2
                   2
                   2
                   2
                   2
                   2
                   2
                   2
                   2
                   2
                   2
                   2
                   2
                   2
                   2
                   2
                   2
                   2
                   2
                   2
                   2
                   2
                   2
                   2
                   2
                   2
                   2
                   2
                   2
                   2
                   2
                   2
                   2
                   2
                   2
                   2
                   2
                   2
                   2
                   2
                   2
                   2
                   2
                   2
                   2
                   2
                   2
                   2
                   2
                   2
                   2
                   2
                   2
                   2
                   2
                   2
                   2
                   2
                   2
                   2
                   2
                   2
                   2
                   2
                   2
                   2
                   2
                   2
                   2
                   2
                   2
                   2
                   2
                   2
                   2
                   2
                   2
                   2
                   2
                   2
                   2
                   2
                   2
                   2
                   2
                   2
                   2
                   2
                   2
                   2
                   2
                   2
                   2
                   2
                   2
                   2
                   2
                   2
                   2
                   2
                   2
                   2
                   2
                   2
                   2
                   2
                   2
                   2
                   2
                   2
                   2
                   2
                   2
                   2
                   2
                   2
                   2
                   2
                   2
                   2
                   2
                   2
                   2
                   2
                   2
                   2
                   2
                   2
                   2
                   2
                   2
                   2
                   2
                   2
                   2
                   2
                   2
                   2
                   2
                   2
                   2
                   2
                   2
                   2
                   2
                   2
                   2
                   2
                   2
                   2
                   2
                   2
                   2
                   2
                   2
                   2
                   2
                   2
                   2
                   2
                   2
                   2
                   2
                   2
                   2
                   2
                   2
                   2
                   2
                   2
                   2
                   2
                   2
                   2
                   2
                   2
                   2
                   2
                   2
                   2
                   2
                   2
                   2
                   2
                   2
                   2
                   2
                   2
                   2
                   2
                   2
                   2
                   2
                   2
                   2
                   2
                   2
                   2
                   2
                   2
                   2
                   2
                   2
                   2
                   2
                   2
                   2
                   2
                   2
                   2
                   2
                   2
                   2
                   2
                   2
                   2
                   2
                   2
                   2
                   2
                   2
                   2
                   2
                   2
                   2
                   2
                   2
                   2
                   2
                   2
                   2
                   2
                   2
                   2
                   2
                   2
                   2
                   2
                   2
                   2
                   2
                   2
                   2
                   2
                   2
                   2
                   2
                   2
                   2
                   2
                   2
                   2
                   2
                   2
                   2
                   2
                   2
                   2
                   2
                   2
                   2
                   2
                   2
                   2
                   2
                   2
                   2
                   2
                   2
                   2
                   2
                   2
                   2
                   2
                   2
                   2
                   2
                   2
                   2
                   2
                   2
                   2
                   2
                   2
                   2
                   2
                   2
                   2
                   2
                   2
                   2
                   2
                   2
                   2
                   2
                   2
                   2
                   2
                   2
                   2
                   2
                   2
                   2
                   2
                   2
                   2
                   2
                   2
                   2
                   2
                   2
                   2
                   2
                   2
                   2
                   2
                   2
                   2
                   2
                   2
                   2
                   2
                   2
                   2
                   2
                   2
                   2
                   2
                   2
                   2
                   2
                   2
                   2
                   2
                   2
                   2
                   2
                   2
                   2
                   2
                   2
                   2
                   2
                   2
                   2
                   2
                   2
                   2
                   2
                   2
                   2
                   2
                   2
                   2
                   2
                   2
                   2
                   2
                   2
                   2
                   2
                   2
                   2
                   2
                   2
                   2
                   2
                   2
                   2
                   2
                   2
                   2
                   2
                   2
                   2
                   2
                   2
                   2
                   2
                   2
                   2
                   2
                   2
                   2
                   2
                   2
                   2
                   2
                   2
                   2
                   2
                   2
                   2
                   2
                   2
                   2
                   2
                   2
                   2
                   2
                   2
                   2
                   2
                   2
                   2
                   2
                   2
                   2
                   2
                   2
                   2
                   2
                   2
                   2
                   2
                   2
                   2
                   2
                   2
                   2
                   2
                   2
                   2
                   2
                   2
                   2
                   2
                   2
                   2
                   2
                   2
                   2
                   2
                   2
                   2
                   2
                   2
                   2
                   2
                   2
                   2
                   2
                   2
                   2
                   2
                   2
                   2
                   2
                   2
                   2
                   2
                   2
                   2
                   2
                   2
                   2
                   2
                   2
                   2
                   2
                   2
                   2
                   2
                   2
                   2
                   2
                   2
                   2
                   2
                   2
                   2
                   2
                   2
                   2
                   2
                   2
                   2
                   2
                   2
                   2
                   2
                   2
                   2
                   2
                   2
                   2
                   2
                   2
                   2
                   2
                   2
                   2
                   2
                   2
                   2
                   2
                   2
                   2
                   2
                   2
                   2
                   2
                   2
                   2
                   2
                   2
                   2
                   2
                   2
                   2
                   2
                   2
                   2
                   2
                   2
                   2
                   2
                   2
                   2
                   2
                   2
                   2
                   2
                   2
                   2
                   2
                   2
                   2
                   2
                   2
                   2
                   2
                   2
                   2
                   2
                   2
                   2
                   2
                   2
                   2
                   2
                   2
                   2
                   2
                   2
                   2
                   2
                   2
                   2
                   2
                   2
                   2
                   2
                   2
                   2
                   2
                   2
                   2
                   2
                   2
                   2
                   2
                   2
                   2
                   2
                   2
                   2
                   2
                   2
                   2
                   2
                   2
                   2
                   2
                   2
                   2
                   2
                   2
                   2
                   2
                   2
                   2
                   2
                   2
                   2
                   2
                   2
                   2
                   2
                   2
                   2
                   2
                   2
                   2
                   2
                   2
                   2
                   2
                   2
                   2
                   2
                   2
                   2
                   2
                   2
                   2
                   2
                   2
                   2
                   2
                   2
                   2
                   2
                   2
                   2
                   2
                   2
                   2
                   2
                   2
                   2
                   2
                   2
                   2
                   2
                   2
                   2
                   2
                   2
                   2
                   2
                   2
                   2
                   2
                   2
                   2
                   2
                   2
                   2
                   2
                   2
                   2
                   2
                   2
                   2
                   2
                   2
                   2
                   2
                   2
                   2
                   2
                   2
                   2
                   2
                   2
                   2
                   2
                   2
                   2
                   2
                   2
                   2
                   2
                   2
                   2
                   2
                   2
                   2
                   2
                   2
                   2
                   2
                   2
                   2
                   2
                   2
                   2
                   2
                   2
                   2
                   2
                   2
                   2
                   2
                   2
                   2
                   2
                   2
                   2
                   2
                   2
                   2
                   2
                   2
                   2
                   2
                   2
                   2
                   2
                   2
                   2
                   2
                   2
                   2
                   2
                   2
                   2
                   2
                   2
                   2
                   2
                   2
                   2
                   2
                   2
                   2
                   2
                   2
                   2
                   2
                   2
                   2
                   2
                   2
                   2
                   2
                   2
                   2
                   2
                   2
                   2
                   2
                   2
                   2
                   2
                   2
                   2
                   2
                   2
                   2
                   2
                   2
                   2
                   2
                   2
                   2
                   2
                   2
                   2
                   2
                   2
                   2
                   2
                   2
                   2
                   2
                   2
                   2
                   2
                   2
                   2
                   2
                   2
                   2
                   2
                   2
                   2
                   2
                   2
                   2
                   2
                   2
                   2
                   2
                   2
                   2
                   2
                   2
                   2
                   2
                   2
                   2
                   2
                   2
                   2
                   2
                   2
                   2
                   2
                   2
                   2
                   2
                   2
                   2
                   2
                   2
                   2
                   2
                   2
                   2
                   2
                   2
                   2
                   2
                   2
                   2
                   2
                   2
                   2
                   2
                   2
                   2
                   2
                   2
                   2
                   2
                   2
                   2
                   2
                   2
                   2
                   2
                   2
                   2
                   2
                   2
                   2
                   2
                   2
                   2
                   2
                   2
                   2
                   2
                   2
                   2
                   2
                   2
                   2
                   2
                   2
                   2
                   2
                   2
                   2
                   2
                   2
                   2
                   2
                   2
                   2
                   2
                   2
                   2
                   2
                   2
                   2
                   2
                   2
                   2
                   2
                   2
                   2
                   2
                   2
                   2
                   2
                   2
                   2
                   2
  
SCALARS                        node_id  double 1
LOOKUP_TABLE default
                   1
                   2
                   3
                   4
                   5
                   6
                   7
                   8
                   9
                  10
                  11
                  12
                  13
                  14
                  15
                  16
                  17
                  18
                  19
                  20
                  21
                  22
                  23
                  24
                  25
                  26
                  27
                  28
                  29
                  30
                  31
                  32
                  33
                  34
                  35
                  36
                  37
                  38
                  39
                  40
                  41
                  42
                  43
                  44
                  45
                  46
                  47
                  48
                  49
                  50
                  51
                  52
                  53
                  54
                  55
                  56
                  57
                  58
                  59
                  60
                  61
                  62
                  63
                  64
                  65
                  66
                  67
                  68
                  69
                  70
                  71
                  72
                  73
                  74
                  75
                  76
                  77
                  78
                  79
                  80
                  81
                  82
                  83
                  84
                  85
                  86
                  87
                  88
                  89
                  90
                  91
                  92
                  93
                  94
                  95
                  96
                  97
                  98
                  99
                 100
                 101
                 102
                 103
                 104
                 105
                 106
                 107
                 108
                 109
                 110
                 111
                 112
                 113
                 114
                 115
                 116
                 117
                 118
                 119
                 120
                 121
                 122
                 123
                 124
                 125
                 126
                 127
                 128
                 129
                 130
                 131
                 132
                 133
                 134
                 135
                 136
                 137
                 138
                 139
                 140
                 141
                 142
                 143
                 144
                 145
                 146
                 147
                 148
                 149
                 150
                 151
                 152
                 153
                 154
                 155
                 156
                 157
                 158
                 159
                 160
                 161
                 162
                 163
                 164
                 165
                 166
                 167
                 168
                 169
                 170
                 171
                 172
                 173
                 174
                 175
                 176
                 177
                 178
                 179
                 180
                 181
                 182
                 183
                 184
                 185
                 186
                 187
                 188
                 189
                 190
                 191
                 192
                 193
                 194
                 195
                 196
                 197
                 198
                 199
                 200
                 201
                 202
                 203
                 204
                 205
                 206
                 207
                 208
                 209
                 210
                 211
                 212
                 213
                 214
                 215
                 216
                 217
                 218
                 219
                 220
                 221
                 222
                 223
                 224
                 225
                 226
                 227
                 228
                 229
                 230
                 231
                 232
                 233
                 234
                 235
                 236
                 237
                 238
                 239
                 240
                 241
                 242
                 243
                 244
                 245
                 246
                 247
                 248
                 249
                 250
                 251
                 252
                 253
                 254
                 255
                 256
                 257
                 258
                 259
                 260
                 261
                 262
                 263
                 264
                 265
                 266
                 267
                 268
                 269
                 270
                 271
                 272
                 273
                 274
                 275
                 276
                 277
                 278
                 279
                 280
                 281
                 282
                 283
                 284
                 285
                 286
                 287
                 288
                 289
                 290
                 291
                 292
                 293
                 294
                 295
                 296
                 297
                 298
                 299
                 300
                 301
                 302
                 303
                 304
                 305
                 306
                 307
                 308
                 309
                 310
                 311
                 312
                 313
                 314
                 315
                 316
                 317
                 318
                 319
                 320
                 321
                 322
                 323
                 324
                 325
                 326
                 327
                 328
                 329
                 330
                 331
                 332
                 333
                 334
                 335
                 336
                 337
                 338
                 339
                 340
                 341
                 342
                 343
                 344
                 345
                 346
                 347
                 348
                 349
                 350
                 351
                 352
                 353
                 354
                 355
                 356
                 357
                 358
                 359
                 360
                 361
                 362
                 363
                 364
                 365
                 366
                 367
                 368
                 369
                 370
                 371
                 372
                 373
                 374
                 375
                 376
                 377
                 378
                 379
                 380
                 381
                 382
                 383
                 384
                 385
                 386
                 387
                 388
                 389
                 390
                 391
                 392
                 393
                 394
                 395
                 396
                 397
                 398
                 399
                 400
                 401
                 402
                 403
                 404
                 405
                 406
                 407
                 408
                 409
                 410
                 411
                 412
                 413
                 414
                 415
                 416
                 417
                 418
                 419
                 420
                 421
                 422
                 423
                 424
                 425
                 426
                 427
                 428
                 429
                 430
                 431
                 432
                 433
                 434
                 435
                 436
                 437
                 438
                 439
                 440
                 441
                 442
                 443
                 444
                 445
                 446
                 447
                 448
                 449
                 450
                 451
                 452
                 453
                 454
                 455
                 456
                 457
                 458
                 459
                 460
                 461
                 462
                 463
                 464
                 465
                 466
                 467
                 468
                 469
                 470
                 471
                 472
                 473
                 474
                 475
                 476
                 477
                 478
                 479
                 480
                 481
                 482
                 483
                 484
                 485
                 486
                 487
                 488
                 489
                 490
                 491
                 492
                 493
                 494
                 495
                 496
                 497
                 498
                 499
                 500
                 501
                 502
                 503
                 504
                 505
                 506
                 507
                 508
                 509
                 510
                 511
                 512
                 513
                 514
                 515
                 516
                 517
                 518
                 519
                 520
                 521
                 522
                 523
                 524
                 525
                 526
                 527
                 528
                 529
                 530
                 531
                 532
                 533
                 534
                 535
                 536
                 537
                 538
                 539
                 540
                 541
                 542
                 543
                 544
                 545
                 546
                 547
                 548
                 549
                 550
                 551
                 552
                 553
                 554
                 555
                 556
                 557
                 558
                 559
                 560
                 561
                 562
                 563
                 564
                 565
                 566
                 567
                 568
                 569
                 570
                 571
                 572
                 573
                 574
                 575
                 576
                 577
                 578
                 579
                 580
                 581
                 582
                 583
                 584
                 585
                 586
                 587
                 588
                 589
                 590
                 591
                 592
                 593
                 594
                 595
                 596
                 597
                 598
                 599
                 600
                 601
                 602
                 603
                 604
                 605
                 606
                 607
                 608
                 609
                 610
                 611
                 612
                 613
                 614
                 615
                 616
                 617
                 618
                 619
                 620
                 621
                 622
                 623
                 624
                 625
                 626
                 627
                 628
                 629
                 630
                 631
                 632
                 633
                 634
                 635
                 636
                 637
                 638
                 639
                 640
                 641
                 642
                 643
                 644
                 645
                 646
                 647
                 648
                 649
                 650
                 651
                 652
                 653
                 654
                 655
                 656
                 657
                 658
                 659
                 660
                 661
                 662
                 663
                 664
                 665
                 666
                 667
                 668
                 669
                 670
                 671
                 672
                 673
                 674
                 675
                 676
                 677
                 678
                 679
                 680
                 681
                 682
                 683
                 684
                 685
                 686
                 687
                 688
                 689
                 690
                 691
                 692
                 693
                 694
                 695
                 696
                 697
                 698
                 699
                 700
                 701
                 702
                 703
                 704
                 705
                 706
                 707
                 708
                 709
                 710
                 711
                 712
                 713
                 714
                 715
                 716
                 717
                 718
                 719
                 720
                 721
                 722
                 723
                 724
                 725
                 726
                 727
                 728
                 729
                 730
                 731
                 732
                 733
                 734
                 735
                 736
                 737
                 738
                 739
                 740
                 741
                 742
                 743
                 744
                 745
                 746
                 747
                 748
                 749
                 750
                 751
                 752
                 753
                 754
                 755
                 756
                 757
                 758
                 759
                 760
                 761
                 762
                 763
                 764
                 765
                 766
                 767
                 768
                 769
                 770
                 771
                 772
                 773
                 774
                 775
                 776
                 777
                 778
                 779
                 780
                 781
                 782
                 783
                 784
                 785
                 786
                 787
                 788
                 789
                 790
                 791
                 792
                 793
                 794
                 795
                 796
                 797
                 798
                 799
                 800
                 801
                 802
                 803
                 804
                 805
                 806
                 807
                 808
                 809
                 810
                 811
                 812
                 813
                 814
                 815
                 816
                 817
                 818
                 819
                 820
                 821
                 822
                 823
                 824
                 825
                 826
                 827
                 828
                 829
                 830
                 831
                 832
                 833
                 834
                 835
                 836
                 837
                 838
                 839
                 840
                 841
                 842
                 843
                 844
                 845
                 846
                 847
                 848
                 849
                 850
                 851
                 852
                 853
                 854
                 855
                 856
                 857
                 858
                 859
                 860
                 861
                 862
                 863
                 864
                 865
                 866
                 867
                 868
                 869
                 870
                 871
                 872
                 873
                 874
                 875
                 876
                 877
                 878
                 879
                 880
                 881
                 882
                 883
                 884
                 885
                 886
                 887
                 888
                 889
                 890
                 891
                 892
                 893
                 894
                 895
                 896
                 897
                 898
                 899
                 900
                 901
                 902
                 903
                 904
                 905
                 906
                 907
                 908
                 909
                 910
                 911
                 912
                 913
                 914
                 915
                 916
                 917
                 918
                 919
                 920
                 921
                 922
                 923
                 924
                 925
                 926
                 927
                 928
                 929
                 930
                 931
                 932
                 933
                 934
                 935
                 936
                 937
                 938
                 939
                 940
                 941
                 942
                 943
                 944
                 945
                 946
                 947
                 948
                 949
                 950
                 951
                 952
                 953
                 954
                 955
                 956
                 957
                 958
                 959
                 960
                 961
                 962
                 963
                 964
                 965
                 966
                 967
                 968
                 969
                 970
                 971
                 972
                 973
                 974
                 975
                 976
                 977
                 978
                 979
                 980
                 981
                 982
                 983
                 984
                 985
                 986
                 987
                 988
                 989
                 990
                 991
                 992
                 993
                 994
                 995
                 996
                 997
                 998
                 999
                1000
                1001
                1002
                1003
                1004
                1005
                1006
                1007
                1008
                1009
                1010
                1011
                1012
                1013
                1014
                1015
                1016
                1017
                1018
                1019
                1020
                1021
                1022
                1023
                1024
                1025
                1026
                1027
                1028
                1029
                1030
                1031
                1032
                1033
                1034
                1035
                1036
                1037
                1038
                1039
                1040
                1041
                1042
                1043
                1044
                1045
                1046
                1047
                1048
                1049
                1050
                1051
                1052
                1053
                1054
                1055
                1056
                1057
                1058
                1059
                1060
                1061
                1062
                1063
                1064
                1065
                1066
                1067
                1068
                1069
                1070
                1071
                1072
                1073
                1074
                1075
                1076
                1077
                1078
                1079
                1080
                1081
                1082
                1083
                1084
                1085
                1086
                1087
                1088
                1089
                1090
                1091
                1092
                1093
                1094
                1095
                1096
                1097
                1098
                1099
                1100
                1101
                1102
                1103
                1104
                1105
                1106
                1107
                1108
                1109
                1110
                1111
                1112
                1113
                1114
                1115
                1116
                1117
                1118
                1119
                1120
                1121
                1122
                1123
                1124
                1125
                1126
                1127
                1128
                1129
                1130
                1131
                1132
                1133
                1134
                1135
                1136
                1137
                1138
                1139
                1140
                1141
                1142
                1143
                1144
                1145
                1146
                1147
                1148
                1149
                1150
                1151
                1152
                1153
                1154
                1155
                1156
                1157
                1158
                1159
                1160
                1161
                1162
                1163
                1164
                1165
                1166
                1167
                1168
                1169
                1170
                1171
                1172
                1173
                1174
                1175
                1176
                1177
                1178
                1179
                1180
                1181
                1182
                1183
                1184
                1185
                1186
                1187
                1188
                1189
                1190
                1191
                1192
                1193
                1194
                1195
                1196
                1197
                1198
                1199
                1200
                1201
                1202
                1203
                1204
                1205
                1206
                1207
                1208
                1209
                1210
                1211
                1212
                1213
                1214
                1215
                1216
                1217
                1218
                1219
                1220
                1221
                1222
                1223
                1224
                1225
                1226
                1227
                1228
                1229
                1230
                1231
                1232
                1233
                1234
                1235
                1236
                1237
                1238
                1239
                1240
                1241
                1242
                1243
                1244
                1245
                1246
                1247
                1248
                1249
                1250
                1251
                1252
                1253
                1254
                1255
                1256
                1257
                1258
                1259
                1260
                1261
                1262
                1263
                1264
                1265
                1266
                1267
                1268
                1269
                1270
                1271
                1272
                1273
                1274
                1275
                1276
                1277
                1278
                1279
                1280
                1281
                1282
                1283
                1284
                1285
                1286
                1287
                1288
                1289
                1290
                1291
                1292
                1293
                1294
                1295
                1296
                1297
                1298
                1299
                1300
                1301
                1302
                1303
                1304
                1305
                1306
                1307
                1308
                1309
                1310
                1311
                1312
                1313
                1314
                1315
                1316
                1317
                1318
                1319
                1320
                1321
                1322
                1323
                1324
                1325
                1326
                1327
                1328
                1329
                1330
                1331
                1332
                1333
                1334
                1335
                1336
                1337
                1338
                1339
                1340
                1341
                1342
                1343
                1344
                1345
                1346
                1347
                1348
                1349
                1350
                1351
                1352
                1353
                1354
                1355
                1356
                1357
                1358
                1359
                1360
                1361
                1362
                1363
                1364
                1365
                1366
                1367
                1368
                1369
                1370
                1371
                1372
                1373
                1374
                1375
                1376
                1377
                1378
                1379
                1380
                1381
                1382
                1383
                1384
                1385
                1386
                1387
                1388
                1389
                1390
                1391
                1392
                1393
                1394
                1395
                1396
                1397
                1398
                1399
                1400
                1401
                1402
                1403
                1404
                1405
                1406
                1407
                1408
                1409
                1410
                1411
                1412
                1413
                1414
                1415
                1416
                1417
                1418
                1419
                1420
                1421
                1422
                1423
                1424
                1425
                1426
                1427
                1428
                1429
                1430
                1431
                1432
                1433
                1434
                1435
                1436
                1437
                1438
                1439
                1440
                1441
                1442
                1443
                1444
                1445
                1446
                1447
                1448
                1449
                1450
                1451
                1452
                1453
                1454
                1455
                1456
                1457
                1458
                1459
                1460
                1461
                1462
                1463
                1464
                1465
                1466
                1467
                1468
                1469
                1470
                1471
                1472
                1473
                1474
                1475
                1476
                1477
                1478
                1479
                1480
                1481
                1482
                1483
                1484
                1485
                1486
                1487
                1488
                1489
                1490
                1491
                1492
                1493
                1494
                1495
                1496
                1497
                1498
                1499
                1500
                1501
                1502
                1503
                1504
                1505
                1506
                1507
                1508
                1509
                1510
                1511
                1512
                1513
                1514
                1515
                1516
                1517
                1518
                1519
                1520
                1521
                1522
                1523
                1524
                1525
                1526
                1527
                1528
                1529
                1530
                1531
                1532
                1533
                1534
                1535
                1536
                1537
                1538
                1539
                1540
                1541
                1542
                1543
                1544
                1545
                1546
                1547
                1548
                1549
                1550
                1551
                1552
                1553
                1554
                1555
                1556
                1557
                1558
                1559
                1560
                1561
                1562
                1563
                1564
                1565
                1566
                1567
                1568
                1569
                1570
                1571
                1572
                1573
                1574
                1575
                1576
                1577
                1578
                1579
                1580
                1581
                1582
                1583
                1584
                1585
                1586
                1587
                1588
                1589
                1590
                1591
                1592
                1593
                1594
                1595
                1596
                1597
                1598
                1599
                1600
                1601
                1602
                1603
                1604
                1605
                1606
                1607
                1608
                1609
                1610
                1611
                1612
                1613
                1614
                1615
                1616
                1617
                1618
                1619
                1620
                1621
                1622
                1623
                1624
                1625
                1626
                1627
                1628
                1629
                1630
                1631
                1632
                1633
                1634
                1635
                1636
                1637
                1638
                1639
                1640
                1641
                1642
                1643
                1644
                1645
                1646
                1647
                1648
                1649
                1650
                1651
                1652
                1653
                1654
                1655
                1656
                1657
                1658
                1659
                1660
                1661
                1662
                1663
                1664
                1665
                1666
                1667
                1668
                1669
                1670
                1671
                1672
                1673
                1674
                1675
                1676
                1677
                1678
                1679
                1680
                1681
                1682
                1683
                1684
                1685
                1686
                1687
                1688
                1689
                1690
                1691
                1692
                1693
                1694
                1695
                1696
                1697
                1698
                1699
                1700
                1701
                1702
                1703
                1704
                1705
                1706
                1707
                1708
                1709
                1710
                1711
                1712
                1713
                1714
                1715
                1716
                1717
                1718
                1719
                1720
                1721
                1722
                1723
                1724
                1725
                1726
                1727
                1728
                1729
                1730
                1731
                1732
                1733
                1734
                1735
                1736
                1737
                1738
                1739
                1740
                1741
                1742
                1743
                1744
                1745
                1746
                1747
                1748
                1749
                1750
                1751
                1752
                1753
                1754
                1755
                1756
                1757
                1758
                1759
                1760
                1761
                1762
                1763
                1764
                1765
                1766
                1767
                1768
                1769
                1770
                1771
                1772
                1773
                1774
                1775
                1776
                1777
                1778
                1779
                1780
                1781
                1782
                1783
                1784
                1785
                1786
                1787
                1788
                1789
                1790
                1791
                1792
                1793
                1794
                1795
                1796
                1797
                1798
                1799
                1800
                1801
                1802
                1803
                1804
                1805
                1806
                1807
                1808
                1809
                1810
                1811
                1812
                1813
                1814
                1815
                1816
                1817
                1818
                1819
                1820
                1821
                1822
                1823
                1824
                1825
                1826
                1827
                1828
                1829
                1830
                1831
                1832
                1833
                1834
                1835
                1836
                1837
                1838
                1839
                1840
                1841
                1842
                1843
                1844
                1845
                1846
                1847
                1848
                1849
                1850
                1851
                1852
                1853
                1854
                1855
                1856
                1857
                1858
                1859
                1860
                1861
                1862
                1863
                1864
                1865
                1866
                1867
                1868
                1869
                1870
                1871
                1872
                1873
                1874
                1875
                1876
                1877
                1878
                1879
                1880
                1881
                1882
                1883
                1884
                1885
                1886
                1887
                1888
                1889
                1890
                1891
                1892
                1893
                1894
                1895
                1896
                1897
                1898
                1899
                1900
                1901
                1902
                1903
                1904
                1905
                1906
                1907
                1908
                1909
                1910
                1911
                1912
                1913
                1914
                1915
                1916
                1917
                1918
                1919
                1920
                1921
                1922
                1923
                1924
                1925
                1926
                1927
                1928
                1929
                1930
                1931
                1932
                1933
                1934
                1935
                1936
                1937
                1938
                1939
                1940
                1941
                1942
                1943
                1944
                1945
                1946
                1947
                1948
                1949
                1950
  
SCALARS                         bodyid  double 1
LOOKUP_TABLE default
                   1
                   1
                   1
                   1
                   1
                   1
                   1
                   1
                   1
                   1
                   1
                   1
                   1
                   1
                   1
                   1
                   1
                   1
                   1
                   1
                   1
                   1
                   1
                   1
                   1
                   1
                   1
                   1
                   1
                   1
                   1
                   1
                   1
                   1
                   1
                   1
                   1
                   1
                   1
                   1
                   1
                   1
                   1
                   1
                   1
                   1
                   1
                   1
                   1
                   1
                   1
                   1
                   1
                   1
                   1
                   1
                   1
                   1
                   1
                   1
                   1
                   1
                   1
                   1
                   1
                   1
                   1
                   1
                   1
                   1
                   1
                   1
                   1
                   1
                   1
                   1
                   1
                   1
                   1
                   1
                   1
                   1
                   1
                   1
                   1
                   1
                   1
                   1
                   1
                   1
                   1
                   1
                   1
                   1
                   1
                   1
                   1
                   1
                   1
                   1
                   1
                   1
                   1
                   1
                   1
                   1
                   1
                   1
                   1
                   1
                   1
                   1
                   1
                   1
                   1
                   1
                   1
                   1
                   1
                   1
                   1
                   1
                   1
                   1
                   1
                   1
                   1
                   1
                   1
                   1
                   1
                   1
                   1
                   1
                   1
                   1
                   1
                   1
                   1
                   1
                   1
                   1
                   1
                   1
                   1
                   1
                   1
                   1
                   1
                   1
                   1
                   1
                   1
                   1
                   1
                   1
                   1
                   1
                   1
                   1
                   1
                   1
                   1
                   1
                   1
                   1
                   1
                   1
                   1
                   1
                   1
                   1
                   1
                   1
                   1
                   1
                   1
                   1
                   1
                   1
                   1
                   1
                   1
                   1
                   1
                   1
                   1
                   1
                   1
                   1
                   1
                   1
                   1
                   1
                   1
                   1
                   1
                   1
                   1
                   1
                   1
                   1
                   1
                   1
                   1
                   1
                   1
                   1
                   1
                   1
                   1
                   1
                   1
                   1
                   1
                   1
                   1
                   1
                   1
                   1
                   1
                   1
                   1
                   1
                   1
                   1
                   1
                   1
                   1
                   1
                   1
                   1
                   1
                   1
                   1
                   1
                   1
                   1
                   1
                   1
                   1
                   1
                   1
                   1
                   1
                   1
                   1
                   1
                   1
                   1
                   1
                   1
                   1
                   1
                   1
                   1
                   1
                   1
                   1
                   1
                   1
                   1
                   1
                   1
                   1
                   1
                   1
                   1
                   1
                   1
                   1
                   1
                   1
                   1
                   1
                   1
                   1
                   1
                   1
                   1
                   1
                   1
                   1
                   1
                   1
                   1
                   1
                   1
                   1
                   1
                   1
                   1
                   1
                   1
                   1
                   1
                   1
                   1
                   1
                   1
                   1
                   1
                   1
                   1
                   1
                   1
                   1
                   1
                   1
                   1
                   1
                   1
                   1
                   1
                   1
                   1
                   1
                   1
                   1
                   1
                   1
                   1
                   1
                   1
                   1
                   1
                   1
                   1
                   1
                   1
                   1
                   1
                   1
                   1
                   1
                   1
                   1
                   1
                   1
                   1
                   1
                   1
                   1
                   1
                   1
                   1
                   1
                   1
                   1
                   1
                   1
                   1
                   1
                   1
                   1
                   1
                   1
                   1
                   1
                   1
                   1
                   1
                   1
                   1
                   1
                   1
                   1
                   1
                   1
                   1
                   1
                   1
                   1
                   1
                   1
                   1
                   1
                   1
                   1
                   1
                   1
                   1
                   1
                   1
                   1
                   1
                   1
                   1
                   1
                   1
                   1
                   1
                   1
                   1
                   1
                   1
                   1
                   1
                   1
                   1
                   1
                   1
                   1
                   1
                   1
                   1
                   1
                   1
                   1
                   1
                   1
                   1
                   1
                   1
                   1
                   1
                   1
                   1
                   1
                   1
                   1
                   1
                   1
                   1
                   1
                   1
                   1
                   1
                   1
                   1
                   1
                   1
                   1
                   1
                   1
                   1
                   1
                   1
                   1
                   1
                   1
                   1
                   1
                   1
                   1
                   1
                   1
                   1
                   1
                   1
                   1
                   1
                   1
                   1
                   1
                   1
                   1
                   1
                   1
                   1
                   1
                   1
                   1
                   1
                   1
                   1
                   1
                   1
                   1
                   1
                   1
                   1
                   1
                   1
                   1
                   1
                   1
                   1
                   1
                   1
                   1
                   1
                   1
                   1
                   1
                   1
                   1
                   1
                   1
                   1
                   1
                   1
                   1
                   1
                   1
                   1
                   1
                   1
                   1
                   1
                   1
                   1
                   1
                   1
                   1
                   1
                   1
                   1
                   1
                   1
                   1
                   1
                   1
                   1
                   1
                   1
                   1
                   1
                   1
                   1
                   1
                   1
                   1
                   1
                   1
                   1
                   1
                   1
                   1
                   1
                   1
                   1
                   1
                   1
                   1
                   1
                   1
                   1
                   1
                   1
                   1
                   1
                   1
                   1
                   1
                   1
                   1
                   1
                   1
                   1
                   1
                   1
                   1
                   1
                   1
                   1
                   1
                   1
                   1
                   1
                   1
                   1
                   1
                   1
                   1
                   1
                   1
                   1
                   1
                   1
                   1
                   1
                   1
                   1
                   1
                   1
                   1
                   1
                   1
                   1
                   1
                   1
                   1
                   1
                   1
                   1
                   1
                   1
                   1
                   1
                   1
                   1
                   1
                   1
                   1
                   1
                   1
                   1
                   1
                   1
                   1
                   1
                   1
                   1
                   1
                   1
                   1
                   1
                   1
                   1
                   1
                   1
                   1
                   1
                   1
                   1
                   1
                   1
                   1
                   1
                   1
                   1
                   1
                   1
                   1
                   1
                   1
                   1
                   1
                   1
                   1
                   1
                   1
                   1
                   1
                   1
                   1
                   1
                   1
                   1
                   1
                   1
                   1
                   1
                   1
                   1
                   1
                   1
                   1
                   1
                   1
                   1
                   1
                   1
                   1
                   1
                   1
                   1
                   1
                   1
                   1
                   1
                   1
                   1
                   1
                   1
                   1
                   1
                   1
                   1
                   1
                   1
                   1
                   1
                   1
                   1
                   1
                   1
                   1
                   1
                   1
                   1
                   1
                   1
                   1
                   1
                   1
                   1
                   1
                   1
                   1
                   1
                   1
                   1
                   1
                   1
                   1
                   1
                   1
                   1
                   1
                   1
                   1
                   1
                   1
                   1
                   1
                   1
                   1
                   1
                   1
                   1
                   1
                   1
                   1
                   1
                   1
                   1
                   1
                   1
                   1
                   1
                   1
                   1
                   1
                   1
                   1
                   1
                   1
                   1
                   1
                   1
                   1
                   1
                   1
                   1
                   1
                   1
                   1
                   1
                   1
                   1
                   1
                   1
                   1
                   1
                   1
                   1
                   1
                   1
                   1
                   1
                   1
                   1
                   1
                   1
                   1
                   1
                   1
                   1
                   1
                   1
                   1
                   1
                   1
                   1
                   1
                   1
                   1
                   1
                   1
                   1
                   1
                   1
                   1
                   1
                   1
                   1
                   1
                   1
                   1
                   1
                   1
                   1
                   1
                   1
                   1
                   1
                   1
                   1
                   1
                   1
                   1
                   1
                   1
                   1
                   1
                   1
                   1
                   1
                   1
                   1
                   1
                   1
                   1
                   1
                   1
                   1
                   1
                   1
                   1
                   1
                   1
                   1
                   1
                   1
                   1
                   1
                   1
                   1
                   1
                   1
                   1
                   1
                   1
                   1
                   1
                   1
                   1
                   1
                   1
                   1
                   1
                   1
                   1
                   1
                   1
                   1
                   1
                   1
                   1
                   1
                   1
                   1
                   1
                   1
                   1
                   1
                   1
                   1
                   1
                   1
                   1
                   1
                   1
                   1
                   1
                   1
                   1
                   1
                   1
                   1
                   1
                   1
                   1
                   1
                   1
                   1
                   1
                   1
                   1
                   1
                   1
                   1
                   1
                   1
                   1
                   1
                   1
                   1
                   1
                   1
                   1
                   1
                   1
                   1
                   1
                   1
                   1
                   1
                   1
                   1
                   1
                   1
                   1
                   1
                   1
                   1
                   1
                   1
                   1
                   1
                   1
                   1
                   1
                   1
                   1
                   1
                   1
                   1
                   1
                   1
                   1
                   1
                   1
                   1
                   1
                   1
                   1
                   1
                   1
                   1
                   1
                   1
                   1
                   1
                   1
                   1
                   1
                   1
                   1
                   1
                   1
                   1
                   1
                   1
                   1
                   1
                   1
                   1
                   1
                   1
                   1
                   1
                   1
                   1
                   1
                   1
                   1
                   1
                   1
                   1
                   1
                   1
                   1
                   1
                   1
                   1
                   1
                   1
                   1
                   1
                   1
                   1
                   1
                   1
                   1
                   1
                   1
                   1
                   1
                   1
                   1
                   1
                   1
                   1
                   1
                   1
                   1
                   1
                   1
                   1
                   1
                   1
                   1
                   1
                   1
                   1
                   1
                   1
                   1
                   1
                   1
                   1
                   1
                   1
                   1
                   1
                   1
                   1
                   1
                   1
                   1
                   1
                   1
                   1
                   1
                   1
                   1
                   1
                   1
                   1
                   1
                   1
                   1
                   1
                   1
                   1
                   1
                   1
                   1
                   1
                   1
                   1
                   1
                   1
                   1
                   1
                   1
                   1
                   1
                   1
                   1
                   1
                   1
                   1
                   1
                   1
                   1
                   1
                   1
                   1
                   1
                   1
                   1
                   1
                   1
                   1
                   1
                   1
                   1
                   1
                   1
                   1
                   1
                   1
                   1
                   1
                   1
                   1
                   1
                   1
                   1
                   1
                   1
                   1
                   1
                   1
                   1
                   1
                   1
                   1
                   1
                   1
                   1
                   1
                   1
                   1
                   1
                   1
                   1
                   1
                   1
                   1
                   1
                   1
                   1
                   1
                   1
                   1
                   1
                   1
                   1
                   1
                   1
                   1
                   1
                   1
                   1
                   1
                   1
                   1
                   1
                   1
                   1
                   1
                   1
                   1
                   1
                   1
                   1
                   1
                   1
                   1
                   1
                   1
                   1
                   1
                   1
                   1
                   1
                   1
                   1
                   1
                   1
                   1
                   1
                   1
                   1
                   1
                   1
                   1
                   1
                   1
                   1
                   1
                   1
                   1
                   1
                   1
                   1
                   1
                   1
                   1
                   1
                   1
                   1
                   1
                   1
                   1
                   1
                   1
                   1
                   1
                   1
                   1
                   1
                   1
                   1
                   1
                   1
                   1
                   1
                   1
                   1
                   1
                   1
                   1
                   1
                   1
                   1
                   1
                   1
                   1
                   1
                   1
                   1
                   1
                   1
                   1
                   1
                   1
                   1
                   1
                   1
                   1
                   1
                   1
                   1
                   1
                   1
                   1
                   1
                   1
                   1
                   1
                   1
                   1
                   1
                   1
                   1
                   1
                   1
                   1
                   1
                   1
                   1
                   1
                   1
                   1
                   1
                   1
                   1
                   1
                   1
                   1
                   1
                   1
                   1
                   1
                   1
                   1
                   1
                   1
                   1
                   1
                   1
                   1
                   1
                   1
                   1
                   1
                   1
                   1
                   1
                   1
                   1
                   1
                   1
                   1
                   1
                   1
                   1
                   1
                   1
                   1
                   1
                   1
                   1
                   1
                   1
                   1
                   1
                   1
                   1
                   1
                   1
                   1
                   1
                   1
                   1
                   1
                   1
                   1
                   1
                   1
                   1
                   1
                   1
                   1
                   1
                   1
                   1
                   1
                   1
                   1
                   1
                   1
                   1
                   1
                   1
                   1
                   1
                   1
                   1
                   1
                   1
                   1
                   1
                   1
                   1
                   1
                   1
                   1
                   1
                   1
                   1
                   1
                   1
                   1
                   1
                   1
                   1
                   1
                   1
                   1
                   1
                   1
                   1
                   1
                   1
                   1
                   1
                   1
                   1
                   1
                   1
                   1
                   1
                   1
                   1
                   1
                   1
                   1
                   1
                   1
                   1
                   1
                   1
                   1
                   1
                   1
                   1
                   1
                   1
                   1
                   1
                   1
                   1
                   1
                   1
                   1
                   1
                   1
                   1
                   1
                   1
                   1
                   1
                   1
                   1
                   1
                   1
                   1
                   1
                   1
                   1
                   1
                   1
                   1
                   1
                   1
                   1
                   1
                   1
                   1
                   1
                   1
                   1
                   1
                   1
                   1
                   1
                   1
                   1
                   1
                   1
                   1
                   1
                   1
                   1
                   1
                   1
                   1
                   1
                   1
                   1
                   1
                   1
                   1
                   1
                   1
                   1
                   1
                   1
                   1
                   1
                   1
                   1
                   1
                   1
                   1
                   1
                   1
                   1
                   1
                   1
                   1
                   1
                   1
                   1
                   1
                   1
                   1
                   1
                   1
                   1
                   1
                   1
                   1
                   1
                   1
                   1
                   1
                   1
                   1
                   1
                   1
                   1
                   1
                   1
                   1
                   1
                   1
                   1
                   1
                   1
                   1
                   1
                   1
                   1
                   1
                   1
                   1
                   1
                   1
                   1
                   1
                   1
                   1
                   1
                   1
                   1
                   1
                   1
                   1
                   1
                   1
                   1
                   1
                   1
                   1
                   1
                   1
                   1
                   1
                   1
                   1
                   1
                   1
                   1
                   1
                   1
                   1
                   1
                   1
                   1
                   1
                   1
                   1
                   1
                   1
                   1
                   1
                   1
                   1
                   1
                   1
                   1
                   1
                   1
                   1
                   1
                   1
                   1
                   1
                   1
                   1
                   1
                   1
                   1
                   1
                   1
                   1
                   1
                   1
                   1
                   1
                   1
                   1
                   1
                   1
                   1
                   1
                   1
                   1
                   1
                   1
                   1
                   1
                   1
                   1
                   1
                   1
                   1
                   1
                   1
                   1
                   1
                   1
                   1
                   1
                   1
                   1
                   1
                   1
                   1
                   1
                   1
                   1
                   1
                   1
                   1
                   1
                   1
                   1
                   1
                   1
                   1
                   1
                   1
                   1
                   1
                   1
                   1
                   1
                   1
                   1
                   1
                   1
                   1
                   1
                   1
                   1
                   1
                   1
                   1
                   1
                   1
                   1
                   1
                   1
                   1
                   1
                   1
                   1
                   1
                   1
                   1
                   1
                   1
                   1
                   1
                   1
                   1
                   1
                   1
                   1
                   1
                   1
                   1
                   1
                   1
                   1
                   1
                   1
                   1
                   1
                   1
                   1
                   1
                   1
                   1
                   1
                   1
                   1
                   1
                   1
                   1
                   1
                   1
                   1
                   1
                   1
                   1
                   1
                   1
                   1
                   1
                   1
                   1
                   1
                   1
                   1
                   1
                   1
                   1
                   1
                   1
                   1
                   1
                   1
                   1
                   1
                   1
                   1
                   1
                   1
                   1
                   1
                   1
                   1
                   1
                   1
                   1
                   1
                   1
                   1
                   1
                   1
                   1
                   1
                   1
                   1
                   1
                   1
                   1
                   1
                   1
                   1
                   1
                   1
                   1
                   1
                   1
                   1
                   1
                   1
                   1
                   1
                   1
                   1
                   1
                   1
                   1
                   1
                   1
                   1
                   1
                   1
                   1
                   1
                   1
                   1
                   1
                   1
                   1
                   1
                   1
                   1
                   1
                   1
                   1
                   1
                   1
                   1
                   1
                   1
                   1
                   1
                   1
                   1
                   1
                   1
                   1
                   1
                   1
                   1
                   1
                   1
                   1
                   1
                   1
                   1
                   1
                   1
                   1
                   1
                   1
                   1
                   1
                   1
                   1
                   1
                   1
                   1
                   1
                   1
                   1
                   1
                   1
                   1
                   1
                   1
                   1
                   1
                   1
                   1
                   1
                   1
                   1
                   1
                   1
                   1
                   1
                   1
                   1
                   1
                   1
                   1
                   1
                   1
                   1
                   1
                   1
                   1
                   1
                   1
                   1
                   1
                   1
                   1
                   1
                   1
                   1
                   1
                   1
                   1
                   1
                   1
                   1
                   1
                   1
                   1
                   1
                   1
                   1
                   1
                   1
                   1
                   1
                   1
                   1
                   1
                   1
                   1
                   1
                   1
                   1
                   1
                   1
                   1
                   1
                   1
                   1
                   1
                   1
                   1
                   1
                   1
                   1
                   1
                   1
                   1
                   1
                   1
                   1
                   1
                   1
                   1
                   1
                   1
                   1
                   1
                   1
                   1
                   1
                   1
                   1
                   1
                   1
                   1
                   1
                   1
                   1
                   1
                   1
                   1
                   1
                   1
                   1
                   1
                   1
                   1
                   1
                   1
                   1
                   1
                   1
                   1
                   1
                   1
                   1
                   1
                   1
                   1
                   1
                   1
                   1
                   1
                   1
                   1
                   1
                   1
                   1
                   1
                   1
                   1
                   1
                   1
                   1
                   1
                   1
                   1
                   1
                   1
                   1
                   1
                   1
                   1
                   1
                   1
                   1
                   1
                   1
                   1
                   1
                   1
                   1
                   1
                   1
                   1
                   1
                   1
                   1
                   1
                   1
                   1
                   1
                   1
                   1
                   1
                   1
                   1
                   1
                   1
                   1
                   1
                   1
                   1
                   1
                   1
                   1
                   1
                   1
                   1
                   1
                   1
                   1
                   1
                   1
                   1
                   1
                   1
                   1
                   1
                   1
                   1
                   1
                   1
                   1
                   1
                   1
                   1
                   1
                   1
                   1
                   1
                   1
                   1
                   1
                   1
                   1
                   1
                   1
                   1
                   1
                   1
                   1
                   1
                   1
                   1
                   1
                   1
                   1
                   1
                   1
                   1
                   1
                   1
  
SCALARS                  material_type  double 1
LOOKUP_TABLE default
                   2
                   2
                   2
                   2
                   2
                   2
                   2
                   2
                   2
                   2
                   2
                   2
                   2
                   2
                   2
                   2
                   2
                   2
                   2
                   2
                   2
                   2
                   2
                   2
                   2
                   2
                   2
                   2
                   2
                   2
                   2
                   2
                   2
                   2
                   2
                   2
                   2
                   2
                   2
                   2
                   2
                   2
                   2
                   2
                   2
                   2
                   2
                   2
                   2
                   2
                   2
                   2
                   2
                   2
                   2
                   2
                   2
                   2
                   2
                   2
                   2
                   2
                   2
                   2
                   2
                   2
                   2
                   2
                   2
                   2
                   2
                   2
                   2
                   2
                   2
                   2
                   2
                   2
                   2
                   2
                   2
                   2
                   2
                   2
                   2
                   2
                   2
                   2
                   2
                   2
                   2
                   2
                   2
                   2
                   2
                   2
                   2
                   2
                   2
                   2
                   2
                   2
                   2
                   2
                   2
                   2
                   2
                   2
                   2
                   2
                   2
                   2
                   2
                   2
                   2
                   2
                   2
                   2
                   2
                   2
                   2
                   2
                   2
                   2
                   2
                   2
                   2
                   2
                   2
                   2
                   2
                   2
                   2
                   2
                   2
                   2
                   2
                   2
                   2
                   2
                   2
                   2
                   2
                   2
                   2
                   2
                   2
                   2
                   2
                   2
                   2
                   2
                   2
                   2
                   2
                   2
                   2
                   2
                   2
                   2
                   2
                   2
                   2
                   2
                   2
                   2
                   2
                   2
                   2
                   2
                   2
                   2
                   2
                   2
                   2
                   2
                   2
                   2
                   2
                   2
                   2
                   2
                   2
                   2
                   2
                   2
                   2
                   2
                   2
                   2
                   2
                   2
                   2
                   2
                   2
                   2
                   2
                   2
                   2
                   2
                   2
                   2
                   2
                   2
                   2
                   2
                   2
                   2
                   2
                   2
                   2
                   2
                   2
                   2
                   2
                   2
                   2
                   2
                   2
                   2
                   2
                   2
                   2
                   2
                   2
                   2
                   2
                   2
                   2
                   2
                   2
                   2
                   2
                   2
                   2
                   2
                   2
                   2
                   2
                   2
                   2
                   2
                   2
                   2
                   2
                   2
                   2
                   2
                   2
                   2
                   2
                   2
                   2
                   2
                   2
                   2
                   2
                   2
                   2
                   2
                   2
                   2
                   2
                   2
                   2
                   2
                   2
                   2
                   2
                   2
                   2
                   2
                   2
                   2
                   2
                   2
                   2
                   2
                   2
                   2
                   2
                   2
                   2
                   2
                   2
                   2
                   2
                   2
                   2
                   2
                   2
                   2
                   2
                   2
                   2
                   2
                   2
                   2
                   2
                   2
                   2
                   2
                   2
                   2
                   2
                   2
                   2
                   2
                   2
                   2
                   2
                   2
                   2
                   2
                   2
                   2
                   2
                   2
                   2
                   2
                   2
                   2
                   2
                   2
                   2
                   2
                   2
                   2
                   2
                   2
                   2
                   2
                   2
                   2
                   2
                   2
                   2
                   2
                   2
                   2
                   2
                   2
                   2
                   2
                   2
                   2
                   2
                   2
                   2
                   2
                   2
                   2
                   2
                   2
                   2
                   2
                   2
                   2
                   2
                   2
                   2
                   2
                   2
                   2
                   2
                   2
                   2
                   2
                   2
                   2
                   2
                   2
                   2
                   2
                   2
                   2
                   2
                   2
                   2
                   2
                   2
                   2
                   2
                   2
                   2
                   2
                   2
                   2
                   2
                   2
                   2
                   2
                   2
                   2
                   2
                   2
                   2
                   2
                   2
                   2
                   2
                   2
                   2
                   2
                   2
                   2
                   2
                   2
                   2
                   2
                   2
                   2
                   2
                   2
                   2
                   2
                   2
                   2
                   2
                   2
                   2
                   2
                   2
                   2
                   2
                   2
                   2
                   2
                   2
                   2
                   2
                   2
                   2
                   2
                   2
                   2
                   2
                   2
                   2
                   2
                   2
                   2
                   2
                   2
                   2
                   2
                   2
                   2
                   2
                   2
                   2
                   2
                   2
                   2
                   2
                   2
                   2
                   2
                   2
                   2
                   2
                   2
                   2
                   2
                   2
                   2
                   2
                   2
                   2
                   2
                   2
                   2
                   2
                   2
                   2
                   2
                   2
                   2
                   2
                   2
                   2
                   2
                   2
                   2
                   2
                   2
                   2
                   2
                   2
                   2
                   2
                   2
                   2
                   2
                   2
                   2
                   2
                   2
                   2
                   2
                   2
                   2
                   2
                   2
                   2
                   2
                   2
                   2
                   2
                   2
                   2
                   2
                   2
                   2
                   2
                   2
                   2
                   2
                   2
                   2
                   2
                   2
                   2
                   2
                   2
                   2
                   2
                   2
                   2
                   2
                   2
                   2
                   2
                   2
                   2
                   2
                   2
                   2
                   2
                   2
                   2
                   2
                   2
                   2
                   2
                   2
                   2
                   2
                   2
                   2
                   2
                   2
                   2
                   2
                   2
                   2
                   2
                   2
                   2
                   2
                   2
                   2
                   2
                   2
                   2
                   2
                   2
                   2
                   2
                   2
                   2
                   2
                   2
                   2
                   2
                   2
                   2
                   2
                   2
                   2
                   2
                   2
                   2
                   2
                   2
                   2
                   2
                   2
                   2
                   2
                   2
                   2
                   2
                   2
                   2
                   2
                   2
                   2
                   2
                   2
                   2
                   2
                   2
                   2
                   2
                   2
                   2
                   2
                   2
                   2
                   2
                   2
                   2
                   2
                   2
                   2
                   2
                   2
                   2
                   2
                   2
                   2
                   2
                   2
                   2
                   2
                   2
                   2
                   2
                   2
                   2
                   2
                   2
                   2
                   2
                   2
                   2
                   2
                   2
                   2
                   2
                   2
                   2
                   2
                   2
                   2
                   2
                   2
                   2
                   2
                   2
                   2
                   2
                   2
                   2
                   2
                   2
                   2
                   2
                   2
                   2
                   2
                   2
                   2
                   2
                   2
                   2
                   2
                   2
                   2
                   2
                   2
                   2
                   2
                   2
                   2
                   2
                   2
                   2
                   2
                   2
                   2
                   2
                   2
                   2
                   2
                   2
                   2
                   2
                   2
                   2
                   2
                   2
                   2
                   2
                   2
                   2
                   2
                   2
                   2
                   2
                   2
                   2
                   2
                   2
                   2
                   2
                   2
                   2
                   2
                   2
                   2
                   2
                   2
                   2
                   2
                   2
                   2
                   2
                   2
                   2
                   2
                   2
                   2
                   2
                   2
                   2
                   2
                   2
                   2
                   2
                   2
                   2
                   2
                   2
                   2
                   2
                   2
                   2
                   2
                   2
                   2
                   2
                   2
                   2
                   2
                   2
                   2
                   2
                   2
                   2
                   2
                   2
                   2
                   2
                   2
                   2
                   2
                   2
                   2
                   2
                   2
                   2
                   2
                   2
                   2
                   2
                   2
                   2
                   2
                   2
                   2
                   2
                   2
                   2
                   2
                   2
                   2
                   2
                   2
                   2
                   2
                   2
                   2
                   2
                   2
                   2
                   2
                   2
                   2
                   2
                   2
                   2
                   2
                   2
                   2
                   2
                   2
                   2
                   2
                   2
                   2
                   2
                   2
                   2
                   2
                   2
                   2
                   2
                   2
                   2
                   2
                   2
                   2
                   2
                   2
                   2
                   2
                   2
                   2
                   2
                   2
                   2
                   2
                   2
                   2
                   2
                   2
                   2
                   2
                   2
                   2
                   2
                   2
                   2
                   2
                   2
                   2
                   2
                   2
                   2
                   2
                   2
                   2
                   2
                   2
                   2
                   2
                   2
                   2
                   2
                   2
                   2
                   2
                   2
                   2
                   2
                   2
                   2
                   2
                   2
                   2
                   2
                   2
                   2
                   2
                   2
                   2
                   2
                   2
                   2
                   2
                   2
                   2
                   2
                   2
                   2
                   2
                   2
                   2
                   2
                   2
                   2
                   2
                   2
                   2
                   2
                   2
                   2
                   2
                   2
                   2
                   2
                   2
                   2
                   2
                   2
                   2
                   2
                   2
                   2
                   2
                   2
                   2
                   2
                   2
                   2
                   2
                   2
                   2
                   2
                   2
                   2
                   2
                   2
                   2
                   2
                   2
                   2
                   2
                   2
                   2
                   2
                   2
                   2
                   2
                   2
                   2
                   2
                   2
                   2
                   2
                   2
                   2
                   2
                   2
                   2
                   2
                   2
                   2
                   2
                   2
                   2
                   2
                   2
                   2
                   2
                   2
                   2
                   2
                   2
                   2
                   2
                   2
                   2
                   2
                   2
                   2
                   2
                   2
                   2
                   2
                   2
                   2
                   2
                   2
                   2
                   2
                   2
                   2
                   2
                   2
                   2
                   2
                   2
                   2
                   2
                   2
                   2
                   2
                   2
                   2
                   2
                   2
                   2
                   2
                   2
                   2
                   2
                   2
                   2
                   2
                   2
                   2
                   2
                   2
                   2
                   2
                   2
                   2
                   2
                   2
                   2
                   2
                   2
                   2
                   2
                   2
                   2
                   2
                   2
                   2
                   2
                   2
                   2
                   2
                   2
                   2
                   2
                   2
                   2
                   2
                   2
                   2
                   2
                   2
                   2
                   2
                   2
                   2
                   2
                   2
                   2
                   2
                   2
                   2
                   2
                   2
                   2
                   2
                   2
                   2
                   2
                   2
                   2
                   2
                   2
                   2
                   2
                   2
                   2
                   2
                   2
                   2
                   2
                   2
                   2
                   2
                   2
                   2
                   2
                   2
                   2
                   2
                   2
                   2
                   2
                   2
                   2
                   2
                   2
                   2
                   2
                   2
                   2
                   2
                   2
                   2
                   2
                   2
                   2
                   2
                   2
                   2
                   2
                   2
                   2
                   2
                   2
                   2
                   2
                   2
                   2
                   2
                   2
                   2
                   2
                   2
                   2
                   2
                   2
                   2
                   2
                   2
                   2
                   2
                   2
                   2
                   2
                   2
                   2
                   2
                   2
                   2
                   2
                   2
                   2
                   2
                   2
                   2
                   2
                   2
                   2
                   2
                   2
                   2
                   2
                   2
                   2
                   2
                   2
                   2
                   2
                   2
                   2
                   2
                   2
                   2
                   2
                   2
                   2
                   2
                   2
                   2
                   2
                   2
                   2
                   2
                   2
                   2
                   2
                   2
                   2
                   2
                   2
                   2
                   2
                   2
                   2
                   2
                   2
                   2
                   2
                   2
                   2
                   2
                   2
                   2
                   2
                   2
                   2
                   2
                   2
                   2
                   2
                   2
                   2
                   2
                   2
                   2
                   2
                   2
                   2
                   2
                   2
                   2
                   2
                   2
                   2
                   2
                   2
                   2
                   2
                   2
                   2
                   2
                   2
                   2
                   2
                   2
                   2
                   2
                   2
                   2
                   2
                   2
                   2
                   2
                   2
                   2
                   2
                   2
                   2
                   2
                   2
                   2
                   2
                   2
                   2
                   2
                   2
                   2
                   2
                   2
                   2
                   2
                   2
                   2
                   2
                   2
                   2
                   2
                   2
                   2
                   2
                   2
                   2
                   2
                   2
                   2
                   2
                   2
                   2
                   2
                   2
                   2
                   2
                   2
                   2
                   2
                   2
                   2
                   2
                   2
                   2
                   2
                   2
                   2
                   2
                   2
                   2
                   2
                   2
                   2
                   2
                   2
                   2
                   2
                   2
                   2
                   2
                   2
                   2
                   2
                   2
                   2
                   2
                   2
                   2
                   2
                   2
                   2
                   2
                   2
                   2
                   2
                   2
                   2
                   2
                   2
                   2
                   2
                   2
                   2
                   2
                   2
                   2
                   2
                   2
                   2
                   2
                   2
                   2
                   2
                   2
                   2
                   2
                   2
                   2
                   2
                   2
                   2
                   2
                   2
                   2
                   2
                   2
                   2
                   2
                   2
                   2
                   2
                   2
                   2
                   2
                   2
                   2
                   2
                   2
                   2
                   2
                   2
                   2
                   2
                   2
                   2
                   2
                   2
                   2
                   2
                   2
                   2
                   2
                   2
                   2
                   2
                   2
                   2
                   2
                   2
                   2
                   2
                   2
                   2
                   2
                   2
                   2
                   2
                   2
                   2
                   2
                   2
                   2
                   2
                   2
                   2
                   2
                   2
                   2
                   2
                   2
                   2
                   2
                   2
                   2
                   2
                   2
                   2
                   2
                   2
                   2
                   2
                   2
                   2
                   2
                   2
                   2
                   2
                   2
                   2
                   2
                   2
                   2
                   2
                   2
                   2
                   2
                   2
                   2
                   2
                   2
                   2
                   2
                   2
                   2
                   2
                   2
                   2
                   2
                   2
                   2
                   2
                   2
                   2
                   2
                   2
                   2
                   2
                   2
                   2
                   2
                   2
                   2
                   2
                   2
                   2
                   2
                   2
                   2
                   2
                   2
                   2
                   2
                   2
                   2
                   2
                   2
                   2
                   2
                   2
                   2
                   2
                   2
                   2
                   2
                   2
                   2
                   2
                   2
                   2
                   2
                   2
                   2
                   2
                   2
                   2
                   2
                   2
                   2
                   2
                   2
                   2
                   2
                   2
                   2
                   2
                   2
                   2
                   2
                   2
                   2
                   2
                   2
                   2
                   2
                   2
                   2
                   2
                   2
                   2
                   2
                   2
                   2
                   2
                   2
                   2
                   2
                   2
                   2
                   2
                   2
                   2
                   2
                   2
                   2
                   2
                   2
                   2
                   2
                   2
                   2
                   2
                   2
                   2
                   2
                   2
                   2
                   2
                   2
                   2
                   2
                   2
                   2
                   2
                   2
                   2
                   2
                   2
                   2
                   2
                   2
                   2
                   2
                   2
                   2
                   2
                   2
                   2
                   2
                   2
                   2
                   2
                   2
                   2
                   2
                   2
                   2
                   2
                   2
                   2
                   2
                   2
                   2
                   2
                   2
                   2
                   2
                   2
                   2
                   2
                   2
                   2
                   2
                   2
                   2
                   2
                   2
                   2
                   2
                   2
                   2
                   2
                   2
                   2
                   2
                   2
                   2
                   2
                   2
                   2
                   2
                   2
                   2
                   2
                   2
                   2
                   2
                   2
                   2
                   2
                   2
                   2
                   2
                   2
                   2
                   2
                   2
                   2
                   2
                   2
                   2
                   2
                   2
                   2
                   2
                   2
                   2
                   2
                   2
                   2
                   2
                   2
                   2
                   2
                   2
                   2
                   2
                   2
                   2
                   2
                   2
                   2
                   2
                   2
                   2
                   2
                   2
                   2
                   2
                   2
                   2
                   2
                   2
                   2
                   2
                   2
                   2
                   2
                   2
                   2
                   2
                   2
                   2
                   2
                   2
                   2
                   2
                   2
                   2
                   2
                   2
                   2
                   2
                   2
                   2
                   2
                   2
                   2
                   2
                   2
                   2
                   2
                   2
                   2
                   2
                   2
                   2
                   2
                   2
                   2
                   2
                   2
                   2
                   2
                   2
                   2
                   2
                   2
                   2
                   2
                   2
                   2
                   2
                   2
                   2
                   2
                   2
                   2
                   2
                   2
                   2
                   2
                   2
                   2
                   2
                   2
                   2
                   2
                   2
                   2
                   2
                   2
                   2
                   2
                   2
                   2
                   2
                   2
                   2
                   2
                   2
                   2
                   2
                   2
                   2
                   2
                   2
                   2
                   2
                   2
                   2
                   2
                   2
                   2
                   2
                   2
                   2
                   2
                   2
                   2
                   2
                   2
                   2
                   2
                   2
                   2
                   2
                   2
                   2
                   2
                   2
                   2
                   2
                   2
                   2
                   2
                   2
                   2
                   2
                   2
                   2
                   2
                   2
                   2
                   2
                   2
                   2
                   2
                   2
                   2
                   2
                   2
                   2
                   2
                   2
                   2
                   2
                   2
                   2
                   2
                   2
                   2
                   2
                   2
                   2
                   2
                   2
                   2
                   2
                   2
                   2
                   2
                   2
                   2
                   2
                   2
                   2
                   2
                   2
                   2
                   2
                   2
                   2
                   2
                   2
                   2
                   2
                   2
                   2
                   2
                   2
                   2
                   2
                   2
                   2
                   2
                   2
                   2
                   2
                   2
                   2
                   2
                   2
                   2
                   2
                   2
                   2
                   2
                   2
                   2
                   2
                   2
                   2
                   2
                   2
                   2
                   2
                   2
                   2
                   2
                   2
                   2
                   2
                   2
                   2
                   2
                   2
                   2
                   2
                   2
                   2
                   2
                   2
                   2
                   2
                   2
                   2
                   2
                   2
                   2
                   2
                   2
                   2
                   2
                   2
                   2
                   2
                   2
                   2
                   2
                   2
                   2
                   2
                   2
                   2
                   2
                   2
                   2
                   2
                   2
                   2
                   2
                   2
                   2
                   2
                   2
                   2
                   2
                   2
                   2
                   2
                   2
                   2
                   2
                   2
                   2
                   2
                   2
                   2
                   2
                   2
                   2
                   2
                   2
                   2
                   2
                   2
                   2
                   2
                   2
                   2
                   2
                   2
                   2
                   2
                   2
                   2
                   2
                   2
                   2
                   2
                   2
                   2
                   2
                   2
                   2
                   2
                   2
                   2
                   2
                   2
                   2
                   2
                   2
                   2
                   2
                   2
                   2
                   2
                   2
                   2
                   2
                   2
                   2
                   2
                   2
                   2
                   2
                   2
                   2
                   2
                   2
                   2
                   2
                   2
                   2
                   2
                   2
                   2
                   2
                   2
                   2
                   2
                   2
                   2
                   2
                   2
                   2
                   2
                   2
  
SCALARS                       fixity_x  double 1
LOOKUP_TABLE default
                   0
                   0
                   0
                   0
                   0
                   0
                   0
                   0
                   0
                   0
                   0
                   0
                   0
                   0
                   0
                   0
                   0
                   0
                   0
                   0
                   0
                   0
                   0
                   0
                   0
                   0
                   0
                   0
                   0
                   0
                   0
                   0
                   0
                   0
                   0
                   0
                   0
                   0
                   0
                   0
                   0
                   0
                   0
                   0
                   0
                   0
                   0
                   0
                   0
                   0
                   0
                   0
                   0
                   0
                   0
                   0
                   0
                   0
                   0
                   0
                   0
                   0
                   0
                   0
                   0
                   0
                   0
                   0
                   0
                   0
                   0
                   0
                   0
                   0
                   0
                   0
                   0
                   0
                   0
                   0
                   0
                   0
                   0
                   0
                   0
                   0
                   0
                   0
                   0
                   0
                   0
                   0
                   0
                   0
                   0
                   0
                   0
                   0
                   0
                   0
                   0
                   0
                   0
                   0
                   0
                   0
                   0
                   0
                   0
                   0
                   0
                   0
                   0
                   0
                   0
                   0
                   0
                   0
                   0
                   0
                   0
                   0
                   0
                   0
                   0
                   0
                   0
                   0
                   0
                   0
                   0
                   0
                   0
                   0
                   0
                   0
                   0
                   0
                   0
                   0
                   0
                   0
                   0
                   0
                   0
                   0
                   0
                   0
                   0
                   0
                   0
                   0
                   0
                   0
                   0
                   0
                   0
                   0
                   0
                   0
                   0
                   0
                   0
                   0
                   0
                   0
                   0
                   0
                   0
                   0
                   0
                   0
                   0
                   0
                   0
                   0
                   0
                   0
                   0
                   0
                   0
                   0
                   0
                   0
                   0
                   0
                   0
                   0
                   0
                   0
                   0
                   0
                   0
                   0
                   0
                   0
                   0
                   0
                   0
                   0
                   0
                   0
                   0
                   0
                   0
                   0
                   0
                   0
                   0
                   0
                   0
                   0
                   0
                   0
                   0
                   0
                   0
                   0
                   0
                   0
                   0
                   0
                   0
                   0
                   0
                   0
                   0
                   0
                   0
                   0
                   0
                   0
                   0
                   0
                   0
                   0
                   0
                   0
                   0
                   0
                   0
                   0
                   0
                   0
                   0
                   0
                   0
                   0
                   0
                   0
                   0
                   0
                   0
                   0
                   0
                   0
                   0
                   0
                   0
                   0
                   0
                   0
                   0
                   0
                   0
                   0
                   0
                   0
                   0
                   0
                   0
                   0
                   0
                   0
                   0
                   0
                   0
                   0
                   0
                   0
                   0
                   0
                   0
                   0
                   0
                   0
                   0
                   0
                   0
                   0
                   0
                   0
                   0
                   0
                   0
                   0
                   0
                   0
                   0
                   0
                   0
                   0
                   0
                   0
                   0
                   0
                   0
                   0
                   0
                   0
                   0
                   0
                   0
                   0
                   0
                   0
                   0
                   0
                   0
                   0
                   0
                   0
                   0
                   0
                   0
                   0
                   0
                   0
                   0
                   0
                   0
                   0
                   0
                   0
                   0
                   0
                   0
                   0
                   0
                   0
                   0
                   0
                   0
                   0
                   0
                   0
                   0
                   0
                   0
                   0
                   0
                   0
                   0
                   0
                   0
                   0
                   0
                   0
                   0
                   0
                   0
                   0
                   0
                   0
                   0
                   0
                   0
                   0
                   0
                   0
                   0
                   0
                   0
                   0
                   0
                   0
                   0
                   0
                   0
                   0
                   0
                   0
                   0
                   0
                   0
                   0
                   0
                   0
                   0
                   0
                   0
                   0
                   0
                   0
                   0
                   0
                   0
                   0
                   0
                   0
                   0
                   0
                   0
                   0
                   0
                   0
                   0
                   0
                   0
                   0
                   0
                   0
                   0
                   0
                   0
                   0
                   0
                   0
                   0
                   0
                   0
                   0
                   0
                   0
                   0
                   0
                   0
                   0
                   0
                   0
                   0
                   0
                   0
                   0
                   0
                   0
                   0
                   0
                   0
                   0
                   0
                   0
                   0
                   0
                   0
                   0
                   0
                   0
                   0
                   0
                   0
                   0
                   0
                   0
                   0
                   0
                   0
                   0
                   0
                   0
                   0
                   0
                   0
                   0
                   0
                   0
                   0
                   0
                   0
                   0
                   0
                   0
                   0
                   0
                   0
                   0
                   0
                   0
                   0
                   0
                   0
                   0
                   0
                   0
                   0
                   0
                   0
                   0
                   0
                   0
                   0
                   0
                   0
                   0
                   0
                   0
                   0
                   0
                   0
                   0
                   0
                   0
                   0
                   0
                   0
                   0
                   0
                   0
                   0
                   0
                   0
                   0
                   0
                   0
                   0
                   0
                   0
                   0
                   0
                   0
                   0
                   0
                   0
                   0
                   0
                   0
                   0
                   0
                   0
                   0
                   0
                   0
                   0
                   0
                   0
                   0
                   0
                   0
                   0
                   0
                   0
                   0
                   0
                   0
                   0
                   0
                   0
                   0
                   0
                   0
                   0
                   0
                   0
                   0
                   0
                   0
                   0
                   0
                   0
                   0
                   0
                   0
                   0
                   0
                   0
                   0
                   0
                   0
                   0
                   0
                   0
                   0
                   0
                   0
                   0
                   0
                   0
                   0
                   0
                   0
                   0
                   0
                   0
                   0
                   0
                   0
                   0
                   0
                   0
                   0
                   0
                   0
                   0
                   0
                   0
                   0
                   0
                   0
                   0
                   0
                   0
                   0
                   0
                   0
                   0
                   0
                   0
                   0
                   0
                   0
                   0
                   0
                   0
                   0
                   0
                   0
                   0
                   0
                   0
                   0
                   0
                   0
                   0
                   0
                   0
                   0
                   0
                   0
                   0
                   0
                   0
                   0
                   0
                   0
                   0
                   0
                   0
                   0
                   0
                   0
                   0
                   0
                   0
                   0
                   0
                   0
                   0
                   0
                   0
                   0
                   0
                   0
                   0
                   0
                   0
                   0
                   0
                   0
                   0
                   0
                   0
                   0
                   0
                   0
                   0
                   0
                   0
                   0
                   0
                   0
                   0
                   0
                   0
                   0
                   0
                   0
                   0
                   0
                   0
                   0
                   0
                   0
                   0
                   0
                   0
                   0
                   0
                   0
                   0
                   0
                   0
                   0
                   0
                   0
                   0
                   0
                   0
                   0
                   0
                   0
                   0
                   0
                   0
                   0
                   0
                   0
                   0
                   0
                   0
                   0
                   0
                   0
                   0
                   0
                   0
                   0
                   0
                   0
                   0
                   0
                   0
                   0
                   0
                   0
                   0
                   0
                   0
                   0
                   0
                   0
                   0
                   0
                   0
                   0
                   0
                   0
                   0
                   0
                   0
                   0
                   0
                   0
                   0
                   0
                   0
                   0
                   0
                   0
                   0
                   0
                   0
                   0
                   0
                   0
                   0
                   0
                   0
                   0
                   0
                   0
                   0
                   0
                   0
                   0
                   0
                   0
                   0
                   0
                   0
                   0
                   0
                   0
                   0
                   0
                   0
                   0
                   0
                   0
                   0
                   0
                   0
                   0
                   0
                   0
                   0
                   0
                   0
                   0
                   0
                   0
                   0
                   0
                   0
                   0
                   0
                   0
                   0
                   0
                   0
                   0
                   0
                   0
                   0
                   0
                   0
                   0
                   0
                   0
                   0
                   0
                   0
                   0
                   0
                   0
                   0
                   0
                   0
                   0
                   0
                   0
                   0
                   0
                   0
                   0
                   0
                   0
                   0
                   0
                   0
                   0
                   0
                   0
                   0
                   0
                   0
                   0
                   0
                   0
                   0
                   0
                   0
                   0
                   0
                   0
                   0
                   0
                   0
                   0
                   0
                   0
                   0
                   0
                   0
                   0
                   0
                   0
                   0
                   0
                   0
                   0
                   0
                   0
                   0
                   0
                   0
                   0
                   0
                   0
                   0
                   0
                   0
                   0
                   0
                   0
                   0
                   0
                   0
                   0
                   0
                   0
                   0
                   0
                   0
                   0
                   0
                   0
                   0
                   0
                   0
                   0
                   0
                   0
                   0
                   0
                   0
                   0
                   0
                   0
                   0
                   0
                   0
                   0
                   0
                   0
                   0
                   0
                   0
                   0
                   0
                   0
                   0
                   0
                   0
                   0
                   0
                   0
                   0
                   0
                   0
                   0
                   0
                   0
                   0
                   0
                   0
                   0
                   0
                   0
                   0
                   0
                   0
                   0
                   0
                   0
                   0
                   0
                   0
                   0
                   0
                   0
                   0
                   0
                   0
                   0
                   0
                   0
                   0
                   0
                   0
                   0
                   0
                   0
                   0
                   0
                   0
                   0
                   0
                   0
                   0
                   0
                   0
                   0
                   0
                   0
                   0
                   0
                   0
                   0
                   0
                   0
                   0
                   0
                   0
                   0
                   0
                   0
                   0
                   0
                   0
                   0
                   0
                   0
                   0
                   0
                   0
                   0
                   0
                   0
                   0
                   0
                   0
                   0
                   0
                   0
                   0
                   0
                   0
                   0
                   0
                   0
                   0
                   0
                   0
                   0
                   0
                   0
                   0
                   0
                   0
                   0
                   0
                   0
                   0
                   0
                   0
                   0
                   0
                   0
                   0
                   0
                   0
                   0
                   0
                   0
                   0
                   0
                   0
                   0
                   0
                   0
                   0
                   0
                   0
                   0
                   0
                   0
                   0
                   0
                   0
                   0
                   0
                   0
                   0
                   0
                   0
                   0
                   0
                   0
                   0
                   0
                   0
                   0
                   0
                   0
                   0
                   0
                   0
                   0
                   0
                   0
                   0
                   0
                   0
                   0
                   0
                   0
                   0
                   0
                   0
                   0
                   0
                   0
                   0
                   0
                   0
                   0
                   0
                   0
                   0
                   0
                   0
                   0
                   0
                   0
                   0
                   0
                   0
                   0
                   0
                   0
                   0
                   0
                   0
                   0
                   0
                   0
                   0
                   0
                   0
                   0
                   0
                   0
                   0
                   0
                   0
                   0
                   0
                   0
                   0
                   0
                   0
                   0
                   0
                   0
                   0
                   0
                   0
                   0
                   0
                   0
                   0
                   0
                   0
                   0
                   0
                   0
                   0
                   0
                   0
                   0
                   0
                   0
                   0
                   0
                   0
                   0
                   0
                   0
                   0
                   0
                   0
                   0
                   0
                   0
                   0
                   0
                   0
                   0
                   0
                   0
                   0
                   0
                   0
                   0
                   0
                   0
                   0
                   0
                   0
                   0
                   0
                   0
                   0
                   0
                   0
                   0
                   0
                   0
                   0
                   0
                   0
                   0
                   0
                   0
                   0
                   0
                   0
                   0
                   0
                   0
                   0
                   0
                   0
                   0
                   0
                   0
                   0
                   0
                   0
                   0
                   0
                   0
                   0
                   0
                   0
                   0
                   0
                   0
                   0
                   0
                   0
                   0
                   0
                   0
                   0
                   0
                   0
                   0
                   0
                   0
                   0
                   0
                   0
                   0
                   0
                   0
                   0
                   0
                   0
                   0
                   0
                   0
                   0
                   0
                   0
                   0
                   0
                   0
                   0
                   0
                   0
                   0
                   0
                   0
                   0
                   0
                   0
                   0
                   0
                   0
                   0
                   0
                   0
                   0
                   0
                   0
                   0
                   0
                   0
                   0
                   0
                   0
                   0
                   0
                   0
                   0
                   0
                   0
                   0
                   0
                   0
                   0
                   0
                   0
                   0
                   0
                   0
                   0
                   0
                   0
                   0
                   0
                   0
                   0
                   0
                   0
                   0
                   0
                   0
                   0
                   0
                   0
                   0
                   0
                   0
                   0
                   0
                   0
                   0
                   0
                   0
                   0
                   0
                   0
                   0
                   0
                   0
                   0
                   0
                   0
                   0
                   0
                   0
                   0
                   0
                   0
                   0
                   0
                   0
                   0
                   0
                   0
                   0
                   0
                   0
                   0
                   0
                   0
                   0
                   0
                   0
                   0
                   0
                   0
                   0
                   0
                   0
                   0
                   0
                   0
                   0
                   0
                   0
                   0
                   0
                   0
                   0
                   0
                   0
                   0
                   0
                   0
                   0
                   0
                   0
                   0
                   0
                   0
                   0
                   0
                   0
                   0
                   0
                   0
                   0
                   0
                   0
                   0
                   0
                   0
                   0
                   0
                   0
                   0
                   0
                   0
                   0
                   0
                   0
                   0
                   0
                   0
                   0
                   0
                   0
                   0
                   0
                   0
                   0
                   0
                   0
                   0
                   0
                   0
                   0
                   0
                   0
                   0
                   0
                   0
                   0
                   0
                   0
                   0
                   0
                   0
                   0
                   0
                   0
                   0
                   0
                   0
                   0
                   0
                   0
                   0
                   0
                   0
                   0
                   0
                   0
                   0
                   0
                   0
                   0
                   0
                   0
                   0
                   0
                   0
                   0
                   0
                   0
                   0
                   0
                   0
                   0
                   0
                   0
                   0
                   0
                   0
                   0
                   0
                   0
                   0
                   0
                   0
                   0
                   0
                   0
                   0
                   0
                   0
                   0
                   0
                   0
                   0
                   0
                   0
                   0
                   0
                   0
                   0
                   0
                   0
                   0
                   0
                   0
                   0
                   0
                   0
                   0
                   0
                   0
                   0
                   0
                   0
                   0
                   0
                   0
                   0
                   0
                   0
                   0
                   0
                   0
                   0
                   0
                   0
                   0
                   0
                   0
                   0
                   0
                   0
                   0
                   0
                   0
                   0
                   0
                   0
                   0
                   0
                   0
                   0
                   0
                   0
                   0
                   0
                   0
                   0
                   0
                   0
                   0
                   0
                   0
                   0
                   0
                   0
                   0
                   0
                   0
                   0
                   0
                   0
                   0
                   0
                   0
                   0
                   0
                   0
                   0
                   0
                   0
                   0
                   0
                   0
                   0
                   0
                   0
                   0
                   0
                   0
                   0
                   0
                   0
                   0
                   0
                   0
                   0
                   0
                   0
                   0
                   0
                   0
                   0
                   0
                   0
                   0
                   0
                   0
                   0
                   0
                   0
                   0
                   0
                   0
                   0
                   0
                   0
                   0
                   0
                   0
                   0
                   0
                   0
                   0
                   0
                   0
                   0
                   0
                   0
                   0
                   0
                   0
                   0
                   0
                   0
                   0
                   0
                   0
                   0
                   0
                   0
                   0
                   0
                   0
                   0
                   0
                   0
                   0
                   0
                   0
                   0
                   0
                   0
                   0
                   0
                   0
                   0
                   0
                   0
                   0
                   0
                   0
                   0
                   0
                   0
                   0
                   0
                   0
                   0
                   0
                   0
                   0
                   0
                   0
                   0
                   0
                   0
                   0
                   0
                   0
                   0
                   0
                   0
                   0
                   0
                   0
                   0
                   0
                   0
                   0
                   0
                   0
                   0
                   0
                   0
                   0
                   0
                   0
                   0
                   0
                   0
                   0
                   0
                   0
                   0
                   0
                   0
                   0
                   0
                   0
                   0
                   0
                   0
                   0
                   0
                   0
                   0
                   0
                   0
                   0
                   0
                   0
                   0
                   0
                   0
                   0
                   0
                   0
                   0
                   0
                   0
                   0
                   0
                   0
                   0
                   0
                   0
                   0
                   0
                   0
                   0
                   0
                   0
                   0
                   0
                   0
                   0
                   0
                   0
                   0
                   0
                   0
                   0
                   0
                   0
                   0
                   0
                   0
                   0
                   0
                   0
                   0
                   0
                   0
                   0
                   0
                   0
                   0
                   0
                   0
                   0
                   0
                   0
                   0
                   0
                   0
                   0
                   0
                   0
                   0
                   0
                   0
                   0
                   0
                   0
                   0
                   0
                   0
                   0
                   0
                   0
                   0
                   0
                   0
                   0
                   0
                   0
                   0
                   0
                   0
                   0
                   0
                   0
                   0
                   0
                   0
                   0
                   0
                   0
                   0
                   0
                   0
                   0
                   0
                   0
                   0
                   0
                   0
                   0
                   0
                   0
                   0
                   0
                   0
                   0
                   0
                   0
                   0
                   0
                   0
                   0
                   0
                   0
                   0
                   0
                   0
                   0
                   0
                   0
                   0
                   0
                   0
                   0
                   0
                   0
                   0
                   0
                   0
                   0
                   0
                   0
                   0
                   0
                   0
                   0
                   0
                   0
                   0
                   0
                   0
                   0
                   0
                   0
                   0
                   0
                   0
                   0
                   0
                   0
                   0
                   0
                   0
                   0
                   0
                   0
                   0
                   0
                   0
                   0
                   0
                   0
                   0
                   0
                   0
                   0
                   0
                   0
                   0
                   0
                   0
                   0
                   0
                   0
                   0
                   0
                   0
                   0
                   0
                   0
                   0
                   0
                   0
                   0
                   0
                   0
                   0
                   0
                   0
                   0
                   0
                   0
                   0
                   0
                   0
                   0
                   0
                   0
                   0
                   0
                   0
                   0
                   0
                   0
                   0
                   0
                   0
                   0
                   0
                   0
                   0
                   0
                   0
                   0
                   0
                   0
                   0
                   0
                   0
                   0
                   0
                   0
                   0
                   0
                   0
                   0
                   0
                   0
                   0
                   0
                   0
                   0
                   0
                   0
                   0
                   0
                   0
                   0
                   0
                   0
                   0
                   0
                   0
                   0
                   0
                   0
                   0
                   0
                   0
                   0
                   0
                   0
                   0
                   0
                   0
                   0
                   0
                   0
                   0
                   0
                   0
                   0
                   0
                   0
                   0
                   0
                   0
                   0
                   0
                   0
                   0
                   0
                   0
                   0
                   0
                   0
                   0
                   0
                   0
                   0
                   0
                   0
                   0
                   0
                   0
                   0
                   0
  
SCALARS                       fixity_y  double 1
LOOKUP_TABLE default
                   0
                   0
                   0
                   0
                   0
                   0
                   0
                   0
                   0
                   0
                   0
                   0
                   0
                   0
                   0
                   0
                   0
                   0
                   0
                   0
                   0
                   0
                   0
                   0
                   0
                   0
                   0
                   0
                   0
                   0
                   0
                   0
                   0
                   0
                   0
                   0
                   0
                   0
                   0
                   0
                   0
                   0
                   0
                   0
                   0
                   0
                   0
                   0
                   0
                   0
                   0
                   0
                   0
                   0
                   0
                   0
                   0
                   0
                   0
                   0
                   0
                   0
                   0
                   0
                   0
                   0
                   0
                   0
                   0
                   0
                   0
                   0
                   0
                   0
                   0
                   0
                   0
                   0
                   0
                   0
                   0
                   0
                   0
                   0
                   0
                   0
                   0
                   0
                   0
                   0
                   0
                   0
                   0
                   0
                   0
                   0
                   0
                   0
                   0
                   0
                   0
                   0
                   0
                   0
                   0
                   0
                   0
                   0
                   0
                   0
                   0
                   0
                   0
                   0
                   0
                   0
                   0
                   0
                   0
                   0
                   0
                   0
                   0
                   0
                   0
                   0
                   0
                   0
                   0
                   0
                   0
                   0
                   0
                   0
                   0
                   0
                   0
                   0
                   0
                   0
                   0
                   0
                   0
                   0
                   0
                   0
                   0
                   0
                   0
                   0
                   0
                   0
                   0
                   0
                   0
                   0
                   0
                   0
                   0
                   0
                   0
                   0
                   0
                   0
                   0
                   0
                   0
                   0
                   0
                   0
                   0
                   0
                   0
                   0
                   0
                   0
                   0
                   0
                   0
                   0
                   0
                   0
                   0
                   0
                   0
                   0
                   0
                   0
                   0
                   0
                   0
                   0
                   0
                   0
                   0
                   0
                   0
                   0
                   0
                   0
                   0
                   0
                   0
                   0
                   0
                   0
                   0
                   0
                   0
                   0
                   0
                   0
                   0
                   0
                   0
                   0
                   0
                   0
                   0
                   0
                   0
                   0
                   0
                   0
                   0
                   0
                   0
                   0
                   0
                   0
                   0
                   0
                   0
                   0
                   0
                   0
                   0
                   0
                   0
                   0
                   0
                   0
                   0
                   0
                   0
                   0
                   0
                   0
                   0
                   0
                   0
                   0
                   0
                   0
                   0
                   0
                   0
                   0
                   0
                   0
                   0
                   0
                   0
                   0
                   0
                   0
                   0
                   0
                   0
                   0
                   0
                   0
                   0
                   0
                   0
                   0
                   0
                   0
                   0
                   0
                   0
                   0
                   0
                   0
                   0
                   0
                   0
                   0
                   0
                   0
                   0
                   0
                   0
                   0
                   0
                   0
                   0
                   0
                   0
                   0
                   0
                   0
                   0
                   0
                   0
                   0
                   0
                   0
                   0
                   0
                   0
                   0
                   0
                   0
                   0
                   0
                   0
                   0
                   0
                   0
                   0
                   0
                   0
                   0
                   0
                   0
                   0
                   0
                   0
                   0
                   0
                   0
                   0
                   0
                   0
                   0
                   0
                   0
                   0
                   0
                   0
                   0
                   0
                   0
                   0
                   0
                   0
                   0
                   0
                   0
                   0
                   0
                   0
                   0
                   0
                   0
                   0
                   0
                   0
                   0
                   0
                   0
                   0
                   0
                   0
                   0
                   0
                   0
                   0
                   0
                   0
                   0
                   0
                   0
                   0
                   0
                   0
                   0
                   0
                   0
                   0
                   0
                   0
                   0
                   0
                   0
                   0
                   0
                   0
                   0
                   0
                   0
                   0
                   0
                   0
                   0
                   0
                   0
                   0
                   0
                   0
                   0
                   0
                   0
                   0
                   0
                   0
                   0
                   0
                   0
                   0
                   0
                   0
                   0
                   0
                   0
                   0
                   0
                   0
                   0
                   0
                   0
                   0
                   0
                   0
                   0
                   0
                   0
                   0
                   0
                   0
                   0
                   0
                   0
                   0
                   0
                   0
                   0
                   0
                   0
                   0
                   0
                   0
                   0
                   0
                   0
                   0
                   0
                   0
                   0
                   0
                   0
                   0
                   0
                   0
                   0
                   0
                   0
                   0
                   0
                   0
                   0
                   0
                   0
                   0
                   0
                   0
                   0
                   0
                   0
                   0
                   0
                   0
                   0
                   0
                   0
                   0
                   0
                   0
                   0
                   0
                   0
                   0
                   0
                   0
                   0
                   0
                   0
                   0
                   0
                   0
                   0
                   0
                   0
                   0
                   0
                   0
                   0
                   0
                   0
                   0
                   0
                   0
                   0
                   0
                   0
                   0
                   0
                   0
                   0
                   0
                   0
                   0
                   0
                   0
                   0
                   0
                   0
                   0
                   0
                   0
                   0
                   0
                   0
                   0
                   0
                   0
                   0
                   0
                   0
                   0
                   0
                   0
                   0
                   0
                   0
                   0
                   0
                   0
                   0
                   0
                   0
                   0
                   0
                   0
                   0
                   0
                   0
                   0
                   0
                   0
                   0
                   0
                   0
                   0
                   0
                   0
                   0
                   0
                   0
                   0
                   0
                   0
                   0
                   0
                   0
                   0
                   0
                   0
                   0
                   0
                   0
                   0
                   0
                   0
                   0
                   0
                   0
                   0
                   0
                   0
                   0
                   0
                   0
                   0
                   0
                   0
                   0
                   0
                   0
                   0
                   0
                   0
                   0
                   0
                   0
                   0
                   0
                   0
                   0
                   0
                   0
                   0
                   0
                   0
                   0
                   0
                   0
                   0
                   0
                   0
                   0
                   0
                   0
                   0
                   0
                   0
                   0
                   0
                   0
                   0
                   0
                   0
                   0
                   0
                   0
                   0
                   0
                   0
                   0
                   0
                   0
                   0
                   0
                   0
                   0
                   0
                   0
                   0
                   0
                   0
                   0
                   0
                   0
                   0
                   0
                   0
                   0
                   0
                   0
                   0
                   0
                   0
                   0
                   0
                   0
                   0
                   0
                   0
                   0
                   0
                   0
                   0
                   0
                   0
                   0
                   0
                   0
                   0
                   0
                   0
                   0
                   0
                   0
                   0
                   0
                   0
                   0
                   0
                   0
                   0
                   0
                   0
                   0
                   0
                   0
                   0
                   0
                   0
                   0
                   0
                   0
                   0
                   0
                   0
                   0
                   0
                   0
                   0
                   0
                   0
                   0
                   0
                   0
                   0
                   0
                   0
                   0
                   0
                   0
                   0
                   0
                   0
                   0
                   0
                   0
                   0
                   0
                   0
                   0
                   0
                   0
                   0
                   0
                   0
                   0
                   0
                   0
                   0
                   0
                   0
                   0
                   0
                   0
                   0
                   0
                   0
                   0
                   0
                   0
                   0
                   0
                   0
                   0
                   0
                   0
                   0
                   0
                   0
                   0
                   0
                   0
                   0
                   0
                   0
                   0
                   0
                   0
                   0
                   0
                   0
                   0
                   0
                   0
                   0
                   0
                   0
                   0
                   0
                   0
                   0
                   0
                   0
                   0
                   0
                   0
                   0
                   0
                   0
                   0
                   0
                   0
                   0
                   0
                   0
                   0
                   0
                   0
                   0
                   0
                   0
                   0
                   0
                   0
                   0
                   0
                   0
                   0
                   0
                   0
                   0
                   0
                   0
                   0
                   0
                   0
                   0
                   0
                   0
                   0
                   0
                   0
                   0
                   0
                   0
                   0
                   0
                   0
                   0
                   0
                   0
                   0
                   0
                   0
                   0
                   0
                   0
                   0
                   0
                   0
                   0
                   0
                   0
                   0
                   0
                   0
                   0
                   0
                   0
                   0
                   0
                   0
                   0
                   0
                   0
                   0
                   0
                   0
                   0
                   0
                   0
                   0
                   0
                   0
                   0
                   0
                   0
                   0
                   0
                   0
                   0
                   0
                   0
                   0
                   0
                   0
                   0
                   0
                   0
                   0
                   0
                   0
                   0
                   0
                   0
                   0
                   0
                   0
                   0
                   0
                   0
                   0
                   0
                   0
                   0
                   0
                   0
                   0
                   0
                   0
                   0
                   0
                   0
                   0
                   0
                   0
                   0
                   0
                   0
                   0
                   0
                   0
                   0
                   0
                   0
                   0
                   0
                   0
                   0
                   0
                   0
                   0
                   0
                   0
                   0
                   0
                   0
                   0
                   0
                   0
                   0
                   0
                   0
                   0
                   0
                   0
                   0
                   0
                   0
                   0
                   0
                   0
                   0
                   0
                   0
                   0
                   0
                   0
                   0
                   0
                   0
                   0
                   0
                   0
                   0
                   0
                   0
                   0
                   0
                   0
                   0
                   0
                   0
                   0
                   0
                   0
                   0
                   0
                   0
                   0
                   0
                   0
                   0
                   0
                   0
                   0
                   0
                   0
                   0
                   0
                   0
                   0
                   0
                   0
                   0
                   0
                   0
                   0
                   0
                   0
                   0
                   0
                   0
                   0
                   0
                   0
                   0
                   0
                   0
                   0
                   0
                   0
                   0
                   0
                   0
                   0
                   0
                   0
                   0
                   0
                   0
                   0
                   0
                   0
                   0
                   0
                   0
                   0
                   0
                   0
                   0
                   0
                   0
                   0
                   0
                   0
                   0
                   0
                   0
                   0
                   0
                   0
                   0
                   0
                   0
                   0
                   0
                   0
                   0
                   0
                   0
                   0
                   0
                   0
                   0
                   0
                   0
                   0
                   0
                   0
                   0
                   0
                   0
                   0
                   0
                   0
                   0
                   0
                   0
                   0
                   0
                   0
                   0
                   0
                   0
                   0
                   0
                   0
                   0
                   0
                   0
                   0
                   0
                   0
                   0
                   0
                   0
                   0
                   0
                   0
                   0
                   0
                   0
                   0
                   0
                   0
                   0
                   0
                   0
                   0
                   0
                   0
                   0
                   0
                   0
                   0
                   0
                   0
                   0
                   0
                   0
                   0
                   0
                   0
                   0
                   0
                   0
                   0
                   0
                   0
                   0
                   0
                   0
                   0
                   0
                   0
                   0
                   0
                   0
                   0
                   0
                   0
                   0
                   0
                   0
                   0
                   0
                   0
                   0
                   0
                   0
                   0
                   0
                   0
                   0
                   0
                   0
                   0
                   0
                   0
                   0
                   0
                   0
                   0
                   0
                   0
                   0
                   0
                   0
                   0
                   0
                   0
                   0
                   0
                   0
                   0
                   0
                   0
                   0
                   0
                   0
                   0
                   0
                   0
                   0
                   0
                   0
                   0
                   0
                   0
                   0
                   0
                   0
                   0
                   0
                   0
                   0
                   0
                   0
                   0
                   0
                   0
                   0
                   0
                   0
                   0
                   0
                   0
                   0
                   0
                   0
                   0
                   0
                   0
                   0
                   0
                   0
                   0
                   0
                   0
                   0
                   0
                   0
                   0
                   0
                   0
                   0
                   0
                   0
                   0
                   0
                   0
                   0
                   0
                   0
                   0
                   0
                   0
                   0
                   0
                   0
                   0
                   0
                   0
                   0
                   0
                   0
                   0
                   0
                   0
                   0
                   0
                   0
                   0
                   0
                   0
                   0
                   0
                   0
                   0
                   0
                   0
                   0
                   0
                   0
                   0
                   0
                   0
                   0
                   0
                   0
                   0
                   0
                   0
                   0
                   0
                   0
                   0
                   0
                   0
                   0
                   0
                   0
                   0
                   0
                   0
                   0
                   0
                   0
                   0
                   0
                   0
                   0
                   0
                   0
                   0
                   0
                   0
                   0
                   0
                   0
                   0
                   0
                   0
                   0
                   0
                   0
                   0
                   0
                   0
                   0
                   0
                   0
                   0
                   0
                   0
                   0
                   0
                   0
                   0
                   0
                   0
                   0
                   0
                   0
                   0
                   0
                   0
                   0
                   0
                   0
                   0
                   0
                   0
                   0
                   0
                   0
                   0
                   0
                   0
                   0
                   0
                   0
                   0
                   0
                   0
                   0
                   0
                   0
                   0
                   0
                   0
                   0
                   0
                   0
                   0
                   0
                   0
                   0
                   0
                   0
                   0
                   0
                   0
                   0
                   0
                   0
                   0
                   0
                   0
                   0
                   0
                   0
                   0
                   0
                   0
                   0
                   0
                   0
                   0
                   0
                   0
                   0
                   0
                   0
                   0
                   0
                   0
                   0
                   0
                   0
                   0
                   0
                   0
                   0
                   0
                   0
                   0
                   0
                   0
                   0
                   0
                   0
                   0
                   0
                   0
                   0
                   0
                   0
                   0
                   0
                   0
                   0
                   0
                   0
                   0
                   0
                   0
                   0
                   0
                   0
                   0
                   0
                   0
                   0
                   0
                   0
                   0
                   0
                   0
                   0
                   0
                   0
                   0
                   0
                   0
                   0
                   0
                   0
                   0
                   0
                   0
                   0
                   0
                   0
                   0
                   0
                   0
                   0
                   0
                   0
                   0
                   0
                   0
                   0
                   0
                   0
                   0
                   0
                   0
                   0
                   0
                   0
                   0
                   0
                   0
                   0
                   0
                   0
                   0
                   0
                   0
                   0
                   0
                   0
                   0
                   0
                   0
                   0
                   0
                   0
                   0
                   0
                   0
                   0
                   0
                   0
                   0
                   0
                   0
                   0
                   0
                   0
                   0
                   0
                   0
                   0
                   0
                   0
                   0
                   0
                   0
                   0
                   0
                   0
                   0
                   0
                   0
                   0
                   0
                   0
                   0
                   0
                   0
                   0
                   0
                   0
                   0
                   0
                   0
                   0
                   0
                   0
                   0
                   0
                   0
                   0
                   0
                   0
                   0
                   0
                   0
                   0
                   0
                   0
                   0
                   0
                   0
                   0
                   0
                   0
                   0
                   0
                   0
                   0
                   0
                   0
                   0
                   0
                   0
                   0
                   0
                   0
                   0
                   0
                   0
                   0
                   0
                   0
                   0
                   0
                   0
                   0
                   0
                   0
                   0
                   0
                   0
                   0
                   0
                   0
                   0
                   0
                   0
                   0
                   0
                   0
                   0
                   0
                   0
                   0
                   0
                   0
                   0
                   0
                   0
                   0
                   0
                   0
                   0
                   0
                   0
                   0
                   0
                   0
                   0
                   0
                   0
                   0
                   0
                   0
                   0
                   0
                   0
                   0
                   0
                   0
                   0
                   0
                   0
                   0
                   0
                   0
                   0
                   0
                   0
                   0
                   0
                   0
                   0
                   0
                   0
                   0
                   0
                   0
                   0
                   0
                   0
                   0
                   0
                   0
                   0
                   0
                   0
                   0
                   0
                   0
                   0
                   0
                   0
                   0
                   0
                   0
                   0
                   0
                   0
                   0
                   0
                   0
                   0
                   0
                   0
                   0
                   0
                   0
                   0
                   0
                   0
                   0
                   0
                   0
                   0
                   0
                   0
                   0
                   0
                   0
                   0
                   0
                   0
                   0
                   0
                   0
                   0
                   0
                   0
                   0
                   0
                   0
                   0
                   0
                   0
                   0
                   0
                   0
                   0
                   0
                   0
                   0
                   0
                   0
                   0
                   0
                   0
                   0
                   0
                   0
                   0
                   0
                   0
                   0
                   0
                   0
                   0
                   0
                   0
                   0
                   0
                   0
                   0
                   0
                   0
                   0
                   0
                   0
                   0
                   0
                   0
                   0
                   0
                   0
                   0
                   0
                   0
                   0
                   0
                   0
                   0
                   0
                   0
                   0
                   0
                   0
                   0
                   0
                   0
                   0
                   0
                   0
                   0
                   0
                   0
                   0
                   0
                   0
                   0
                   0
                   0
                   0
                   0
                   0
                   0
                   0
                   0
                   0
                   0
                   0
                   0
                   0
                   0
                   0
                   0
                   0
                   0
                   0
                   0
                   0
                   0
                   0
                   0
                   0
                   0
                   0
                   0
                   0
                   0
                   0
                   0
                   0
                   0
                   0
                   0
                   0
                   0
                   0
                   0
                   0
                   0
                   0
                   0
                   0
                   0
                   0
                   0
                   0
                   0
                   0
                   0
                   0
                   0
                   0
                   0
                   0
                   0
                   0
                   0
                   0
                   0
                   0
                   0
                   0
                   0
                   0
                   0
                   0
                   0
                   0
                   0
                   0
                   0
                   0
                   0
                   0
                   0
                   0
                   0
                   0
                   0
                   0
                   0
                   0
                   0
                   0
                   0
                   0
                   0
                   0
                   0
                   0
                   0
                   0
                   0
                   0
                   0
                   0
                   0
                   0
                   0
                   0
                   0
                   0
                   0
                   0
                   0
                   0
                   0
                   0
                   0
                   0
                   0
                   0
                   0
                   0
                   0
                   0
                   0
                   0
                   0
                   0
                   0
                   0
                   0
                   0
                   0
                   0
                   0
                   0
                   0
                   0
                   0
                   0
                   0
                   0
                   0
                   0
                   0
                   0
                   0
                   0
                   0
                   0
                   0
                   0
                   0
                   0
                   0
                   0
                   0
                   0
                   0
                   0
                   0
                   0
                   0
                   0
                   0
                   0
                   0
                   0
                   0
                   0
                   0
                   0
                   0
                   0
                   0
                   0
                   0
                   0
                   0
                   0
                   0
                   0
                   0
                   0
                   0
                   0
                   0
                   0
                   0
                   0
                   0
                   0
                   0
                   0
                   0
                   0
                   0
                   0
                   0
                   0
                   0
                   0
                   0
                   0
                   0
                   0
                   0
                   0
                   0
                   0
                   0
                   0
                   0
                   0
                   0
                   0
                   0
                   0
                   0
                   0
                   0
                   0
                   0
                   0
                   0
                   0
                   0
                   0
                   0
                   0
                   0
                   0
                   0
                   0
                   0
                   0
                   0
                   0
                   0
  
SCALARS                       fixity_z  double 1
LOOKUP_TABLE default
                   0
                   0
                   0
                   0
                   1
                   1
                   1
                   1
                   0
                   0
                   1
                   1
                   0
                   0
                   1
                   1
                   0
                   0
                   1
                   1
                   0
                   0
                   0
                   1
                   1
                   1
                   0
                   0
                   1
                   1
                   0
                   0
                   0
                   1
                   1
                   1
                   0
                   0
                   1
                   1
                   0
                   0
                   1
                   1
                   0
                   0
                   1
                   1
                   0
                   1
                   0
                   1
                   0
                   1
                   0
                   1
                   0
                   0
                   1
                   1
                   0
                   0
                   1
                   1
                   0
                   1
                   0
                   1
                   0
                   0
                   1
                   1
                   0
                   1
                   0
                   1
                   0
                   1
                   0
                   1
                   0
                   0
                   1
                   1
                   0
                   1
                   0
                   1
                   0
                   1
                   0
                   0
                   1
                   1
                   0
                   1
                   0
                   1
                   0
                   1
                   0
                   0
                   1
                   1
                   0
                   0
                   1
                   1
                   0
                   1
                   0
                   1
                   0
                   1
                   0
                   1
                   0
                   1
                   0
                   1
                   0
                   1
                   0
                   1
                   0
                   1
                   0
                   1
                   0
                   1
                   0
                   1
                   0
                   1
                   0
                   1
                   0
                   1
                   0
                   1
                   0
                   1
                   0
                   1
                   0
                   1
                   0
                   1
                   0
                   1
                   0
                   1
                   0
                   1
                   0
                   1
                   0
                   0
                   0
                   0
                   0
                   0
                   0
                   0
                   0
                   0
                   0
                   0
                   0
                   0
                   0
                   0
                   0
                   0
                   0
                   0
                   0
                   0
                   0
                   0
                   0
                   0
                   0
                   0
                   0
                   0
                   0
                   0
                   0
                   0
                   0
                   0
                   0
                   0
                   0
                   0
                   0
                   0
                   0
                   0
                   0
                   0
                   0
                   0
                   0
                   0
                   0
                   0
                   0
                   0
                   0
                   0
                   0
                   0
                   0
                   0
                   0
                   0
                   0
                   0
                   0
                   0
                   0
                   0
                   0
                   0
                   0
                   0
                   0
                   0
                   0
                   0
                   0
                   0
                   0
                   0
                   0
                   0
                   0
                   0
                   0
                   0
                   0
                   0
                   0
                   0
                   0
                   0
                   0
                   0
                   0
                   0
                   0
                   0
                   0
                   0
                   0
                   0
                   0
                   0
                   0
                   0
                   0
                   0
                   0
                   0
                   0
                   0
                   0
                   0
                   0
                   0
                   0
                   0
                   0
                   0
                   0
                   0
                   0
                   0
                   0
                   0
                   0
                   0
                   0
                   0
                   0
                   0
                   0
                   0
                   0
                   0
                   0
                   0
                   0
                   0
                   0
                   0
                   0
                   0
                   0
                   0
                   0
                   0
                   0
                   0
                   0
                   0
                   0
                   0
                   0
                   0
                   0
                   0
                   0
                   0
                   0
                   0
                   0
                   0
                   0
                   0
                   0
                   0
                   0
                   0
                   0
                   0
                   0
                   0
                   0
                   0
                   0
                   0
                   0
                   0
                   0
                   0
                   0
                   0
                   0
                   0
                   0
                   0
                   0
                   0
                   0
                   0
                   0
                   0
                   0
                   0
                   0
                   0
                   0
                   0
                   0
                   0
                   0
                   0
                   0
                   0
                   0
                   0
                   0
                   0
                   0
                   0
                   0
                   0
                   0
                   0
                   0
                   0
                   0
                   0
                   0
                   0
                   0
                   0
                   0
                   0
                   0
                   0
                   0
                   0
                   0
                   0
                   0
                   0
                   0
                   0
                   0
                   0
                   0
                   0
                   0
                   0
                   0
                   0
                   0
                   0
                   0
                   0
                   0
                   0
                   0
                   0
                   0
                   0
                   0
                   0
                   0
                   0
                   0
                   0
                   0
                   0
                   0
                   0
                   0
                   0
                   0
                   0
                   0
                   0
                   0
                   0
                   0
                   0
                   0
                   0
                   0
                   0
                   0
                   0
                   0
                   0
                   0
                   0
                   0
                   0
                   0
                   0
                   0
                   0
                   0
                   0
                   0
                   0
                   0
                   0
                   0
                   0
                   0
                   0
                   0
                   0
                   0
                   0
                   0
                   0
                   0
                   0
                   0
                   0
                   0
                   0
                   0
                   0
                   0
                   0
                   0
                   0
                   0
                   0
                   0
                   0
                   0
                   0
                   0
                   0
                   0
                   0
                   0
                   0
                   0
                   0
                   0
                   0
                   0
                   0
                   0
                   0
                   0
                   0
                   0
                   0
                   0
                   0
                   0
                   0
                   0
                   0
                   0
                   0
                   0
                   0
                   0
                   0
                   0
                   0
                   0
                   0
                   0
                   0
                   0
                   0
                   0
                   0
                   0
                   0
                   0
                   0
                   0
                   0
                   0
                   0
                   0
                   0
                   0
                   0
                   0
                   0
                   0
                   0
                   0
                   0
                   0
                   0
                   0
                   0
                   0
                   0
                   0
                   0
                   0
                   0
                   0
                   0
                   0
                   0
                   0
                   0
                   0
                   0
                   0
                   0
                   0
                   0
                   0
                   0
                   0
                   0
                   0
                   0
                   0
                   0
                   0
                   0
                   0
                   0
                   0
                   0
                   0
                   0
                   0
                   0
                   0
                   0
                   0
                   0
                   0
                   0
                   0
                   0
                   0
                   0
                   0
                   0
                   0
                   0
                   0
                   0
                   0
                   0
                   0
                   0
                   0
                   0
                   0
                   0
                   0
                   0
                   0
                   0
                   0
                   0
                   0
                   0
                   0
                   0
                   0
                   0
                   0
                   0
                   0
                   0
                   0
                   0
                   0
                   0
                   0
                   0
                   0
                   0
                   0
                   0
                   0
                   0
                   0
                   0
                   0
                   0
                   0
                   0
                   0
                   0
                   0
                   0
                   0
                   0
                   0
                   0
                   0
                   0
                   0
                   0
                   0
                   0
                   0
                   0
                   0
                   0
                   0
                   0
                   0
                   0
                   0
                   0
                   0
                   0
                   0
                   0
                   0
                   0
                   0
                   0
                   0
                   0
                   0
                   0
                   0
                   0
                   0
                   0
                   0
                   0
                   0
                   0
                   0
                   0
                   0
                   0
                   0
                   0
                   0
                   0
                   0
                   0
                   0
                   0
                   0
                   0
                   0
                   0
                   0
                   0
                   0
                   0
                   0
                   0
                   0
                   0
                   0
                   0
                   0
                   0
                   0
                   0
                   0
                   0
                   0
                   0
                   0
                   0
                   0
                   0
                   0
                   0
                   0
                   0
                   0
                   0
                   0
                   0
                   0
                   0
                   0
                   0
                   0
                   0
                   0
                   0
                   0
                   0
                   0
                   0
                   0
                   0
                   0
                   0
                   0
                   0
                   0
                   0
                   0
                   0
                   0
                   0
                   0
                   0
                   0
                   0
                   0
                   0
                   0
                   0
                   0
                   0
                   0
                   0
                   0
                   0
                   0
                   0
                   0
                   0
                   0
                   0
                   0
                   0
                   0
                   0
                   0
                   0
                   0
                   0
                   0
                   0
                   0
                   0
                   0
                   0
                   0
                   0
                   0
                   0
                   0
                   0
                   0
                   0
                   0
                   0
                   0
                   0
                   0
                   0
                   0
                   0
                   0
                   0
                   0
                   0
                   0
                   0
                   0
                   0
                   0
                   0
                   0
                   0
                   0
                   0
                   0
                   0
                   0
                   0
                   0
                   0
                   0
                   0
                   0
                   0
                   0
                   0
                   0
                   0
                   0
                   0
                   0
                   0
                   0
                   0
                   0
                   0
                   0
                   0
                   0
                   0
                   0
                   0
                   0
                   0
                   0
                   0
                   0
                   0
                   0
                   0
                   0
                   0
                   0
                   0
                   0
                   0
                   0
                   0
                   0
                   0
                   0
                   0
                   0
                   0
                   0
                   0
                   0
                   0
                   0
                   0
                   0
                   0
                   0
                   0
                   0
                   0
                   0
                   0
                   0
                   0
                   0
                   0
                   0
                   0
                   0
                   0
                   0
                   0
                   0
                   0
                   0
                   0
                   0
                   0
                   0
                   0
                   0
                   0
                   0
                   0
                   0
                   0
                   0
                   0
                   0
                   0
                   0
                   0
                   0
                   0
                   0
                   0
                   0
                   0
                   0
                   0
                   0
                   0
                   0
                   0
                   0
                   0
                   0
                   0
                   0
                   0
                   0
                   0
                   0
                   0
                   0
                   0
                   0
                   0
                   0
                   0
                   0
                   0
                   0
                   0
                   0
                   0
                   0
                   0
                   0
                   0
                   0
                   0
                   0
                   0
                   0
                   0
                   0
                   0
                   0
                   0
                   0
                   0
                   0
                   0
                   0
                   0
                   0
                   0
                   0
                   0
                   0
                   0
                   0
                   0
                   0
                   0
                   0
                   0
                   0
                   0
                   0
                   0
                   0
                   0
                   0
                   0
                   0
                   0
                   0
                   0
                   0
                   0
                   0
                   0
                   0
                   0
                   0
                   0
                   0
                   0
                   0
                   0
                   0
                   0
                   0
                   0
                   0
                   0
                   0
                   0
                   0
                   0
                   0
                   0
                   0
                   0
                   0
                   0
                   0
                   0
                   0
                   0
                   0
                   0
                   0
                   0
                   0
                   0
                   0
                   0
                   0
                   0
                   0
                   0
                   0
                   0
                   0
                   0
                   0
                   0
                   0
                   0
                   0
                   0
                   0
                   0
                   0
                   0
                   0
                   0
                   0
                   0
                   0
                   0
                   0
                   0
                   0
                   0
                   0
                   0
                   0
                   0
                   0
                   0
                   0
                   0
                   0
                   0
                   0
                   0
                   0
                   0
                   0
                   0
                   0
                   0
                   0
                   0
                   0
                   0
                   0
                   0
                   0
                   0
                   0
                   0
                   0
                   0
                   0
                   0
                   0
                   0
                   0
                   0
                   0
                   0
                   0
                   0
                   0
                   0
                   0
                   0
                   0
                   0
                   0
                   0
                   0
                   0
                   0
                   0
                   0
                   0
                   0
                   0
                   0
                   0
                   0
                   0
                   0
                   0
                   0
                   0
                   0
                   0
                   0
                   0
                   0
                   0
                   0
                   0
                   0
                   0
                   0
                   0
                   0
                   0
                   0
                   0
                   0
                   0
                   0
                   0
                   0
                   0
                   0
                   0
                   0
                   0
                   0
                   0
                   0
                   0
                   0
                   0
                   0
                   0
                   0
                   0
                   0
                   0
                   0
                   0
                   0
                   0
                   0
                   0
                   0
                   0
                   0
                   0
                   0
                   0
                   0
                   0
                   0
                   0
                   0
                   0
                   0
                   0
                   0
                   0
                   0
                   0
                   0
                   0
                   0
                   0
                   0
                   0
                   0
                   0
                   0
                   0
                   0
                   0
                   0
                   0
                   0
                   0
                   0
                   0
                   0
                   0
                   0
                   0
                   0
                   0
                   0
                   0
                   0
                   0
                   0
                   0
                   0
                   0
                   0
                   0
                   0
                   0
                   0
                   0
                   0
                   0
                   0
                   0
                   0
                   0
                   0
                   0
                   0
                   0
                   0
                   0
                   0
                   0
                   0
                   0
                   0
                   0
                   0
                   0
                   0
                   0
                   0
                   0
                   0
                   0
                   0
                   0
                   0
                   0
                   0
                   0
                   0
                   0
                   0
                   0
                   0
                   0
                   0
                   0
                   0
                   0
                   0
                   0
                   0
                   0
                   0
                   0
                   0
                   0
                   0
                   0
                   0
                   0
                   0
                   0
                   0
                   0
                   0
                   0
                   0
                   0
                   0
                   0
                   0
                   0
                   0
                   0
                   0
                   0
                   0
                   0
                   0
                   0
                   0
                   0
                   0
                   0
                   0
                   0
                   0
                   0
                   0
                   0
                   0
                   0
                   0
                   0
                   0
                   0
                   0
                   0
                   0
                   0
                   0
                   0
                   0
                   0
                   0
                   0
                   0
                   0
                   0
                   0
                   0
                   0
                   0
                   0
                   0
                   0
                   0
                   0
                   0
                   0
                   0
                   0
                   0
                   0
                   0
                   0
                   0
                   0
                   0
                   0
                   0
                   0
                   0
                   0
                   0
                   0
                   0
                   0
                   0
                   0
                   0
                   0
                   0
                   0
                   0
                   0
                   0
                   0
                   0
                   0
                   0
                   0
                   0
                   0
                   0
                   0
                   0
                   0
                   0
                   0
                   0
                   0
                   0
                   0
                   0
                   0
                   0
                   0
                   0
                   0
                   0
                   0
                   0
                   0
                   0
                   0
                   0
                   0
                   0
                   0
                   0
                   0
                   0
                   0
                   0
                   0
                   0
                   0
                   0
                   0
                   0
                   0
                   0
                   0
                   0
                   0
                   0
                   0
                   0
                   0
                   0
                   0
                   0
                   0
                   0
                   0
                   0
                   0
                   0
                   0
                   0
                   0
                   0
                   0
                   0
                   0
                   0
                   0
                   0
                   0
                   0
                   0
                   0
                   0
                   0
                   0
                   0
                   0
                   0
                   0
                   0
                   0
                   0
                   0
                   0
                   0
                   0
                   0
                   0
                   0
                   0
                   0
                   0
                   0
                   0
                   0
                   0
                   0
                   0
                   0
                   0
                   0
                   0
                   0
                   0
                   0
                   0
                   0
                   0
                   0
                   0
                   0
                   0
                   0
                   0
                   0
                   0
                   0
                   0
                   0
                   0
                   0
                   0
                   0
                   0
                   0
                   0
                   0
                   0
                   0
                   0
                   0
                   0
                   0
                   0
                   0
                   0
                   0
                   0
                   0
                   0
                   0
                   0
                   0
                   0
                   0
                   0
                   0
                   0
                   0
                   0
                   0
                   0
                   0
                   0
                   0
                   0
                   0
                   0
                   0
                   0
                   0
                   0
                   0
                   0
                   0
                   0
                   0
                   0
                   0
                   0
                   0
                   0
                   0
                   0
                   0
                   0
                   0
                   0
                   0
                   0
                   0
                   0
                   0
                   0
                   0
                   0
                   0
                   0
                   0
                   0
                   0
                   0
                   0
                   0
                   0
                   0
                   0
                   0
                   0
                   0
                   0
                   0
                   0
                   0
                   0
                   0
                   0
                   0
                   0
                   0
                   0
                   0
                   0
                   0
                   0
                   0
                   0
                   0
                   0
                   0
                   0
                   0
                   0
                   0
                   0
                   0
                   0
                   0
                   0
                   0
                   0
                   0
                   0
                   0
                   0
                   0
                   0
                   0
                   0
                   0
                   0
                   0
                   0
                   0
                   0
                   0
                   0
                   0
                   0
                   0
                   0
                   0
                   0
                   0
                   0
                   0
                   0
                   0
                   0
                   0
                   0
                   0
                   0
                   0
                   0
                   0
                   0
                   0
                   0
                   0
                   0
                   0
                   0
                   0
                   0
                   0
                   0
                   0
                   0
                   0
                   0
                   0
                   0
                   0
                   0
                   0
                   0
                   0
                   0
                   0
                   0
                   0
                   0
                   0
                   0
                   0
                   0
                   0
                   0
                   0
                   0
                   0
                   0
                   0
                   0
                   0
                   0
                   0
                   0
                   0
                   0
                   0
                   0
                   0
                   0
                   0
                   0
                   0
                   0
                   0
                   0
                   0
                   0
                   0
                   0
                   0
                   0
                   0
                   0
                   0
                   0
                   0
                   0
                   0
                   0
                   0
                   0
                   0
                   0
                   0
                   0
                   0
                   0
                   0
                   0
                   0
                   0
                   0
                   0
                   0
                   0
                   0
                   0
                   0
                   0
                   0
                   0
                   0
                   0
                   0
                   0
                   0
                   0
                   0
                   0
                   0
                   0
                   0
                   0
                   0
                   0
                   0
                   0
                   0
                   0
                   0
                   0
                   0
                   0
                   0
                   0
                   0
                   0
                   0
                   0
                   0
                   0
                   0
                   0
                   0
                   0
                   0
                   0
                   0
                   0
                   0
                   0
                   0
                   0
                   0
                   0
                   0
                   0
                   0
                   0
                   0
                   0
                   0
                   0
                   0
                   0
                   0
                   0
                   0
                   0
                   0
                   0
                   0
                   0
                   0
                   0
                   0
                   0
                   0
                   0
                   0
                   0
                   0
                   0
                   0
                   0
                   0
                   0
                   0
                   0
                   0
                   0
                   0
                   0
                   0
                   0
                   0
                   0
                   0
                   0
                   0
                   0
                   0
                   0
                   0
                   0
                   0
                   0
                   0
                   0
                   0
                   0
                   0
                   0
                   0
                   0
                   0
                   0
                   0
                   0
                   0
                   0
                   0
                   0
                   0
                   0
                   0
                   0
                   0
                   0
                   0
                   0
                   0
                   0
                   0
                   0
                   0
                   0
                   0
                   0
                   0
                   0
                   0
                   0
                   0
                   0
                   0
                   0
                   0
                   0
                   0
                   0
                   0
                   0
                   0
                   0
                   0
                   0
                   0
                   0
                   0
                   0
                   0
                   0
                   0
                   0
                   0
                   0
                   0
                   0
                   0
                   0
                   0
                   0
                   0
                   0
                   0
                   0
                   0
                   0
                   0
                   0
                   0
                   0
                   0
                   0
                   0
                   0
                   0
                   0
                   0
                   0
                   0
                   0
                   0
                   0
                   0
                   0
                   0
                   0
                   0
                   0
                   0
                   0
                   0
                   0
                   0
                   0
                   0
                   0
                   0
                   0
                   0
                   0
                   0
                   0
                   0
                   0
                   0
                   0
                   0
                   0
                   0
                   0
                   0
                   0
                   0
                   0
                   0
                   0
                   0
                   0
                   0
                   0
                   0
                   0
                   0
                   0
                   0
                   0
                   0
                   0
  
SCALARS                         Ispace  double 1
LOOKUP_TABLE default
                  12
                  12
                  12
                  12
                  12
                  12
                  12
                  12
                  12
                  12
                  12
                  12
                  12
                  11
                  12
                  11
                  11
                  11
                  11
                  11
                  11
                  12
                  12
                  11
                  12
                  12
                  11
                  11
                  11
                  11
                  11
                  11
                  11
                  11
                  11
                  11
                  11
                  11
                  11
                  11
                  11
                  11
                  11
                  11
                  11
                  11
                  11
                  11
                  11
                  11
                  11
                  11
                  11
                  11
                  11
                  11
                  11
                  11
                  11
                  11
                  11
                  11
                  11
                  11
                  11
                  11
                  12
                  12
                  12
                  12
                  12
                  12
                  12
                  12
                  11
                  11
                  11
                  11
                  11
                  11
                  11
                  11
                  11
                  11
                  11
                  11
                  11
                  11
                  11
                  11
                  11
                  11
                  11
                  11
                  11
                  11
                  12
                  12
                  12
                  12
                  12
                  12
                  12
                  12
                  12
                  12
                  12
                  12
                  12
                  12
                  12
                  12
                  12
                  12
                  12
                  12
                  11
                  11
                  11
                  11
                  11
                  11
                  11
                  11
                  11
                  11
                  11
                  11
                  11
                  11
                  11
                  11
                  11
                  11
                  11
                  11
                  11
                  11
                  11
                  11
                  11
                  11
                  11
                  11
                  11
                  11
                  12
                  12
                  12
                  12
                  12
                  12
                  12
                  12
                  12
                  12
                  12
                  12
                  12
                  12
                  12
                  12
                  12
                  11
                  11
                  11
                  11
                  12
                  12
                  11
                  11
                  11
                  11
                  11
                  11
                  11
                  11
                  11
                  11
                  11
                  11
                  11
                  11
                  11
                  11
                  11
                  11
                  11
                  11
                  12
                  12
                  12
                  12
                  11
                  11
                  11
                  11
                  11
                  11
                  11
                  11
                  11
                  11
                  11
                  12
                  12
                  12
                  12
                  12
                  12
                  12
                  12
                  12
                  12
                  11
                  11
                  11
                  11
                  11
                  11
                  11
                  11
                  11
                  11
                  11
                  11
                  11
                  11
                  11
                  12
                  12
                  12
                  12
                  12
                  12
                  12
                  12
                  12
                  12
                  12
                  12
                  11
                  11
                  11
                  11
                  12
                  12
                  11
                  11
                  11
                  11
                  11
                  11
                  11
                  11
                  11
                  11
                  11
                  11
                  11
                  11
                  11
                  11
                  11
                  11
                  11
                  11
                  12
                  12
                  12
                  12
                  11
                  11
                  11
                  11
                  11
                  11
                  11
                  11
                  11
                  11
                  11
                  12
                  12
                  12
                  12
                  12
                  12
                  12
                  12
                  12
                  12
                  11
                  11
                  11
                  11
                  11
                  11
                  11
                  11
                  11
                  11
                  11
                  11
                  11
                  11
                  11
                  12
                  12
                  12
                  12
                  12
                  12
                  12
                  12
                  12
                  12
                  12
                  12
                  11
                  11
                  11
                  11
                  12
                  12
                  11
                  11
                  11
                  11
                  11
                  11
                  11
                  11
                  11
                  11
                  11
                  11
                  11
                  11
                  11
                  11
                  11
                  11
                  11
                  11
                  12
                  12
                  12
                  12
                  11
                  11
                  11
                  11
                  11
                  11
                  11
                  11
                  11
                  11
                  11
                  12
                  12
                  12
                  12
                  12
                  12
                  12
                  12
                  12
                  12
                  11
                  11
                  11
                  11
                  11
                  11
                  11
                  11
                  11
                  11
                  11
                  11
                  11
                  11
                  11
                  12
                  12
                  12
                  12
                  12
                  12
                  12
                  12
                  12
                  12
                  12
                  12
                  11
                  11
                  11
                  11
                  12
                  12
                  11
                  11
                  11
                  11
                  11
                  11
                  11
                  11
                  11
                  11
                  11
                  11
                  11
                  11
                  11
                  11
                  11
                  11
                  11
                  11
                  12
                  12
                  12
                  12
                  11
                  11
                  11
                  11
                  11
                  11
                  11
                  11
                  11
                  11
                  11
                  12
                  12
                  12
                  12
                  12
                  12
                  12
                  12
                  12
                  12
                  11
                  11
                  11
                  11
                  11
                  11
                  11
                  11
                  11
                  11
                  11
                  11
                  11
                  11
                  11
                  12
                  12
                  12
                  12
                  12
                  12
                  12
                  12
                  12
                  12
                  12
                  12
                  11
                  11
                  11
                  11
                  12
                  12
                  11
                  11
                  11
                  11
                  11
                  11
                  11
                  11
                  11
                  11
                  11
                  11
                  11
                  11
                  11
                  11
                  11
                  11
                  11
                  11
                  12
                  12
                  12
                  12
                  11
                  11
                  11
                  11
                  11
                  11
                  11
                  11
                  11
                  11
                  11
                  12
                  12
                  12
                  12
                  12
                  12
                  12
                  12
                  12
                  12
                  11
                  11
                  11
                  11
                  11
                  11
                  11
                  11
                  11
                  11
                  11
                  11
                  11
                  11
                  11
                  12
                  12
                  12
                  12
                  12
                  12
                  12
                  12
                  12
                  12
                  12
                  12
                  11
                  11
                  11
                  11
                  12
                  12
                  11
                  11
                  11
                  11
                  11
                  11
                  11
                  11
                  11
                  11
                  11
                  11
                  11
                  11
                  11
                  11
                  11
                  11
                  11
                  11
                  12
                  12
                  12
                  12
                  11
                  11
                  11
                  11
                  11
                  11
                  11
                  11
                  11
                  11
                  11
                  12
                  12
                  12
                  12
                  12
                  12
                  12
                  12
                  12
                  12
                  11
                  11
                  11
                  11
                  11
                  11
                  11
                  11
                  11
                  11
                  11
                  11
                  11
                  11
                  11
                  12
                  12
                  12
                  12
                  12
                  12
                  12
                  12
                  12
                  12
                  12
                  12
                  11
                  11
                  11
                  11
                  12
                  12
                  11
                  11
                  11
                  11
                  11
                  11
                  11
                  11
                  11
                  11
                  11
                  11
                  11
                  11
                  11
                  11
                  11
                  11
                  11
                  11
                  12
                  12
                  12
                  12
                  11
                  11
                  11
                  11
                  11
                  11
                  11
                  11
                  11
                  11
                  11
                  12
                  12
                  12
                  12
                  12
                  12
                  12
                  12
                  12
                  12
                  11
                  11
                  11
                  11
                  11
                  11
                  11
                  11
                  11
                  11
                  11
                  11
                  11
                  11
                  11
                  12
                  12
                  12
                  12
                  12
                  12
                  12
                  12
                  12
                  12
                  12
                  12
                  11
                  11
                  11
                  11
                  12
                  12
                  11
                  11
                  11
                  11
                  11
                  11
                  11
                  11
                  11
                  11
                  11
                  11
                  11
                  11
                  11
                  11
                  11
                  11
                  11
                  11
                  12
                  12
                  12
                  12
                  11
                  11
                  11
                  11
                  11
                  11
                  11
                  11
                  11
                  11
                  11
                  12
                  12
                  12
                  12
                  12
                  12
                  12
                  12
                  12
                  12
                  11
                  11
                  11
                  11
                  11
                  11
                  11
                  11
                  11
                  11
                  11
                  11
                  11
                  11
                  11
                  12
                  12
                  12
                  12
                  12
                  12
                  12
                  12
                  12
                  12
                  12
                  12
                  11
                  11
                  11
                  11
                  12
                  12
                  11
                  11
                  11
                  11
                  11
                  11
                  11
                  11
                  11
                  11
                  11
                  11
                  11
                  11
                  11
                  11
                  11
                  11
                  11
                  11
                  12
                  12
                  12
                  12
                  11
                  11
                  11
                  11
                  11
                  11
                  11
                  11
                  11
                  11
                  11
                  12
                  12
                  12
                  12
                  12
                  12
                  12
                  12
                  12
                  12
                  11
                  11
                  11
                  11
                  11
                  11
                  11
                  11
                  11
                  11
                  11
                  11
                  11
                  11
                  11
                  12
                  12
                  12
                  12
                  12
                  12
                  12
                  12
                  12
                  12
                  12
                  12
                  11
                  11
                  11
                  11
                  12
                  12
                  11
                  11
                  11
                  11
                  11
                  11
                  11
                  11
                  11
                  11
                  11
                  11
                  11
                  11
                  11
                  11
                  11
                  11
                  11
                  11
                  12
                  12
                  12
                  12
                  11
                  11
                  11
                  11
                  11
                  11
                  11
                  11
                  11
                  11
                  11
                  12
                  12
                  12
                  12
                  12
                  12
                  12
                  12
                  12
                  12
                  11
                  11
                  11
                  11
                  11
                  11
                  11
                  11
                  11
                  11
                  11
                  11
                  11
                  11
                  11
                  12
                  12
                  12
                  12
                  12
                  12
                  12
                  12
                  12
                  12
                  12
                  12
                  11
                  11
                  11
                  11
                  12
                  12
                  11
                  11
                  11
                  11
                  11
                  11
                  11
                  11
                  11
                  11
                  11
                  11
                  11
                  11
                  11
                  11
                  11
                  11
                  11
                  11
                  12
                  12
                  12
                  12
                  11
                  11
                  11
                  11
                  11
                  11
                  11
                  11
                  11
                  11
                  11
                  12
                  12
                  12
                  12
                  12
                  12
                  12
                  12
                  12
                  12
                  11
                  11
                  11
                  11
                  11
                  11
                  11
                  11
                  11
                  11
                  11
                  11
                  11
                  11
                  11
                  12
                  12
                  12
                  12
                  12
                  12
                  12
                  12
                  12
                  12
                  12
                  12
                  11
                  11
                  11
                  11
                  12
                  12
                  11
                  11
                  11
                  11
                  11
                  11
                  11
                  11
                  11
                  11
                  11
                  11
                  11
                  11
                  11
                  11
                  11
                  11
                  11
                  11
                  12
                  12
                  12
                  12
                  11
                  11
                  11
                  11
                  11
                  11
                  11
                  11
                  11
                  11
                  11
                  12
                  12
                  12
                  12
                  12
                  12
                  12
                  12
                  12
                  12
                  11
                  11
                  11
                  11
                  11
                  11
                  11
                  11
                  11
                  11
                  11
                  11
                  11
                  11
                  11
                  12
                  12
                  12
                  12
                  12
                  12
                  12
                  12
                  12
                  12
                  12
                  12
                  11
                  11
                  11
                  11
                  12
                  12
                  11
                  11
                  11
                  11
                  11
                  11
                  11
                  11
                  11
                  11
                  11
                  11
                  11
                  11
                  11
                  11
                  11
                  11
                  11
                  11
                  12
                  12
                  12
                  12
                  11
                  11
                  11
                  11
                  11
                  11
                  11
                  11
                  11
                  11
                  11
                  12
                  12
                  12
                  12
                  12
                  12
                  12
                  12
                  12
                  12
                  11
                  11
                  11
                  11
                  11
                  11
                  11
                  11
                  11
                  11
                  11
                  11
                  11
                  11
                  11
                  12
                  12
                  12
                  12
                  12
                  12
                  12
                  12
                  12
                  12
                  12
                  12
                  11
                  11
                  11
                  11
                  12
                  12
                  11
                  11
                  11
                  11
                  11
                  11
                  11
                  11
                  11
                  11
                  11
                  11
                  11
                  11
                  11
                  11
                  11
                  11
                  11
                  11
                  12
                  12
                  12
                  12
                  11
                  11
                  11
                  11
                  11
                  11
                  11
                  11
                  11
                  11
                  11
                  12
                  12
                  12
                  12
                  12
                  12
                  12
                  12
                  12
                  12
                  11
                  11
                  11
                  11
                  11
                  11
                  11
                  11
                  11
                  11
                  11
                  11
                  11
                  11
                  11
                  12
                  12
                  12
                  12
                  12
                  12
                  12
                  12
                  12
                  12
                  12
                  12
                  11
                  11
                  11
                  11
                  12
                  12
                  11
                  11
                  11
                  11
                  11
                  11
                  11
                  11
                  11
                  11
                  11
                  11
                  11
                  11
                  11
                  11
                  11
                  11
                  11
                  11
                  12
                  12
                  12
                  12
                  11
                  11
                  11
                  11
                  11
                  11
                  11
                  11
                  11
                  11
                  11
                  12
                  12
                  12
                  12
                  12
                  12
                  12
                  12
                  12
                  12
                  11
                  11
                  11
                  11
                  11
                  11
                  11
                  11
                  11
                  11
                  11
                  11
                  11
                  11
                  11
                  12
                  12
                  12
                  12
                  12
                  12
                  12
                  12
                  12
                  12
                  12
                  12
                  11
                  11
                  11
                  11
                  12
                  12
                  11
                  11
                  11
                  11
                  11
                  11
                  11
                  11
                  11
                  11
                  11
                  11
                  11
                  11
                  11
                  11
                  11
                  11
                  11
                  11
                  12
                  12
                  12
                  12
                  11
                  11
                  11
                  11
                  11
                  11
                  11
                  11
                  11
                  11
                  11
                  12
                  12
                  12
                  12
                  12
                  12
                  12
                  12
                  12
                  12
                  11
                  11
                  11
                  11
                  11
                  11
                  11
                  11
                  11
                  11
                  11
                  11
                  11
                  11
                  11
                  12
                  12
                  12
                  12
                  12
                  12
                  12
                  12
                  12
                  12
                  12
                  12
                  11
                  11
                  11
                  11
                  12
                  12
                  11
                  11
                  11
                  11
                  11
                  11
                  11
                  11
                  11
                  11
                  11
                  11
                  11
                  11
                  11
                  11
                  11
                  11
                  11
                  11
                  12
                  12
                  12
                  12
                  11
                  11
                  11
                  11
                  11
                  11
                  11
                  11
                  11
                  11
                  11
                  12
                  12
                  12
                  12
                  12
                  12
                  12
                  12
                  12
                  12
                  11
                  11
                  11
                  11
                  11
                  11
                  11
                  11
                  11
                  11
                  11
                  11
                  11
                  11
                  11
                  12
                  12
                  12
                  12
                  12
                  12
                  12
                  12
                  12
                  12
                  12
                  12
                  11
                  11
                  11
                  11
                  12
                  12
                  11
                  11
                  11
                  11
                  11
                  11
                  11
                  11
                  11
                  11
                  11
                  11
                  11
                  11
                  11
                  11
                  11
                  11
                  11
                  11
                  12
                  12
                  12
                  12
                  11
                  11
                  11
                  11
                  11
                  11
                  11
                  11
                  11
                  11
                  11
                  12
                  12
                  12
                  12
                  12
                  12
                  12
                  12
                  12
                  12
                  11
                  11
                  11
                  11
                  11
                  11
                  11
                  11
                  11
                  11
                  11
                  11
                  11
                  11
                  11
                  12
                  12
                  12
                  12
                  12
                  12
                  12
                  12
                  12
                  12
                  12
                  12
                  11
                  11
                  11
                  11
                  12
                  12
                  11
                  11
                  11
                  11
                  11
                  11
                  11
                  11
                  11
                  11
                  11
                  11
                  11
                  11
                  11
                  11
                  11
                  11
                  11
                  11
                  12
                  12
                  12
                  12
                  11
                  11
                  11
                  11
                  11
                  11
                  11
                  11
                  11
                  11
                  11
                  12
                  12
                  12
                  12
                  12
                  12
                  12
                  12
                  12
                  12
                  11
                  11
                  11
                  11
                  11
                  11
                  11
                  11
                  11
                  11
                  11
                  11
                  11
                  11
                  11
                  12
                  12
                  12
                  12
                  12
                  12
                  12
                  12
                  12
                  12
                  12
                  12
                  11
                  11
                  11
                  11
                  12
                  12
                  11
                  11
                  11
                  11
                  11
                  11
                  11
                  11
                  11
                  11
                  11
                  11
                  11
                  11
                  11
                  11
                  11
                  11
                  11
                  11
                  12
                  12
                  12
                  12
                  11
                  11
                  11
                  11
                  11
                  11
                  11
                  11
                  11
                  11
                  11
                  12
                  12
                  12
                  12
                  12
                  12
                  12
                  12
                  12
                  12
                  11
                  11
                  11
                  11
                  11
                  11
                  11
                  11
                  11
                  11
                  11
                  11
                  11
                  11
                  11
                  12
                  12
                  12
                  12
                  12
                  12
                  12
                  12
                  12
                  12
                  12
                  12
                  11
                  11
                  11
                  11
                  12
                  12
                  11
                  11
                  11
                  11
                  11
                  11
                  11
                  11
                  11
                  11
                  11
                  11
                  11
                  11
                  11
                  11
                  11
                  11
                  11
                  11
                  12
                  12
                  12
                  12
                  11
                  11
                  11
                  11
                  11
                  11
                  11
                  11
                  11
                  11
                  11
                  12
                  12
                  12
                  12
                  12
                  12
                  12
                  12
                  12
                  12
                  11
                  11
                  11
                  11
                  11
                  11
                  11
                  11
                  11
                  11
                  11
                  11
                  11
                  11
                  11
                  12
                  12
                  12
                  12
                  12
                  12
                  12
                  12
                  12
                  12
                  12
                  12
                  11
                  11
                  11
                  11
                  12
                  12
                  11
                  11
                  11
                  11
                  11
                  11
                  11
                  11
                  11
                  11
                  11
                  11
                  11
                  11
                  11
                  11
                  11
                  11
                  11
                  11
                  12
                  12
                  12
                  12
                  11
                  11
                  11
                  11
                  11
                  11
                  11
                  11
                  11
                  11
                  11
                  12
                  12
                  12
                  12
                  12
                  12
                  12
                  12
                  12
                  12
                  11
                  11
                  11
                  11
                  11
                  11
                  11
                  11
                  11
                  11
                  11
                  11
                  11
                  11
                  11
                  12
                  12
                  12
                  12
                  12
                  12
                  12
                  12
                  12
                  12
                  12
                  12
                  11
                  11
                  11
                  11
                  12
                  12
                  11
                  11
                  11
                  11
                  11
                  11
                  11
                  11
                  11
                  11
                  11
                  11
                  11
                  11
                  11
                  11
                  11
                  11
                  11
                  11
                  12
                  12
                  12
                  12
                  11
                  11
                  11
                  11
                  11
                  11
                  11
                  11
                  11
                  11
                  11
                  12
                  12
                  12
                  12
                  12
                  12
                  12
                  12
                  12
                  12
                  11
                  11
                  11
                  11
                  11
                  11
                  11
                  11
                  11
                  11
                  11
                  11
                  11
                  11
                  11
                  12
                  12
                  12
                  12
                  12
  
SCALARS                         Jspace  double 1
LOOKUP_TABLE default
                  11
                  12
                  11
                  11
                  11
                  12
                  11
                  11
                  11
                  11
                  11
                  11
                  12
                  12
                  12
                  12
                  11
                  12
                  11
                  12
                  12
                  12
                  12
                  12
                  12
                  12
                  12
                  12
                  12
                  12
                  11
                  11
                  11
                  11
                  11
                  11
                  11
                  11
                  11
                  11
                  11
                  11
                  11
                  11
                  11
                  11
                  11
                  11
                  11
                  11
                  11
                  11
                  12
                  12
                  12
                  12
                  12
                  11
                  12
                  11
                  11
                  11
                  11
                  11
                  11
                  11
                  11
                  11
                  11
                  12
                  11
                  12
                  12
                  12
                  12
                  12
                  12
                  12
                  12
                  12
                  12
                  12
                  12
                  12
                  11
                  11
                  11
                  11
                  11
                  11
                  11
                  11
                  11
                  11
                  11
                  11
                  11
                  11
                  11
                  11
                  11
                  11
                  11
                  11
                  11
                  11
                  11
                  11
                  12
                  12
                  12
                  12
                  12
                  12
                  12
                  12
                  12
                  12
                  12
                  12
                  12
                  12
                  12
                  12
                  12
                  12
                  12
                  12
                  11
                  11
                  11
                  11
                  11
                  11
                  11
                  11
                  11
                  11
                  11
                  11
                  11
                  11
                  11
                  11
                  11
                  11
                  11
                  11
                  11
                  11
                  11
                  11
                  11
                  11
                  11
                  11
                  11
                  12
                  11
                  11
                  11
                  11
                  12
                  12
                  11
                  12
                  12
                  12
                  12
                  12
                  12
                  11
                  11
                  11
                  11
                  11
                  11
                  11
                  11
                  11
                  11
                  11
                  12
                  12
                  12
                  11
                  11
                  11
                  11
                  11
                  11
                  12
                  12
                  12
                  12
                  12
                  12
                  12
                  11
                  11
                  11
                  11
                  11
                  11
                  11
                  11
                  11
                  11
                  11
                  11
                  12
                  12
                  12
                  12
                  12
                  12
                  12
                  12
                  12
                  12
                  11
                  11
                  11
                  11
                  11
                  11
                  11
                  11
                  11
                  11
                  11
                  11
                  11
                  11
                  11
                  12
                  11
                  11
                  11
                  11
                  12
                  12
                  11
                  12
                  12
                  12
                  12
                  12
                  12
                  11
                  11
                  11
                  11
                  11
                  11
                  11
                  11
                  11
                  11
                  11
                  12
                  12
                  12
                  11
                  11
                  11
                  11
                  11
                  11
                  12
                  12
                  12
                  12
                  12
                  12
                  12
                  11
                  11
                  11
                  11
                  11
                  11
                  11
                  11
                  11
                  11
                  11
                  11
                  12
                  12
                  12
                  12
                  12
                  12
                  12
                  12
                  12
                  12
                  11
                  11
                  11
                  11
                  11
                  11
                  11
                  11
                  11
                  11
                  11
                  11
                  11
                  11
                  11
                  12
                  11
                  11
                  11
                  11
                  12
                  12
                  11
                  12
                  12
                  12
                  12
                  12
                  12
                  11
                  11
                  11
                  11
                  11
                  11
                  11
                  11
                  11
                  11
                  11
                  12
                  12
                  12
                  11
                  11
                  11
                  11
                  11
                  11
                  12
                  12
                  12
                  12
                  12
                  12
                  12
                  11
                  11
                  11
                  11
                  11
                  11
                  11
                  11
                  11
                  11
                  11
                  11
                  12
                  12
                  12
                  12
                  12
                  12
                  12
                  12
                  12
                  12
                  11
                  11
                  11
                  11
                  11
                  11
                  11
                  11
                  11
                  11
                  11
                  11
                  11
                  11
                  11
                  12
                  11
                  11
                  11
                  11
                  12
                  12
                  11
                  12
                  12
                  12
                  12
                  12
                  12
                  11
                  11
                  11
                  11
                  11
                  11
                  11
                  11
                  11
                  11
                  11
                  12
                  12
                  12
                  11
                  11
                  11
                  11
                  11
                  11
                  12
                  12
                  12
                  12
                  12
                  12
                  12
                  11
                  11
                  11
                  11
                  11
                  11
                  11
                  11
                  11
                  11
                  11
                  11
                  12
                  12
                  12
                  12
                  12
                  12
                  12
                  12
                  12
                  12
                  11
                  11
                  11
                  11
                  11
                  11
                  11
                  11
                  11
                  11
                  11
                  11
                  11
                  11
                  11
                  12
                  11
                  11
                  11
                  11
                  12
                  12
                  11
                  12
                  12
                  12
                  12
                  12
                  12
                  11
                  11
                  11
                  11
                  11
                  11
                  11
                  11
                  11
                  11
                  11
                  12
                  12
                  12
                  11
                  11
                  11
                  11
                  11
                  11
                  12
                  12
                  12
                  12
                  12
                  12
                  12
                  11
                  11
                  11
                  11
                  11
                  11
                  11
                  11
                  11
                  11
                  11
                  11
                  12
                  12
                  12
                  12
                  12
                  12
                  12
                  12
                  12
                  12
                  11
                  11
                  11
                  11
                  11
                  11
                  11
                  11
                  11
                  11
                  11
                  11
                  11
                  11
                  11
                  12
                  11
                  11
                  11
                  11
                  12
                  12
                  11
                  12
                  12
                  12
                  12
                  12
                  12
                  11
                  11
                  11
                  11
                  11
                  11
                  11
                  11
                  11
                  11
                  11
                  12
                  12
                  12
                  11
                  11
                  11
                  11
                  11
                  11
                  12
                  12
                  12
                  12
                  12
                  12
                  12
                  11
                  11
                  11
                  11
                  11
                  11
                  11
                  11
                  11
                  11
                  11
                  11
                  12
                  12
                  12
                  12
                  12
                  12
                  12
                  12
                  12
                  12
                  11
                  11
                  11
                  11
                  11
                  11
                  11
                  11
                  11
                  11
                  11
                  11
                  11
                  11
                  11
                  12
                  11
                  11
                  11
                  11
                  12
                  12
                  11
                  12
                  12
                  12
                  12
                  12
                  12
                  11
                  11
                  11
                  11
                  11
                  11
                  11
                  11
                  11
                  11
                  11
                  12
                  12
                  12
                  11
                  11
                  11
                  11
                  11
                  11
                  12
                  12
                  12
                  12
                  12
                  12
                  12
                  11
                  11
                  11
                  11
                  11
                  11
                  11
                  11
                  11
                  11
                  11
                  11
                  12
                  12
                  12
                  12
                  12
                  12
                  12
                  12
                  12
                  12
                  11
                  11
                  11
                  11
                  11
                  11
                  11
                  11
                  11
                  11
                  11
                  11
                  11
                  11
                  11
                  12
                  11
                  11
                  11
                  11
                  12
                  12
                  11
                  12
                  12
                  12
                  12
                  12
                  12
                  11
                  11
                  11
                  11
                  11
                  11
                  11
                  11
                  11
                  11
                  11
                  12
                  12
                  12
                  11
                  11
                  11
                  11
                  11
                  11
                  12
                  12
                  12
                  12
                  12
                  12
                  12
                  11
                  11
                  11
                  11
                  11
                  11
                  11
                  11
                  11
                  11
                  11
                  11
                  12
                  12
                  12
                  12
                  12
                  12
                  12
                  12
                  12
                  12
                  11
                  11
                  11
                  11
                  11
                  11
                  11
                  11
                  11
                  11
                  11
                  11
                  11
                  11
                  11
                  12
                  11
                  11
                  11
                  11
                  12
                  12
                  11
                  12
                  12
                  12
                  12
                  12
                  12
                  11
                  11
                  11
                  11
                  11
                  11
                  11
                  11
                  11
                  11
                  11
                  12
                  12
                  12
                  11
                  11
                  11
                  11
                  11
                  11
                  12
                  12
                  12
                  12
                  12
                  12
                  12
                  11
                  11
                  11
                  11
                  11
                  11
                  11
                  11
                  11
                  11
                  11
                  11
                  12
                  12
                  12
                  12
                  12
                  12
                  12
                  12
                  12
                  12
                  11
                  11
                  11
                  11
                  11
                  11
                  11
                  11
                  11
                  11
                  11
                  11
                  11
                  11
                  11
                  12
                  11
                  11
                  11
                  11
                  12
                  12
                  11
                  12
                  12
                  12
                  12
                  12
                  12
                  11
                  11
                  11
                  11
                  11
                  11
                  11
                  11
                  11
                  11
                  11
                  12
                  12
                  12
                  11
                  11
                  11
                  11
                  11
                  11
                  12
                  12
                  12
                  12
                  12
                  12
                  12
                  11
                  11
                  11
                  11
                  11
                  11
                  11
                  11
                  11
                  11
                  11
                  11
                  12
                  12
                  12
                  12
                  12
                  12
                  12
                  12
                  12
                  12
                  11
                  11
                  11
                  11
                  11
                  11
                  11
                  11
                  11
                  11
                  11
                  11
                  11
                  11
                  11
                  12
                  11
                  11
                  11
                  11
                  12
                  12
                  11
                  12
                  12
                  12
                  12
                  12
                  12
                  11
                  11
                  11
                  11
                  11
                  11
                  11
                  11
                  11
                  11
                  11
                  12
                  12
                  12
                  11
                  11
                  11
                  11
                  11
                  11
                  12
                  12
                  12
                  12
                  12
                  12
                  12
                  11
                  11
                  11
                  11
                  11
                  11
                  11
                  11
                  11
                  11
                  11
                  11
                  12
                  12
                  12
                  12
                  12
                  12
                  12
                  12
                  12
                  12
                  11
                  11
                  11
                  11
                  11
                  11
                  11
                  11
                  11
                  11
                  11
                  11
                  11
                  11
                  11
                  12
                  11
                  11
                  11
                  11
                  12
                  12
                  11
                  12
                  12
                  12
                  12
                  12
                  12
                  11
                  11
                  11
                  11
                  11
                  11
                  11
                  11
                  11
                  11
                  11
                  12
                  12
                  12
                  11
                  11
                  11
                  11
                  11
                  11
                  12
                  12
                  12
                  12
                  12
                  12
                  12
                  11
                  11
                  11
                  11
                  11
                  11
                  11
                  11
                  11
                  11
                  11
                  11
                  12
                  12
                  12
                  12
                  12
                  12
                  12
                  12
                  12
                  12
                  11
                  11
                  11
                  11
                  11
                  11
                  11
                  11
                  11
                  11
                  11
                  11
                  11
                  11
                  11
                  12
                  11
                  11
                  11
                  11
                  12
                  12
                  11
                  12
                  12
                  12
                  12
                  12
                  12
                  11
                  11
                  11
                  11
                  11
                  11
                  11
                  11
                  11
                  11
                  11
                  12
                  12
                  12
                  11
                  11
                  11
                  11
                  11
                  11
                  12
                  12
                  12
                  12
                  12
                  12
                  12
                  11
                  11
                  11
                  11
                  11
                  11
                  11
                  11
                  11
                  11
                  11
                  11
                  12
                  12
                  12
                  12
                  12
                  12
                  12
                  12
                  12
                  12
                  11
                  11
                  11
                  11
                  11
                  11
                  11
                  11
                  11
                  11
                  11
                  11
                  11
                  11
                  11
                  12
                  11
                  11
                  11
                  11
                  12
                  12
                  11
                  12
                  12
                  12
                  12
                  12
                  12
                  11
                  11
                  11
                  11
                  11
                  11
                  11
                  11
                  11
                  11
                  11
                  12
                  12
                  12
                  11
                  11
                  11
                  11
                  11
                  11
                  12
                  12
                  12
                  12
                  12
                  12
                  12
                  11
                  11
                  11
                  11
                  11
                  11
                  11
                  11
                  11
                  11
                  11
                  11
                  12
                  12
                  12
                  12
                  12
                  12
                  12
                  12
                  12
                  12
                  11
                  11
                  11
                  11
                  11
                  11
                  11
                  11
                  11
                  11
                  11
                  11
                  11
                  11
                  11
                  12
                  11
                  11
                  11
                  11
                  12
                  12
                  11
                  12
                  12
                  12
                  12
                  12
                  12
                  11
                  11
                  11
                  11
                  11
                  11
                  11
                  11
                  11
                  11
                  11
                  12
                  12
                  12
                  11
                  11
                  11
                  11
                  11
                  11
                  12
                  12
                  12
                  12
                  12
                  12
                  12
                  11
                  11
                  11
                  11
                  11
                  11
                  11
                  11
                  11
                  11
                  11
                  11
                  12
                  12
                  12
                  12
                  12
                  12
                  12
                  12
                  12
                  12
                  11
                  11
                  11
                  11
                  11
                  11
                  11
                  11
                  11
                  11
                  11
                  11
                  11
                  11
                  11
                  12
                  11
                  11
                  11
                  11
                  12
                  12
                  11
                  12
                  12
                  12
                  12
                  12
                  12
                  11
                  11
                  11
                  11
                  11
                  11
                  11
                  11
                  11
                  11
                  11
                  12
                  12
                  12
                  11
                  11
                  11
                  11
                  11
                  11
                  12
                  12
                  12
                  12
                  12
                  12
                  12
                  11
                  11
                  11
                  11
                  11
                  11
                  11
                  11
                  11
                  11
                  11
                  11
                  12
                  12
                  12
                  12
                  12
                  12
                  12
                  12
                  12
                  12
                  11
                  11
                  11
                  11
                  11
                  11
                  11
                  11
                  11
                  11
                  11
                  11
                  11
                  11
                  11
                  12
                  11
                  11
                  11
                  11
                  12
                  12
                  11
                  12
                  12
                  12
                  12
                  12
                  12
                  11
                  11
                  11
                  11
                  11
                  11
                  11
                  11
                  11
                  11
                  11
                  12
                  12
                  12
                  11
                  11
                  11
                  11
                  11
                  11
                  12
                  12
                  12
                  12
                  12
                  12
                  12
                  11
                  11
                  11
                  11
                  11
                  11
                  11
                  11
                  11
                  11
                  11
                  11
                  12
                  12
                  12
                  12
                  12
                  12
                  12
                  12
                  12
                  12
                  11
                  11
                  11
                  11
                  11
                  11
                  11
                  11
                  11
                  11
                  11
                  11
                  11
                  11
                  11
                  12
                  11
                  11
                  11
                  11
                  12
                  12
                  11
                  12
                  12
                  12
                  12
                  12
                  12
                  11
                  11
                  11
                  11
                  11
                  11
                  11
                  11
                  11
                  11
                  11
                  12
                  12
                  12
                  11
                  11
                  11
                  11
                  11
                  11
                  12
                  12
                  12
                  12
                  12
                  12
                  12
                  11
                  11
                  11
                  11
                  11
                  11
                  11
                  11
                  11
                  11
                  11
                  11
                  12
                  12
                  12
                  12
                  12
                  12
                  12
                  12
                  12
                  12
                  11
                  11
                  11
                  11
                  11
                  11
                  11
                  11
                  11
                  11
                  11
                  11
                  11
                  11
                  11
                  12
                  11
                  11
                  11
                  11
                  12
                  12
                  11
                  12
                  12
                  12
                  12
                  12
                  12
                  11
                  11
                  11
                  11
                  11
                  11
                  11
                  11
                  11
                  11
                  11
                  12
                  12
                  12
                  11
                  11
                  11
                  11
                  11
                  11
                  12
                  12
                  12
                  12
                  12
                  12
                  12
                  11
                  11
                  11
                  11
                  11
                  11
                  11
                  11
                  11
                  11
                  11
                  11
                  12
                  12
                  12
                  12
                  12
                  12
                  12
                  12
                  12
                  12
                  11
                  11
                  11
                  11
                  11
                  11
                  11
                  11
                  11
                  11
                  11
                  11
                  11
                  11
                  11
                  12
                  11
                  11
                  11
                  11
                  12
                  12
                  11
                  12
                  12
                  12
                  12
                  12
                  12
                  11
                  11
                  11
                  11
                  11
                  11
                  11
                  11
                  11
                  11
                  11
                  12
                  12
                  12
                  11
                  11
                  11
                  11
                  11
                  11
                  12
                  12
                  12
                  12
                  12
                  12
                  12
                  11
                  11
                  11
                  11
                  11
                  11
                  11
                  11
                  11
                  11
                  11
                  11
                  12
                  12
                  12
                  12
                  12
                  12
                  12
                  12
                  12
                  12
                  11
                  11
                  11
                  11
                  11
                  11
                  11
                  11
                  11
                  11
                  11
                  11
                  11
                  11
                  11
                  12
                  11
                  11
                  11
                  11
                  12
                  12
                  11
                  12
                  12
                  12
                  12
                  12
                  12
                  11
                  11
                  11
                  11
                  11
                  11
                  11
                  11
                  11
                  11
                  11
                  12
                  12
                  12
                  11
                  11
                  11
                  11
                  11
                  11
                  12
                  12
                  12
                  12
                  12
                  12
                  12
                  11
                  11
                  11
                  11
                  11
                  11
                  11
                  11
                  11
                  11
                  11
                  11
                  12
                  12
                  12
                  12
                  12
                  12
                  12
                  12
                  12
                  12
                  11
                  11
                  11
                  11
                  11
                  11
                  11
                  11
                  11
                  11
                  11
                  11
                  11
                  11
                  11
                  12
                  11
                  11
                  11
                  11
                  12
                  12
                  11
                  12
                  12
                  12
                  12
                  12
                  12
                  11
                  11
                  11
                  11
                  11
                  11
                  11
                  11
                  11
                  11
                  11
                  12
                  12
                  12
                  11
                  11
                  11
                  11
                  11
                  11
                  12
                  12
                  12
                  12
                  12
                  12
                  12
                  11
                  11
                  11
                  11
                  11
                  11
                  11
                  11
                  11
                  11
                  11
                  11
                  12
                  12
                  12
                  12
                  12
                  12
                  12
                  12
                  12
                  12
                  11
                  11
                  11
                  11
                  11
                  11
                  11
                  11
                  11
                  11
                  11
                  11
                  11
                  11
                  11
                  12
                  11
                  11
                  11
                  11
                  12
                  12
                  11
                  12
                  12
                  12
                  12
                  12
                  12
                  11
                  11
                  11
                  11
                  11
                  11
                  11
                  11
                  11
                  11
                  11
                  12
                  12
                  12
                  11
                  11
                  11
                  11
                  11
                  11
                  12
                  12
                  12
                  12
                  12
                  12
                  12
                  11
                  11
                  11
                  11
                  11
                  11
                  11
                  11
                  11
                  11
                  11
                  11
                  12
                  12
                  12
                  12
                  12
                  12
                  12
                  12
                  12
                  12
                  11
                  11
                  11
                  11
                  11
                  11
                  11
                  11
                  11
                  11
                  11
                  11
                  11
                  11
  
SCALARS                         Kspace  double 1
LOOKUP_TABLE default
                  11
                  11
                  11
                  11
                  11
                  11
                  11
                  11
                  11
                  11
                  11
                  11
                  11
                  11
                  11
                  11
                  11
                  11
                  11
                  11
                  11
                  11
                  11
                  11
                  11
                  11
                  11
                  11
                  11
                  11
                  11
                  11
                  11
                  11
                  11
                  11
                  11
                  11
                  11
                  11
                  11
                  11
                  11
                  11
                  11
                  11
                  11
                  11
                  11
                  11
                  11
                  11
                  11
                  11
                  11
                  11
                  11
                  11
                  11
                  11
                  11
                  11
                  11
                  11
                  11
                  11
                  11
                  11
                  11
                  11
                  11
                  11
                  11
                  11
                  11
                  11
                  11
                  11
                  11
                  11
                  11
                  11
                  11
                  11
                  11
                  11
                  11
                  11
                  11
                  11
                  11
                  11
                  11
                  11
                  11
                  11
                  11
                  11
                  11
                  11
                  11
                  11
                  11
                  11
                  11
                  11
                  11
                  11
                  11
                  11
                  11
                  11
                  11
                  11
                  11
                  11
                  11
                  11
                  11
                  11
                  11
                  11
                  11
                  11
                  11
                  11
                  11
                  11
                  11
                  11
                  11
                  11
                  11
                  11
                  11
                  11
                  11
                  11
                  11
                  11
                  11
                  11
                  11
                  11
                  11
                  11
                  11
                  11
                  11
                  11
                  11
                  11
                  11
                  11
                  11
                  11
                  11
                  11
                  11
                  11
                  11
                  11
                  11
                  11
                  11
                  11
                  11
                  11
                  11
                  11
                  11
                  11
                  11
                  11
                  11
                  11
                  11
                  11
                  11
                  11
                  11
                  11
                  11
                  11
                  11
                  11
                  11
                  11
                  11
                  11
                  11
                  11
                  11
                  11
                  11
                  11
                  11
                  11
                  11
                  11
                  11
                  11
                  11
                  11
                  11
                  11
                  11
                  11
                  11
                  11
                  11
                  11
                  11
                  11
                  11
                  11
                  11
                  11
                  11
                  11
                  11
                  11
                  11
                  11
                  11
                  11
                  11
                  11
                  11
                  11
                  11
                  11
                  11
                  11
                  11
                  11
                  11
                  11
                  11
                  11
                  11
                  11
                  11
                  11
                  11
                  11
                  11
                  11
                  11
                  11
                  11
                  11
                  11
                  11
                  11
                  11
                  11
                  11
                  11
                  11
                  11
                  11
                  11
                  11
                  11
                  11
                  11
                  11
                  11
                  11
                  11
                  11
                  11
                  11
                  11
                  11
                  11
                  11
                  11
                  11
                  11
                  11
                  11
                  11
                  11
                  11
                  11
                  11
                  11
                  11
                  11
                  11
                  11
                  11
                  11
                  11
                  11
                  11
                  11
                  11
                  11
                  11
                  11
                  11
                  11
                  11
                  11
                  11
                  11
                  11
                  11
                  11
                  12
                  12
                  12
                  12
                  12
                  12
                  12
                  12
                  12
                  12
                  12
                  12
                  12
                  12
                  12
                  12
                  12
                  12
                  12
                  12
                  12
                  12
                  12
                  12
                  12
                  12
                  12
                  12
                  12
                  12
                  12
                  12
                  12
                  12
                  12
                  12
                  12
                  12
                  12
                  12
                  12
                  12
                  12
                  12
                  12
                  12
                  12
                  12
                  12
                  12
                  12
                  12
                  12
                  12
                  12
                  12
                  12
                  12
                  12
                  12
                  12
                  12
                  12
                  12
                  12
                  12
                  12
                  12
                  12
                  12
                  12
                  12
                  12
                  12
                  12
                  12
                  12
                  12
                  12
                  12
                  12
                  12
                  12
                  12
                  12
                  12
                  12
                  12
                  12
                  12
                  12
                  12
                  12
                  12
                  12
                  12
                  12
                  12
                  12
                  12
                  12
                  12
                  12
                  12
                  12
                  12
                  12
                  12
                  12
                  12
                  12
                  12
                  12
                  12
                  12
                  12
                  12
                  12
                  12
                  12
                  12
                  12
                  12
                  12
                  12
                  12
                  12
                  12
                  12
                  12
                  12
                  12
                  12
                  12
                  12
                  12
                  12
                  12
                  12
                  12
                  12
                  12
                  12
                  12
                  12
                  12
                  12
                  12
                  12
                  12
                  12
                  12
                  12
                  12
                  12
                  12
                  12
                  12
                  12
                  12
                  12
                  12
                  12
                  12
                  12
                  12
                  12
                  12
                  12
                  12
                  12
                  12
                  12
                  12
                  12
                  12
                  12
                  12
                  12
                  12
                  12
                  12
                  12
                  12
                  12
                  12
                  12
                  12
                  12
                  12
                  12
                  12
                  12
                  12
                  12
                  12
                  12
                  12
                  12
                  12
                  12
                  12
                  12
                  12
                  12
                  12
                  12
                  12
                  12
                  12
                  12
                  12
                  12
                  12
                  12
                  12
                  12
                  12
                  12
                  12
                  12
                  12
                  12
                  12
                  12
                  12
                  12
                  12
                  12
                  12
                  12
                  12
                  12
                  12
                  13
                  13
                  13
                  13
                  13
                  13
                  13
                  13
                  13
                  13
                  13
                  13
                  13
                  13
                  13
                  13
                  13
                  13
                  13
                  13
                  13
                  13
                  13
                  13
                  13
                  13
                  13
                  13
                  13
                  13
                  13
                  13
                  13
                  13
                  13
                  13
                  13
                  13
                  13
                  13
                  13
                  13
                  13
                  13
                  13
                  13
                  13
                  13
                  13
                  13
                  13
                  13
                  13
                  13
                  13
                  13
                  13
                  13
                  13
                  13
                  13
                  13
                  13
                  13
                  13
                  13
                  13
                  13
                  13
                  13
                  13
                  13
                  13
                  13
                  13
                  13
                  13
                  13
                  13
                  13
                  13
                  13
                  13
                  13
                  13
                  13
                  13
                  13
                  13
                  13
                  13
                  13
                  13
                  13
                  13
                  13
                  13
                  13
                  13
                  13
                  13
                  13
                  13
                  13
                  13
                  13
                  13
                  13
                  13
                  13
                  13
                  13
                  13
                  13
                  13
                  13
                  13
                  13
                  13
                  13
                  13
                  13
                  13
                  13
                  13
                  13
                  13
                  13
                  13
                  13
                  13
                  13
                  13
                  13
                  13
                  13
                  13
                  13
                  13
                  13
                  13
                  13
                  13
                  13
                  13
                  13
                  13
                  13
                  13
                  13
                  13
                  13
                  13
                  13
                  13
                  13
                  13
                  13
                  13
                  13
                  13
                  13
                  13
                  13
                  13
                  13
                  13
                  13
                  13
                  13
                  13
                  13
                  13
                  13
                  13
                  13
                  13
                  13
                  13
                  13
                  13
                  13
                  13
                  13
                  13
                  13
                  13
                  13
                  13
                  13
                  13
                  13
                  13
                  13
                  13
                  13
                  13
                  13
                  13
                  13
                  13
                  13
                  13
                  13
                  13
                  13
                  13
                  13
                  13
                  13
                  13
                  13
                  13
                  13
                  13
                  13
                  13
                  13
                  13
                  13
                  13
                  13
                  13
                  13
                  13
                  13
                  13
                  13
                  13
                  13
                  13
                  13
                  13
                  13
                  14
                  14
                  14
                  14
                  14
                  14
                  14
                  14
                  14
                  14
                  14
                  14
                  14
                  14
                  14
                  14
                  14
                  14
                  14
                  14
                  14
                  14
                  14
                  14
                  14
                  14
                  14
                  14
                  14
                  14
                  14
                  14
                  14
                  14
                  14
                  14
                  14
                  14
                  14
                  14
                  14
                  14
                  14
                  14
                  14
                  14
                  14
                  14
                  14
                  14
                  14
                  14
                  14
                  14
                  14
                  14
                  14
                  14
                  14
                  14
                  14
                  14
                  14
                  14
                  14
                  14
                  14
                  14
                  14
                  14
                  14
                  14
                  14
                  14
                  14
                  14
                  14
                  14
                  14
                  14
                  14
                  14
                  14
                  14
                  14
                  14
                  14
                  14
                  14
                  14
                  14
                  14
                  14
                  14
                  14
                  14
                  14
                  14
                  14
                  14
                  14
                  14
                  14
                  14
                  14
                  14
                  14
                  14
                  14
                  14
                  14
                  14
                  14
                  14
                  14
                  14
                  14
                  14
                  14
                  14
                  14
                  14
                  14
                  14
                  14
                  14
                  14
                  14
                  14
                  14
                  14
                  14
                  14
                  14
                  14
                  14
                  14
                  14
                  14
                  14
                  14
                  14
                  14
                  14
                  14
                  14
                  14
                  14
                  14
                  14
                  14
                  14
                  14
                  14
                  14
                  14
                  14
                  14
                  14
                  14
                  14
                  14
                  14
                  14
                  14
                  14
                  14
                  14
                  14
                  14
                  14
                  14
                  14
                  14
                  14
                  14
                  14
                  14
                  14
                  14
                  14
                  14
                  14
                  14
                  14
                  14
                  14
                  14
                  14
                  14
                  14
                  14
                  14
                  14
                  14
                  14
                  14
                  14
                  14
                  14
                  14
                  14
                  14
                  14
                  14
                  14
                  14
                  14
                  14
                  14
                  14
                  14
                  14
                  14
                  14
                  14
                  14
                  14
                  14
                  14
                  14
                  14
                  14
                  14
                  14
                  14
                  14
                  14
                  14
                  14
                  14
                  14
                  14
                  14
                  15
                  15
                  15
                  15
                  15
                  15
                  15
                  15
                  15
                  15
                  15
                  15
                  15
                  15
                  15
                  15
                  15
                  15
                  15
                  15
                  15
                  15
                  15
                  15
                  15
                  15
                  15
                  15
                  15
                  15
                  15
                  15
                  15
                  15
                  15
                  15
                  15
                  15
                  15
                  15
                  15
                  15
                  15
                  15
                  15
                  15
                  15
                  15
                  15
                  15
                  15
                  15
                  15
                  15
                  15
                  15
                  15
                  15
                  15
                  15
                  15
                  15
                  15
                  15
                  15
                  15
                  15
                  15
                  15
                  15
                  15
                  15
                  15
                  15
                  15
                  15
                  15
                  15
                  15
                  15
                  15
                  15
                  15
                  15
                  15
                  15
                  15
                  15
                  15
                  15
                  15
                  15
                  15
                  15
                  15
                  15
                  15
                  15
                  15
                  15
                  15
                  15
                  15
                  15
                  15
                  15
                  15
                  15
                  15
                  15
                  15
                  15
                  15
                  15
                  15
                  15
                  15
                  15
                  15
                  15
                  15
                  15
                  15
                  15
                  15
                  15
                  15
                  15
                  15
                  15
                  15
                  15
                  15
                  15
                  15
                  15
                  15
                  15
                  15
                  15
                  15
                  15
                  15
                  15
                  15
                  15
                  15
                  15
                  15
                  15
                  15
                  15
                  15
                  15
                  15
                  15
                  15
                  15
                  15
                  15
                  15
                  15
                  15
                  15
                  15
                  15
                  15
                  15
                  15
                  15
                  15
                  15
                  15
                  15
                  15
                  15
                  15
                  15
                  15
                  15
                  15
                  15
                  15
                  15
                  15
                  15
                  15
                  15
                  15
                  15
                  15
                  15
                  15
                  15
                  15
                  15
                  15
                  15
                  15
                  15
                  15
                  15
                  15
                  15
                  15
                  15
                  15
                  15
                  15
                  15
                  15
                  15
                  15
                  15
                  15
                  15
                  15
                  15
                  15
                  15
                  15
                  15
                  15
                  15
                  15
                  15
                  15
                  15
                  15
                  15
                  15
                  15
                  15
                  15
                  15
                  15
                  15
                  15
                  15
                  15
                  15
                  15
                  15
                  15
                  15
                  15
                  15
                  15
                  15
                  15
                  15
                  15
                  15
                  15
                  15
                  15
                  15
                  15
                  15
                  15
                  15
                  15
                  15
                  15
                  15
                  15
                  15
                  15
                  15
                  15
                  15
                  15
                  15
                  15
                  15
                  15
                  15
                  15
                  15
                  15
                  15
                  15
                  15
                  15
                  15
                  15
                  15
                  15
                  15
                  15
                  15
                  15
                  15
                  15
                  15
                  15
                  15
                  15
                  15
                  15
                  15
                  15
                  15
                  15
                  15
                  15
                  15
                  15
                  15
                  15
                  15
                  15
                  16
                  16
                  16
                  16
                  16
                  16
                  16
                  16
                  16
                  16
                  16
                  16
                  16
                  16
                  16
                  16
                  16
                  16
                  16
                  16
                  16
                  16
                  16
                  16
                  16
                  16
                  16
                  16
                  16
                  16
                  16
                  16
                  16
                  16
                  16
                  16
                  16
                  16
                  16
                  16
                  16
                  16
                  16
                  16
                  16
                  16
                  16
                  16
                  16
                  16
                  16
                  16
                  16
                  16
                  16
                  16
                  16
                  16
                  16
                  16
                  16
                  16
                  16
                  16
                  16
                  16
                  16
                  16
                  16
                  16
                  16
                  16
                  16
                  16
                  16
                  16
                  16
                  16
                  16
                  16
                  16
                  16
                  16
                  16
                  16
                  16
                  16
                  16
                  16
                  16
                  16
                  16
                  16
                  16
                  16
                  16
                  16
                  16
                  16
                  16
                  16
                  16
                  16
                  16
                  16
                  16
                  16
                  16
                  16
                  16
                  16
                  16
                  16
                  16
                  16
                  16
                  16
                  16
                  16
                  16
                  16
                  16
                  16
                  16
                  16
                  16
                  16
                  16
                  16
                  16
                  16
                  16
                  16
                  16
                  16
                  16
                  16
                  16
                  16
                  16
                  16
                  16
                  16
                  16
                  16
                  16
                  16
                  16
                  16
                  16
                  16
                  16
                  16
                  16
                  16
                  16
                  16
                  16
                  16
                  16
                  16
                  16
                  16
                  16
                  16
                  16
                  16
                  16
                  16
                  16
                  16
                  16
                  16
                  16
                  16
                  16
                  16
                  16
                  16
                  16
                  16
                  16
                  16
                  16
                  16
                  16
                  16
                  16
                  16
                  16
                  16
                  16
                  16
                  16
                  16
                  16
                  16
                  16
                  16
                  16
                  16
                  16
                  16
                  16
                  16
                  16
                  16
                  16
                  16
                  16
                  16
                  16
                  16
                  16
                  16
                  16
                  16
                  16
                  16
                  16
                  16
                  16
                  16
                  16
                  16
                  16
                  16
                  16
                  16
                  16
                  16
                  16
                  16
                  16
                  17
                  17
                  17
                  17
                  17
                  17
                  17
                  17
                  17
                  17
                  17
                  17
                  17
                  17
                  17
                  17
                  17
                  17
                  17
                  17
                  17
                  17
                  17
                  17
                  17
                  17
                  17
                  17
                  17
                  17
                  17
                  17
                  17
                  17
                  17
                  17
                  17
                  17
                  17
                  17
                  17
                  17
                  17
                  17
                  17
                  17
                  17
                  17
                  17
                  17
                  17
                  17
                  17
                  17
                  17
                  17
                  17
                  17
                  17
                  17
                  17
                  17
                  17
                  17
                  17
                  17
                  17
                  17
                  17
                  17
                  17
                  17
                  17
                  17
                  17
                  17
                  17
                  17
                  17
                  17
                  17
                  17
                  17
                  17
                  17
                  17
                  17
                  17
                  17
                  17
                  17
                  17
                  17
                  17
                  17
                  17
                  17
                  17
                  17
                  17
                  17
                  17
                  17
                  17
                  17
                  17
                  17
                  17
                  17
                  17
                  17
                  17
                  17
                  17
                  17
                  17
                  17
                  17
                  17
                  17
                  17
                  17
                  17
                  17
                  17
                  17
                  17
                  17
                  17
                  17
                  17
                  17
                  17
                  17
                  17
                  17
                  17
                  17
                  17
                  17
                  17
                  17
                  17
                  17
                  17
                  17
                  17
                  17
                  17
                  17
                  17
                  17
                  17
                  17
                  17
                  17
                  17
                  17
                  17
                  17
                  17
                  17
                  17
                  17
                  17
                  17
                  17
                  17
                  17
                  17
                  17
                  17
                  17
                  17
                  17
                  17
                  17
                  17
                  17
                  17
                  17
                  17
                  17
                  17
                  17
                  17
                  17
                  17
                  17
                  17
                  17
                  17
                  17
                  17
                  17
                  17
                  17
                  17
                  17
                  17
                  17
                  17
                  17
                  17
                  17
                  17
                  17
                  17
                  17
                  17
                  17
                  17
                  17
                  17
                  17
                  17
                  17
                  17
                  17
                  17
                  17
                  17
                  17
                  17
                  17
                  17
                  17
                  17
                  17
                  17
                  17
                  17
                  17
                  17
                  18
                  18
                  18
                  18
                  18
                  18
                  18
                  18
                  18
                  18
                  18
                  18
                  18
                  18
                  18
                  18
                  18
                  18
                  18
                  18
                  18
                  18
                  18
                  18
                  18
                  18
                  18
                  18
                  18
                  18
                  18
                  18
                  18
                  18
                  18
                  18
                  18
                  18
                  18
                  18
                  18
                  18
                  18
                  18
                  18
                  18
                  18
                  18
                  18
                  18
                  18
                  18
                  18
                  18
                  18
                  18
                  18
                  18
                  18
                  18
                  18
                  18
                  18
                  18
                  18
                  18
                  18
                  18
                  18
                  18
                  18
                  18
                  18
                  18
                  18
                  18
                  18
                  18
                  18
                  18
                  18
                  18
                  18
                  18
                  18
                  18
                  18
                  18
                  18
                  18
                  18
                  18
                  18
                  18
                  18
                  18
                  18
                  18
                  18
                  18
                  18
                  18
                  18
                  18
                  18
                  18
                  18
                  18
                  18
                  18
                  18
                  18
                  18
                  18
                  18
                  18
                  18
                  18
                  18
                  18
                  18
                  18
                  18
                  18
                  18
                  18
                  18
                  18
                  18
                  18
                  18
                  18
                  18
                  18
                  18
                  18
                  18
                  18
                  18
                  18
                  18
                  18
                  18
                  18
                  18
                  18
                  18
                  18
                  18
                  18
                  18
                  18
                  18
                  18
                  18
                  18
  
SCALARS                 displacement_x  double 1
LOOKUP_TABLE default
         0.17415E-02
         0.25728E-02
         0.34338E-02
         0.29387E-02
         0.19338E-02
         0.16415E-02
         0.52771E-02
         0.33862E-02
         0.37653E-02
         0.36732E-02
         0.29239E-02
         0.38564E-02
         0.17756E-02
         0.10213E-02
        -0.27284E-03
         0.65683E-03
        -0.34653E-04
        -0.31336E-03
        -0.93501E-03
        -0.34285E-03
         0.13281E-02
         0.13707E-02
         0.20014E-02
         0.19357E-02
         0.14481E-02
         0.12277E-02
         0.69342E-03
         0.54991E-03
         0.14935E-02
         0.40467E-03
        -0.15397E-02
        -0.17920E-02
         0.72603E-03
        -0.20825E-02
        -0.22720E-02
         0.31943E-03
        -0.28557E-02
        -0.29158E-02
        -0.21526E-02
        -0.19866E-02
        -0.34585E-02
        -0.35936E-02
        -0.35091E-02
        -0.39237E-02
        -0.31155E-02
        -0.27744E-02
        -0.36139E-02
        -0.13432E-02
        -0.17196E-02
        -0.11567E-02
        -0.22057E-02
        -0.16673E-02
        -0.39919E-03
         0.35036E-03
        -0.15632E-02
        -0.14855E-02
        -0.24258E-02
        -0.27447E-02
        -0.21036E-02
        -0.21166E-02
        -0.35480E-03
        -0.14587E-02
        -0.12136E-02
        -0.21251E-02
         0.13457E-02
         0.22991E-02
         0.27100E-02
         0.30610E-02
         0.35841E-02
         0.33277E-02
         0.33039E-02
         0.26512E-02
         0.27281E-02
         0.34020E-02
        -0.50189E-03
        -0.10764E-02
        -0.14580E-02
        -0.16644E-02
        -0.21411E-02
        -0.22072E-02
        -0.25165E-02
        -0.29338E-02
        -0.17291E-02
        -0.27878E-02
        -0.33890E-02
        -0.36539E-02
        -0.25904E-02
        -0.29032E-02
        -0.19715E-02
        -0.12673E-02
        -0.14363E-02
        -0.78982E-03
        -0.10287E-02
        -0.12700E-02
         0.26972E-03
         0.17837E-03
         0.14696E-02
         0.18852E-02
         0.23437E-02
         0.24486E-02
         0.27774E-02
         0.32401E-02
         0.13619E-02
         0.30404E-02
         0.33233E-02
         0.35236E-02
         0.34978E-02
         0.33562E-02
         0.29087E-02
         0.21324E-02
         0.24934E-02
         0.26724E-02
         0.18795E-02
         0.13636E-02
         0.12939E-02
         0.14824E-02
         0.41900E-03
         0.35476E-03
        -0.52495E-03
        -0.46100E-03
        -0.12375E-02
        -0.99702E-03
        -0.17909E-02
        -0.15185E-02
        -0.23317E-02
        -0.23243E-02
        -0.28932E-02
        -0.25864E-02
        -0.33446E-02
        -0.30869E-02
        -0.35050E-02
        -0.31340E-02
        -0.34015E-02
        -0.30405E-02
        -0.31137E-02
        -0.28379E-02
        -0.25879E-02
        -0.23663E-02
        -0.20313E-02
        -0.20572E-02
        -0.14244E-02
        -0.23603E-02
        -0.30501E-03
         0.53524E-03
         0.54674E-03
         0.37910E-03
         0.13113E-02
         0.12252E-02
         0.19729E-02
         0.14429E-02
         0.25864E-02
         0.31742E-02
         0.30488E-02
         0.26773E-02
         0.34367E-02
         0.33602E-02
         0.14760E-02
         0.20310E-02
         0.26510E-02
         0.23821E-02
         0.28651E-02
         0.28117E-02
         0.14029E-02
         0.86312E-03
         0.93378E-05
        -0.24213E-03
         0.10155E-02
         0.10062E-02
         0.14986E-02
         0.54836E-03
         0.42619E-03
        -0.12494E-02
        -0.14856E-02
         0.63014E-03
        -0.22624E-02
        -0.23328E-02
        -0.25997E-02
        -0.26999E-02
        -0.23316E-02
        -0.21440E-02
        -0.14139E-02
        -0.17206E-02
        -0.30197E-03
        -0.12193E-02
        -0.18664E-02
        -0.21697E-02
        -0.29218E-03
        -0.11460E-02
         0.10657E-02
         0.21388E-02
         0.27037E-02
         0.25012E-02
         0.20493E-02
        -0.33526E-03
        -0.10733E-02
        -0.16084E-02
        -0.18838E-02
        -0.21786E-02
        -0.25253E-02
        -0.19485E-02
        -0.15006E-02
        -0.11152E-02
        -0.65401E-03
         0.16128E-03
         0.11093E-02
         0.18057E-02
         0.21378E-02
         0.24902E-02
         0.25472E-02
         0.27034E-02
         0.22060E-02
         0.18617E-02
         0.13740E-02
         0.95818E-03
         0.36131E-03
        -0.37668E-03
        -0.95805E-03
        -0.13984E-02
        -0.18122E-02
        -0.21766E-02
        -0.25139E-02
        -0.26466E-02
        -0.25648E-02
        -0.23425E-02
        -0.19627E-02
        -0.15309E-02
        -0.11027E-02
        -0.35999E-03
         0.34383E-03
         0.10126E-02
         0.15435E-02
         0.19992E-02
         0.23427E-02
         0.26191E-02
         0.12702E-02
         0.17966E-02
         0.23265E-02
         0.20518E-02
         0.25301E-02
         0.24859E-02
         0.12587E-02
         0.75889E-03
         0.51059E-04
        -0.17537E-03
         0.90336E-03
         0.89299E-03
         0.13595E-02
         0.47617E-03
         0.36132E-03
        -0.10616E-02
        -0.12194E-02
         0.54268E-03
        -0.19875E-02
        -0.20412E-02
        -0.23302E-02
        -0.24230E-02
        -0.20808E-02
        -0.19041E-02
        -0.11957E-02
        -0.15093E-02
        -0.26917E-03
        -0.10823E-02
        -0.16771E-02
        -0.19192E-02
        -0.24720E-03
        -0.98735E-03
         0.92451E-03
         0.18713E-02
         0.23892E-02
         0.22239E-02
         0.18467E-02
        -0.30627E-03
        -0.95818E-03
        -0.14471E-02
        -0.17042E-02
        -0.19728E-02
        -0.22754E-02
        -0.17098E-02
        -0.12903E-02
        -0.95094E-03
        -0.55316E-03
         0.16018E-03
         0.98917E-03
         0.16015E-02
         0.19020E-02
         0.22123E-02
         0.22119E-02
         0.23645E-02
         0.19357E-02
         0.16503E-02
         0.12059E-02
         0.83181E-03
         0.31433E-03
        -0.32694E-03
        -0.83105E-03
        -0.12253E-02
        -0.16101E-02
        -0.19400E-02
        -0.22373E-02
        -0.23598E-02
        -0.22691E-02
        -0.20388E-02
        -0.16851E-02
        -0.12998E-02
        -0.93458E-03
        -0.31747E-03
         0.29246E-03
         0.89686E-03
         0.13662E-02
         0.17737E-02
         0.20928E-02
         0.23145E-02
         0.84512E-03
         0.11734E-02
         0.15120E-02
         0.13503E-02
         0.16637E-02
         0.16411E-02
         0.81649E-03
         0.49793E-03
         0.60396E-04
        -0.10940E-03
         0.57451E-03
         0.56204E-03
         0.88965E-03
         0.30339E-03
         0.22223E-03
        -0.67716E-03
        -0.78365E-03
         0.37495E-03
        -0.12807E-02
        -0.13333E-02
        -0.15112E-02
        -0.15834E-02
        -0.13421E-02
        -0.12177E-02
        -0.78294E-03
        -0.96383E-03
        -0.17639E-03
        -0.70439E-03
        -0.10845E-02
        -0.12529E-02
        -0.16245E-03
        -0.63587E-03
         0.60576E-03
         0.12309E-02
         0.15815E-02
         0.14637E-02
         0.12220E-02
        -0.18922E-03
        -0.60528E-03
        -0.93074E-03
        -0.11127E-02
        -0.12788E-02
        -0.14814E-02
        -0.10989E-02
        -0.83223E-03
        -0.63100E-03
        -0.37197E-03
         0.98493E-04
         0.64970E-03
         0.10604E-02
         0.12768E-02
         0.14733E-02
         0.15392E-02
         0.16564E-02
         0.13570E-02
         0.11510E-02
         0.82342E-03
         0.53088E-03
         0.19484E-03
        -0.19708E-03
        -0.53229E-03
        -0.82872E-03
        -0.11176E-02
        -0.13274E-02
        -0.15234E-02
        -0.16156E-02
        -0.15448E-02
        -0.13883E-02
        -0.11632E-02
        -0.90664E-03
        -0.66179E-03
        -0.25910E-03
         0.17233E-03
         0.60962E-03
         0.95899E-03
         0.12592E-02
         0.14907E-02
         0.16261E-02
         0.65877E-03
         0.98408E-03
         0.12561E-02
         0.10682E-02
         0.14201E-02
         0.13893E-02
         0.70448E-03
         0.39642E-03
         0.58225E-04
        -0.86783E-04
         0.49813E-03
         0.50228E-03
         0.80800E-03
         0.24391E-03
         0.18184E-03
        -0.53946E-03
        -0.58584E-03
         0.28913E-03
        -0.10599E-02
        -0.10799E-02
        -0.13005E-02
        -0.13593E-02
        -0.11610E-02
        -0.10374E-02
        -0.61217E-03
        -0.80812E-03
        -0.15694E-03
        -0.59041E-03
        -0.92838E-03
        -0.10298E-02
        -0.12864E-03
        -0.51356E-03
         0.48933E-03
         0.10146E-02
         0.13859E-02
         0.12863E-02
         0.10897E-02
        -0.17203E-03
        -0.52726E-03
        -0.82813E-03
        -0.10113E-02
        -0.11349E-02
        -0.12851E-02
        -0.93774E-03
        -0.68903E-03
        -0.51029E-03
        -0.28803E-03
         0.10530E-03
         0.56648E-03
         0.92130E-03
         0.11261E-02
         0.12710E-02
         0.13962E-02
         0.15033E-02
         0.12743E-02
         0.10797E-02
         0.78811E-03
         0.47349E-03
         0.15110E-03
        -0.18537E-03
        -0.48498E-03
        -0.77346E-03
        -0.10480E-02
        -0.12574E-02
        -0.14296E-02
        -0.14943E-02
        -0.14241E-02
        -0.12697E-02
        -0.10578E-02
        -0.81726E-03
        -0.54740E-03
        -0.21604E-03
         0.17169E-03
         0.56531E-03
         0.89027E-03
         0.11586E-02
         0.13818E-02
         0.14909E-02
         0.19912E-03
         0.36161E-03
         0.48594E-03
         0.36385E-03
         0.66519E-03
         0.63732E-03
         0.26653E-03
         0.12802E-03
         0.50659E-04
        -0.11724E-04
         0.19431E-03
         0.22928E-03
         0.38517E-03
         0.86547E-04
         0.72457E-04
        -0.13978E-03
        -0.12124E-03
         0.10446E-03
        -0.34591E-03
        -0.34692E-03
        -0.55899E-03
        -0.59215E-03
        -0.51260E-03
        -0.37980E-03
        -0.17097E-03
        -0.28523E-03
        -0.57055E-04
        -0.21623E-03
        -0.36923E-03
        -0.35627E-03
        -0.38584E-04
        -0.18917E-03
         0.18466E-03
         0.41239E-03
         0.70534E-03
         0.62227E-03
         0.52247E-03
        -0.78456E-04
        -0.23119E-03
        -0.38648E-03
        -0.51413E-03
        -0.53388E-03
        -0.57384E-03
        -0.41629E-03
        -0.31351E-03
        -0.25097E-03
        -0.12473E-03
         0.60349E-04
         0.26895E-03
         0.45021E-03
         0.59366E-03
         0.62221E-03
         0.87492E-03
         0.95173E-03
         0.82168E-03
         0.68397E-03
         0.49276E-03
         0.27673E-03
         0.89730E-04
        -0.97822E-04
        -0.27282E-03
        -0.46771E-03
        -0.65156E-03
        -0.77700E-03
        -0.85885E-03
        -0.89708E-03
        -0.85764E-03
        -0.78597E-03
        -0.67764E-03
        -0.54480E-03
        -0.34172E-03
        -0.14742E-03
         0.10195E-03
         0.34919E-03
         0.57315E-03
         0.74046E-03
         0.88841E-03
         0.94672E-03
         0.29607E-03
         0.45878E-03
         0.56438E-03
         0.45015E-03
         0.69483E-03
         0.66371E-03
         0.34304E-03
         0.18364E-03
         0.37151E-04
        -0.46308E-04
         0.24184E-03
         0.26318E-03
         0.43161E-03
         0.10875E-03
         0.86042E-04
        -0.20290E-03
        -0.24557E-03
         0.14332E-03
        -0.45251E-03
        -0.45646E-03
        -0.59633E-03
        -0.61879E-03
        -0.54910E-03
        -0.45472E-03
        -0.27068E-03
        -0.32940E-03
        -0.71294E-04
        -0.25584E-03
        -0.42169E-03
        -0.44550E-03
        -0.16542E-04
        -0.17850E-03
         0.22093E-03
         0.45388E-03
         0.72865E-03
         0.66435E-03
         0.57232E-03
        -0.79589E-04
        -0.24217E-03
        -0.40925E-03
        -0.54141E-03
        -0.57105E-03
        -0.60427E-03
        -0.44011E-03
        -0.31144E-03
        -0.22385E-03
        -0.90769E-04
         0.78221E-04
         0.27092E-03
         0.45682E-03
         0.59752E-03
         0.63694E-03
         0.86228E-03
         0.93854E-03
         0.83441E-03
         0.70556E-03
         0.52041E-03
         0.29918E-03
         0.93419E-04
        -0.10931E-03
        -0.29741E-03
        -0.49452E-03
        -0.66110E-03
        -0.80141E-03
        -0.87140E-03
        -0.90990E-03
        -0.87183E-03
        -0.79961E-03
        -0.67651E-03
        -0.53645E-03
        -0.30171E-03
        -0.10752E-03
         0.11970E-03
         0.35372E-03
         0.57195E-03
         0.71531E-03
         0.87032E-03
         0.93051E-03
        -0.11097E-04
         0.24196E-04
         0.53284E-04
        -0.17938E-05
         0.19135E-03
         0.15879E-03
         0.23632E-04
         0.89594E-06
         0.24938E-04
         0.16925E-04
         0.26230E-04
         0.67816E-04
         0.11152E-03
         0.11832E-04
         0.24936E-04
         0.58987E-04
         0.64093E-04
         0.15438E-04
         0.48958E-04
         0.55201E-04
        -0.72603E-04
        -0.77936E-04
        -0.85929E-04
         0.16870E-04
         0.44621E-04
         0.35947E-04
         0.14479E-04
         0.18328E-04
        -0.10911E-04
         0.34705E-04
         0.42163E-04
         0.36987E-04
         0.17076E-04
         0.41434E-04
         0.25566E-03
         0.19082E-03
         0.15209E-03
         0.23691E-05
        -0.24572E-04
        -0.81654E-04
        -0.16380E-03
        -0.12491E-03
        -0.93760E-04
        -0.75405E-04
        -0.61334E-04
        -0.57949E-04
         0.13859E-04
         0.46793E-04
         0.66276E-04
         0.11945E-03
         0.20734E-03
         0.17706E-03
         0.49158E-03
         0.54309E-03
         0.48545E-03
         0.40734E-03
         0.30260E-03
         0.17904E-03
         0.75674E-04
        -0.35153E-04
        -0.14600E-03
        -0.26421E-03
        -0.35936E-03
        -0.44000E-03
        -0.46471E-03
        -0.48448E-03
        -0.46773E-03
        -0.43999E-03
        -0.39181E-03
        -0.33548E-03
        -0.18039E-03
        -0.61119E-04
         0.69705E-04
         0.20070E-03
         0.33170E-03
         0.40818E-03
         0.50173E-03
         0.53053E-03
         0.18584E-03
         0.28540E-03
         0.35424E-03
         0.27346E-03
         0.44719E-03
         0.41386E-03
         0.21504E-03
         0.11712E-03
         0.39137E-04
        -0.86577E-05
         0.15897E-03
         0.18629E-03
         0.28373E-03
         0.76113E-04
         0.72890E-04
        -0.96853E-04
        -0.11919E-03
         0.97606E-04
        -0.24879E-03
        -0.24503E-03
        -0.35613E-03
        -0.36567E-03
        -0.32887E-03
        -0.25537E-03
        -0.13031E-03
        -0.17636E-03
        -0.25788E-04
        -0.12895E-03
        -0.23627E-03
        -0.24055E-03
         0.15628E-04
        -0.81756E-04
         0.13709E-03
         0.26092E-03
         0.47493E-03
         0.42504E-03
         0.36539E-03
        -0.33051E-04
        -0.13849E-03
        -0.24716E-03
        -0.33913E-03
        -0.35401E-03
        -0.36347E-03
        -0.26392E-03
        -0.18587E-03
        -0.12597E-03
        -0.25494E-04
         0.73686E-04
         0.17233E-03
         0.27542E-03
         0.36479E-03
         0.38367E-03
         0.60032E-03
         0.63509E-03
         0.57620E-03
         0.48979E-03
         0.37729E-03
         0.24026E-03
         0.95207E-04
        -0.52059E-04
        -0.20053E-03
        -0.33694E-03
        -0.43742E-03
        -0.53642E-03
        -0.58223E-03
        -0.60032E-03
        -0.57210E-03
        -0.51743E-03
        -0.42999E-03
        -0.35164E-03
        -0.19759E-03
        -0.44212E-04
         0.99030E-04
         0.24745E-03
         0.38691E-03
         0.47690E-03
         0.57229E-03
         0.61730E-03
        -0.14428E-04
        -0.14497E-04
        -0.18727E-05
        -0.14742E-04
         0.71645E-04
         0.56848E-04
        -0.32654E-05
         0.21402E-05
         0.36193E-04
         0.44103E-04
         0.12180E-04
         0.40170E-04
         0.42834E-04
         0.17902E-04
         0.29670E-04
         0.68930E-04
         0.90370E-04
         0.16026E-04
         0.93322E-04
         0.10257E-03
         0.27826E-04
         0.26891E-04
         0.18185E-04
         0.72864E-04
         0.86089E-04
         0.66232E-04
         0.41410E-04
         0.61021E-04
         0.52805E-04
         0.89019E-04
         0.39009E-04
         0.48939E-04
         0.82496E-05
         0.28851E-05
         0.10249E-03
         0.64915E-04
         0.48298E-04
         0.29896E-04
         0.25321E-04
         0.35044E-05
        -0.36076E-04
        -0.12679E-04
         0.12803E-04
         0.11764E-04
         0.26212E-05
        -0.28140E-05
         0.33883E-04
         0.40016E-04
         0.30545E-04
         0.41008E-04
         0.76797E-04
         0.60965E-04
         0.24453E-03
         0.26661E-03
         0.23746E-03
         0.20277E-03
         0.15606E-03
         0.11544E-03
         0.69882E-04
         0.96377E-05
        -0.53543E-04
        -0.11171E-03
        -0.15045E-03
        -0.19368E-03
        -0.20590E-03
        -0.20755E-03
        -0.19266E-03
        -0.17913E-03
        -0.15206E-03
        -0.13274E-03
        -0.73602E-04
        -0.54990E-05
         0.48997E-04
         0.10901E-03
         0.16103E-03
         0.18840E-03
         0.23392E-03
         0.25973E-03
         0.19371E-03
         0.27638E-03
         0.33610E-03
         0.27698E-03
         0.39059E-03
         0.36789E-03
         0.21282E-03
         0.12981E-03
         0.44616E-04
         0.50078E-05
         0.16109E-03
         0.17527E-03
         0.25122E-03
         0.88538E-04
         0.79749E-04
        -0.99099E-04
        -0.12045E-03
         0.10066E-03
        -0.24511E-03
        -0.24560E-03
        -0.32022E-03
        -0.32950E-03
        -0.28708E-03
        -0.24058E-03
        -0.12609E-03
        -0.17215E-03
        -0.12560E-04
        -0.12086E-03
        -0.21931E-03
        -0.23519E-03
         0.84740E-05
        -0.87785E-04
         0.13943E-03
         0.25673E-03
         0.39855E-03
         0.36512E-03
         0.31590E-03
        -0.18757E-04
        -0.11720E-03
        -0.20865E-03
        -0.27289E-03
        -0.29949E-03
        -0.32040E-03
        -0.22924E-03
        -0.15955E-03
        -0.10195E-03
        -0.26321E-04
         0.63135E-04
         0.15638E-03
         0.24335E-03
         0.30421E-03
         0.33330E-03
         0.45253E-03
         0.46720E-03
         0.42445E-03
         0.36615E-03
         0.28946E-03
         0.20376E-03
         0.92665E-04
        -0.28087E-04
        -0.13818E-03
        -0.24047E-03
        -0.31589E-03
        -0.39250E-03
        -0.43297E-03
        -0.44022E-03
        -0.41576E-03
        -0.36788E-03
        -0.29960E-03
        -0.22819E-03
        -0.12940E-03
        -0.11746E-04
         0.87837E-04
         0.18506E-03
         0.27754E-03
         0.34730E-03
         0.40534E-03
         0.44725E-03
         0.82240E-05
         0.44104E-05
         0.12223E-04
         0.49514E-05
         0.47646E-04
         0.38670E-04
         0.11667E-04
         0.18696E-04
         0.40700E-04
         0.45058E-04
         0.22435E-04
         0.36722E-04
         0.33260E-04
         0.27484E-04
         0.33945E-04
         0.55820E-04
         0.70326E-04
         0.24808E-04
         0.64162E-04
         0.66520E-04
         0.21019E-04
         0.15744E-04
         0.20739E-04
         0.52992E-04
         0.65756E-04
         0.47475E-04
         0.39566E-04
         0.46300E-04
         0.35942E-04
         0.57534E-04
         0.29066E-04
         0.31136E-04
         0.15311E-04
         0.12633E-04
         0.61020E-04
         0.42178E-04
         0.33297E-04
         0.31573E-04
         0.24753E-04
         0.98250E-05
        -0.10540E-04
        -0.20470E-05
         0.80511E-05
         0.16599E-04
         0.99359E-05
         0.62770E-05
         0.20581E-04
         0.25152E-04
         0.23558E-04
         0.29288E-04
         0.44577E-04
         0.38323E-04
         0.12202E-03
         0.12846E-03
         0.11290E-03
         0.10104E-03
         0.87037E-04
         0.73118E-04
         0.52770E-04
         0.22369E-04
        -0.89816E-05
        -0.37214E-04
        -0.56629E-04
        -0.81974E-04
        -0.90987E-04
        -0.83777E-04
        -0.74048E-04
        -0.64300E-04
        -0.51266E-04
        -0.37131E-04
        -0.20170E-04
         0.56700E-05
         0.32263E-04
         0.57376E-04
         0.73952E-04
         0.87380E-04
         0.10422E-03
         0.12131E-03
         0.19064E-03
         0.26841E-03
         0.32480E-03
         0.26717E-03
         0.36207E-03
         0.34286E-03
         0.20307E-03
         0.12441E-03
         0.35536E-04
        -0.45587E-05
         0.14952E-03
         0.15658E-03
         0.23013E-03
         0.80770E-04
         0.72195E-04
        -0.10792E-03
        -0.13498E-03
         0.92983E-04
        -0.25218E-03
        -0.25386E-03
        -0.30935E-03
        -0.31506E-03
        -0.28134E-03
        -0.24565E-03
        -0.13864E-03
        -0.17978E-03
        -0.20413E-04
        -0.12760E-03
        -0.21786E-03
        -0.24093E-03
        -0.14903E-05
        -0.99520E-04
         0.13012E-03
         0.24338E-03
         0.36065E-03
         0.33707E-03
         0.29327E-03
        -0.20250E-04
        -0.11570E-03
        -0.19831E-03
        -0.24986E-03
        -0.27927E-03
        -0.30440E-03
        -0.22641E-03
        -0.15894E-03
        -0.10388E-03
        -0.42068E-04
         0.45759E-04
         0.14217E-03
         0.22442E-03
         0.27518E-03
         0.30767E-03
         0.37147E-03
         0.38252E-03
         0.35027E-03
         0.30804E-03
         0.24417E-03
         0.16435E-03
         0.73385E-04
        -0.17389E-04
        -0.11129E-03
        -0.20112E-03
        -0.26654E-03
        -0.32345E-03
        -0.35244E-03
        -0.35869E-03
        -0.34822E-03
        -0.31542E-03
        -0.25749E-03
        -0.18673E-03
        -0.10667E-03
        -0.19426E-04
         0.64175E-04
         0.15121E-03
         0.22735E-03
         0.28425E-03
         0.33165E-03
         0.36797E-03
        -0.91881E-05
        -0.18631E-04
        -0.15986E-04
        -0.18058E-04
         0.74739E-05
         0.16234E-05
        -0.91559E-05
         0.29234E-05
         0.23214E-04
         0.28001E-04
         0.24792E-05
         0.12108E-04
         0.33702E-05
         0.11296E-04
         0.18443E-04
         0.42552E-04
         0.53446E-04
         0.68944E-05
         0.59544E-04
         0.60459E-04
         0.33506E-04
         0.31446E-04
         0.27133E-04
         0.49007E-04
         0.49295E-04
         0.38601E-04
         0.24587E-04
         0.36160E-04
         0.37563E-04
         0.52861E-04
         0.13389E-04
         0.18860E-04
        -0.23205E-05
        -0.10478E-04
         0.16850E-04
         0.37597E-05
        -0.72948E-06
         0.21495E-04
         0.22000E-04
         0.19279E-04
         0.94576E-05
         0.16583E-04
         0.24883E-04
         0.18135E-04
         0.85522E-05
         0.32883E-05
         0.73873E-05
         0.67592E-05
         0.26910E-05
         0.19771E-05
         0.88422E-05
         0.31233E-05
         0.56110E-04
         0.56988E-04
         0.48085E-04
         0.41958E-04
         0.39243E-04
         0.35299E-04
         0.29302E-04
         0.16640E-04
         0.15342E-05
        -0.84012E-05
        -0.17660E-04
        -0.31935E-04
        -0.35560E-04
        -0.31532E-04
        -0.26523E-04
        -0.25797E-04
        -0.22382E-04
        -0.15065E-04
        -0.80774E-05
         0.10033E-05
         0.13074E-04
         0.22614E-04
         0.28388E-04
         0.34371E-04
         0.41226E-04
         0.50382E-04
         0.14587E-03
         0.21541E-03
         0.26441E-03
         0.21222E-03
         0.29500E-03
         0.27800E-03
         0.15825E-03
         0.89504E-04
         0.12027E-04
        -0.20200E-04
         0.11198E-03
         0.11927E-03
         0.18191E-03
         0.53172E-04
         0.48502E-04
        -0.10840E-03
        -0.13101E-03
         0.61014E-04
        -0.22746E-03
        -0.22850E-03
        -0.27241E-03
        -0.27668E-03
        -0.25090E-03
        -0.22324E-03
        -0.13289E-03
        -0.16859E-03
        -0.31138E-04
        -0.12048E-03
        -0.19658E-03
        -0.21721E-03
        -0.17401E-04
        -0.10095E-03
         0.97031E-04
         0.19639E-03
         0.29591E-03
         0.27665E-03
         0.23727E-03
        -0.28974E-04
        -0.10854E-03
        -0.17890E-03
        -0.22280E-03
        -0.24561E-03
        -0.26647E-03
        -0.20559E-03
        -0.14959E-03
        -0.10418E-03
        -0.52417E-04
         0.23777E-04
         0.10903E-03
         0.18154E-03
         0.22472E-03
         0.25100E-03
         0.29846E-03
         0.30448E-03
         0.28037E-03
         0.24312E-03
         0.18913E-03
         0.12221E-03
         0.45844E-04
        -0.26547E-04
        -0.10172E-03
        -0.17686E-03
        -0.23266E-03
        -0.27522E-03
        -0.29731E-03
        -0.30455E-03
        -0.29525E-03
        -0.27252E-03
        -0.22645E-03
        -0.17106E-03
        -0.10574E-03
        -0.32215E-04
         0.38682E-04
         0.10991E-03
         0.17627E-03
         0.22878E-03
         0.26816E-03
         0.29637E-03
        -0.41227E-04
        -0.58751E-04
        -0.65968E-04
        -0.59606E-04
        -0.54740E-04
        -0.55755E-04
        -0.43748E-04
        -0.23174E-04
         0.43962E-05
         0.13959E-04
        -0.29334E-04
        -0.23737E-04
        -0.38258E-04
        -0.12779E-04
        -0.91693E-05
         0.36215E-04
         0.49297E-04
        -0.17746E-04
         0.65994E-04
         0.67079E-04
         0.52483E-04
         0.51919E-04
         0.43047E-04
         0.55766E-04
         0.46195E-04
         0.40278E-04
         0.12027E-04
         0.34665E-04
         0.46965E-04
         0.59968E-04
        -0.21955E-05
         0.14623E-04
        -0.31826E-04
        -0.51852E-04
        -0.46144E-04
        -0.52690E-04
        -0.49493E-04
         0.59847E-05
         0.20659E-04
         0.30772E-04
         0.30680E-04
         0.40210E-04
         0.47291E-04
         0.29549E-04
         0.13672E-04
         0.17286E-05
        -0.35264E-05
        -0.15967E-04
        -0.31304E-04
        -0.40401E-04
        -0.39188E-04
        -0.48326E-04
        -0.13765E-04
        -0.18463E-04
        -0.17120E-04
        -0.16101E-04
        -0.10861E-04
        -0.55978E-05
        -0.26015E-05
         0.14587E-06
         0.38354E-05
         0.91982E-05
         0.91977E-05
         0.10283E-04
         0.95277E-05
         0.83541E-05
         0.97437E-05
         0.69004E-05
         0.13528E-05
        -0.28923E-05
        -0.66543E-05
        -0.11191E-04
        -0.13109E-04
        -0.16488E-04
        -0.18107E-04
        -0.16939E-04
        -0.19726E-04
        -0.21189E-04
         0.88942E-04
         0.14577E-03
         0.18595E-03
         0.14411E-03
         0.21352E-03
         0.20089E-03
         0.10361E-03
         0.48882E-04
        -0.10872E-04
        -0.34826E-04
         0.70343E-04
         0.76825E-04
         0.12375E-03
         0.24470E-04
         0.20790E-04
        -0.10019E-03
        -0.11623E-03
         0.28516E-04
        -0.19538E-03
        -0.19235E-03
        -0.23350E-03
        -0.23246E-03
        -0.21792E-03
        -0.19472E-03
        -0.11838E-03
        -0.14959E-03
        -0.41925E-04
        -0.10964E-03
        -0.16518E-03
        -0.18127E-03
        -0.30034E-04
        -0.95053E-04
         0.58770E-04
         0.13719E-03
         0.21458E-03
         0.19764E-03
         0.16544E-03
        -0.40418E-04
        -0.99588E-04
        -0.15092E-03
        -0.18395E-03
        -0.20152E-03
        -0.21989E-03
        -0.17944E-03
        -0.13242E-03
        -0.97185E-04
        -0.58717E-04
        -0.20079E-06
         0.68248E-04
         0.12777E-03
         0.16270E-03
         0.18213E-03
         0.21725E-03
         0.22367E-03
         0.20003E-03
         0.17042E-03
         0.12994E-03
         0.77498E-04
         0.14838E-04
        -0.42992E-04
        -0.95031E-04
        -0.14522E-03
        -0.18901E-03
        -0.22127E-03
        -0.24395E-03
        -0.25505E-03
        -0.25026E-03
        -0.23287E-03
        -0.19473E-03
        -0.14737E-03
        -0.98102E-04
        -0.45379E-04
         0.97897E-05
         0.68288E-04
         0.12262E-03
         0.16483E-03
         0.19750E-03
         0.21931E-03
        -0.64882E-04
        -0.87562E-04
        -0.98219E-04
        -0.86154E-04
        -0.95846E-04
        -0.95190E-04
        -0.71789E-04
        -0.46078E-04
        -0.14221E-04
        -0.25275E-05
        -0.55213E-04
        -0.51696E-04
        -0.70739E-04
        -0.33277E-04
        -0.29586E-04
         0.22686E-04
         0.36454E-04
        -0.36495E-04
         0.60154E-04
         0.61377E-04
         0.56004E-04
         0.56385E-04
         0.45610E-04
         0.51398E-04
         0.35173E-04
         0.32177E-04
        -0.18601E-05
         0.25419E-04
         0.41747E-04
         0.54529E-04
        -0.17290E-04
         0.42717E-05
        -0.52465E-04
        -0.81470E-04
        -0.89717E-04
        -0.91167E-04
        -0.84021E-04
        -0.73854E-05
         0.13084E-04
         0.27586E-04
         0.32728E-04
         0.43705E-04
         0.52353E-04
         0.29222E-04
         0.97187E-05
        -0.56282E-05
        -0.15336E-04
        -0.32942E-04
        -0.55166E-04
        -0.72613E-04
        -0.78204E-04
        -0.88148E-04
        -0.65689E-04
        -0.72100E-04
        -0.66222E-04
        -0.63378E-04
        -0.53355E-04
        -0.40065E-04
        -0.26734E-04
        -0.13458E-04
         0.74474E-06
         0.13482E-04
         0.19252E-04
         0.28080E-04
         0.32128E-04
         0.29908E-04
         0.27383E-04
         0.19321E-04
         0.10589E-04
        -0.51949E-07
        -0.12989E-04
        -0.24095E-04
        -0.32167E-04
        -0.44173E-04
        -0.53794E-04
        -0.59562E-04
        -0.68414E-04
        -0.74375E-04
         0.48745E-04
         0.95171E-04
         0.12796E-03
         0.93927E-04
         0.15041E-03
         0.13967E-03
         0.60030E-04
         0.13587E-04
        -0.32070E-04
        -0.53196E-04
         0.33914E-04
         0.41165E-04
         0.78489E-04
        -0.40846E-05
        -0.26978E-05
        -0.97350E-04
        -0.11303E-03
         0.36967E-05
        -0.17188E-03
        -0.16928E-03
        -0.20277E-03
        -0.20338E-03
        -0.18973E-03
        -0.17044E-03
        -0.11361E-03
        -0.13451E-03
        -0.56371E-04
        -0.10671E-03
        -0.14988E-03
        -0.16078E-03
        -0.40488E-04
        -0.91280E-04
         0.26284E-04
         0.85869E-04
         0.15138E-03
         0.13929E-03
         0.11398E-03
        -0.51581E-04
        -0.99817E-04
        -0.14106E-03
        -0.16695E-03
        -0.18133E-03
        -0.19560E-03
        -0.15884E-03
        -0.12182E-03
        -0.94143E-04
        -0.62709E-04
        -0.17412E-04
         0.32873E-04
         0.78001E-04
         0.10728E-03
         0.12322E-03
         0.15560E-03
         0.16294E-03
         0.14585E-03
         0.12084E-03
         0.84539E-04
         0.43411E-04
        -0.62913E-05
        -0.49483E-04
        -0.95045E-04
        -0.13895E-03
        -0.17020E-03
        -0.19779E-03
        -0.21987E-03
        -0.22829E-03
        -0.22229E-03
        -0.20535E-03
        -0.17295E-03
        -0.13670E-03
        -0.96971E-04
        -0.54470E-04
        -0.97506E-05
         0.34691E-04
         0.76639E-04
         0.11214E-03
         0.13892E-03
         0.15807E-03
        -0.84506E-04
        -0.10888E-03
        -0.12443E-03
        -0.11278E-03
        -0.12835E-03
        -0.13061E-03
        -0.88581E-04
        -0.63001E-04
        -0.28903E-04
        -0.13808E-04
        -0.71449E-04
        -0.67170E-04
        -0.88196E-04
        -0.51810E-04
        -0.46717E-04
         0.50184E-05
         0.27195E-04
        -0.56224E-04
         0.48673E-04
         0.56504E-04
         0.46760E-04
         0.51557E-04
         0.33944E-04
         0.37317E-04
         0.30619E-04
         0.16729E-04
        -0.16089E-04
         0.17200E-04
         0.32528E-04
         0.49466E-04
        -0.33685E-04
        -0.94774E-05
        -0.72283E-04
        -0.10867E-03
        -0.12055E-03
        -0.11758E-03
        -0.10684E-03
        -0.21343E-04
         0.30768E-05
         0.17822E-04
         0.24438E-04
         0.34595E-04
         0.46013E-04
         0.18341E-04
         0.26910E-06
        -0.13466E-04
        -0.26345E-04
        -0.48565E-04
        -0.75678E-04
        -0.98528E-04
        -0.11000E-03
        -0.12323E-03
        -0.10491E-03
        -0.11459E-03
        -0.98951E-04
        -0.90331E-04
        -0.73548E-04
        -0.55076E-04
        -0.36535E-04
        -0.23082E-04
        -0.93129E-05
         0.57095E-05
         0.17245E-04
         0.26705E-04
         0.30000E-04
         0.27164E-04
         0.24268E-04
         0.15860E-04
         0.85641E-05
        -0.66573E-06
        -0.15625E-04
        -0.32748E-04
        -0.50693E-04
        -0.68296E-04
        -0.82243E-04
        -0.94668E-04
        -0.10759E-03
        -0.11676E-03
         0.58417E-05
         0.38849E-04
         0.60700E-04
         0.40807E-04
         0.75024E-04
         0.70996E-04
         0.11463E-04
        -0.20544E-04
        -0.51191E-04
        -0.64166E-04
        -0.77367E-05
         0.12846E-05
         0.28342E-04
        -0.31317E-04
        -0.26988E-04
        -0.88728E-04
        -0.98598E-04
        -0.27468E-04
        -0.13322E-03
        -0.13059E-03
        -0.16110E-03
        -0.16229E-03
        -0.15583E-03
        -0.13745E-03
        -0.10027E-03
        -0.11441E-03
        -0.61790E-04
        -0.93327E-04
        -0.12131E-03
        -0.12640E-03
        -0.54745E-04
        -0.86412E-04
        -0.10831E-04
         0.31923E-04
         0.74026E-04
         0.67147E-04
         0.53484E-04
        -0.57836E-04
        -0.90432E-04
        -0.11974E-03
        -0.14174E-03
        -0.15045E-03
        -0.15902E-03
        -0.13623E-03
        -0.10970E-03
        -0.91240E-04
        -0.68212E-04
        -0.36621E-04
        -0.39739E-05
         0.22681E-04
         0.39393E-04
         0.55244E-04
         0.82935E-04
         0.88522E-04
         0.83137E-04
         0.73846E-04
         0.48435E-04
         0.14523E-04
        -0.23712E-04
        -0.56474E-04
        -0.90838E-04
        -0.12768E-03
        -0.15245E-03
        -0.18041E-03
        -0.19642E-03
        -0.19686E-03
        -0.19080E-03
        -0.17979E-03
        -0.15648E-03
        -0.12432E-03
        -0.97182E-04
        -0.69375E-04
        -0.33656E-04
         0.25952E-06
         0.25252E-04
         0.44181E-04
         0.66191E-04
         0.84333E-04
        -0.11232E-03
        -0.13432E-03
        -0.17485E-03
        -0.16853E-03
        -0.18615E-03
        -0.18396E-03
        -0.10053E-03
        -0.77313E-04
        -0.20357E-04
        -0.16312E-04
        -0.85160E-04
        -0.79555E-04
        -0.96593E-04
        -0.69184E-04
        -0.65175E-04
         0.87326E-05
         0.51110E-04
        -0.78707E-04
         0.37218E-04
         0.51614E-04
         0.34103E-04
         0.39054E-04
         0.16700E-04
         0.13967E-04
         0.28541E-04
         0.70053E-06
        -0.36359E-04
        -0.96161E-05
         0.14773E-05
         0.34338E-04
        -0.58281E-04
        -0.26444E-04
        -0.11519E-03
        -0.15295E-03
        -0.16275E-03
        -0.14702E-03
        -0.12133E-03
        -0.45723E-04
        -0.24916E-04
        -0.14793E-04
        -0.10911E-04
         0.76906E-05
         0.29267E-04
         0.14353E-05
        -0.18258E-04
        -0.39490E-04
        -0.49972E-04
        -0.73028E-04
        -0.11124E-03
        -0.13894E-03
        -0.14623E-03
        -0.16046E-03
        -0.15081E-03
        -0.17289E-03
        -0.13248E-03
        -0.12063E-03
        -0.10177E-03
        -0.74161E-04
        -0.52829E-04
        -0.35812E-04
        -0.22133E-04
        -0.19779E-05
        -0.57063E-05
         0.26548E-04
         0.36492E-04
         0.41083E-04
         0.41524E-04
         0.34021E-04
         0.11570E-04
        -0.16060E-04
        -0.42303E-04
        -0.58532E-04
        -0.75464E-04
        -0.99194E-04
        -0.12064E-03
        -0.13398E-03
        -0.14624E-03
        -0.17129E-03
        -0.77477E-04
        -0.68754E-04
        -0.58644E-04
        -0.66246E-04
        -0.39235E-04
        -0.47855E-04
        -0.68031E-04
        -0.78802E-04
        -0.10527E-03
        -0.96669E-04
        -0.64107E-04
        -0.53257E-04
        -0.54679E-04
        -0.73087E-04
        -0.61885E-04
        -0.10913E-03
        -0.12259E-03
        -0.84840E-04
        -0.11990E-03
        -0.13065E-03
        -0.13498E-03
        -0.14580E-03
        -0.11796E-03
        -0.10863E-03
        -0.11485E-03
        -0.97261E-04
        -0.87796E-04
        -0.10561E-03
        -0.11899E-03
        -0.13114E-03
        -0.76846E-04
        -0.82331E-04
        -0.66418E-04
        -0.63949E-04
        -0.39739E-04
        -0.52978E-04
        -0.56857E-04
        -0.78327E-04
        -0.93744E-04
        -0.10364E-03
        -0.10450E-03
        -0.11968E-03
        -0.14004E-03
        -0.96386E-04
        -0.81581E-04
        -0.79479E-04
        -0.77256E-04
        -0.73128E-04
        -0.65853E-04
        -0.56086E-04
        -0.42903E-04
        -0.48916E-04
        -0.19392E-04
        -0.98588E-06
        -0.28340E-04
        -0.37069E-04
        -0.36844E-04
        -0.34532E-04
        -0.43939E-04
        -0.65368E-04
        -0.83904E-04
        -0.10437E-03
        -0.10943E-03
        -0.11877E-03
        -0.14532E-03
        -0.16187E-03
        -0.15908E-03
        -0.13625E-03
        -0.11035E-03
        -0.10110E-03
        -0.94228E-04
        -0.92510E-04
        -0.74675E-04
        -0.52352E-04
        -0.31331E-04
        -0.26989E-04
        -0.10160E-04
        -0.39452E-06
        -0.19655E-03
        -0.18659E-03
        -0.11009E-03
        -0.11895E-03
        -0.16136E-03
        -0.16206E-03
        -0.23210E-03
        -0.20918E-03
        -0.11789E-03
        -0.36336E-04
        -0.19820E-03
        -0.18242E-03
        -0.20093E-03
        -0.14772E-03
        -0.11253E-03
         0.28969E-04
         0.14719E-03
        -0.10963E-03
         0.24864E-03
         0.30824E-03
         0.20023E-03
         0.23886E-03
         0.96169E-04
         0.14691E-03
         0.21086E-03
         0.78347E-05
        -0.18318E-04
         0.13718E-03
         0.16368E-03
         0.26688E-03
        -0.72965E-04
        -0.78235E-04
        -0.93911E-04
        -0.19550E-03
        -0.25450E-03
        -0.22064E-03
        -0.19164E-03
        -0.38562E-04
         0.18565E-04
         0.64153E-04
         0.75883E-04
         0.77982E-04
         0.15737E-03
        -0.19971E-06
        -0.27974E-04
        -0.55484E-05
        -0.68898E-04
        -0.11581E-03
        -0.13889E-03
        -0.20013E-03
        -0.23736E-03
        -0.23651E-03
        -0.34744E-03
        -0.30224E-03
        -0.31539E-03
        -0.22304E-03
        -0.18641E-03
        -0.19220E-03
        -0.11027E-03
        -0.35588E-04
         0.54538E-05
         0.51421E-04
         0.11857E-03
         0.89179E-04
         0.19221E-03
         0.20372E-03
         0.15606E-03
         0.10175E-03
         0.74911E-04
         0.62352E-04
         0.40435E-04
        -0.81216E-04
        -0.14963E-03
        -0.20586E-03
        -0.24983E-03
        -0.27440E-03
        -0.29388E-03
        -0.29039E-03
  
SCALARS                 displacement_y  double 1
LOOKUP_TABLE default
         0.14486E-02
         0.20483E-02
         0.97085E-03
        -0.53150E-03
         0.15265E-02
         0.35102E-02
         0.10643E-03
        -0.54767E-03
         0.24274E-03
        -0.89606E-03
         0.48471E-03
         0.85088E-04
         0.27470E-02
         0.24833E-02
         0.16545E-02
         0.16975E-02
         0.85203E-03
         0.21589E-02
         0.15662E-02
         0.20381E-02
         0.30684E-02
         0.33258E-02
         0.30363E-02
         0.20939E-02
         0.34545E-02
         0.40566E-02
         0.30389E-02
         0.34714E-02
         0.14765E-02
         0.36528E-02
        -0.17920E-02
         0.23982E-03
        -0.12553E-02
        -0.70395E-03
         0.19231E-03
        -0.11922E-02
        -0.12184E-02
         0.68273E-04
        -0.18135E-02
        -0.33741E-03
        -0.10953E-02
        -0.86641E-05
        -0.95748E-03
         0.97342E-04
        -0.19246E-02
        -0.20092E-02
        -0.15584E-02
        -0.12709E-02
         0.17116E-02
         0.12717E-02
        -0.26732E-02
        -0.30721E-02
         0.29529E-02
         0.23833E-02
         0.26929E-02
         0.16836E-02
         0.23666E-02
         0.13641E-02
         0.27607E-02
         0.98603E-03
        -0.32521E-02
        -0.33728E-02
        -0.34649E-02
        -0.37588E-02
        -0.29377E-02
        -0.31673E-02
        -0.24299E-02
        -0.34890E-02
         0.95153E-03
         0.15888E-02
         0.11351E-02
         0.98688E-03
         0.24038E-02
         0.19054E-02
         0.34924E-02
         0.38400E-02
         0.32624E-02
         0.32026E-02
         0.28887E-02
         0.26436E-02
         0.25208E-02
         0.20210E-02
         0.22508E-02
         0.22239E-02
         0.11108E-02
         0.14690E-02
        -0.26426E-02
        -0.20049E-02
        -0.31943E-02
        -0.35521E-02
        -0.34186E-02
        -0.36424E-02
        -0.29511E-02
        -0.32986E-02
        -0.37265E-02
        -0.35651E-02
        -0.35584E-02
        -0.32956E-02
        -0.31526E-02
        -0.25841E-02
        -0.26652E-02
        -0.20193E-02
        -0.24431E-02
        -0.29734E-02
         0.99412E-03
         0.41489E-04
         0.12148E-02
        -0.17081E-03
         0.17214E-02
         0.21036E-02
         0.23709E-02
         0.18984E-02
         0.29415E-02
         0.28313E-02
         0.31757E-02
         0.24857E-02
         0.33507E-02
         0.29793E-02
         0.33621E-02
         0.27933E-02
         0.32144E-02
         0.29255E-02
         0.28311E-02
         0.25479E-02
         0.23599E-02
         0.24236E-02
         0.15820E-02
         0.12248E-02
         0.78354E-03
         0.66813E-03
        -0.65855E-04
        -0.10689E-03
        -0.89896E-03
        -0.86880E-03
        -0.16330E-02
        -0.15774E-02
        -0.22769E-02
        -0.23185E-02
        -0.27819E-02
        -0.25298E-02
        -0.31567E-02
        -0.29515E-02
        -0.34501E-02
        -0.35253E-02
        -0.35162E-02
        -0.33260E-02
        -0.33721E-02
        -0.31384E-02
        -0.30337E-02
        -0.29410E-02
        -0.24792E-02
        -0.21324E-02
        -0.16646E-02
        -0.10634E-02
        -0.85302E-03
        -0.11208E-02
         0.12646E-02
         0.16700E-02
         0.82273E-03
        -0.40980E-03
         0.23053E-03
        -0.67833E-03
         0.21767E-02
         0.21113E-02
         0.76560E-03
         0.18904E-02
         0.23844E-02
         0.24861E-02
         0.22765E-02
         0.24351E-02
         0.26121E-02
        -0.15238E-02
         0.23264E-03
        -0.10933E-02
        -0.98363E-03
         0.85609E-04
        -0.86700E-03
         0.18812E-05
        -0.15129E-02
        -0.16059E-02
         0.14757E-02
        -0.21223E-02
         0.23945E-02
         0.21595E-02
         0.18483E-02
         0.11231E-02
        -0.26264E-02
        -0.26288E-02
        -0.23988E-02
        -0.19212E-02
         0.77020E-03
         0.12588E-02
         0.18543E-02
         0.26103E-02
         0.24213E-02
         0.21445E-02
         0.19223E-02
         0.15838E-02
         0.88484E-03
        -0.20469E-02
        -0.24496E-02
        -0.26301E-02
        -0.27969E-02
        -0.28694E-02
        -0.27455E-02
        -0.24223E-02
        -0.20520E-02
        -0.15548E-02
         0.77738E-03
         0.93006E-04
         0.12978E-02
         0.18367E-02
         0.22276E-02
         0.24282E-02
         0.25863E-02
         0.25509E-02
         0.23950E-02
         0.21332E-02
         0.18802E-02
         0.13338E-02
         0.68010E-03
        -0.36911E-04
        -0.71591E-03
        -0.12741E-02
        -0.17624E-02
        -0.21605E-02
        -0.24852E-02
        -0.26797E-02
        -0.26955E-02
        -0.25766E-02
        -0.22972E-02
        -0.19424E-02
        -0.13213E-02
        -0.62768E-03
         0.10403E-02
         0.14410E-02
         0.70881E-03
        -0.36491E-03
         0.20235E-03
        -0.59625E-03
         0.19164E-02
         0.18034E-02
         0.57697E-03
         0.15697E-02
         0.21378E-02
         0.22410E-02
         0.20169E-02
         0.21712E-02
         0.23716E-02
        -0.13202E-02
         0.13581E-03
        -0.94632E-03
        -0.87145E-03
         0.42585E-04
        -0.76570E-03
        -0.74546E-05
        -0.13428E-02
        -0.14155E-02
         0.12319E-02
        -0.18663E-02
         0.21198E-02
         0.19163E-02
         0.16437E-02
         0.96063E-03
        -0.22951E-02
        -0.23177E-02
        -0.20891E-02
        -0.16862E-02
         0.67068E-03
         0.11002E-02
         0.16265E-02
         0.23728E-02
         0.22033E-02
         0.19397E-02
         0.17124E-02
         0.13975E-02
         0.76784E-03
        -0.18194E-02
        -0.21637E-02
        -0.23101E-02
        -0.24798E-02
        -0.25588E-02
        -0.24458E-02
        -0.21502E-02
        -0.18143E-02
        -0.13741E-02
         0.66788E-03
         0.84441E-04
         0.11576E-02
         0.16351E-02
         0.19729E-02
         0.21896E-02
         0.23328E-02
         0.23294E-02
         0.21723E-02
         0.18987E-02
         0.16265E-02
         0.11670E-02
         0.62410E-03
        -0.16741E-04
        -0.61688E-03
        -0.11061E-02
        -0.15257E-02
        -0.18525E-02
        -0.21414E-02
        -0.23492E-02
        -0.23867E-02
        -0.22893E-02
        -0.20273E-02
        -0.16889E-02
        -0.11535E-02
        -0.54731E-03
         0.67961E-03
         0.93536E-03
         0.46537E-03
        -0.25346E-03
         0.15617E-03
        -0.38502E-03
         0.12407E-02
         0.11957E-02
         0.37639E-03
         0.10678E-02
         0.13856E-02
         0.14647E-02
         0.13051E-02
         0.14281E-02
         0.15667E-02
        -0.88813E-03
         0.87933E-04
        -0.65448E-03
        -0.57790E-03
         0.35482E-04
        -0.50327E-03
         0.36075E-06
        -0.88982E-03
        -0.92970E-03
         0.83933E-03
        -0.12281E-02
         0.14123E-02
         0.12703E-02
         0.10808E-02
         0.64690E-03
        -0.15219E-02
        -0.15345E-02
        -0.13892E-02
        -0.11197E-02
         0.46396E-03
         0.73150E-03
         0.10622E-02
         0.15645E-02
         0.14381E-02
         0.12595E-02
         0.11268E-02
         0.92639E-03
         0.51483E-03
        -0.12185E-02
        -0.14600E-02
        -0.15738E-02
        -0.16748E-02
        -0.17140E-02
        -0.16266E-02
        -0.14309E-02
        -0.12176E-02
        -0.91839E-03
         0.47778E-03
         0.96985E-04
         0.83307E-03
         0.11397E-02
         0.13512E-02
         0.15198E-02
         0.16244E-02
         0.16054E-02
         0.14799E-02
         0.12966E-02
         0.11224E-02
         0.82072E-03
         0.45733E-03
         0.36587E-05
        -0.41018E-03
        -0.77346E-03
        -0.10862E-02
        -0.13265E-02
        -0.15301E-02
        -0.16836E-02
        -0.16753E-02
        -0.15821E-02
        -0.14096E-02
        -0.11644E-02
        -0.81024E-03
        -0.36076E-03
         0.53294E-03
         0.76464E-03
         0.37938E-03
        -0.20276E-03
         0.12348E-03
        -0.33228E-03
         0.10440E-02
         0.95819E-03
         0.28135E-03
         0.82090E-03
         0.11936E-02
         0.13036E-02
         0.11357E-02
         0.12032E-02
         0.13875E-02
        -0.69150E-03
         0.65197E-04
        -0.49633E-03
        -0.46468E-03
         0.27101E-04
        -0.41266E-03
        -0.40209E-05
        -0.75087E-03
        -0.76984E-03
         0.65516E-03
        -0.10189E-02
         0.11641E-02
         0.10512E-02
         0.91081E-03
         0.52490E-03
        -0.12482E-02
        -0.12938E-02
        -0.11275E-02
        -0.92846E-03
         0.38152E-03
         0.60875E-03
         0.89944E-03
         0.13831E-02
         0.12771E-02
         0.11183E-02
         0.98563E-03
         0.78195E-03
         0.42008E-03
        -0.10435E-02
        -0.12591E-02
        -0.13713E-02
        -0.14559E-02
        -0.14794E-02
        -0.13915E-02
        -0.12276E-02
        -0.10530E-02
        -0.78906E-03
         0.39572E-03
         0.71018E-04
         0.74479E-03
         0.10321E-02
         0.12532E-02
         0.14341E-02
         0.15278E-02
         0.15315E-02
         0.14282E-02
         0.12292E-02
         0.10019E-02
         0.71399E-03
         0.40726E-03
         0.19550E-04
        -0.33669E-03
        -0.67679E-03
        -0.96865E-03
        -0.11969E-02
        -0.13647E-02
        -0.15123E-02
        -0.15349E-02
        -0.14543E-02
        -0.12941E-02
        -0.10331E-02
        -0.73511E-03
        -0.33474E-03
         0.16400E-03
         0.27263E-03
         0.15686E-03
        -0.67823E-04
         0.65255E-04
        -0.15501E-03
         0.36771E-03
         0.28513E-03
         0.74650E-04
         0.23126E-03
         0.44895E-03
         0.59985E-03
         0.50262E-03
         0.42602E-03
         0.63948E-03
        -0.21737E-03
         0.19908E-04
        -0.14881E-03
        -0.16313E-03
         0.20654E-04
        -0.17348E-03
         0.11666E-04
        -0.35168E-03
        -0.30462E-03
         0.21016E-03
        -0.40454E-03
         0.40445E-03
         0.38513E-03
         0.37966E-03
         0.21036E-03
        -0.48135E-03
        -0.56496E-03
        -0.42610E-03
        -0.38488E-03
         0.19529E-03
         0.28463E-03
         0.40071E-03
         0.62984E-03
         0.57885E-03
         0.52771E-03
         0.49832E-03
         0.37886E-03
         0.20501E-03
        -0.51847E-03
        -0.65589E-03
        -0.75884E-03
        -0.75267E-03
        -0.71466E-03
        -0.64793E-03
        -0.59245E-03
        -0.54406E-03
        -0.38907E-03
         0.23708E-03
         0.37802E-04
         0.46683E-03
         0.63444E-03
         0.76856E-03
         0.88157E-03
         0.93269E-03
         0.91825E-03
         0.85571E-03
         0.75389E-03
         0.61432E-03
         0.43531E-03
         0.26034E-03
         0.21058E-04
        -0.19318E-03
        -0.41793E-03
        -0.62910E-03
        -0.80161E-03
        -0.90251E-03
        -0.99763E-03
        -0.98369E-03
        -0.89775E-03
        -0.80585E-03
        -0.62483E-03
        -0.45426E-03
        -0.21392E-03
         0.19926E-03
         0.31307E-03
         0.14180E-03
        -0.10823E-03
         0.32111E-04
        -0.17056E-03
         0.46598E-03
         0.40583E-03
         0.95027E-04
         0.33928E-03
         0.55740E-03
         0.65905E-03
         0.55356E-03
         0.54634E-03
         0.68943E-03
        -0.30028E-03
         0.23964E-04
        -0.22696E-03
        -0.19175E-03
         0.17711E-04
        -0.17517E-03
         0.51402E-05
        -0.35408E-03
        -0.34195E-03
         0.27357E-03
        -0.46302E-03
         0.51449E-03
         0.46424E-03
         0.40737E-03
         0.22129E-03
        -0.55306E-03
        -0.60593E-03
        -0.49340E-03
        -0.41627E-03
         0.16594E-03
         0.27170E-03
         0.41531E-03
         0.67840E-03
         0.63454E-03
         0.56660E-03
         0.49660E-03
         0.35658E-03
         0.18328E-03
        -0.52255E-03
        -0.65239E-03
        -0.73450E-03
        -0.74116E-03
        -0.72000E-03
        -0.66261E-03
        -0.59597E-03
        -0.52628E-03
        -0.37870E-03
         0.19908E-03
         0.26606E-06
         0.43420E-03
         0.61402E-03
         0.78115E-03
         0.89541E-03
         0.93858E-03
         0.94145E-03
         0.89090E-03
         0.78079E-03
         0.59385E-03
         0.40346E-03
         0.24278E-03
         0.21559E-04
        -0.18568E-03
        -0.39601E-03
        -0.60389E-03
        -0.77192E-03
        -0.84203E-03
        -0.94006E-03
        -0.96649E-03
        -0.89408E-03
        -0.79631E-03
        -0.59535E-03
        -0.43188E-03
        -0.21952E-03
        -0.50485E-04
        -0.21534E-04
        -0.11972E-04
        -0.29390E-04
        -0.11172E-04
        -0.49868E-04
        -0.12233E-04
        -0.57916E-04
        -0.43412E-04
        -0.62947E-04
         0.16659E-04
         0.13990E-03
         0.10684E-03
        -0.11331E-04
         0.13485E-03
         0.18082E-04
        -0.18448E-04
        -0.26441E-05
         0.67986E-05
        -0.23858E-05
        -0.26741E-04
         0.17045E-05
        -0.82578E-04
        -0.18201E-04
        -0.45136E-04
        -0.28739E-04
        -0.25158E-04
        -0.16796E-04
         0.20751E-04
        -0.11232E-04
        -0.21710E-04
        -0.84405E-04
        -0.19582E-04
        -0.50236E-04
         0.38154E-04
         0.56079E-04
         0.79563E-04
         0.12276E-03
         0.11707E-03
         0.13027E-03
         0.14863E-03
         0.73589E-04
         0.26783E-04
        -0.14617E-03
        -0.21308E-03
        -0.28834E-03
        -0.23024E-03
        -0.17521E-03
        -0.14135E-03
        -0.15026E-03
        -0.16727E-03
        -0.98676E-04
         0.91578E-04
        -0.19334E-04
         0.23803E-03
         0.33048E-03
         0.41522E-03
         0.47464E-03
         0.50072E-03
         0.48829E-03
         0.45495E-03
         0.41432E-03
         0.31822E-03
         0.21893E-03
         0.13435E-03
        -0.76404E-06
        -0.12742E-03
        -0.24774E-03
        -0.37488E-03
        -0.48449E-03
        -0.51412E-03
        -0.56600E-03
        -0.55122E-03
        -0.48690E-03
        -0.44272E-03
        -0.31279E-03
        -0.22598E-03
        -0.12181E-03
         0.85757E-04
         0.16101E-03
         0.53573E-04
        -0.75612E-04
        -0.16850E-04
        -0.11342E-03
         0.25964E-03
         0.20861E-03
         0.38275E-04
         0.16966E-03
         0.32126E-03
         0.40138E-03
         0.33766E-03
         0.30434E-03
         0.41113E-03
        -0.16159E-03
        -0.98403E-06
        -0.11484E-03
        -0.11390E-03
        -0.80811E-05
        -0.11584E-03
        -0.10610E-04
        -0.22237E-03
        -0.19990E-03
         0.12925E-03
        -0.26646E-03
         0.27946E-03
         0.24931E-03
         0.21952E-03
         0.99447E-04
        -0.29308E-03
        -0.34665E-03
        -0.25465E-03
        -0.22559E-03
         0.71464E-04
         0.14761E-03
         0.24530E-03
         0.40271E-03
         0.38168E-03
         0.34728E-03
         0.29999E-03
         0.19595E-03
         0.88745E-04
        -0.31912E-03
        -0.39942E-03
        -0.45495E-03
        -0.44108E-03
        -0.41818E-03
        -0.38264E-03
        -0.34645E-03
        -0.30577E-03
        -0.21137E-03
         0.10296E-03
        -0.31364E-04
         0.26696E-03
         0.38600E-03
         0.49869E-03
         0.57881E-03
         0.60902E-03
         0.62280E-03
         0.58715E-03
         0.51538E-03
         0.37565E-03
         0.24799E-03
         0.13682E-03
        -0.11601E-04
        -0.15515E-03
        -0.28775E-03
        -0.40616E-03
        -0.51523E-03
        -0.56287E-03
        -0.61844E-03
        -0.63348E-03
        -0.58800E-03
        -0.53112E-03
        -0.39003E-03
        -0.27432E-03
        -0.15296E-03
        -0.69038E-04
        -0.56887E-04
        -0.35852E-04
        -0.19380E-04
        -0.29115E-04
        -0.26954E-04
        -0.69642E-04
        -0.10203E-03
        -0.53963E-04
        -0.10088E-03
        -0.62343E-04
         0.70236E-05
        -0.59865E-06
        -0.85040E-04
        -0.16020E-05
         0.31749E-04
        -0.35185E-04
         0.21792E-04
         0.44527E-05
        -0.25528E-04
        -0.22103E-04
        -0.18953E-04
        -0.31178E-04
         0.97687E-05
        -0.79486E-04
         0.19547E-04
        -0.92975E-04
        -0.78113E-04
        -0.43701E-04
        -0.49250E-04
         0.41441E-04
         0.63378E-05
         0.36455E-04
         0.20746E-05
        -0.79724E-05
        -0.30782E-05
        -0.25830E-05
        -0.65458E-05
        -0.18106E-05
         0.16146E-04
         0.30312E-04
        -0.62405E-05
        -0.18773E-04
        -0.40791E-04
        -0.65230E-04
        -0.10519E-03
        -0.68987E-04
        -0.41637E-04
        -0.29728E-04
        -0.43067E-04
        -0.57086E-04
        -0.28371E-04
         0.27828E-04
        -0.19745E-04
         0.91861E-04
         0.12764E-03
         0.16436E-03
         0.19447E-03
         0.21189E-03
         0.21871E-03
         0.20273E-03
         0.17882E-03
         0.12909E-03
         0.86657E-04
         0.45400E-04
        -0.26296E-04
        -0.95872E-04
        -0.14597E-03
        -0.18749E-03
        -0.23444E-03
        -0.25004E-03
        -0.27493E-03
        -0.26596E-03
        -0.22368E-03
        -0.20343E-03
        -0.14604E-03
        -0.11219E-03
        -0.67924E-04
         0.83580E-04
         0.15249E-03
         0.51233E-04
        -0.70422E-04
        -0.14620E-04
        -0.10059E-03
         0.24197E-03
         0.20135E-03
         0.35994E-04
         0.16487E-03
         0.29310E-03
         0.33734E-03
         0.28765E-03
         0.28330E-03
         0.34894E-03
        -0.16869E-03
        -0.83206E-05
        -0.11461E-03
        -0.12384E-03
        -0.20330E-04
        -0.12276E-03
        -0.26632E-04
        -0.20444E-03
        -0.19696E-03
         0.12502E-03
        -0.25692E-03
         0.26460E-03
         0.23574E-03
         0.19874E-03
         0.90096E-04
        -0.28493E-03
        -0.32072E-03
        -0.24671E-03
        -0.21374E-03
         0.56194E-04
         0.12399E-03
         0.20878E-03
         0.34679E-03
         0.32872E-03
         0.29071E-03
         0.23925E-03
         0.16175E-03
         0.69012E-04
        -0.27410E-03
        -0.33485E-03
        -0.37116E-03
        -0.37064E-03
        -0.36031E-03
        -0.33614E-03
        -0.30238E-03
        -0.26084E-03
        -0.18804E-03
         0.67809E-04
        -0.30534E-04
         0.18186E-03
         0.26799E-03
         0.34808E-03
         0.40868E-03
         0.44133E-03
         0.45901E-03
         0.43604E-03
         0.37543E-03
         0.26581E-03
         0.17329E-03
         0.79262E-04
        -0.32602E-04
        -0.14532E-03
        -0.23581E-03
        -0.30527E-03
        -0.37234E-03
        -0.41543E-03
        -0.44383E-03
        -0.45225E-03
        -0.42578E-03
        -0.38374E-03
        -0.29336E-03
        -0.20855E-03
        -0.12192E-03
        -0.55809E-04
        -0.43613E-04
        -0.25059E-04
        -0.18129E-04
        -0.16718E-04
        -0.19337E-04
        -0.54892E-04
        -0.77333E-04
        -0.49942E-04
        -0.77022E-04
        -0.49967E-04
        -0.90867E-05
        -0.13440E-04
        -0.62965E-04
        -0.10997E-04
         0.65434E-05
        -0.37313E-04
         0.16403E-05
        -0.11776E-04
        -0.28522E-04
        -0.31128E-04
        -0.24700E-04
        -0.30938E-04
        -0.63355E-05
        -0.60393E-04
         0.12829E-05
        -0.65086E-04
        -0.53147E-04
        -0.29489E-04
        -0.36544E-04
         0.13618E-04
        -0.70323E-05
         0.13718E-04
        -0.60654E-05
        -0.62865E-05
        -0.72236E-05
        -0.11787E-04
        -0.12685E-04
        -0.96619E-05
         0.16157E-05
         0.10163E-04
        -0.50157E-05
        -0.15081E-04
        -0.28854E-04
        -0.40303E-04
        -0.59535E-04
        -0.41965E-04
        -0.25907E-04
        -0.18508E-04
        -0.26137E-04
        -0.35820E-04
        -0.23607E-04
         0.98553E-05
        -0.12179E-04
         0.31638E-04
         0.44319E-04
         0.57071E-04
         0.73706E-04
         0.89299E-04
         0.91335E-04
         0.84151E-04
         0.72318E-04
         0.49357E-04
         0.34548E-04
         0.33275E-05
        -0.35845E-04
        -0.67015E-04
        -0.87304E-04
        -0.97102E-04
        -0.10547E-03
        -0.11679E-03
        -0.12555E-03
        -0.11804E-03
        -0.96703E-04
        -0.84433E-04
        -0.70718E-04
        -0.58883E-04
        -0.39649E-04
         0.95545E-04
         0.15974E-03
         0.59412E-04
        -0.63088E-04
        -0.36003E-05
        -0.92334E-04
         0.24562E-03
         0.21519E-03
         0.44061E-04
         0.17944E-03
         0.29059E-03
         0.31969E-03
         0.27680E-03
         0.28549E-03
         0.32886E-03
        -0.17102E-03
         0.16297E-06
        -0.12053E-03
        -0.11852E-03
        -0.11040E-04
        -0.11312E-03
        -0.22404E-04
        -0.19169E-03
        -0.19149E-03
         0.13743E-03
        -0.24944E-03
         0.26979E-03
         0.23927E-03
         0.19719E-03
         0.98439E-04
        -0.28361E-03
        -0.30769E-03
        -0.24667E-03
        -0.20475E-03
         0.62007E-04
         0.12377E-03
         0.20335E-03
         0.32739E-03
         0.30903E-03
         0.26865E-03
         0.22017E-03
         0.15630E-03
         0.69686E-04
        -0.25691E-03
        -0.30812E-03
        -0.33411E-03
        -0.34059E-03
        -0.33774E-03
        -0.31700E-03
        -0.27896E-03
        -0.23819E-03
        -0.17772E-03
         0.65354E-04
        -0.19847E-04
         0.15217E-03
         0.22869E-03
         0.30084E-03
         0.35250E-03
         0.36975E-03
         0.37811E-03
         0.35952E-03
         0.30925E-03
         0.22495E-03
         0.14316E-03
         0.57549E-04
        -0.30602E-04
        -0.11436E-03
        -0.19196E-03
        -0.25681E-03
        -0.31047E-03
        -0.34311E-03
        -0.35893E-03
        -0.36545E-03
        -0.35025E-03
        -0.31239E-03
        -0.24761E-03
        -0.17786E-03
        -0.10365E-03
        -0.42375E-04
        -0.36348E-04
        -0.15742E-04
        -0.57791E-05
        -0.64648E-05
        -0.52362E-05
        -0.52247E-04
        -0.64887E-04
        -0.37676E-04
        -0.61305E-04
        -0.52354E-04
        -0.23914E-04
        -0.22612E-04
        -0.59622E-04
        -0.25545E-04
         0.13714E-04
        -0.24012E-04
         0.30763E-05
         0.12823E-05
        -0.15430E-04
        -0.11410E-04
        -0.13097E-04
        -0.79794E-05
         0.93503E-05
        -0.46672E-04
         0.18446E-04
        -0.58485E-04
        -0.50117E-04
        -0.32980E-04
        -0.28101E-04
         0.23884E-04
         0.14024E-04
         0.21353E-04
         0.10931E-04
        -0.24848E-05
        -0.65006E-05
        -0.14544E-04
        -0.26920E-04
        -0.27143E-04
        -0.20030E-04
        -0.80666E-05
        -0.11571E-04
        -0.12440E-04
        -0.40904E-05
        -0.91596E-05
        -0.20825E-04
        -0.87978E-05
         0.23424E-05
         0.74420E-05
         0.28295E-05
        -0.68603E-05
        -0.36006E-05
         0.67113E-05
        -0.59075E-05
         0.14153E-04
         0.19131E-04
         0.24123E-04
         0.32846E-04
         0.38264E-04
         0.33109E-04
         0.26598E-04
         0.22477E-04
         0.19923E-04
         0.16868E-04
         0.16447E-06
        -0.18271E-04
        -0.32162E-04
        -0.42041E-04
        -0.45683E-04
        -0.49084E-04
        -0.53701E-04
        -0.55975E-04
        -0.46623E-04
        -0.34000E-04
        -0.30561E-04
        -0.30940E-04
        -0.27470E-04
        -0.19701E-04
         0.98141E-04
         0.15117E-03
         0.64411E-04
        -0.43106E-04
         0.10518E-04
        -0.67914E-04
         0.22570E-03
         0.20314E-03
         0.52592E-04
         0.17201E-03
         0.26376E-03
         0.28454E-03
         0.24837E-03
         0.26058E-03
         0.29216E-03
        -0.13764E-03
         0.14195E-04
        -0.98698E-04
        -0.90361E-04
         0.36859E-05
        -0.83552E-04
        -0.47609E-05
        -0.15331E-03
        -0.15419E-03
         0.13311E-03
        -0.20307E-03
         0.24645E-03
         0.21816E-03
         0.17910E-03
         0.96854E-04
        -0.23813E-03
        -0.25421E-03
        -0.20951E-03
        -0.16909E-03
         0.66125E-04
         0.11794E-03
         0.18591E-03
         0.28912E-03
         0.27207E-03
         0.23630E-03
         0.19589E-03
         0.14402E-03
         0.72752E-04
        -0.21056E-03
        -0.25328E-03
        -0.27526E-03
        -0.28335E-03
        -0.28288E-03
        -0.26608E-03
        -0.23166E-03
        -0.19539E-03
        -0.14376E-03
         0.67415E-04
        -0.60575E-05
         0.14052E-03
         0.20591E-03
         0.26567E-03
         0.30372E-03
         0.31503E-03
         0.32067E-03
         0.30398E-03
         0.26386E-03
         0.19604E-03
         0.12871E-03
         0.61559E-04
        -0.70787E-05
        -0.74845E-04
        -0.14251E-03
        -0.20301E-03
        -0.25007E-03
        -0.27697E-03
        -0.29162E-03
        -0.29849E-03
        -0.28749E-03
        -0.25346E-03
        -0.19939E-03
        -0.13783E-03
        -0.74315E-04
        -0.32124E-04
        -0.35485E-04
        -0.67500E-05
         0.15943E-04
         0.10180E-04
         0.22598E-04
        -0.57591E-04
        -0.64158E-04
        -0.24226E-04
        -0.58493E-04
        -0.63121E-04
        -0.44479E-04
        -0.38773E-04
        -0.68905E-04
        -0.47509E-04
         0.40083E-04
        -0.84880E-05
         0.25583E-04
         0.26200E-04
         0.19257E-05
         0.19717E-04
         0.89394E-05
         0.28260E-04
         0.39822E-04
        -0.41489E-04
         0.53656E-04
        -0.66624E-04
        -0.55299E-04
        -0.36209E-04
        -0.20397E-04
         0.62312E-04
         0.59161E-04
         0.56196E-04
         0.46540E-04
         0.37699E-05
        -0.85276E-05
        -0.24439E-04
        -0.49747E-04
        -0.47641E-04
        -0.36930E-04
        -0.21174E-04
        -0.14458E-04
        -0.26593E-05
         0.37263E-04
         0.41314E-04
         0.36438E-04
         0.46926E-04
         0.54932E-04
         0.56046E-04
         0.48425E-04
         0.36262E-04
         0.33395E-04
         0.10802E-04
         0.12514E-04
         0.51608E-05
         0.55647E-06
        -0.25299E-05
        -0.38973E-05
        -0.26894E-05
        -0.89647E-05
        -0.14670E-04
        -0.11153E-04
         0.57053E-06
         0.94546E-05
         0.10082E-04
         0.79334E-05
         0.78252E-05
         0.73679E-05
         0.84024E-05
         0.92580E-05
         0.94056E-05
         0.11966E-04
         0.19898E-04
         0.24644E-04
         0.21148E-04
         0.14048E-04
         0.14056E-04
         0.13979E-04
         0.94292E-04
         0.13689E-03
         0.68884E-04
        -0.15498E-04
         0.27653E-04
        -0.35459E-04
         0.19656E-03
         0.17669E-03
         0.57593E-04
         0.14894E-03
         0.22809E-03
         0.24430E-03
         0.21354E-03
         0.22460E-03
         0.25084E-03
        -0.86534E-04
         0.28752E-04
        -0.57013E-04
        -0.51056E-04
         0.22802E-04
        -0.44431E-04
         0.18306E-04
        -0.10134E-03
        -0.10171E-03
         0.11935E-03
        -0.13899E-03
         0.20952E-03
         0.18529E-03
         0.15713E-03
         0.94856E-04
        -0.16558E-03
        -0.17810E-03
        -0.14603E-03
        -0.11713E-03
         0.70685E-04
         0.11009E-03
         0.16356E-03
         0.24367E-03
         0.22674E-03
         0.19969E-03
         0.17070E-03
         0.13165E-03
         0.77675E-04
        -0.14712E-03
        -0.17941E-03
        -0.19621E-03
        -0.20219E-03
        -0.20397E-03
        -0.19417E-03
        -0.16883E-03
        -0.14013E-03
        -0.97947E-04
         0.72270E-04
         0.15866E-04
         0.12771E-03
         0.17811E-03
         0.22434E-03
         0.25514E-03
         0.26363E-03
         0.26267E-03
         0.24788E-03
         0.21752E-03
         0.16982E-03
         0.11938E-03
         0.72668E-04
         0.20894E-04
        -0.33859E-04
        -0.91076E-04
        -0.14226E-03
        -0.17928E-03
        -0.20003E-03
        -0.21257E-03
        -0.22138E-03
        -0.21416E-03
        -0.18554E-03
        -0.14207E-03
        -0.92573E-04
        -0.39881E-04
        -0.18748E-04
        -0.25403E-04
         0.71171E-05
         0.35203E-04
         0.27687E-04
         0.44653E-04
        -0.50113E-04
        -0.54291E-04
        -0.77143E-05
        -0.47688E-04
        -0.58751E-04
        -0.48458E-04
        -0.39306E-04
        -0.63654E-04
        -0.52917E-04
         0.67858E-04
         0.10024E-04
         0.50640E-04
         0.51712E-04
         0.20487E-04
         0.46245E-04
         0.28869E-04
         0.61318E-04
         0.70568E-04
        -0.29221E-04
         0.86530E-04
        -0.61077E-04
        -0.48008E-04
        -0.27054E-04
        -0.70414E-05
         0.97225E-04
         0.96744E-04
         0.89041E-04
         0.74991E-04
         0.16799E-04
         0.22190E-06
        -0.21068E-04
        -0.54753E-04
        -0.49558E-04
        -0.34605E-04
        -0.16956E-04
        -0.60691E-05
         0.10867E-04
         0.74745E-04
         0.83030E-04
         0.82159E-04
         0.91185E-04
         0.96600E-04
         0.95561E-04
         0.84892E-04
         0.70108E-04
         0.61227E-04
         0.21332E-04
         0.30331E-04
         0.79763E-05
        -0.53360E-05
        -0.16496E-04
        -0.24480E-04
        -0.27368E-04
        -0.31359E-04
        -0.31475E-04
        -0.20643E-04
        -0.91187E-06
         0.12092E-04
         0.23383E-04
         0.32609E-04
         0.40274E-04
         0.45579E-04
         0.52186E-04
         0.57627E-04
         0.59328E-04
         0.63286E-04
         0.69978E-04
         0.72357E-04
         0.65687E-04
         0.53109E-04
         0.45831E-04
         0.38228E-04
         0.90060E-04
         0.12506E-03
         0.70843E-04
         0.55570E-05
         0.38856E-04
        -0.98916E-05
         0.17025E-03
         0.15296E-03
         0.65454E-04
         0.13335E-03
         0.19305E-03
         0.20887E-03
         0.18837E-03
         0.18953E-03
         0.21277E-03
        -0.40615E-04
         0.47660E-04
        -0.21206E-04
        -0.10477E-04
         0.42975E-04
        -0.90461E-05
         0.37718E-04
        -0.52472E-04
        -0.50715E-04
         0.11216E-03
        -0.82774E-04
         0.17944E-03
         0.16209E-03
         0.14381E-03
         0.94991E-04
        -0.10318E-03
        -0.11631E-03
        -0.87193E-04
        -0.69062E-04
         0.73234E-04
         0.10490E-03
         0.14920E-03
         0.21111E-03
         0.20060E-03
         0.18078E-03
         0.16050E-03
         0.12870E-03
         0.83988E-04
        -0.90033E-04
        -0.11901E-03
        -0.13330E-03
        -0.13594E-03
        -0.13485E-03
        -0.12620E-03
        -0.10865E-03
        -0.88869E-04
        -0.56875E-04
         0.75461E-04
         0.32155E-04
         0.11857E-03
         0.16141E-03
         0.20136E-03
         0.22557E-03
         0.23211E-03
         0.23224E-03
         0.22177E-03
         0.19657E-03
         0.16084E-03
         0.12230E-03
         0.80474E-04
         0.37567E-04
        -0.74366E-05
        -0.51459E-04
        -0.88076E-04
        -0.12007E-03
        -0.13776E-03
        -0.14725E-03
        -0.15498E-03
        -0.15005E-03
        -0.12756E-03
        -0.93784E-04
        -0.55400E-04
        -0.13910E-04
        -0.23642E-05
        -0.12867E-04
         0.20425E-04
         0.55368E-04
         0.40654E-04
         0.63926E-04
        -0.37370E-04
        -0.41610E-04
         0.84518E-05
        -0.41220E-04
        -0.44583E-04
        -0.36662E-04
        -0.32995E-04
        -0.50206E-04
        -0.38341E-04
         0.91483E-04
         0.26214E-04
         0.77693E-04
         0.71111E-04
         0.37717E-04
         0.67008E-04
         0.46610E-04
         0.82981E-04
         0.90268E-04
        -0.22397E-04
         0.10821E-03
        -0.55841E-04
        -0.45539E-04
        -0.17277E-04
         0.60567E-05
         0.12807E-03
         0.12394E-03
         0.12018E-03
         0.10182E-03
         0.26041E-04
         0.79701E-05
        -0.15889E-04
        -0.45834E-04
        -0.45656E-04
        -0.27367E-04
        -0.59771E-05
         0.63642E-05
         0.24258E-04
         0.99010E-04
         0.11077E-03
         0.11465E-03
         0.12543E-03
         0.13279E-03
         0.12974E-03
         0.11599E-03
         0.10098E-03
         0.87755E-04
         0.26781E-04
         0.42905E-04
         0.93993E-05
        -0.10638E-04
        -0.21142E-04
        -0.24221E-04
        -0.23625E-04
        -0.27234E-04
        -0.30600E-04
        -0.19473E-04
         0.61701E-05
         0.23211E-04
         0.35610E-04
         0.48398E-04
         0.61000E-04
         0.69063E-04
         0.81170E-04
         0.91347E-04
         0.99262E-04
         0.10554E-03
         0.11256E-03
         0.11092E-03
         0.10199E-03
         0.88100E-04
         0.74496E-04
         0.59196E-04
         0.86343E-04
         0.10721E-03
         0.71373E-04
         0.29758E-04
         0.50173E-04
         0.19105E-04
         0.13419E-03
         0.11927E-03
         0.74026E-04
         0.10916E-03
         0.14610E-03
         0.16408E-03
         0.15533E-03
         0.13924E-03
         0.16273E-03
         0.79598E-05
         0.62758E-04
         0.15057E-04
         0.28586E-04
         0.57938E-04
         0.23904E-04
         0.54373E-04
        -0.56985E-05
         0.13469E-05
         0.96356E-04
        -0.21037E-04
         0.13556E-03
         0.12818E-03
         0.11764E-03
         0.85919E-04
        -0.44729E-04
        -0.47353E-04
        -0.36901E-04
        -0.21478E-04
         0.72327E-04
         0.94412E-04
         0.12833E-03
         0.16631E-03
         0.16523E-03
         0.15234E-03
         0.13970E-03
         0.11498E-03
         0.85344E-04
        -0.31206E-04
        -0.49234E-04
        -0.58277E-04
        -0.62597E-04
        -0.66196E-04
        -0.59740E-04
        -0.44834E-04
        -0.30568E-04
        -0.10818E-04
         0.76740E-04
         0.49710E-04
         0.10615E-03
         0.14563E-03
         0.18288E-03
         0.19367E-03
         0.19367E-03
         0.19878E-03
         0.19943E-03
         0.18117E-03
         0.14886E-03
         0.11985E-03
         0.83814E-04
         0.48519E-04
         0.16420E-04
        -0.15472E-04
        -0.43400E-04
        -0.62759E-04
        -0.66275E-04
        -0.73822E-04
        -0.82475E-04
        -0.75155E-04
        -0.58177E-04
        -0.33613E-04
        -0.12516E-04
         0.16527E-04
         0.26628E-05
        -0.91005E-05
         0.43079E-04
         0.96632E-04
         0.69926E-04
         0.97058E-04
        -0.28343E-04
        -0.41246E-04
         0.17161E-04
        -0.41148E-04
        -0.23587E-04
        -0.18991E-04
        -0.18776E-04
        -0.34684E-04
        -0.22731E-04
         0.12103E-03
         0.38296E-04
         0.12644E-03
         0.93533E-04
         0.56861E-04
         0.88942E-04
         0.63231E-04
         0.10626E-03
         0.10829E-03
        -0.87264E-05
         0.12311E-03
        -0.38489E-04
        -0.12803E-04
         0.19847E-04
         0.29406E-04
         0.16739E-03
         0.14180E-03
         0.17593E-03
         0.14357E-03
         0.46114E-04
         0.26496E-04
        -0.34672E-05
        -0.25122E-04
        -0.11516E-04
         0.14766E-04
         0.28744E-04
         0.31610E-04
         0.43182E-04
         0.11681E-03
         0.12801E-03
         0.13222E-03
         0.14551E-03
         0.16603E-03
         0.17469E-03
         0.15199E-03
         0.12418E-03
         0.11267E-03
         0.41039E-04
         0.65707E-04
         0.25312E-04
         0.10848E-04
        -0.16864E-04
        -0.28421E-04
        -0.28924E-04
        -0.23678E-04
        -0.23394E-04
        -0.16003E-06
         0.24841E-04
         0.23201E-04
         0.41613E-04
         0.55784E-04
         0.80394E-04
         0.10765E-03
         0.12065E-03
         0.13007E-03
         0.12468E-03
         0.13586E-03
         0.14947E-03
         0.15971E-03
         0.14200E-03
         0.12065E-03
         0.10554E-03
         0.91486E-04
         0.10164E-03
         0.87264E-04
         0.72626E-04
         0.72164E-04
         0.75696E-04
         0.64752E-04
         0.10530E-03
         0.12615E-03
         0.95323E-04
         0.11584E-03
         0.11832E-03
         0.11712E-03
         0.95039E-04
         0.13333E-03
         0.13331E-03
         0.70345E-04
         0.91207E-04
         0.79057E-04
         0.71361E-04
         0.86176E-04
         0.62745E-04
         0.72039E-04
         0.60912E-04
         0.65062E-04
         0.11381E-03
         0.62325E-04
         0.13261E-03
         0.12943E-03
         0.12237E-03
         0.10533E-03
         0.68809E-04
         0.59504E-04
         0.72604E-04
         0.62714E-04
         0.78385E-04
         0.72277E-04
         0.75762E-04
         0.14143E-03
         0.13821E-03
         0.12957E-03
         0.12006E-03
         0.10678E-03
         0.85593E-04
         0.60537E-04
         0.53986E-04
         0.45451E-04
         0.48696E-04
         0.43680E-04
         0.40002E-04
         0.40937E-04
         0.41056E-04
         0.52257E-04
         0.84587E-04
         0.73118E-04
         0.90505E-04
         0.98626E-04
         0.12037E-03
         0.13999E-03
         0.14396E-03
         0.15247E-03
         0.14934E-03
         0.13534E-03
         0.12021E-03
         0.10009E-03
         0.86043E-04
         0.70051E-04
         0.48311E-04
         0.38365E-04
         0.48960E-04
         0.42501E-04
         0.26221E-04
         0.11668E-04
        -0.54956E-05
        -0.79258E-05
         0.11487E-04
         0.27970E-04
         0.38030E-04
         0.55263E-04
         0.34460E-04
         0.77672E-04
         0.79015E-04
         0.76276E-04
         0.62355E-04
         0.79198E-04
        -0.67788E-04
        -0.13434E-03
        -0.19814E-04
        -0.19210E-03
        -0.17552E-03
        -0.13250E-03
        -0.24391E-04
        -0.20006E-03
        -0.15999E-03
         0.23250E-03
         0.88083E-04
         0.85131E-04
         0.23469E-03
         0.10067E-03
         0.16313E-03
         0.93422E-04
         0.18456E-03
         0.25043E-03
        -0.13025E-03
         0.24526E-03
        -0.20379E-03
        -0.19164E-03
        -0.12532E-03
        -0.64059E-04
         0.14526E-03
         0.20915E-03
         0.11321E-03
         0.14792E-03
         0.47113E-04
         0.48001E-04
         0.64288E-04
        -0.15129E-03
        -0.13598E-03
        -0.10596E-03
        -0.18580E-04
         0.26347E-04
         0.35052E-04
         0.18637E-03
         0.21640E-03
         0.29210E-03
         0.26396E-03
         0.21139E-03
         0.20609E-03
         0.22815E-03
         0.22015E-03
         0.15302E-03
         0.29254E-04
         0.96132E-04
        -0.48318E-04
        -0.73155E-04
        -0.68546E-04
        -0.12226E-03
        -0.12828E-03
        -0.20193E-03
        -0.16326E-03
        -0.12963E-03
        -0.14107E-04
         0.55818E-04
         0.26878E-04
         0.89463E-04
         0.16044E-03
         0.18920E-03
         0.21135E-03
         0.26215E-03
         0.39972E-03
         0.38269E-03
         0.34678E-03
         0.30879E-03
         0.29453E-03
         0.23553E-03
         0.18118E-03
         0.13882E-03
  
SCALARS                 displacement_z  double 1
LOOKUP_TABLE default
        -0.35940E-02
        -0.31357E-02
        -0.28636E-02
        -0.32050E-02
        -0.35536E-16
        -0.33882E-16
        -0.29171E-16
        -0.30508E-16
        -0.23712E-02
        -0.24905E-02
        -0.23029E-16
        -0.23372E-16
        -0.31517E-02
        -0.35330E-02
        -0.36956E-16
        -0.39361E-16
        -0.38392E-02
        -0.37032E-02
        -0.34614E-16
        -0.36902E-16
        -0.30447E-02
        -0.26547E-02
        -0.26690E-02
        -0.35740E-16
        -0.27415E-16
        -0.28350E-16
        -0.32388E-02
        -0.27604E-02
        -0.36420E-16
        -0.25745E-16
        -0.34948E-02
        -0.37267E-02
        -0.35895E-02
        -0.33023E-16
        -0.33999E-16
        -0.31654E-16
        -0.31242E-02
        -0.32562E-02
        -0.31228E-16
        -0.30300E-16
        -0.25750E-02
        -0.26623E-02
        -0.22125E-16
        -0.19918E-16
        -0.24466E-02
        -0.28450E-02
        -0.23336E-16
        -0.29853E-16
        -0.35858E-02
        -0.34347E-16
        -0.29095E-02
        -0.30747E-16
        -0.33372E-02
        -0.33291E-16
        -0.32698E-02
        -0.30514E-16
        -0.30273E-02
        -0.32111E-02
        -0.27687E-16
        -0.29885E-16
        -0.30297E-02
        -0.27164E-02
        -0.28457E-16
        -0.28142E-16
        -0.30629E-02
        -0.28227E-16
        -0.28401E-02
        -0.28029E-16
        -0.22330E-02
        -0.24523E-02
        -0.21981E-16
        -0.24898E-16
        -0.26222E-02
        -0.27005E-16
        -0.28076E-02
        -0.22183E-16
        -0.27993E-02
        -0.21036E-16
        -0.26876E-02
        -0.21026E-16
        -0.25085E-02
        -0.26396E-02
        -0.18768E-16
        -0.20366E-16
        -0.26880E-02
        -0.19661E-16
        -0.24227E-02
        -0.24288E-16
        -0.23310E-02
        -0.23685E-16
        -0.21577E-02
        -0.23320E-02
        -0.21438E-16
        -0.22736E-16
        -0.24740E-02
        -0.22034E-16
        -0.24988E-02
        -0.22155E-16
        -0.23715E-02
        -0.22631E-16
        -0.21970E-02
        -0.23982E-02
        -0.20960E-16
        -0.22930E-16
        -0.17831E-02
        -0.17266E-02
        -0.14689E-16
        -0.13350E-16
        -0.18399E-02
        -0.14767E-16
        -0.19484E-02
        -0.14823E-16
        -0.19980E-02
        -0.14843E-16
        -0.19850E-02
        -0.13688E-16
        -0.20373E-02
        -0.11710E-16
        -0.20670E-02
        -0.10406E-16
        -0.21208E-02
        -0.10591E-16
        -0.21300E-02
        -0.11697E-16
        -0.20904E-02
        -0.12071E-16
        -0.20523E-02
        -0.10521E-16
        -0.19493E-02
        -0.89357E-17
        -0.18688E-02
        -0.87562E-17
        -0.18259E-02
        -0.10072E-16
        -0.17964E-02
        -0.11790E-16
        -0.18160E-02
        -0.12930E-16
        -0.17658E-02
        -0.13857E-16
        -0.17459E-02
        -0.14417E-16
        -0.17717E-02
        -0.13060E-16
        -0.17829E-02
        -0.11633E-16
        -0.17997E-02
        -0.11814E-16
        -0.17432E-02
        -0.12863E-16
        -0.17386E-02
        -0.13654E-16
        -0.17677E-02
        -0.13010E-16
        -0.17548E-02
        -0.12417E-16
        -0.39453E-02
        -0.36300E-02
        -0.34746E-02
        -0.36791E-02
        -0.31282E-02
        -0.32039E-02
        -0.36065E-02
        -0.38644E-02
        -0.41230E-02
        -0.40061E-02
        -0.35416E-02
        -0.33336E-02
        -0.33103E-02
        -0.36791E-02
        -0.34511E-02
        -0.38796E-02
        -0.40440E-02
        -0.39375E-02
        -0.36213E-02
        -0.37114E-02
        -0.32530E-02
        -0.33516E-02
        -0.31160E-02
        -0.34083E-02
        -0.39257E-02
        -0.34577E-02
        -0.37545E-02
        -0.37020E-02
        -0.35381E-02
        -0.36741E-02
        -0.35500E-02
        -0.33290E-02
        -0.35627E-02
        -0.34082E-02
        -0.30169E-02
        -0.31635E-02
        -0.32834E-02
        -0.34858E-02
        -0.34423E-02
        -0.33232E-02
        -0.32012E-02
        -0.33193E-02
        -0.33783E-02
        -0.30878E-02
        -0.30298E-02
        -0.29050E-02
        -0.30457E-02
        -0.31281E-02
        -0.31374E-02
        -0.30409E-02
        -0.29180E-02
        -0.31120E-02
        -0.26489E-02
        -0.26077E-02
        -0.26845E-02
        -0.28252E-02
        -0.28946E-02
        -0.29141E-02
        -0.30209E-02
        -0.30275E-02
        -0.30339E-02
        -0.29606E-02
        -0.29155E-02
        -0.29503E-02
        -0.28958E-02
        -0.28126E-02
        -0.27183E-02
        -0.26514E-02
        -0.26568E-02
        -0.25745E-02
        -0.25813E-02
        -0.26202E-02
        -0.26111E-02
        -0.26052E-02
        -0.25125E-02
        -0.25330E-02
        -0.26302E-02
        -0.26231E-02
        -0.54023E-02
        -0.49507E-02
        -0.47550E-02
        -0.50689E-02
        -0.42592E-02
        -0.43502E-02
        -0.48797E-02
        -0.52737E-02
        -0.56321E-02
        -0.54678E-02
        -0.47324E-02
        -0.43171E-02
        -0.43398E-02
        -0.49401E-02
        -0.44636E-02
        -0.53325E-02
        -0.55131E-02
        -0.54388E-02
        -0.49673E-02
        -0.50557E-02
        -0.43720E-02
        -0.44532E-02
        -0.42179E-02
        -0.46924E-02
        -0.53528E-02
        -0.47614E-02
        -0.50543E-02
        -0.49773E-02
        -0.47201E-02
        -0.49704E-02
        -0.49114E-02
        -0.45686E-02
        -0.49447E-02
        -0.46964E-02
        -0.40826E-02
        -0.42726E-02
        -0.43755E-02
        -0.45186E-02
        -0.44716E-02
        -0.43137E-02
        -0.41317E-02
        -0.43315E-02
        -0.44438E-02
        -0.41830E-02
        -0.40922E-02
        -0.39112E-02
        -0.41329E-02
        -0.42702E-02
        -0.42950E-02
        -0.41683E-02
        -0.39724E-02
        -0.42160E-02
        -0.35312E-02
        -0.34867E-02
        -0.35233E-02
        -0.36082E-02
        -0.36195E-02
        -0.36489E-02
        -0.38126E-02
        -0.38253E-02
        -0.38012E-02
        -0.37000E-02
        -0.36621E-02
        -0.37281E-02
        -0.37031E-02
        -0.36218E-02
        -0.35058E-02
        -0.34132E-02
        -0.34280E-02
        -0.33572E-02
        -0.33925E-02
        -0.34105E-02
        -0.34009E-02
        -0.34244E-02
        -0.33570E-02
        -0.33912E-02
        -0.34683E-02
        -0.34671E-02
        -0.55813E-02
        -0.52972E-02
        -0.52006E-02
        -0.54061E-02
        -0.48701E-02
        -0.49394E-02
        -0.52089E-02
        -0.54653E-02
        -0.57320E-02
        -0.56151E-02
        -0.50978E-02
        -0.48244E-02
        -0.48481E-02
        -0.52465E-02
        -0.49471E-02
        -0.55716E-02
        -0.56748E-02
        -0.56394E-02
        -0.53305E-02
        -0.53897E-02
        -0.49347E-02
        -0.49917E-02
        -0.48150E-02
        -0.51426E-02
        -0.55611E-02
        -0.51907E-02
        -0.53417E-02
        -0.52912E-02
        -0.51115E-02
        -0.53162E-02
        -0.53183E-02
        -0.50664E-02
        -0.53366E-02
        -0.51579E-02
        -0.47160E-02
        -0.48462E-02
        -0.49037E-02
        -0.49864E-02
        -0.49307E-02
        -0.47948E-02
        -0.46598E-02
        -0.48476E-02
        -0.49679E-02
        -0.47800E-02
        -0.47007E-02
        -0.45571E-02
        -0.47461E-02
        -0.48577E-02
        -0.48639E-02
        -0.47532E-02
        -0.46086E-02
        -0.48206E-02
        -0.42465E-02
        -0.42272E-02
        -0.42111E-02
        -0.42580E-02
        -0.42446E-02
        -0.42746E-02
        -0.44047E-02
        -0.44087E-02
        -0.43785E-02
        -0.42829E-02
        -0.42607E-02
        -0.43529E-02
        -0.43514E-02
        -0.42917E-02
        -0.42019E-02
        -0.41314E-02
        -0.41443E-02
        -0.40482E-02
        -0.41043E-02
        -0.41273E-02
        -0.41016E-02
        -0.41162E-02
        -0.40584E-02
        -0.41190E-02
        -0.41928E-02
        -0.42093E-02
        -0.68632E-02
        -0.64252E-02
        -0.62569E-02
        -0.66025E-02
        -0.57816E-02
        -0.58882E-02
        -0.63181E-02
        -0.67108E-02
        -0.70693E-02
        -0.69026E-02
        -0.61435E-02
        -0.56979E-02
        -0.57549E-02
        -0.63551E-02
        -0.58242E-02
        -0.68250E-02
        -0.69683E-02
        -0.69537E-02
        -0.64764E-02
        -0.65607E-02
        -0.58885E-02
        -0.59418E-02
        -0.57473E-02
        -0.62140E-02
        -0.68145E-02
        -0.62778E-02
        -0.64849E-02
        -0.64144E-02
        -0.61464E-02
        -0.64519E-02
        -0.64757E-02
        -0.60969E-02
        -0.65257E-02
        -0.62579E-02
        -0.55693E-02
        -0.57477E-02
        -0.58246E-02
        -0.58794E-02
        -0.58324E-02
        -0.56679E-02
        -0.54716E-02
        -0.57224E-02
        -0.58915E-02
        -0.56945E-02
        -0.55802E-02
        -0.53919E-02
        -0.56508E-02
        -0.58325E-02
        -0.58581E-02
        -0.57065E-02
        -0.54899E-02
        -0.57436E-02
        -0.49761E-02
        -0.49652E-02
        -0.49386E-02
        -0.49636E-02
        -0.49413E-02
        -0.49761E-02
        -0.50831E-02
        -0.50881E-02
        -0.50609E-02
        -0.49768E-02
        -0.49487E-02
        -0.50471E-02
        -0.50618E-02
        -0.50140E-02
        -0.49407E-02
        -0.48677E-02
        -0.48554E-02
        -0.47582E-02
        -0.48136E-02
        -0.48462E-02
        -0.48393E-02
        -0.48546E-02
        -0.47962E-02
        -0.48551E-02
        -0.49197E-02
        -0.49509E-02
        -0.68118E-02
        -0.66346E-02
        -0.65692E-02
        -0.67599E-02
        -0.62866E-02
        -0.63738E-02
        -0.65544E-02
        -0.67354E-02
        -0.68769E-02
        -0.68307E-02
        -0.64536E-02
        -0.61605E-02
        -0.62079E-02
        -0.65879E-02
        -0.62601E-02
        -0.68397E-02
        -0.68825E-02
        -0.68964E-02
        -0.66868E-02
        -0.67470E-02
        -0.63455E-02
        -0.63854E-02
        -0.62362E-02
        -0.65292E-02
        -0.68295E-02
        -0.65679E-02
        -0.66740E-02
        -0.66288E-02
        -0.64576E-02
        -0.66744E-02
        -0.67164E-02
        -0.64771E-02
        -0.67424E-02
        -0.65809E-02
        -0.61038E-02
        -0.62261E-02
        -0.62746E-02
        -0.63007E-02
        -0.62533E-02
        -0.61153E-02
        -0.59601E-02
        -0.61757E-02
        -0.63345E-02
        -0.61970E-02
        -0.61102E-02
        -0.59583E-02
        -0.61742E-02
        -0.63248E-02
        -0.63294E-02
        -0.62004E-02
        -0.60358E-02
        -0.62468E-02
        -0.56164E-02
        -0.56320E-02
        -0.55719E-02
        -0.55761E-02
        -0.55551E-02
        -0.55719E-02
        -0.56174E-02
        -0.56131E-02
        -0.55962E-02
        -0.55357E-02
        -0.55101E-02
        -0.56157E-02
        -0.56417E-02
        -0.56052E-02
        -0.55726E-02
        -0.55353E-02
        -0.55136E-02
        -0.54256E-02
        -0.54558E-02
        -0.54879E-02
        -0.54905E-02
        -0.54982E-02
        -0.54566E-02
        -0.55124E-02
        -0.55788E-02
        -0.56277E-02
        -0.76723E-02
        -0.73541E-02
        -0.72418E-02
        -0.75405E-02
        -0.69088E-02
        -0.70111E-02
        -0.72779E-02
        -0.75553E-02
        -0.78299E-02
        -0.77034E-02
        -0.71572E-02
        -0.68156E-02
        -0.68609E-02
        -0.73172E-02
        -0.69098E-02
        -0.76784E-02
        -0.77728E-02
        -0.78015E-02
        -0.74348E-02
        -0.75122E-02
        -0.69877E-02
        -0.70314E-02
        -0.68709E-02
        -0.72232E-02
        -0.76635E-02
        -0.72653E-02
        -0.74180E-02
        -0.73657E-02
        -0.71572E-02
        -0.74184E-02
        -0.74492E-02
        -0.71418E-02
        -0.75062E-02
        -0.73001E-02
        -0.67127E-02
        -0.68453E-02
        -0.69129E-02
        -0.69454E-02
        -0.69060E-02
        -0.67733E-02
        -0.66057E-02
        -0.68208E-02
        -0.69812E-02
        -0.68290E-02
        -0.67363E-02
        -0.65805E-02
        -0.68065E-02
        -0.69809E-02
        -0.69954E-02
        -0.68618E-02
        -0.66775E-02
        -0.68865E-02
        -0.62442E-02
        -0.62736E-02
        -0.62152E-02
        -0.62191E-02
        -0.61955E-02
        -0.62044E-02
        -0.62327E-02
        -0.62364E-02
        -0.62321E-02
        -0.61920E-02
        -0.61597E-02
        -0.62487E-02
        -0.62704E-02
        -0.62394E-02
        -0.62142E-02
        -0.61864E-02
        -0.61604E-02
        -0.60861E-02
        -0.60907E-02
        -0.61299E-02
        -0.61562E-02
        -0.61599E-02
        -0.61179E-02
        -0.61453E-02
        -0.62045E-02
        -0.62654E-02
        -0.73644E-02
        -0.72860E-02
        -0.72627E-02
        -0.73752E-02
        -0.71469E-02
        -0.72108E-02
        -0.72460E-02
        -0.73300E-02
        -0.74051E-02
        -0.73820E-02
        -0.72024E-02
        -0.70620E-02
        -0.70894E-02
        -0.72759E-02
        -0.71192E-02
        -0.74093E-02
        -0.74120E-02
        -0.74347E-02
        -0.73497E-02
        -0.73782E-02
        -0.71812E-02
        -0.72084E-02
        -0.71158E-02
        -0.72643E-02
        -0.73857E-02
        -0.72776E-02
        -0.73242E-02
        -0.73001E-02
        -0.72133E-02
        -0.73353E-02
        -0.73482E-02
        -0.72330E-02
        -0.73697E-02
        -0.73071E-02
        -0.70145E-02
        -0.70785E-02
        -0.71225E-02
        -0.71320E-02
        -0.70990E-02
        -0.70213E-02
        -0.69230E-02
        -0.70620E-02
        -0.71729E-02
        -0.70987E-02
        -0.70418E-02
        -0.69365E-02
        -0.70732E-02
        -0.71718E-02
        -0.71686E-02
        -0.70963E-02
        -0.69961E-02
        -0.71297E-02
        -0.67167E-02
        -0.67651E-02
        -0.66941E-02
        -0.66974E-02
        -0.66876E-02
        -0.66852E-02
        -0.66750E-02
        -0.66619E-02
        -0.66607E-02
        -0.66477E-02
        -0.66236E-02
        -0.67017E-02
        -0.67129E-02
        -0.66994E-02
        -0.66972E-02
        -0.67018E-02
        -0.66844E-02
        -0.66228E-02
        -0.65931E-02
        -0.66296E-02
        -0.66651E-02
        -0.66594E-02
        -0.66303E-02
        -0.66422E-02
        -0.67007E-02
        -0.67594E-02
        -0.79089E-02
        -0.77441E-02
        -0.76863E-02
        -0.78383E-02
        -0.75461E-02
        -0.76033E-02
        -0.77082E-02
        -0.78582E-02
        -0.80168E-02
        -0.79453E-02
        -0.76492E-02
        -0.74979E-02
        -0.75268E-02
        -0.77301E-02
        -0.75369E-02
        -0.79162E-02
        -0.79679E-02
        -0.79694E-02
        -0.77948E-02
        -0.78225E-02
        -0.75854E-02
        -0.76020E-02
        -0.75320E-02
        -0.76908E-02
        -0.79003E-02
        -0.77069E-02
        -0.77794E-02
        -0.77497E-02
        -0.76476E-02
        -0.77720E-02
        -0.77662E-02
        -0.76380E-02
        -0.77972E-02
        -0.77229E-02
        -0.74304E-02
        -0.74974E-02
        -0.75514E-02
        -0.75437E-02
        -0.75252E-02
        -0.74673E-02
        -0.73807E-02
        -0.74904E-02
        -0.75744E-02
        -0.75192E-02
        -0.74642E-02
        -0.73668E-02
        -0.74758E-02
        -0.75615E-02
        -0.75676E-02
        -0.75143E-02
        -0.74224E-02
        -0.75312E-02
        -0.72000E-02
        -0.72348E-02
        -0.71934E-02
        -0.72034E-02
        -0.71959E-02
        -0.71958E-02
        -0.71847E-02
        -0.71793E-02
        -0.71796E-02
        -0.71766E-02
        -0.71493E-02
        -0.72122E-02
        -0.72147E-02
        -0.72074E-02
        -0.72059E-02
        -0.72095E-02
        -0.71946E-02
        -0.71511E-02
        -0.71019E-02
        -0.71300E-02
        -0.71725E-02
        -0.71713E-02
        -0.71524E-02
        -0.71410E-02
        -0.71806E-02
        -0.72201E-02
        -0.75827E-02
        -0.75894E-02
        -0.75939E-02
        -0.76151E-02
        -0.76029E-02
        -0.76243E-02
        -0.75743E-02
        -0.75812E-02
        -0.75822E-02
        -0.75856E-02
        -0.75692E-02
        -0.75620E-02
        -0.75735E-02
        -0.75906E-02
        -0.75831E-02
        -0.76166E-02
        -0.75917E-02
        -0.76115E-02
        -0.76202E-02
        -0.76236E-02
        -0.76158E-02
        -0.76228E-02
        -0.75946E-02
        -0.76002E-02
        -0.75912E-02
        -0.75980E-02
        -0.76031E-02
        -0.75992E-02
        -0.75919E-02
        -0.76169E-02
        -0.75998E-02
        -0.75942E-02
        -0.76019E-02
        -0.76091E-02
        -0.75526E-02
        -0.75657E-02
        -0.75919E-02
        -0.75816E-02
        -0.75709E-02
        -0.75528E-02
        -0.75250E-02
        -0.75742E-02
        -0.76134E-02
        -0.75958E-02
        -0.75773E-02
        -0.75381E-02
        -0.75727E-02
        -0.75936E-02
        -0.75791E-02
        -0.75648E-02
        -0.75459E-02
        -0.75899E-02
        -0.74859E-02
        -0.75153E-02
        -0.74849E-02
        -0.74955E-02
        -0.74977E-02
        -0.74978E-02
        -0.74672E-02
        -0.74486E-02
        -0.74463E-02
        -0.74510E-02
        -0.74390E-02
        -0.74867E-02
        -0.74918E-02
        -0.74990E-02
        -0.75133E-02
        -0.75292E-02
        -0.75235E-02
        -0.74914E-02
        -0.74427E-02
        -0.74510E-02
        -0.74719E-02
        -0.74672E-02
        -0.74665E-02
        -0.74592E-02
        -0.74863E-02
        -0.75054E-02
        -0.80431E-02
        -0.79574E-02
        -0.79220E-02
        -0.80018E-02
        -0.78682E-02
        -0.78928E-02
        -0.79364E-02
        -0.80120E-02
        -0.80997E-02
        -0.80544E-02
        -0.79086E-02
        -0.78601E-02
        -0.78724E-02
        -0.79498E-02
        -0.78834E-02
        -0.80445E-02
        -0.80692E-02
        -0.80801E-02
        -0.79786E-02
        -0.79949E-02
        -0.79097E-02
        -0.79166E-02
        -0.78769E-02
        -0.79214E-02
        -0.80316E-02
        -0.79262E-02
        -0.79739E-02
        -0.79652E-02
        -0.79297E-02
        -0.79764E-02
        -0.79503E-02
        -0.78970E-02
        -0.79673E-02
        -0.79325E-02
        -0.78204E-02
        -0.78509E-02
        -0.78884E-02
        -0.78850E-02
        -0.78811E-02
        -0.78674E-02
        -0.78389E-02
        -0.78782E-02
        -0.79060E-02
        -0.78742E-02
        -0.78532E-02
        -0.78123E-02
        -0.78435E-02
        -0.78704E-02
        -0.78662E-02
        -0.78445E-02
        -0.78112E-02
        -0.78556E-02
        -0.77665E-02
        -0.77760E-02
        -0.77755E-02
        -0.77887E-02
        -0.77893E-02
        -0.77958E-02
        -0.77881E-02
        -0.77863E-02
        -0.77873E-02
        -0.77901E-02
        -0.77771E-02
        -0.78103E-02
        -0.78108E-02
        -0.78153E-02
        -0.78155E-02
        -0.78174E-02
        -0.78101E-02
        -0.77835E-02
        -0.77465E-02
        -0.77486E-02
        -0.77653E-02
        -0.77620E-02
        -0.77556E-02
        -0.77427E-02
        -0.77554E-02
        -0.77681E-02
        -0.77977E-02
        -0.78235E-02
        -0.78288E-02
        -0.78293E-02
        -0.78575E-02
        -0.78642E-02
        -0.78154E-02
        -0.78023E-02
        -0.77772E-02
        -0.77920E-02
        -0.78217E-02
        -0.78511E-02
        -0.78471E-02
        -0.78306E-02
        -0.78726E-02
        -0.78291E-02
        -0.77963E-02
        -0.78178E-02
        -0.78421E-02
        -0.78463E-02
        -0.78897E-02
        -0.78988E-02
        -0.78692E-02
        -0.78352E-02
        -0.78107E-02
        -0.78324E-02
        -0.78376E-02
        -0.78491E-02
        -0.78682E-02
        -0.78589E-02
        -0.78295E-02
        -0.78402E-02
        -0.78251E-02
        -0.78332E-02
        -0.78447E-02
        -0.78438E-02
        -0.78597E-02
        -0.78738E-02
        -0.78762E-02
        -0.78776E-02
        -0.78745E-02
        -0.78917E-02
        -0.79031E-02
        -0.78706E-02
        -0.78675E-02
        -0.78576E-02
        -0.78576E-02
        -0.78525E-02
        -0.78361E-02
        -0.78328E-02
        -0.78356E-02
        -0.78486E-02
        -0.78676E-02
        -0.78737E-02
        -0.78772E-02
        -0.78931E-02
        -0.78936E-02
        -0.79034E-02
        -0.79066E-02
        -0.78939E-02
        -0.78886E-02
        -0.78903E-02
        -0.78840E-02
        -0.79159E-02
        -0.79239E-02
        -0.79299E-02
        -0.79336E-02
        -0.79346E-02
        -0.79320E-02
        -0.79073E-02
        -0.78764E-02
        -0.78755E-02
        -0.78744E-02
        -0.78661E-02
        -0.78638E-02
        -0.78560E-02
        -0.78675E-02
        -0.78762E-02
        -0.82129E-02
        -0.81414E-02
        -0.81047E-02
        -0.81740E-02
        -0.80587E-02
        -0.80775E-02
        -0.81276E-02
        -0.81906E-02
        -0.82488E-02
        -0.82201E-02
        -0.81083E-02
        -0.80782E-02
        -0.80775E-02
        -0.81453E-02
        -0.81054E-02
        -0.82159E-02
        -0.82350E-02
        -0.82403E-02
        -0.81624E-02
        -0.81849E-02
        -0.81165E-02
        -0.81323E-02
        -0.80817E-02
        -0.81095E-02
        -0.82119E-02
        -0.81140E-02
        -0.81680E-02
        -0.81698E-02
        -0.81514E-02
        -0.81810E-02
        -0.81376E-02
        -0.80897E-02
        -0.81477E-02
        -0.81097E-02
        -0.80293E-02
        -0.80516E-02
        -0.80848E-02
        -0.81140E-02
        -0.81184E-02
        -0.81117E-02
        -0.80938E-02
        -0.81204E-02
        -0.81360E-02
        -0.80774E-02
        -0.80621E-02
        -0.80362E-02
        -0.80537E-02
        -0.80688E-02
        -0.80602E-02
        -0.80383E-02
        -0.80142E-02
        -0.80480E-02
        -0.80235E-02
        -0.80215E-02
        -0.80368E-02
        -0.80576E-02
        -0.80625E-02
        -0.80789E-02
        -0.80935E-02
        -0.81004E-02
        -0.81035E-02
        -0.80976E-02
        -0.80850E-02
        -0.81109E-02
        -0.81160E-02
        -0.81086E-02
        -0.80988E-02
        -0.80907E-02
        -0.80864E-02
        -0.80575E-02
        -0.80321E-02
        -0.80342E-02
        -0.80398E-02
        -0.80303E-02
        -0.80114E-02
        -0.79970E-02
        -0.80063E-02
        -0.80210E-02
        -0.80233E-02
        -0.80321E-02
        -0.80291E-02
        -0.80385E-02
        -0.80405E-02
        -0.80474E-02
        -0.80246E-02
        -0.80271E-02
        -0.80148E-02
        -0.80253E-02
        -0.80304E-02
        -0.80569E-02
        -0.80462E-02
        -0.80463E-02
        -0.80837E-02
        -0.80527E-02
        -0.80310E-02
        -0.80417E-02
        -0.80538E-02
        -0.80614E-02
        -0.80891E-02
        -0.81049E-02
        -0.80619E-02
        -0.80376E-02
        -0.80378E-02
        -0.80390E-02
        -0.80572E-02
        -0.80699E-02
        -0.80903E-02
        -0.80745E-02
        -0.80426E-02
        -0.80419E-02
        -0.80378E-02
        -0.80329E-02
        -0.80290E-02
        -0.80336E-02
        -0.80525E-02
        -0.80909E-02
        -0.80976E-02
        -0.81033E-02
        -0.81024E-02
        -0.81138E-02
        -0.81161E-02
        -0.80626E-02
        -0.80578E-02
        -0.80436E-02
        -0.80453E-02
        -0.80428E-02
        -0.80294E-02
        -0.80204E-02
        -0.80155E-02
        -0.80310E-02
        -0.80475E-02
        -0.80498E-02
        -0.80612E-02
        -0.80865E-02
        -0.80977E-02
        -0.81203E-02
        -0.81342E-02
        -0.81315E-02
        -0.81295E-02
        -0.81191E-02
        -0.81119E-02
        -0.81455E-02
        -0.81510E-02
        -0.81432E-02
        -0.81371E-02
        -0.81307E-02
        -0.81264E-02
        -0.80916E-02
        -0.80642E-02
        -0.80668E-02
        -0.80675E-02
        -0.80556E-02
        -0.80391E-02
        -0.80312E-02
        -0.80399E-02
        -0.80545E-02
        -0.83582E-02
        -0.82852E-02
        -0.82521E-02
        -0.83176E-02
        -0.82082E-02
        -0.82215E-02
        -0.82740E-02
        -0.83396E-02
        -0.83996E-02
        -0.83732E-02
        -0.82588E-02
        -0.82365E-02
        -0.82296E-02
        -0.82951E-02
        -0.82646E-02
        -0.83606E-02
        -0.83838E-02
        -0.83825E-02
        -0.83051E-02
        -0.83287E-02
        -0.82654E-02
        -0.82878E-02
        -0.82293E-02
        -0.82539E-02
        -0.83618E-02
        -0.82615E-02
        -0.83194E-02
        -0.83242E-02
        -0.83091E-02
        -0.83295E-02
        -0.82879E-02
        -0.82397E-02
        -0.82939E-02
        -0.82522E-02
        -0.81824E-02
        -0.82017E-02
        -0.82312E-02
        -0.82782E-02
        -0.82862E-02
        -0.82798E-02
        -0.82643E-02
        -0.82872E-02
        -0.82997E-02
        -0.82245E-02
        -0.82101E-02
        -0.81844E-02
        -0.82020E-02
        -0.82154E-02
        -0.82040E-02
        -0.81793E-02
        -0.81541E-02
        -0.81886E-02
        -0.81788E-02
        -0.81727E-02
        -0.81923E-02
        -0.82168E-02
        -0.82290E-02
        -0.82534E-02
        -0.82725E-02
        -0.82858E-02
        -0.82934E-02
        -0.82820E-02
        -0.82709E-02
        -0.82948E-02
        -0.82990E-02
        -0.82821E-02
        -0.82671E-02
        -0.82516E-02
        -0.82429E-02
        -0.82120E-02
        -0.81849E-02
        -0.81872E-02
        -0.81884E-02
        -0.81765E-02
        -0.81553E-02
        -0.81419E-02
        -0.81503E-02
        -0.81693E-02
        -0.81984E-02
        -0.81919E-02
        -0.81848E-02
        -0.82059E-02
        -0.81819E-02
        -0.81882E-02
        -0.81825E-02
        -0.81980E-02
        -0.82023E-02
        -0.82063E-02
        -0.81855E-02
        -0.82077E-02
        -0.81960E-02
        -0.82048E-02
        -0.82353E-02
        -0.82191E-02
        -0.82114E-02
        -0.82169E-02
        -0.82131E-02
        -0.82229E-02
        -0.82357E-02
        -0.82532E-02
        -0.82061E-02
        -0.81895E-02
        -0.82115E-02
        -0.81916E-02
        -0.82194E-02
        -0.82325E-02
        -0.82500E-02
        -0.82339E-02
        -0.82011E-02
        -0.81936E-02
        -0.82013E-02
        -0.81917E-02
        -0.81703E-02
        -0.81805E-02
        -0.82007E-02
        -0.82464E-02
        -0.82568E-02
        -0.82644E-02
        -0.82628E-02
        -0.82706E-02
        -0.82685E-02
        -0.82042E-02
        -0.81997E-02
        -0.81833E-02
        -0.81888E-02
        -0.81871E-02
        -0.81742E-02
        -0.81641E-02
        -0.81528E-02
        -0.81705E-02
        -0.81792E-02
        -0.81801E-02
        -0.81947E-02
        -0.82256E-02
        -0.82431E-02
        -0.82694E-02
        -0.82859E-02
        -0.82891E-02
        -0.82903E-02
        -0.82781E-02
        -0.82670E-02
        -0.82965E-02
        -0.83020E-02
        -0.82893E-02
        -0.82774E-02
        -0.82662E-02
        -0.82545E-02
        -0.82172E-02
        -0.81885E-02
        -0.81926E-02
        -0.81952E-02
        -0.81829E-02
        -0.81657E-02
        -0.81582E-02
        -0.81665E-02
        -0.81828E-02
        -0.84329E-02
        -0.83693E-02
        -0.83426E-02
        -0.84005E-02
        -0.83101E-02
        -0.83181E-02
        -0.83619E-02
        -0.84218E-02
        -0.84765E-02
        -0.84582E-02
        -0.83533E-02
        -0.83446E-02
        -0.83328E-02
        -0.83858E-02
        -0.83701E-02
        -0.84370E-02
        -0.84664E-02
        -0.84554E-02
        -0.83957E-02
        -0.84182E-02
        -0.83690E-02
        -0.83900E-02
        -0.83318E-02
        -0.83462E-02
        -0.84472E-02
        -0.83489E-02
        -0.84082E-02
        -0.84129E-02
        -0.84008E-02
        -0.84167E-02
        -0.83691E-02
        -0.83305E-02
        -0.83790E-02
        -0.83478E-02
        -0.82924E-02
        -0.83077E-02
        -0.83321E-02
        -0.83798E-02
        -0.83865E-02
        -0.83853E-02
        -0.83760E-02
        -0.83902E-02
        -0.83998E-02
        -0.83243E-02
        -0.83127E-02
        -0.82915E-02
        -0.83022E-02
        -0.83105E-02
        -0.83020E-02
        -0.82850E-02
        -0.82630E-02
        -0.82902E-02
        -0.82977E-02
        -0.82892E-02
        -0.83167E-02
        -0.83414E-02
        -0.83558E-02
        -0.83797E-02
        -0.83955E-02
        -0.84109E-02
        -0.84150E-02
        -0.84108E-02
        -0.83973E-02
        -0.84198E-02
        -0.84205E-02
        -0.84047E-02
        -0.83874E-02
        -0.83711E-02
        -0.83576E-02
        -0.83267E-02
        -0.82996E-02
        -0.82993E-02
        -0.83026E-02
        -0.82913E-02
        -0.82719E-02
        -0.82592E-02
        -0.82655E-02
        -0.82844E-02
        -0.83056E-02
        -0.82986E-02
        -0.82894E-02
        -0.83146E-02
        -0.82847E-02
        -0.82924E-02
        -0.82885E-02
        -0.83052E-02
        -0.83054E-02
        -0.83146E-02
        -0.82884E-02
        -0.83097E-02
        -0.82988E-02
        -0.83077E-02
        -0.83357E-02
        -0.83205E-02
        -0.83147E-02
        -0.83184E-02
        -0.83181E-02
        -0.83291E-02
        -0.83391E-02
        -0.83568E-02
        -0.83099E-02
        -0.82947E-02
        -0.83182E-02
        -0.82954E-02
        -0.83251E-02
        -0.83363E-02
        -0.83489E-02
        -0.83377E-02
        -0.83027E-02
        -0.82937E-02
        -0.83058E-02
        -0.82983E-02
        -0.82712E-02
        -0.82811E-02
        -0.83022E-02
        -0.83471E-02
        -0.83558E-02
        -0.83626E-02
        -0.83620E-02
        -0.83684E-02
        -0.83698E-02
        -0.83056E-02
        -0.82979E-02
        -0.82806E-02
        -0.82868E-02
        -0.82885E-02
        -0.82769E-02
        -0.82661E-02
        -0.82533E-02
        -0.82726E-02
        -0.82828E-02
        -0.82819E-02
        -0.82997E-02
        -0.83267E-02
        -0.83439E-02
        -0.83706E-02
        -0.83854E-02
        -0.83915E-02
        -0.83877E-02
        -0.83809E-02
        -0.83727E-02
        -0.83961E-02
        -0.84014E-02
        -0.83907E-02
        -0.83785E-02
        -0.83670E-02
        -0.83504E-02
        -0.83150E-02
        -0.82883E-02
        -0.82923E-02
        -0.82988E-02
        -0.82847E-02
        -0.82656E-02
        -0.82581E-02
        -0.82654E-02
        -0.82827E-02
        -0.84674E-02
        -0.84212E-02
        -0.83962E-02
        -0.84378E-02
        -0.83770E-02
        -0.83810E-02
        -0.84122E-02
        -0.84598E-02
        -0.84997E-02
        -0.84905E-02
        -0.84042E-02
        -0.84095E-02
        -0.83994E-02
        -0.84316E-02
        -0.84325E-02
        -0.84676E-02
        -0.84936E-02
        -0.84777E-02
        -0.84426E-02
        -0.84626E-02
        -0.84358E-02
        -0.84528E-02
        -0.84011E-02
        -0.84004E-02
        -0.84816E-02
        -0.83988E-02
        -0.84538E-02
        -0.84594E-02
        -0.84526E-02
        -0.84627E-02
        -0.84093E-02
        -0.83849E-02
        -0.84165E-02
        -0.83959E-02
        -0.83654E-02
        -0.83760E-02
        -0.84000E-02
        -0.84402E-02
        -0.84466E-02
        -0.84481E-02
        -0.84442E-02
        -0.84535E-02
        -0.84604E-02
        -0.83922E-02
        -0.83825E-02
        -0.83674E-02
        -0.83711E-02
        -0.83733E-02
        -0.83645E-02
        -0.83529E-02
        -0.83374E-02
        -0.83567E-02
        -0.83879E-02
        -0.83787E-02
        -0.84024E-02
        -0.84227E-02
        -0.84357E-02
        -0.84577E-02
        -0.84710E-02
        -0.84856E-02
        -0.84905E-02
        -0.84870E-02
        -0.84762E-02
        -0.84961E-02
        -0.84964E-02
        -0.84882E-02
        -0.84720E-02
        -0.84594E-02
        -0.84435E-02
        -0.84117E-02
        -0.83904E-02
        -0.83921E-02
        -0.83916E-02
        -0.83800E-02
        -0.83629E-02
        -0.83497E-02
        -0.83545E-02
        -0.83725E-02
        -0.83712E-02
        -0.83726E-02
        -0.83611E-02
        -0.83751E-02
        -0.83590E-02
        -0.83632E-02
        -0.83636E-02
        -0.83715E-02
        -0.83585E-02
        -0.83691E-02
        -0.83644E-02
        -0.83892E-02
        -0.83757E-02
        -0.83781E-02
        -0.84153E-02
        -0.83828E-02
        -0.83621E-02
        -0.83754E-02
        -0.83828E-02
        -0.83887E-02
        -0.84186E-02
        -0.84345E-02
        -0.83887E-02
        -0.83688E-02
        -0.83725E-02
        -0.83697E-02
        -0.83906E-02
        -0.84050E-02
        -0.84222E-02
        -0.84036E-02
        -0.83705E-02
        -0.83669E-02
        -0.83666E-02
        -0.83583E-02
        -0.83454E-02
        -0.83548E-02
        -0.83776E-02
        -0.84243E-02
        -0.84338E-02
        -0.84383E-02
        -0.84343E-02
        -0.84451E-02
        -0.84478E-02
        -0.83820E-02
        -0.83725E-02
        -0.83540E-02
        -0.83581E-02
        -0.83573E-02
        -0.83461E-02
        -0.83371E-02
        -0.83267E-02
        -0.83419E-02
        -0.83576E-02
        -0.83592E-02
        -0.83735E-02
        -0.84006E-02
        -0.84146E-02
        -0.84397E-02
        -0.84564E-02
        -0.84649E-02
        -0.84598E-02
        -0.84481E-02
        -0.84373E-02
        -0.84677E-02
        -0.84737E-02
        -0.84690E-02
        -0.84563E-02
        -0.84410E-02
        -0.84230E-02
        -0.83886E-02
        -0.83646E-02
        -0.83740E-02
        -0.83795E-02
        -0.83684E-02
        -0.83513E-02
        -0.83416E-02
        -0.83449E-02
        -0.83603E-02
        -0.84619E-02
        -0.84375E-02
        -0.84154E-02
        -0.84396E-02
        -0.84119E-02
        -0.84097E-02
        -0.84351E-02
        -0.84584E-02
        -0.84642E-02
        -0.84652E-02
        -0.84372E-02
        -0.84625E-02
        -0.84491E-02
        -0.84535E-02
        -0.84799E-02
        -0.84557E-02
        -0.84576E-02
        -0.84630E-02
        -0.84545E-02
        -0.84670E-02
        -0.84858E-02
        -0.84984E-02
        -0.84558E-02
        -0.84286E-02
        -0.84598E-02
        -0.84209E-02
        -0.84678E-02
        -0.84763E-02
        -0.84836E-02
        -0.84748E-02
        -0.84218E-02
        -0.84131E-02
        -0.84194E-02
        -0.84010E-02
        -0.84073E-02
        -0.84131E-02
        -0.84417E-02
        -0.84871E-02
        -0.84994E-02
        -0.85026E-02
        -0.85018E-02
        -0.85090E-02
        -0.85111E-02
        -0.84442E-02
        -0.84319E-02
        -0.84179E-02
        -0.84130E-02
        -0.84096E-02
        -0.83946E-02
        -0.83821E-02
        -0.83779E-02
        -0.83870E-02
        -0.84523E-02
        -0.84445E-02
        -0.84691E-02
        -0.84930E-02
        -0.85070E-02
        -0.85222E-02
        -0.85264E-02
        -0.85480E-02
        -0.85602E-02
        -0.85495E-02
        -0.85354E-02
        -0.85608E-02
        -0.85644E-02
        -0.85594E-02
        -0.85475E-02
        -0.85317E-02
        -0.85124E-02
        -0.84849E-02
        -0.84598E-02
        -0.84613E-02
        -0.84618E-02
        -0.84535E-02
        -0.84445E-02
        -0.84307E-02
        -0.84280E-02
        -0.84398E-02
        -0.83213E-02
        -0.83790E-02
        -0.83628E-02
        -0.83655E-02
        -0.83857E-02
        -0.83906E-02
        -0.83988E-02
        -0.83611E-02
        -0.82817E-02
        -0.83394E-02
        -0.84149E-02
        -0.84555E-02
        -0.84422E-02
        -0.84113E-02
        -0.84754E-02
        -0.83737E-02
        -0.83201E-02
        -0.83325E-02
        -0.84127E-02
        -0.84093E-02
        -0.84703E-02
        -0.84890E-02
        -0.84494E-02
        -0.84180E-02
        -0.83597E-02
        -0.84112E-02
        -0.84192E-02
        -0.84407E-02
        -0.84774E-02
        -0.84355E-02
        -0.83815E-02
        -0.84002E-02
        -0.83709E-02
        -0.83789E-02
        -0.83850E-02
        -0.83935E-02
        -0.84296E-02
        -0.84850E-02
        -0.84997E-02
        -0.85116E-02
        -0.85124E-02
        -0.85197E-02
        -0.85140E-02
        -0.84424E-02
        -0.84218E-02
        -0.84023E-02
        -0.83993E-02
        -0.83907E-02
        -0.83674E-02
        -0.83622E-02
        -0.83662E-02
        -0.83780E-02
        -0.84233E-02
        -0.84241E-02
        -0.84471E-02
        -0.84827E-02
        -0.84910E-02
        -0.85075E-02
        -0.85205E-02
        -0.85314E-02
        -0.85277E-02
        -0.85113E-02
        -0.84958E-02
        -0.85226E-02
        -0.85401E-02
        -0.85380E-02
        -0.85256E-02
        -0.85054E-02
        -0.84883E-02
        -0.84497E-02
        -0.84285E-02
        -0.84467E-02
        -0.84546E-02
        -0.84398E-02
        -0.84195E-02
        -0.84057E-02
        -0.84118E-02
        -0.84271E-02
        -0.82684E-02
        -0.83686E-02
        -0.83555E-02
        -0.83294E-02
        -0.84317E-02
        -0.84375E-02
        -0.84167E-02
        -0.83843E-02
        -0.82567E-02
        -0.83943E-02
        -0.84394E-02
        -0.84638E-02
        -0.84555E-02
        -0.84485E-02
        -0.84818E-02
        -0.83652E-02
        -0.83694E-02
        -0.82575E-02
        -0.84514E-02
        -0.84707E-02
        -0.84784E-02
        -0.84995E-02
        -0.84513E-02
        -0.84333E-02
        -0.84321E-02
        -0.84154E-02
        -0.84660E-02
        -0.84753E-02
        -0.84898E-02
        -0.84871E-02
        -0.83779E-02
        -0.84073E-02
        -0.83707E-02
        -0.83954E-02
        -0.84382E-02
        -0.84264E-02
        -0.84501E-02
        -0.84907E-02
        -0.84957E-02
        -0.85024E-02
        -0.85127E-02
        -0.85106E-02
        -0.85134E-02
        -0.84423E-02
        -0.84394E-02
        -0.84459E-02
        -0.84377E-02
        -0.84283E-02
        -0.84096E-02
        -0.84032E-02
        -0.84112E-02
        -0.84193E-02
        -0.85278E-02
        -0.85343E-02
        -0.85423E-02
        -0.85518E-02
        -0.85412E-02
        -0.85705E-02
        -0.85874E-02
        -0.86095E-02
        -0.86189E-02
        -0.86127E-02
        -0.85986E-02
        -0.86174E-02
        -0.86303E-02
        -0.86345E-02
        -0.86235E-02
        -0.85986E-02
        -0.85765E-02
        -0.85421E-02
        -0.85151E-02
        -0.85239E-02
        -0.85251E-02
        -0.85136E-02
        -0.85107E-02
        -0.85101E-02
        -0.85099E-02
        -0.85279E-02
        -0.83102E-02
        -0.84144E-02
        -0.84230E-02
        -0.83788E-02
        -0.83968E-02
        -0.84274E-02
        -0.83415E-02
        -0.82074E-02
        -0.81017E-02
        -0.80531E-02
        -0.83375E-02
        -0.84516E-02
        -0.84535E-02
        -0.83021E-02
        -0.84550E-02
        -0.82776E-02
        -0.80109E-02
        -0.82831E-02
        -0.82646E-02
        -0.81743E-02
        -0.84575E-02
        -0.84309E-02
        -0.84733E-02
        -0.83756E-02
        -0.80326E-02
        -0.84166E-02
        -0.82828E-02
        -0.82964E-02
        -0.84146E-02
        -0.82611E-02
        -0.84315E-02
        -0.84439E-02
        -0.83644E-02
        -0.83296E-02
        -0.83638E-02
        -0.83977E-02
        -0.84597E-02
        -0.84658E-02
        -0.85005E-02
        -0.85257E-02
        -0.85430E-02
        -0.85526E-02
        -0.84994E-02
        -0.84701E-02
        -0.84478E-02
        -0.83876E-02
        -0.84042E-02
        -0.84126E-02
        -0.83991E-02
        -0.83647E-02
        -0.83559E-02
        -0.83789E-02
        -0.84204E-02
        -0.84312E-02
        -0.84266E-02
        -0.84607E-02
        -0.84935E-02
        -0.85421E-02
        -0.85582E-02
        -0.85418E-02
        -0.85650E-02
        -0.85724E-02
        -0.85379E-02
        -0.85729E-02
        -0.85728E-02
        -0.85886E-02
        -0.85934E-02
        -0.85325E-02
        -0.84977E-02
        -0.84764E-02
        -0.83870E-02
        -0.84090E-02
        -0.84237E-02
        -0.84422E-02
        -0.84659E-02
        -0.84526E-02
        -0.84652E-02
        -0.84580E-02
  
SCALARS                     velocity_x  double 1
LOOKUP_TABLE default
         0.51357E+02
         0.50898E+02
         0.97007E+02
         0.72457E+02
        -0.54719E+00
        -0.23039E+02
        -0.19264E+02
        -0.15001E+02
         0.51979E+02
         0.97758E+02
        -0.56976E+01
        -0.27912E+02
         0.20244E+02
         0.94764E+01
         0.16665E+02
        -0.20457E+02
        -0.24738E+02
         0.11146E+02
        -0.46246E+01
         0.34941E+01
         0.31699E+02
         0.27084E+02
         0.28156E+02
        -0.23289E+02
        -0.29582E+01
        -0.77735E+01
         0.25153E+02
        -0.15884E+02
         0.10492E+02
        -0.29095E+01
        -0.50116E+02
        -0.34899E+02
         0.96410E+01
         0.21317E+02
         0.15937E+02
        -0.10325E+02
        -0.61594E+02
        -0.50562E+02
        -0.58333E+01
         0.22198E+02
        -0.66995E+02
        -0.68913E+02
         0.24353E+02
         0.19157E+02
        -0.37420E+02
        -0.42087E+02
        -0.68627E+01
         0.44520E+02
        -0.26223E+02
         0.14080E+02
        -0.56131E+02
        -0.36032E+01
        -0.98898E+01
        -0.35556E+01
        -0.40685E+02
         0.11423E+02
        -0.33185E+02
        -0.48776E+02
         0.21702E+02
         0.42469E+01
        -0.58751E+01
        -0.48963E+02
         0.12898E+02
         0.45242E+01
         0.54533E+02
        -0.13199E+02
         0.17871E+02
        -0.10135E+02
         0.41192E+02
         0.58232E+02
        -0.43838E+02
         0.27761E+01
         0.46548E+02
        -0.25951E+02
         0.12018E+02
         0.22140E+01
        -0.29946E+02
         0.12421E+02
        -0.40174E+02
         0.53080E+01
        -0.31163E+02
        -0.81426E+02
         0.13389E+02
         0.17966E+02
        -0.58979E+02
         0.25136E+02
        -0.44964E+02
         0.14933E+02
        -0.30876E+02
         0.17694E+02
         0.25804E+01
        -0.14322E+02
         0.38173E+00
         0.10881E+02
        -0.96841E+01
        -0.14412E+02
         0.51266E+02
        -0.26657E+01
         0.56552E+02
        -0.16081E+02
         0.37892E+02
         0.54755E+02
        -0.10914E+02
        -0.15356E+02
         0.11286E+02
         0.65887E+01
         0.54606E+01
        -0.10434E+02
        -0.24138E+01
        -0.10594E+02
         0.26168E+02
        -0.71102E+01
         0.12911E+02
        -0.62114E+01
         0.16649E+02
        -0.44824E+01
         0.11014E+02
        -0.25145E+01
        -0.18992E+01
         0.91548E+00
        -0.52246E+01
         0.39507E+01
        -0.17368E+02
         0.12098E+02
        -0.91674E+01
         0.11022E+02
        -0.22327E+02
         0.15995E+02
        -0.24758E+02
         0.16752E+02
        -0.38996E+02
         0.16867E+02
        -0.30036E+02
         0.14735E+02
        -0.32429E+02
         0.13949E+02
        -0.25989E+02
         0.13236E+02
         0.85621E+01
         0.10396E+01
        -0.22976E+02
         0.42860E+01
        -0.79775E+01
         0.41049E+01
         0.11298E+02
        -0.22172E+01
         0.10497E+01
        -0.36885E+01
         0.29774E+01
        -0.21002E+01
        -0.65717E+01
         0.10942E+00
        -0.35304E+01
        -0.71729E+01
         0.17220E+02
        -0.78211E+01
        -0.20382E+02
        -0.55872E+02
        -0.74054E+02
        -0.19009E+02
        -0.12280E+03
        -0.48096E+02
        -0.33123E+02
        -0.24685E+02
        -0.30081E+02
         0.25827E+02
        -0.23369E+02
        -0.25452E+01
        -0.30802E+02
        -0.11465E+01
        -0.13749E+02
         0.12732E+02
         0.64131E+02
        -0.15467E+02
         0.54796E+02
         0.43992E+02
         0.55468E+02
         0.59233E+02
         0.49157E+02
         0.64944E+02
         0.28235E+02
         0.75773E+02
        -0.80470E+01
         0.24771E+02
         0.61841E+02
         0.30158E+02
         0.71751E+01
         0.35053E+02
        -0.47617E+01
        -0.81032E+02
        -0.30613E+02
        -0.65485E+02
        -0.35514E+02
         0.15606E+02
         0.20270E+02
         0.45271E+02
         0.30374E+02
         0.60827E+02
         0.76680E+02
         0.39381E+01
         0.38409E+02
         0.92684E+01
         0.23629E+02
        -0.29398E+02
        -0.29367E+02
        -0.44368E+02
        -0.36523E+02
        -0.71120E+02
         0.16906E+02
        -0.60386E+01
        -0.14707E+02
        -0.57663E+01
        -0.19127E+02
        -0.16324E+02
        -0.81341E+01
        -0.16013E+00
         0.74940E+01
         0.14802E+02
         0.14037E+02
         0.20995E+02
         0.26763E+02
         0.41544E+02
         0.28598E+02
         0.37524E+02
         0.25058E+02
        -0.23855E+01
         0.15048E+02
         0.34678E+01
        -0.33125E+01
         0.19709E+00
        -0.58084E+01
         0.15991E+02
         0.51961E+01
        -0.67393E+01
         0.43732E+02
         0.78224E+02
         0.94000E+02
         0.80815E+02
         0.46438E+02
         0.97307E+02
         0.57718E+02
         0.15512E+02
        -0.35052E+02
         0.68769E+00
        -0.92776E+01
         0.17030E+02
         0.21611E+02
         0.24739E+02
         0.24611E+02
        -0.45596E+02
        -0.16407E+02
        -0.14141E+01
        -0.56505E+02
        -0.58098E+02
        -0.63377E+02
        -0.70010E+02
        -0.42120E+02
        -0.90845E+02
        -0.41374E+02
        -0.54150E+02
        -0.45464E+01
        -0.14172E+02
        -0.59785E+02
        -0.59273E+02
        -0.18436E+02
        -0.49291E+02
         0.45141E+02
         0.74552E+02
         0.71278E+02
         0.49783E+02
         0.38488E+02
        -0.15264E+02
        -0.39685E+02
        -0.30854E+02
        -0.48389E+02
        -0.58826E+02
        -0.73614E+02
        -0.37298E+02
         0.48453E+01
        -0.57886E+02
         0.68009E+01
         0.50851E+01
         0.31164E+02
         0.57956E+02
         0.44086E+02
         0.44590E+02
        -0.17299E+02
         0.18014E+02
         0.87800E+01
         0.20714E+02
         0.14010E+02
         0.23112E+02
         0.12310E+01
         0.44524E+01
        -0.94988E+01
        -0.15839E+02
        -0.82022E+01
        -0.19065E+02
        -0.28573E+02
        -0.39593E+02
        -0.28683E+02
        -0.33464E+02
        -0.13292E+02
        -0.68455E+01
        -0.32586E+01
         0.34089E+01
        -0.21781E+01
         0.91863E+01
         0.10170E+01
        -0.15645E+02
         0.79616E+01
         0.36530E+01
        -0.35602E+02
        -0.49404E+02
        -0.11793E+03
        -0.52004E+02
        -0.82467E+02
        -0.50229E+02
        -0.17014E+02
        -0.16627E+02
         0.52524E+01
         0.10747E+02
        -0.33346E+02
        -0.16746E+02
        -0.30180E+02
        -0.35967E+00
         0.78765E+00
         0.29807E+02
         0.50639E+02
        -0.19119E+01
         0.65942E+02
         0.62264E+02
         0.53459E+02
         0.63412E+02
         0.52504E+02
         0.53320E+02
         0.12334E+02
         0.46705E+02
        -0.54116E+01
         0.34662E+02
         0.50220E+02
         0.50675E+02
         0.16745E+02
         0.41975E+02
        -0.27813E+02
        -0.79496E+02
        -0.21322E+02
        -0.52433E+02
        -0.44425E+02
         0.23872E+01
         0.31557E+02
         0.47204E+02
         0.38118E+02
         0.67228E+02
         0.63943E+02
         0.30954E+02
         0.55436E+02
        -0.95011E+01
         0.18007E+02
        -0.10094E+02
        -0.39460E+02
        -0.42565E+02
        -0.28595E+02
        -0.66054E+02
        -0.76536E+01
         0.21387E+01
        -0.49247E+01
        -0.22623E+02
        -0.99547E+01
        -0.17021E+02
        -0.87375E+01
         0.10140E+01
         0.59434E+01
         0.18529E+02
         0.12028E+02
         0.20685E+02
         0.37205E+02
         0.36736E+02
         0.37843E+02
         0.28702E+02
         0.19970E+02
        -0.97654E+01
         0.28637E+02
        -0.54940E+01
         0.28810E+01
        -0.67687E+01
        -0.36737E+00
         0.53149E+01
         0.10862E+02
        -0.24538E+02
         0.49197E+02
         0.88915E+02
         0.10278E+03
         0.73560E+02
         0.68527E+02
         0.75405E+02
         0.38439E+02
         0.42797E+01
        -0.29639E+02
         0.23019E+01
         0.41888E+01
         0.10962E+02
         0.26649E+02
         0.36994E+02
         0.51730E+01
        -0.45207E+02
        -0.36290E+02
        -0.65849E+01
        -0.45218E+02
        -0.74480E+02
        -0.55062E+02
        -0.70750E+02
        -0.53459E+02
        -0.69930E+02
        -0.14386E+02
        -0.59886E+02
        -0.13847E+02
        -0.27978E+02
        -0.45495E+02
        -0.75387E+02
        -0.10754E+02
        -0.36845E+02
         0.28452E+02
         0.99067E+02
         0.49617E+02
         0.44518E+02
         0.25677E+02
        -0.69795E+01
        -0.28341E+02
        -0.38170E+02
        -0.67067E+02
        -0.49941E+02
        -0.58207E+02
        -0.50601E+02
        -0.18860E+01
        -0.43694E+02
        -0.79150E+01
         0.95347E+01
         0.28243E+02
         0.57720E+02
         0.34802E+02
         0.47363E+02
        -0.25010E+01
         0.84347E+01
         0.13881E+02
         0.24056E+02
         0.22403E+02
         0.15617E+02
         0.97998E+01
         0.93929E+00
        -0.65429E+01
        -0.17433E+02
        -0.81804E+00
        -0.23324E+02
        -0.32095E+02
        -0.35127E+02
        -0.31134E+02
        -0.27798E+02
        -0.67811E+01
        -0.11559E+02
         0.56027E+00
        -0.27809E+01
         0.39590E+01
         0.34771E+01
         0.49215E+01
        -0.11316E+02
         0.45791E+01
         0.14064E+02
        -0.49398E+02
        -0.48272E+02
        -0.91266E+02
        -0.64102E+02
        -0.72471E+02
        -0.62171E+02
        -0.14406E+02
        -0.24656E+02
         0.70709E+01
         0.12017E+02
        -0.21960E+02
        -0.29499E+02
        -0.31651E+02
        -0.39292E+01
         0.64037E+01
         0.54418E+02
         0.60082E+02
        -0.10265E+02
         0.55381E+02
         0.43241E+02
         0.67986E+02
         0.72742E+02
         0.65013E+02
         0.44925E+02
         0.24050E+02
         0.36752E+02
        -0.11122E+02
         0.31597E+02
         0.48032E+02
         0.49488E+02
         0.17199E+02
         0.39530E+02
        -0.36290E+02
        -0.71478E+02
        -0.50458E+02
        -0.51976E+02
        -0.48649E+02
         0.11582E+02
         0.23653E+02
         0.57955E+02
         0.51704E+02
         0.57865E+02
         0.74486E+02
         0.40837E+02
         0.50705E+02
         0.19896E+02
         0.31859E+01
        -0.95568E+01
        -0.37394E+02
        -0.30138E+02
        -0.57659E+02
        -0.58930E+02
         0.81327E+01
        -0.10756E+02
        -0.21443E+02
        -0.73080E+01
        -0.29311E+02
        -0.25403E+01
        -0.15314E+02
         0.19311E+01
         0.69116E+01
         0.18769E+02
         0.11227E+02
         0.29234E+02
         0.35101E+02
         0.38024E+02
         0.34308E+02
         0.24093E+02
         0.22275E+02
        -0.10346E+02
         0.18321E+02
        -0.16302E+01
         0.27010E+01
        -0.48433E+01
        -0.93857E+01
         0.20966E+02
        -0.56109E+01
        -0.13032E+02
         0.29321E+02
         0.83023E+02
         0.89515E+02
         0.56394E+02
         0.78053E+02
         0.73373E+02
         0.30357E+02
         0.80334E+01
        -0.14120E+02
         0.52560E+01
         0.92889E+01
         0.27168E+02
         0.38926E+02
         0.14379E+02
        -0.63846E+01
        -0.37322E+02
        -0.66169E+02
         0.41253E+01
        -0.26995E+02
        -0.41714E+02
        -0.67993E+02
        -0.88188E+02
        -0.64667E+02
        -0.69307E+02
        -0.11414E+02
        -0.67493E+02
        -0.20623E+00
        -0.20943E+02
        -0.54510E+02
        -0.65663E+02
        -0.72572E+01
        -0.30633E+02
         0.29191E+02
         0.10243E+03
         0.55459E+02
         0.56472E+02
         0.33635E+02
        -0.98801E+01
        -0.24575E+02
        -0.55309E+02
        -0.47751E+02
        -0.50993E+02
        -0.72342E+02
        -0.48708E+02
        -0.14722E+02
        -0.38343E+02
        -0.47026E+01
         0.11237E+02
         0.11671E+02
         0.70754E+02
         0.27410E+02
         0.58836E+02
        -0.27484E+01
         0.11045E+02
         0.10460E+02
         0.27899E+02
         0.10167E+02
         0.18301E+02
         0.72461E+01
         0.61844E+01
        -0.12384E+02
        -0.10165E+02
        -0.14944E+02
        -0.22920E+02
        -0.31102E+02
        -0.31106E+02
        -0.24990E+02
        -0.23326E+02
        -0.20572E+01
        -0.17389E+02
         0.33572E+01
        -0.66117E+01
         0.51473E+01
         0.36579E+01
         0.94656E+01
        -0.16115E+02
         0.13542E+02
         0.51788E+01
        -0.28667E+02
        -0.34617E+02
        -0.88385E+02
        -0.67329E+02
        -0.64997E+02
        -0.80088E+02
        -0.30867E+02
        -0.78197E+01
         0.28250E+02
         0.32855E+01
        -0.22681E+02
        -0.35552E+02
        -0.53753E+02
         0.10355E+02
         0.34007E+01
         0.48147E+02
         0.25195E+02
         0.70227E+01
         0.39386E+02
         0.33981E+02
         0.10154E+03
         0.89173E+02
         0.87575E+02
         0.45147E+02
         0.21174E+02
         0.33503E+02
        -0.18789E+02
         0.12751E+02
         0.76003E+02
         0.34672E+02
         0.18602E+02
         0.42777E+02
        -0.34769E+02
        -0.79921E+02
        -0.68747E+02
        -0.69873E+02
        -0.59916E+02
         0.22548E+02
         0.36094E+02
         0.43482E+02
         0.54403E+02
         0.67613E+02
         0.10087E+03
         0.61364E+02
         0.54912E+02
         0.18477E+02
         0.22737E+00
        -0.31651E+01
        -0.45000E+02
        -0.39699E+02
        -0.52883E+02
        -0.69765E+02
         0.39498E+01
        -0.14907E+02
        -0.21496E+02
        -0.50940E+01
        -0.20079E+02
        -0.71544E+01
        -0.10214E+02
        -0.36669E+01
         0.97290E+01
         0.21429E+02
         0.16500E+02
         0.29069E+02
         0.35907E+02
         0.35263E+02
         0.29286E+02
         0.18848E+02
         0.10361E+02
         0.78806E+01
         0.95054E+01
         0.68971E+01
        -0.30560E+01
        -0.17556E+01
        -0.15691E+02
         0.19526E+02
        -0.11573E+02
        -0.10756E+02
         0.20335E+02
         0.57264E+02
         0.78805E+02
         0.38968E+02
         0.93003E+02
         0.68504E+02
         0.12652E+02
         0.92455E+00
        -0.88929E+01
         0.21446E+00
         0.66751E+01
         0.48955E+02
         0.53424E+02
         0.99321E+01
        -0.14278E+02
        -0.34970E+02
        -0.49782E+02
         0.44072E+01
        -0.19050E+02
        -0.16568E+02
        -0.82601E+02
        -0.97993E+02
        -0.84435E+02
        -0.53427E+02
        -0.25225E+00
        -0.53071E+02
         0.84562E+01
        -0.15254E+02
        -0.34798E+02
        -0.50761E+02
        -0.13173E+02
        -0.30965E+02
         0.34515E+02
         0.78597E+02
         0.57029E+02
         0.72206E+02
         0.53179E+02
        -0.13214E+02
        -0.29738E+02
        -0.66163E+02
        -0.39491E+02
        -0.84177E+02
        -0.80792E+02
        -0.55709E+02
        -0.27425E+02
        -0.33810E+02
         0.86919E-01
         0.14372E+02
         0.14786E+02
         0.65849E+02
         0.53271E+02
         0.59957E+02
         0.16504E+02
         0.27650E+01
         0.56071E+01
         0.29382E+02
         0.44715E+01
         0.16350E+02
         0.73500E+01
         0.59612E+01
        -0.14117E+02
        -0.13471E+02
        -0.19224E+02
        -0.28431E+02
        -0.35274E+02
        -0.31974E+02
        -0.29838E+02
        -0.15754E+02
        -0.96744E+01
        -0.14757E+02
        -0.58106E+01
        -0.89333E+00
        -0.51570E+01
         0.21137E+02
        -0.38735E+01
         0.89281E+00
        -0.74073E+00
         0.27960E+02
        -0.20107E+02
        -0.51311E+02
        -0.76019E+02
        -0.54854E+02
        -0.70374E+02
        -0.74690E+02
        -0.11440E+01
        -0.95473E+01
         0.17621E+02
        -0.17852E+02
         0.15781E+01
        -0.31015E+02
        -0.58284E+02
         0.44765E+01
        -0.11025E+02
         0.36965E+02
         0.46643E+02
        -0.96395E+00
         0.31081E+02
         0.26343E+02
         0.93769E+02
         0.88644E+02
         0.80828E+02
         0.36675E+02
         0.34183E+02
         0.55178E+02
        -0.12988E+02
         0.56532E+01
         0.43076E+02
         0.30937E+02
         0.80000E+01
         0.44100E+02
        -0.22150E+02
        -0.84410E+02
        -0.73954E+02
        -0.66769E+02
        -0.65064E+02
         0.24943E+02
         0.41828E+02
         0.48453E+02
         0.86872E+02
         0.62993E+02
         0.10286E+03
         0.58717E+02
         0.45062E+02
         0.17617E+02
         0.21571E+01
        -0.24230E+01
        -0.41409E+02
        -0.53722E+02
        -0.48545E+02
        -0.48676E+02
        -0.76537E+01
        -0.28005E+02
        -0.29663E+02
        -0.69846E+01
        -0.23635E+02
        -0.11682E+02
        -0.11258E+02
         0.75520E+00
         0.11911E+02
         0.23305E+02
         0.11949E+02
         0.35912E+02
         0.40260E+02
         0.41721E+02
         0.30236E+02
         0.22921E+02
         0.15577E+02
         0.14971E+02
         0.13847E+02
         0.92462E+01
        -0.92589E+01
        -0.25296E+01
        -0.13092E+02
        -0.27533E+00
        -0.25052E+02
        -0.12536E+02
         0.31137E+02
         0.48392E+02
         0.79288E+02
         0.48945E+02
         0.78485E+02
         0.56711E+02
         0.45933E+01
         0.84567E+01
        -0.54869E+01
         0.34435E+01
        -0.67409E+01
         0.37612E+02
         0.42889E+02
         0.15993E+02
         0.29218E+01
        -0.43418E+02
        -0.55200E+02
         0.53367E+01
        -0.26169E+02
        -0.27495E+02
        -0.69484E+02
        -0.95161E+02
        -0.68439E+02
        -0.38995E+02
        -0.11831E+02
        -0.43060E+02
         0.92501E+01
        -0.89724E+01
        -0.23628E+02
        -0.41482E+02
        -0.15423E+02
        -0.37801E+02
         0.39482E+02
         0.88636E+02
         0.36992E+02
         0.77515E+02
         0.54495E+02
        -0.26958E+02
        -0.27555E+02
        -0.57560E+02
        -0.72123E+02
        -0.75543E+02
        -0.69164E+02
        -0.57232E+02
        -0.39107E+02
        -0.88686E+01
        -0.81779E+00
         0.26969E+01
         0.30041E+02
         0.60689E+02
         0.14480E+02
         0.46130E+02
         0.29112E+02
         0.34741E+02
         0.27445E+02
         0.20183E+02
         0.23934E+02
         0.17676E+02
         0.12581E+02
         0.75280E+00
        -0.11983E+02
        -0.25563E+02
        -0.18953E+02
        -0.35403E+02
        -0.42836E+02
        -0.44327E+02
        -0.28332E+02
        -0.26322E+02
        -0.13314E+02
        -0.16193E+02
        -0.21255E+02
        -0.46949E+01
         0.11596E+02
         0.74821E+01
         0.95014E+01
         0.28210E+02
         0.28535E+02
         0.18429E+02
        -0.24607E+02
        -0.65583E+02
        -0.78289E+02
        -0.54908E+02
        -0.54646E+02
        -0.60454E+02
        -0.27652E+01
        -0.58206E+01
         0.17943E+02
        -0.87188E+01
         0.16843E+01
        -0.24780E+02
        -0.38017E+02
        -0.82114E+01
        -0.81414E+01
         0.36051E+02
         0.49074E+02
        -0.24234E+01
         0.32036E+02
         0.37113E+02
         0.69893E+02
         0.72190E+02
         0.64193E+02
         0.30796E+02
         0.26915E+02
         0.49926E+02
        -0.54348E+01
         0.10876E+02
         0.22509E+02
         0.30974E+02
         0.78436E+01
         0.36847E+02
        -0.22485E+02
        -0.91455E+02
        -0.34972E+02
        -0.50566E+02
        -0.45014E+02
         0.25984E+02
         0.39702E+02
         0.41167E+02
         0.88934E+02
         0.66994E+02
         0.79133E+02
         0.51289E+02
         0.38198E+02
         0.41678E+01
         0.56910E+01
        -0.30504E+01
        -0.36815E+02
        -0.48827E+02
        -0.16373E+01
        -0.30644E+02
        -0.36267E+02
        -0.38141E+02
        -0.38805E+02
        -0.22226E+02
        -0.27619E+02
        -0.15851E+02
        -0.12923E+02
         0.44938E+00
         0.15868E+02
         0.28418E+02
         0.20924E+02
         0.34055E+02
         0.44986E+02
         0.47113E+02
         0.31578E+02
         0.27284E+02
         0.18585E+02
         0.18990E+02
         0.26851E+02
         0.50459E+01
        -0.11993E+02
        -0.41033E+01
        -0.17280E+02
        -0.38417E+02
        -0.32877E+02
        -0.20049E+02
         0.33653E+02
         0.51238E+02
         0.77430E+02
         0.54566E+02
         0.70672E+02
         0.55839E+02
         0.94999E+01
         0.61313E+01
        -0.12946E+02
        -0.58327E+01
         0.36048E+01
         0.29073E+02
         0.35629E+02
         0.11161E+02
         0.87376E+01
        -0.44545E+02
        -0.58547E+02
         0.76170E+01
        -0.32111E+02
        -0.28688E+02
        -0.55285E+02
        -0.70499E+02
        -0.63589E+02
        -0.26865E+02
        -0.12706E+02
        -0.38433E+02
         0.46630E+01
        -0.11410E+02
        -0.13320E+02
        -0.30098E+02
        -0.13143E+02
        -0.35564E+02
         0.36822E+02
         0.86095E+02
         0.34619E+01
         0.52316E+02
         0.42135E+02
        -0.20708E+02
        -0.34214E+02
        -0.55627E+02
        -0.65546E+02
        -0.72965E+02
        -0.73997E+02
        -0.43579E+02
        -0.22642E+02
        -0.81443E+01
        -0.26485E+01
         0.79531E+01
         0.31412E+02
         0.40071E+02
        -0.71632E+01
         0.33429E+02
         0.45277E+02
         0.42185E+02
         0.48244E+02
         0.22822E+02
         0.28377E+02
         0.14899E+02
         0.17030E+02
         0.91931E+00
        -0.16234E+02
        -0.26314E+02
        -0.31408E+02
        -0.33762E+02
        -0.45661E+02
        -0.46074E+02
        -0.37706E+02
        -0.25442E+02
        -0.19595E+02
        -0.24760E+02
        -0.22518E+02
        -0.42921E+01
         0.11757E+02
         0.48809E+01
         0.26773E+02
         0.44335E+02
         0.37376E+02
         0.18841E+02
        -0.20223E+02
        -0.63768E+02
        -0.75212E+02
        -0.51325E+02
        -0.59012E+02
        -0.59990E+02
        -0.17422E+02
         0.34542E+01
         0.24351E+02
         0.76861E+01
         0.10042E+02
        -0.27712E+02
        -0.32396E+02
        -0.88809E+01
        -0.10126E+02
         0.38441E+02
         0.47576E+02
         0.12676E+01
         0.29232E+02
         0.26610E+02
         0.49786E+02
         0.61907E+02
         0.44515E+02
         0.38121E+02
         0.74238E+01
         0.39531E+02
        -0.92755E+01
         0.11308E+02
         0.24376E+02
         0.16012E+02
         0.49660E+01
         0.28543E+02
        -0.27841E+02
        -0.82006E+02
        -0.17144E+01
        -0.31184E+02
        -0.30003E+02
         0.14875E+02
         0.47038E+02
         0.43986E+02
         0.63199E+02
         0.67155E+02
         0.81217E+02
         0.32907E+02
         0.25050E+02
         0.48735E+01
         0.56866E+01
        -0.73953E+01
        -0.28958E+02
        -0.30969E+02
         0.18360E+02
        -0.29777E+02
        -0.46172E+02
        -0.43739E+02
        -0.50287E+02
        -0.31166E+02
        -0.23493E+02
        -0.18369E+02
        -0.10185E+02
        -0.28181E+01
         0.18516E+02
         0.25188E+02
         0.40746E+02
         0.32713E+02
         0.43820E+02
         0.42468E+02
         0.41279E+02
         0.28130E+02
         0.19839E+02
         0.31028E+02
         0.18747E+02
         0.39561E+01
        -0.91789E+01
        -0.63038E+01
        -0.30502E+02
        -0.47087E+02
        -0.39739E+02
        -0.12275E+02
         0.20962E+02
         0.50049E+02
         0.67072E+02
         0.49880E+02
         0.62491E+02
         0.59214E+02
         0.14915E+02
        -0.21210E+01
        -0.22902E+02
        -0.11962E+02
        -0.14142E+02
         0.28603E+02
         0.33633E+02
         0.24565E+01
         0.10973E+02
        -0.37431E+02
        -0.54353E+02
         0.29408E+01
        -0.28761E+02
        -0.87051E+01
        -0.32565E+02
        -0.59913E+02
        -0.38613E+02
        -0.35641E+02
        -0.65578E+01
        -0.38564E+02
         0.19983E+02
        -0.50820E+01
        -0.19765E+02
        -0.58159E+01
        -0.47395E+01
        -0.28072E+02
         0.30400E+02
         0.73491E+02
        -0.13996E+02
         0.29039E+02
         0.31939E+02
        -0.93448E+01
        -0.44637E+02
        -0.54386E+02
        -0.45730E+02
        -0.66624E+02
        -0.84964E+02
        -0.26118E+02
        -0.11039E+02
        -0.78752E+01
        -0.35100E+01
         0.10115E+02
         0.26634E+02
         0.24674E+02
        -0.22076E+02
         0.28845E+02
         0.48088E+02
         0.41058E+02
         0.57549E+02
         0.27560E+02
         0.21899E+02
         0.20404E+02
         0.80619E+01
         0.26141E+01
        -0.12800E+02
        -0.26168E+02
        -0.42502E+02
        -0.38610E+02
        -0.33907E+02
        -0.44077E+02
        -0.40140E+02
        -0.32435E+02
        -0.23103E+02
        -0.31495E+02
        -0.16879E+02
        -0.71442E+01
         0.10366E+02
         0.83455E+01
         0.32735E+02
         0.51672E+02
         0.35627E+02
         0.17464E+02
        -0.17952E+02
        -0.53586E+02
        -0.63432E+02
        -0.46621E+02
        -0.54065E+02
        -0.52275E+02
        -0.14027E+02
         0.12016E+02
         0.27735E+02
         0.15355E+02
         0.24848E+02
        -0.23310E+02
        -0.30643E+02
        -0.57732E+01
        -0.11550E+02
         0.40184E+02
         0.51190E+02
        -0.18602E+01
         0.20914E+02
         0.52610E+01
         0.29210E+02
         0.57604E+02
         0.26824E+02
         0.28154E+02
         0.28807E+01
         0.36292E+02
        -0.23090E+02
         0.33324E+01
         0.19214E+02
        -0.55150E+01
         0.28555E+01
         0.26422E+02
        -0.32278E+02
        -0.68431E+02
         0.21368E+02
        -0.23641E+02
        -0.27096E+02
         0.78719E+01
         0.45276E+02
         0.46956E+02
         0.48719E+02
         0.59866E+02
         0.80585E+02
         0.20224E+02
         0.13580E+02
        -0.48702E+01
         0.34396E+01
        -0.74170E+01
        -0.23799E+02
        -0.18421E+02
         0.27434E+02
        -0.20155E+02
        -0.45952E+02
        -0.40829E+02
        -0.65061E+02
        -0.22969E+02
        -0.24934E+02
        -0.18031E+02
        -0.85676E+01
         0.27317E+00
         0.12322E+02
         0.26395E+02
         0.43238E+02
         0.43202E+02
         0.31420E+02
         0.39427E+02
         0.40442E+02
         0.32567E+02
         0.24086E+02
         0.28225E+02
         0.20446E+02
         0.75901E+01
        -0.10810E+02
        -0.76082E+01
        -0.38462E+02
        -0.51421E+02
        -0.35380E+02
        -0.23444E+02
         0.19966E+02
         0.41782E+02
         0.49270E+02
         0.44560E+02
         0.34976E+02
         0.34985E+02
        -0.11579E+01
         0.11515E+01
        -0.21953E+02
        -0.12625E+02
        -0.33033E+02
         0.21779E+02
         0.25313E+02
         0.75604E+01
         0.68098E+01
        -0.37624E+02
        -0.56973E+02
         0.37124E+01
        -0.12382E+02
         0.10081E+02
        -0.25844E+02
        -0.53001E+02
        -0.25883E+02
        -0.10852E+02
        -0.10966E+02
        -0.31535E+02
         0.17869E+02
        -0.61248E+00
        -0.26727E+01
         0.13381E+02
        -0.55356E+01
        -0.21044E+02
         0.26035E+02
         0.65836E+02
        -0.16564E+02
         0.17967E+02
         0.22331E+02
        -0.61577E+01
        -0.31859E+02
        -0.45535E+02
        -0.50616E+02
        -0.54473E+02
        -0.69350E+02
        -0.17657E+02
        -0.52725E+01
         0.15419E+01
         0.42881E+01
         0.59245E+01
         0.14249E+02
         0.14732E+02
        -0.33442E+02
         0.78329E+01
         0.44999E+02
         0.37776E+02
         0.48731E+02
         0.30234E+02
         0.20972E+02
         0.14437E+02
         0.13899E+02
        -0.41073E+01
        -0.94613E+01
        -0.23502E+02
        -0.32327E+02
        -0.46081E+02
        -0.26867E+02
        -0.35433E+02
        -0.35799E+02
        -0.31106E+02
        -0.24141E+02
        -0.20516E+02
        -0.22452E+02
        -0.37452E+01
         0.25466E+01
         0.11539E+02
         0.37459E+02
         0.44823E+02
         0.37293E+02
         0.26079E+02
        -0.24032E+02
        -0.37866E+02
        -0.43622E+02
        -0.41952E+02
        -0.25385E+02
        -0.28266E+02
         0.52690E+01
        -0.53826E+01
         0.15153E+02
         0.60995E+01
         0.25464E+02
        -0.10180E+02
        -0.13509E+02
        -0.96946E+01
        -0.74832E+01
         0.37328E+02
         0.56473E+02
        -0.65329E+01
         0.18927E+01
        -0.10980E+02
         0.28165E+02
         0.47866E+02
         0.27552E+02
        -0.64616E+01
         0.24474E+02
         0.27477E+02
        -0.16622E+02
         0.18081E+01
        -0.12013E+02
        -0.22605E+02
         0.51921E+01
         0.19084E+02
        -0.25488E+02
        -0.63234E+02
         0.16498E+02
        -0.17367E+02
        -0.17358E+02
         0.72374E+01
         0.28019E+02
         0.35107E+02
         0.60955E+02
         0.53176E+02
         0.59086E+02
         0.22219E+02
         0.13320E+02
        -0.10912E+02
        -0.10229E+02
        -0.35994E+01
        -0.13816E+02
        -0.10802E+02
         0.39339E+02
        -0.46349E+01
        -0.43908E+02
        -0.43409E+02
        -0.45572E+02
        -0.32129E+02
        -0.27470E+02
        -0.14580E+02
        -0.16199E+02
         0.60254E+01
         0.83473E+01
         0.27484E+02
         0.21066E+02
         0.48062E+02
         0.30412E+02
         0.31939E+02
         0.33734E+02
         0.32327E+02
         0.26373E+02
         0.15470E+02
         0.24934E+02
         0.42777E+01
        -0.52382E+01
        -0.98401E+01
        -0.44254E+02
        -0.41930E+02
        -0.38768E+02
        -0.32179E+02
         0.23786E+02
         0.23566E+02
         0.25979E+02
         0.36030E+02
         0.15784E+02
         0.12392E+02
        -0.18227E+02
         0.11717E+02
        -0.12097E+02
        -0.11463E+02
        -0.36434E+02
         0.61854E+01
         0.45554E+01
         0.16003E+02
         0.64784E+01
        -0.31946E+02
        -0.53446E+02
         0.87769E+01
         0.68813E+01
         0.23619E+02
        -0.19062E+02
        -0.40543E+02
        -0.22322E+02
         0.79711E+01
        -0.30486E+02
        -0.20438E+02
         0.13484E+02
         0.55867E+01
         0.24399E+02
         0.22648E+02
        -0.79800E+01
        -0.14955E+02
         0.19549E+02
         0.51378E+02
        -0.26200E+02
         0.67253E+01
         0.82050E+01
        -0.16078E+02
        -0.20194E+02
        -0.32602E+02
        -0.61237E+02
        -0.44688E+02
        -0.41731E+02
        -0.20273E+02
        -0.59163E+01
         0.45757E+01
         0.12626E+02
         0.70617E+01
         0.40698E+01
         0.42480E+01
        -0.35954E+02
        -0.63231E+01
         0.33255E+02
         0.40138E+02
         0.38833E+02
         0.28654E+02
         0.20321E+02
         0.17980E+02
         0.10269E+02
        -0.17051E+01
        -0.11372E+02
        -0.23720E+02
        -0.14637E+02
        -0.41849E+02
        -0.30477E+02
        -0.27592E+02
        -0.27866E+02
        -0.32611E+02
        -0.21085E+02
        -0.83736E+01
        -0.23642E+02
        -0.64905E+01
         0.46178E+01
         0.55591E+01
         0.36596E+02
         0.38572E+02
         0.30698E+02
         0.28684E+02
        -0.21002E+02
        -0.24265E+02
        -0.23767E+02
        -0.30453E+02
        -0.23221E+01
        -0.77116E+01
         0.66536E+01
        -0.80731E+01
         0.54912E+01
         0.40858E+01
         0.36618E+02
        -0.14067E+02
        -0.74583E+01
        -0.15001E+01
        -0.87216E+01
         0.23865E+02
         0.46806E+02
        -0.76846E+01
        -0.60102E+01
        -0.19470E+02
         0.14032E+02
         0.24291E+02
         0.15413E+02
        -0.91241E+01
         0.27913E+02
         0.19873E+02
        -0.25946E+02
        -0.74265E+01
        -0.29209E+02
        -0.29052E+02
        -0.97352E+00
         0.80601E+01
        -0.15544E+02
        -0.39798E+02
         0.11280E+02
         0.26344E+00
        -0.11145E+01
         0.11587E+02
         0.28518E+02
         0.24315E+02
         0.54285E+02
         0.38031E+02
         0.37622E+02
         0.13544E+02
         0.83763E+01
        -0.89009E+01
        -0.14559E+02
        -0.43425E+01
        -0.80206E+01
        -0.74482E+01
         0.30100E+02
         0.81379E+01
        -0.27002E+02
        -0.43298E+02
        -0.39465E+02
        -0.30595E+02
        -0.22242E+02
        -0.18019E+02
        -0.10617E+02
         0.21211E+00
         0.75480E+01
         0.24065E+02
         0.13481E+02
         0.36226E+02
         0.35253E+02
         0.22518E+02
         0.27941E+02
         0.29657E+02
         0.21092E+02
         0.37727E+01
         0.21299E+02
         0.68573E+01
        -0.98916E+01
        -0.51975E+01
        -0.31386E+02
        -0.40936E+02
        -0.24796E+02
        -0.30879E+02
         0.11176E+02
         0.61903E+01
         0.30534E+01
         0.13797E+02
         0.11665E+02
        -0.91008E+01
        -0.19436E+02
        -0.94754E-01
        -0.36763E+01
         0.78391E+01
        -0.21926E+02
         0.23509E+02
         0.42215E+01
        -0.16233E+02
         0.20662E+01
        -0.24096E+02
        -0.46431E+02
         0.11452E+02
         0.77131E+00
         0.20170E+02
        -0.95400E+01
        -0.10736E+02
        -0.87027E+01
        -0.16428E+00
        -0.19868E+02
        -0.23407E+02
         0.82809E+01
         0.13320E+02
         0.29804E+02
         0.31531E+02
        -0.44050E+00
        -0.11283E+02
         0.24857E+02
         0.12814E+02
        -0.18588E+02
         0.66366E+01
         0.22529E+01
        -0.10200E+02
        -0.20484E+02
        -0.32065E+02
        -0.28338E+02
        -0.36229E+02
        -0.28997E+02
         0.99758E+00
         0.51341E+01
        -0.52699E+01
         0.71065E+01
         0.56261E+01
        -0.44061E+01
        -0.30156E+01
        -0.16538E+02
        -0.17692E+02
         0.13299E+02
         0.29749E+02
         0.31136E+02
         0.16371E+02
         0.16957E+02
         0.90338E+01
         0.55572E+01
         0.39012E+01
        -0.10757E+02
        -0.20423E+02
        -0.18370E+02
        -0.32569E+02
        -0.31250E+02
        -0.20787E+02
        -0.27213E+02
        -0.25468E+02
        -0.21780E+02
        -0.12895E+02
        -0.14591E+02
        -0.80417E+01
         0.30439E+01
         0.83492E+01
         0.17215E+02
         0.29776E+02
         0.11929E+02
         0.18595E+02
        -0.16953E+02
         0.22626E+02
         0.64931E+01
        -0.19649E+02
        -0.12472E+02
         0.51155E+01
         0.48969E+01
        -0.66024E+01
         0.12907E+02
         0.81941E+01
         0.83772E+01
        -0.14512E+02
        -0.23671E+02
         0.43072E+01
        -0.35882E+01
         0.21781E+02
         0.26226E+02
        -0.23497E+02
         0.67438E+01
        -0.27493E+02
         0.52029E+01
         0.10389E+02
         0.81636E+01
        -0.18233E+02
        -0.10962E+02
         0.22225E+02
         0.93295E+01
        -0.26033E+02
        -0.11774E+02
        -0.27820E+02
        -0.57840E+01
         0.15690E+02
        -0.37930E+02
        -0.25534E+01
        -0.10630E+02
        -0.84469E+01
        -0.13966E+02
         0.12574E+01
         0.18457E+02
         0.16505E+02
         0.16711E+02
         0.23159E+02
         0.15734E+02
        -0.12043E+02
        -0.16137E+02
        -0.99866E+01
         0.33547E+01
        -0.14831E+02
        -0.13850E+01
         0.26918E+02
        -0.90509E+01
         0.16912E+02
        -0.11875E+02
        -0.25567E+02
        -0.20615E+02
        -0.16952E+02
        -0.44095E+01
        -0.11614E+02
        -0.67994E+01
        -0.53437E+01
         0.63274E+01
         0.18742E+02
         0.56376E+01
         0.25879E+02
         0.19695E+02
         0.13512E+02
         0.21894E+02
         0.10693E+02
         0.15489E+02
         0.13148E+02
         0.70596E+01
         0.69952E+01
        -0.10936E+02
        -0.50419E+01
        -0.24717E+02
        -0.25688E+02
        -0.13251E+02
        -0.19730E+02
        -0.23995E+02
         0.39936E+02
        -0.14857E+02
        -0.42893E+01
        -0.43455E+02
         0.11585E+01
         0.16718E+02
        -0.28621E+02
         0.30704E+01
        -0.20864E+02
        -0.85527E+00
         0.11981E+02
        -0.70114E+01
        -0.82626E+01
        -0.76448E+01
         0.14322E+02
        -0.18618E+02
         0.44156E+00
         0.24389E+01
        -0.66474E+01
         0.75733E+01
        -0.18210E+02
         0.15989E+02
        -0.61444E+02
         0.18683E+02
         0.14827E+02
         0.29437E+02
        -0.21561E+02
         0.20216E+00
         0.20344E+02
        -0.67926E+00
        -0.97267E+01
        -0.28830E+02
         0.52938E+02
         0.42058E+02
        -0.11479E+02
        -0.10389E+02
        -0.20955E+02
         0.13200E+01
         0.82556E+01
        -0.44131E+02
         0.87890E+01
        -0.13276E+02
        -0.55437E+01
         0.21657E+01
        -0.17425E+02
         0.16745E+02
        -0.18621E+01
        -0.63996E+01
        -0.55168E+01
        -0.56694E+02
        -0.27288E+01
        -0.19469E+02
         0.26648E+02
         0.16629E+02
         0.36891E+01
         0.16301E+01
         0.73513E+01
         0.48485E+01
         0.22796E+01
        -0.10253E+02
        -0.17244E+02
         0.83221E+01
        -0.17395E+02
        -0.13129E+02
        -0.21465E+01
        -0.20837E+02
        -0.12835E+01
        -0.17402E+02
        -0.11779E+01
        -0.15120E+01
        -0.16569E+02
         0.11572E+02
        -0.13665E+02
         0.19863E+02
         0.15193E+02
         0.15308E+02
        -0.11723E+02
         0.63378E+02
        -0.10749E+03
        -0.31810E+01
         0.36350E+02
         0.24421E+02
         0.91700E+01
        -0.20541E+02
         0.33424E+02
        -0.41804E+02
        -0.98707E+01
        -0.15495E+02
        -0.31160E+01
         0.31264E+02
        -0.11265E+02
         0.57636E+01
        -0.63686E+02
         0.36963E+02
        -0.39197E+01
        -0.16433E+02
         0.62392E+01
        -0.11762E+02
        -0.15795E+01
        -0.33369E+02
         0.52816E+02
        -0.22199E+02
         0.28745E+02
         0.61778E+01
        -0.73620E+01
         0.32115E+02
        -0.13531E+02
        -0.28219E+02
        -0.20599E+02
         0.65802E+02
        -0.66112E+02
        -0.35398E+02
         0.13358E+02
         0.33572E+02
        -0.15168E+02
         0.25402E+02
        -0.61839E+02
         0.50730E+02
        -0.39025E+02
         0.10378E+02
        -0.16702E+02
        -0.10953E+01
         0.43291E+01
         0.21851E+01
        -0.79654E+01
         0.19270E+01
        -0.16091E+02
         0.52884E+02
        -0.30967E+02
        -0.97117E+01
         0.87198E+01
         0.12936E+02
        -0.32359E+02
         0.75516E+01
        -0.17596E+02
         0.25884E+01
        -0.87791E+01
         0.69219E+00
         0.52083E+01
        -0.13951E+02
        -0.24312E+01
         0.47106E+01
        -0.17005E+02
         0.17537E+02
        -0.23594E+02
         0.26031E+02
        -0.23265E+02
         0.83056E+01
        -0.14266E+02
         0.11109E+02
        -0.20722E+02
         0.13067E+02
        -0.41315E+02
         0.25443E+02
        -0.24509E+02
  
SCALARS                     velocity_y  double 1
LOOKUP_TABLE default
         0.69383E+02
         0.59581E+02
        -0.10100E+02
        -0.15839E+02
        -0.42531E+01
        -0.13001E+02
        -0.27828E+02
         0.75276E+01
        -0.48043E+01
        -0.27618E+02
         0.19176E+02
        -0.49838E+01
         0.52286E+02
         0.69495E+02
        -0.49863E+01
        -0.35102E+02
         0.31784E+02
         0.34445E+02
        -0.11410E+02
        -0.12177E+02
         0.21361E+02
         0.48274E+02
         0.68449E+02
        -0.30382E+01
        -0.18917E+02
        -0.21521E+02
         0.49339E+02
         0.44729E+02
        -0.84399E+01
        -0.14887E+02
        -0.52017E+02
         0.49960E+01
        -0.36985E+02
         0.67234E+01
         0.72371E-01
         0.16225E+01
        -0.24461E+02
         0.11216E+01
        -0.38221E+01
        -0.15796E+01
        -0.81870E+01
        -0.11194E+02
         0.80954E+01
        -0.18812E+01
        -0.18099E+02
        -0.33876E+02
        -0.12012E+01
         0.20508E+02
         0.43234E+02
        -0.16278E+02
        -0.68304E+02
         0.16804E+02
         0.32241E+02
        -0.18024E+02
         0.56217E+02
        -0.17487E+02
         0.48727E+02
         0.71206E+01
        -0.16129E+02
        -0.95591E+01
        -0.75314E+02
        -0.67455E+02
         0.20633E+02
         0.10217E+02
        -0.60801E+02
         0.12343E+02
        -0.34310E+02
         0.47647E+01
         0.46720E+02
         0.24147E+02
        -0.19727E+02
         0.51440E+01
         0.32605E+02
        -0.20030E+02
         0.65988E+02
        -0.19291E+02
         0.66504E+02
        -0.19307E+02
         0.51164E+02
        -0.20047E+02
         0.32926E+02
         0.37810E+02
        -0.14029E+02
        -0.13660E+02
         0.19991E+02
        -0.60072E+01
        -0.46367E+02
         0.36295E+01
        -0.28427E+02
         0.19358E+02
        -0.29226E+02
        -0.41597E+02
         0.65385E+01
         0.19301E+02
        -0.72194E+02
         0.13057E+02
        -0.81562E+02
         0.18127E+02
        -0.71677E+02
         0.28105E+02
        -0.58440E+02
        -0.19990E+02
        -0.11507E+01
         0.17417E+02
        -0.13184E+02
         0.12356E+02
        -0.53492E+00
        -0.49088E+01
        -0.21320E+01
        -0.10381E+02
         0.12402E+02
        -0.45339E+01
         0.16141E+02
        -0.14457E+02
         0.30420E+02
        -0.14864E+02
         0.44801E+02
        -0.20346E+02
         0.38456E+02
        -0.20064E+02
         0.34954E+02
        -0.20955E+02
         0.15924E+02
        -0.14162E+02
         0.36128E+01
        -0.11651E+02
         0.82615E+01
        -0.76398E+01
        -0.21506E+01
        -0.38820E+01
        -0.42502E+01
         0.28050E+01
        -0.10426E+02
         0.69301E+00
        -0.69041E+01
         0.73398E+01
        -0.27762E+02
         0.49835E+01
        -0.14855E+02
         0.76628E+01
        -0.17214E+02
         0.66319E+01
        -0.23206E+02
         0.11143E+02
        -0.14371E+02
         0.59829E+01
        -0.12044E+02
         0.64653E+01
         0.87273E+00
         0.16569E+01
         0.14485E+02
        -0.11454E+01
        -0.41418E+01
         0.29587E+01
        -0.56978E+01
         0.10910E+00
         0.25341E+01
        -0.53972E+02
        -0.51590E+02
         0.10630E+02
         0.20612E+02
         0.94711E+01
        -0.88894E+02
        -0.64013E+02
        -0.61839E+01
        -0.62672E+02
        -0.24364E+02
        -0.68806E+02
        -0.16626E+02
        -0.32398E+02
        -0.19257E+02
        -0.68451E+01
        -0.22062E+02
        -0.56262E+01
         0.11785E+02
         0.25722E+01
         0.49183E+01
        -0.14585E+01
         0.19694E+02
         0.60934E+02
        -0.15440E+02
         0.69338E+02
        -0.58810E+02
        -0.54340E+02
        -0.59659E+02
        -0.11739E+02
         0.76099E+02
         0.11564E+03
         0.59650E+02
         0.44333E+02
        -0.14843E+01
        -0.41055E+02
        -0.45821E+02
        -0.71080E+02
        -0.48761E+02
        -0.69559E+02
        -0.25598E+02
        -0.37954E+02
        -0.18563E+02
         0.13955E+01
         0.24807E+02
         0.24603E+02
         0.43213E+01
         0.62189E+02
         0.72397E+02
         0.65548E+02
         0.48669E+02
         0.29972E+02
        -0.21940E+01
        -0.15359E+02
        -0.67979E+01
        -0.92389E+00
        -0.33618E+02
        -0.28682E+02
        -0.46493E+02
        -0.37814E+02
        -0.38674E+02
        -0.14606E+02
        -0.90750E+01
        -0.99101E+01
        -0.31949E+01
         0.42864E+01
         0.21715E+01
         0.10055E+02
         0.20254E+02
         0.20644E+02
         0.14807E+02
         0.30151E+02
         0.13327E+02
         0.39092E+00
         0.11035E+02
        -0.34334E+02
         0.11500E+02
        -0.36824E+01
         0.55367E+02
         0.66911E+02
         0.79979E+01
        -0.12903E+02
         0.23853E+02
        -0.35033E+02
         0.68731E+02
         0.64369E+02
         0.22758E+02
         0.44470E+02
         0.49804E+02
         0.12584E+02
         0.69248E+02
         0.41293E+02
         0.60387E+02
        -0.41661E+02
         0.17711E+02
        -0.17340E+02
        -0.33561E+02
        -0.72752E+01
        -0.29020E+02
         0.70588E+01
         0.24781E+01
        -0.31338E+02
         0.42058E+02
        -0.90707E+02
         0.52231E+02
         0.60433E+02
         0.66075E+02
         0.76929E+01
        -0.10418E+03
        -0.74346E+02
        -0.70201E+02
        -0.60150E+02
         0.70722E+01
         0.30677E+02
         0.35437E+02
         0.53652E+02
         0.81525E+02
         0.33239E+02
         0.53786E+02
         0.28044E+02
         0.20182E+02
        -0.29942E+02
        -0.71318E+02
         0.19157E+01
        -0.44153E+02
        -0.61215E+02
        -0.87440E+02
        -0.74451E+02
        -0.45839E+02
        -0.30815E+02
         0.37379E+01
         0.55950E+00
        -0.55570E+01
         0.12487E+02
         0.12240E+02
         0.44186E+02
         0.36153E+02
         0.43239E+02
         0.30785E+02
         0.18594E+02
         0.49415E+01
         0.39915E+01
         0.26076E+01
        -0.85799E+01
        -0.36533E+01
        -0.19714E+02
        -0.16290E+02
        -0.85379E+01
        -0.26020E+02
        -0.25561E+02
        -0.16275E+02
        -0.10827E+02
        -0.23708E+00
         0.19448E+02
        -0.81829E+01
         0.30254E+01
        -0.47439E+02
        -0.46713E+02
        -0.40613E+02
        -0.20504E+01
         0.18979E+02
         0.72766E+01
        -0.63097E+02
        -0.51484E+02
        -0.35484E+02
        -0.47206E+02
        -0.34661E+02
        -0.61877E+02
        -0.43129E+02
        -0.47616E+02
        -0.24093E+02
         0.19791E+02
        -0.89177E+01
         0.20608E+02
         0.87083E+01
         0.14102E+02
        -0.94518E+01
         0.83529E+01
         0.24042E+02
         0.49494E+02
        -0.31241E+02
         0.59391E+02
        -0.52874E+02
        -0.65060E+02
        -0.53722E+02
        -0.18243E+02
         0.60998E+02
         0.10695E+03
         0.74298E+02
         0.72173E+02
        -0.18297E+02
        -0.19025E+02
        -0.46841E+02
        -0.78481E+02
        -0.41830E+02
        -0.79343E+02
        -0.30579E+02
        -0.31265E+02
        -0.28498E+02
         0.36110E+02
         0.37780E+01
         0.34010E+02
         0.24537E+02
         0.67073E+02
         0.58677E+02
         0.70668E+02
         0.30824E+02
         0.29323E+02
        -0.17423E+01
        -0.16426E+02
        -0.34402E+01
        -0.17679E+02
        -0.15877E+02
        -0.41208E+02
        -0.37279E+02
        -0.48076E+02
        -0.34567E+02
        -0.21541E+02
        -0.74405E+01
        -0.13075E+02
         0.24693E+01
        -0.43681E+01
         0.16249E+02
         0.87800E+00
         0.19574E+02
         0.12651E+02
         0.19634E+02
         0.17522E+02
         0.12085E+02
         0.17573E+02
        -0.10074E+02
        -0.83389E+01
        -0.16964E+00
         0.37092E+01
         0.47363E+02
         0.71524E+02
         0.17040E+02
        -0.16445E+02
         0.27130E+02
        -0.11040E+02
         0.61848E+02
         0.65701E+02
         0.39020E+02
         0.56631E+02
         0.31216E+02
         0.50991E+02
         0.48784E+02
         0.34309E+02
         0.50359E+02
        -0.45514E+02
         0.11444E+02
        -0.17723E+02
        -0.43000E+02
        -0.60455E+01
        -0.12085E+02
         0.13696E+01
        -0.19025E+01
        -0.35042E+02
         0.25926E+02
        -0.81796E+02
         0.66123E+02
         0.52455E+02
         0.53732E+02
         0.34934E+02
        -0.99344E+02
        -0.52625E+02
        -0.81347E+02
        -0.83580E+02
        -0.22167E+02
         0.33305E+02
         0.36452E+02
         0.48991E+02
         0.81273E+02
         0.42745E+02
         0.54326E+02
         0.29239E+02
         0.11809E+02
        -0.33035E+02
        -0.64323E+02
        -0.30233E+01
        -0.70571E+02
        -0.58512E+02
        -0.73836E+02
        -0.58566E+02
        -0.42889E+02
        -0.41795E+02
         0.69368E+01
         0.53261E+01
         0.62314E+01
         0.94499E+01
         0.21507E+02
         0.35589E+02
         0.33704E+02
         0.45355E+02
         0.31325E+02
         0.18874E+02
         0.65604E+01
         0.30458E+01
         0.47153E+01
        -0.71500E+01
        -0.42445E+01
        -0.23049E+02
        -0.10953E+02
        -0.76522E+01
        -0.24839E+02
        -0.13564E+02
        -0.20080E+02
        -0.14475E+02
        -0.20565E+01
         0.12056E+02
        -0.37502E+01
        -0.44119E+01
        -0.59241E+02
        -0.76746E+02
        -0.29373E+02
         0.31180E+01
        -0.28164E+01
         0.16133E+02
        -0.30867E+02
        -0.60039E+02
        -0.17302E+02
        -0.46161E+02
        -0.20659E+02
        -0.77290E+02
        -0.78515E+02
        -0.52212E+02
        -0.36010E+02
         0.92035E+01
        -0.68267E+00
         0.21834E+02
         0.20464E+02
         0.15008E+02
        -0.55599E+01
         0.12050E-01
         0.33921E+02
         0.44905E+02
        -0.51814E+02
         0.52695E+02
        -0.43696E+02
        -0.43609E+02
        -0.43951E+02
        -0.34860E+02
         0.57259E+02
         0.10291E+03
         0.77567E+02
         0.81226E+02
        -0.14501E+02
        -0.13316E+02
        -0.25212E+02
        -0.80232E+02
        -0.60901E+02
        -0.73253E+02
        -0.51811E+02
        -0.33522E+02
        -0.19015E+02
         0.28390E+02
        -0.30631E+00
         0.71417E+02
         0.21552E+02
         0.76741E+02
         0.58239E+02
         0.65512E+02
         0.25029E+02
         0.26460E+02
        -0.54834E+01
        -0.27050E+01
        -0.14623E+02
        -0.14667E+02
        -0.18437E+02
        -0.32472E+02
        -0.42393E+02
        -0.44040E+02
        -0.39142E+02
        -0.22513E+02
        -0.96327E+01
        -0.86978E+01
        -0.35822E+01
         0.98389E+00
         0.10849E+02
         0.69120E+01
         0.15105E+02
         0.14818E+02
         0.83848E+01
         0.10389E+02
         0.21542E+02
         0.10755E+02
         0.12602E+00
        -0.56590E+01
         0.67700E+01
        -0.52354E+01
         0.41814E+02
         0.70513E+02
         0.21909E+02
        -0.10468E+02
         0.93844E+00
        -0.45700E+01
         0.55389E+02
         0.33317E+02
         0.51026E+02
         0.51139E+02
         0.55768E+02
         0.62363E+02
         0.52476E+02
         0.21572E+02
         0.60481E+02
        -0.36692E+02
         0.16358E+02
        -0.26788E+02
        -0.36055E+02
        -0.24959E+01
        -0.12124E+02
         0.60309E+01
        -0.26184E+02
        -0.43283E+02
        -0.99553E+00
        -0.51932E+02
         0.65460E+02
         0.58994E+02
         0.57473E+02
         0.29717E+02
        -0.73104E+02
        -0.53816E+02
        -0.80770E+02
        -0.90005E+02
        -0.11936E+01
         0.27419E+02
         0.47667E+02
         0.58553E+02
         0.71824E+02
         0.52759E+02
         0.38234E+02
         0.46418E+02
         0.10664E+02
        -0.37081E+02
        -0.50522E+02
        -0.32680E+02
        -0.79416E+02
        -0.71665E+02
        -0.86190E+02
        -0.51904E+02
        -0.39584E+02
        -0.41041E+02
         0.49897E+01
         0.37051E+01
         0.89325E+01
         0.51272E+01
         0.24917E+02
         0.23100E+02
         0.38584E+02
         0.38117E+02
         0.34280E+02
         0.20858E+02
         0.14099E+02
         0.16500E+01
         0.36825E+01
        -0.56424E+01
        -0.85467E+01
        -0.12290E+02
        -0.85879E+01
        -0.10639E+02
        -0.13731E+02
        -0.73964E+01
        -0.22993E+02
        -0.41655E+01
        -0.92399E+01
         0.85748E+01
        -0.40429E+01
        -0.35813E+01
        -0.47462E+02
        -0.65047E+02
        -0.16101E+02
         0.62194E+01
        -0.12571E+02
         0.22223E+02
        -0.51643E+02
        -0.55786E+02
        -0.94905E+01
        -0.23589E+02
        -0.39527E+02
        -0.89732E+02
        -0.72446E+02
        -0.35395E+02
        -0.68740E+02
        -0.13257E+02
         0.39585E+01
        -0.11726E+02
         0.32482E+00
         0.16226E+02
         0.21908E+02
        -0.10418E+02
         0.51882E+02
         0.50230E+02
        -0.32613E+02
         0.43885E+02
        -0.36220E+02
        -0.59298E+02
        -0.69691E+02
        -0.13851E+02
         0.71786E+02
         0.85876E+02
         0.67643E+02
         0.62530E+02
        -0.60880E+01
        -0.33053E+02
        -0.45719E+02
        -0.81546E+02
        -0.78880E+02
        -0.72862E+02
        -0.45628E+02
        -0.25805E+02
        -0.38489E+02
         0.40245E+02
         0.28935E+02
         0.67730E+02
         0.54271E+02
         0.87860E+02
         0.79940E+02
         0.88275E+02
         0.33767E+02
         0.32441E+02
        -0.93413E+01
        -0.70398E+00
        -0.52953E+01
        -0.21314E+02
        -0.15963E+02
        -0.27963E+02
        -0.38060E+02
        -0.44041E+02
        -0.36986E+02
        -0.28139E+02
        -0.15956E+02
        -0.10690E+02
        -0.12682E+01
         0.40014E+01
         0.54624E+01
         0.50822E+01
         0.85180E+01
         0.95002E+01
         0.67120E+01
         0.16956E+02
         0.18674E+02
         0.10664E+02
        -0.22061E+01
        -0.31869E+01
         0.59323E+01
        -0.51947E+00
         0.36904E+02
         0.84142E+02
         0.28926E+02
        -0.79003E+01
        -0.15334E+02
        -0.15338E+02
         0.39499E+02
         0.14634E+02
         0.28505E+02
         0.47363E+02
         0.39694E+02
         0.90632E+02
         0.69373E+02
        -0.57220E+01
         0.86363E+02
        -0.18781E+02
         0.12761E+02
        -0.18676E+02
        -0.32092E+02
        -0.38868E+01
        -0.16852E+02
         0.55762E+01
        -0.42532E+02
        -0.10271E+02
        -0.32635E+01
        -0.55753E+02
         0.40236E+02
         0.48003E+02
         0.40856E+02
         0.24717E+02
        -0.26069E+02
        -0.74677E+02
        -0.47017E+02
        -0.79547E+02
         0.90490E+01
         0.19416E+02
         0.37800E+02
         0.72487E+02
         0.81119E+02
         0.81089E+02
         0.30319E+02
         0.50818E+02
         0.21021E+02
        -0.45942E+02
        -0.48388E+02
        -0.64505E+02
        -0.78215E+02
        -0.88209E+02
        -0.94272E+02
        -0.73931E+02
        -0.40247E+02
        -0.25100E+02
         0.92544E+01
         0.52372E+01
         0.65446E+01
         0.23086E+02
         0.13913E+02
         0.26523E+02
         0.30058E+02
         0.43427E+02
         0.33935E+02
         0.27682E+02
         0.17259E+02
         0.69332E+01
         0.10937E+01
        -0.54604E+01
        -0.55228E+01
        -0.14659E+02
        -0.80298E+01
        -0.15410E+01
        -0.80854E+01
        -0.15303E+02
        -0.22005E+02
        -0.93089E+01
        -0.61958E+01
        -0.69634E+00
        -0.65915E+01
        -0.65642E+01
        -0.45738E+02
        -0.50919E+02
        -0.18382E+02
        -0.44068E+01
        -0.12255E+02
         0.31715E+02
        -0.46756E+02
        -0.63580E+02
        -0.27155E+02
        -0.44781E+02
         0.92753E+01
        -0.11545E+03
        -0.78292E+02
         0.25851E+01
        -0.98048E+02
         0.10256E+02
         0.10945E+02
         0.88115E+01
        -0.68261E+00
         0.20498E+02
         0.25737E+02
        -0.70912E+01
         0.31651E+02
         0.33925E+02
        -0.38402E+02
         0.27423E+02
        -0.13929E+02
        -0.45479E+02
        -0.45043E+02
        -0.14498E+02
         0.72453E+02
         0.66067E+02
         0.64273E+02
         0.56345E+02
        -0.32800E+01
        -0.32434E+02
        -0.51693E+02
        -0.90652E+02
        -0.90072E+02
        -0.71298E+02
        -0.77149E+02
        -0.30706E+02
        -0.38873E+02
         0.46829E+02
         0.65103E+02
         0.92528E+02
         0.59715E+02
         0.69709E+02
         0.75558E+02
         0.74095E+02
         0.23175E+02
         0.46038E+02
        -0.13793E+02
         0.20058E+01
        -0.11750E+02
        -0.22605E+02
        -0.21075E+02
        -0.23327E+02
        -0.35480E+02
        -0.46838E+02
        -0.41026E+02
        -0.35150E+02
        -0.10986E+02
        -0.11948E+02
        -0.30209E+01
         0.71656E+01
         0.25224E+01
         0.16781E+02
         0.13729E+02
        -0.77125E+01
         0.62955E+01
         0.29173E+02
         0.24432E+02
         0.24616E+02
         0.91499E+01
         0.13743E+02
         0.27115E+01
         0.35264E+01
         0.41803E+02
         0.84585E+02
         0.17896E+02
        -0.13654E+02
        -0.59043E+01
        -0.76759E+01
         0.29740E+02
         0.32068E+02
         0.30167E+02
         0.64936E+02
        -0.79857E+01
         0.98770E+02
         0.81077E+02
        -0.22285E+02
         0.98057E+02
        -0.16310E+02
         0.93433E+01
        -0.16945E+02
        -0.34347E+02
        -0.83311E+01
        -0.16745E+02
         0.80953E+01
        -0.34915E+02
         0.10462E+02
         0.16322E+02
        -0.59502E+02
         0.24835E+02
         0.31605E+02
         0.37411E+02
         0.48914E+01
        -0.43021E+02
        -0.88081E+02
        -0.63758E+02
        -0.82197E+02
         0.29317E+01
         0.18652E+02
         0.36829E+02
         0.90837E+02
         0.65616E+02
         0.93641E+02
         0.56038E+02
         0.32153E+02
         0.32734E+02
        -0.35366E+02
        -0.44572E+02
        -0.90439E+02
        -0.43253E+02
        -0.64701E+02
        -0.64976E+02
        -0.47706E+02
        -0.28370E+02
        -0.31935E+02
         0.11125E+02
         0.16270E+01
         0.20107E+02
         0.24710E+02
         0.18313E+02
         0.27645E+02
         0.33121E+02
         0.50685E+02
         0.43065E+02
         0.39280E+02
         0.12375E+02
         0.17025E+02
        -0.29339E+01
        -0.28405E+01
        -0.98518E+01
        -0.16868E+02
        -0.16618E+02
         0.77919E+00
        -0.17795E+02
        -0.25998E+02
        -0.39271E+02
        -0.15164E+02
        -0.35158E+02
        -0.12811E+02
        -0.75375E+01
        -0.12920E+02
        -0.42669E+02
        -0.51997E+02
        -0.16699E+02
        -0.14598E+00
        -0.92173E+01
         0.23245E+02
        -0.43713E+02
        -0.51152E+02
        -0.36940E+02
        -0.53104E+02
         0.29865E+02
        -0.10098E+03
        -0.77935E+02
         0.18493E+02
        -0.92119E+02
         0.20507E+02
        -0.34943E+01
         0.18239E+02
         0.70302E+01
         0.23989E+02
         0.14105E+02
        -0.77969E+01
         0.14049E+02
         0.22809E+02
        -0.36058E+02
         0.38224E+02
        -0.13478E+02
        -0.27812E+02
        -0.29773E+02
        -0.23396E+02
         0.73748E+02
         0.64148E+02
         0.66158E+02
         0.68931E+02
         0.57521E+01
        -0.18031E+02
        -0.47473E+02
        -0.87267E+02
        -0.80195E+02
        -0.66517E+02
        -0.78462E+02
        -0.31351E+02
        -0.29987E+02
         0.36558E+02
         0.63185E+02
         0.64550E+02
         0.46864E+02
         0.43694E+02
         0.49251E+02
         0.48379E+02
         0.28898E+01
         0.37565E+02
        -0.13357E+02
         0.23471E+01
        -0.28001E+02
        -0.20439E+02
        -0.25079E+02
        -0.29291E+02
        -0.36283E+02
        -0.52019E+02
        -0.46357E+02
        -0.38636E+02
        -0.18264E+02
        -0.12930E+02
         0.14645E+01
         0.49042E+01
         0.52833E+01
         0.23180E+02
         0.91681E+01
         0.55831E+01
         0.29925E+02
         0.29151E+02
         0.42366E+02
         0.23622E+02
         0.40764E+02
         0.22179E+02
         0.10831E+02
         0.71106E+01
         0.44572E+02
         0.78121E+02
         0.13795E+02
        -0.13806E+02
        -0.34797E+01
        -0.16962E+02
         0.33294E+02
         0.38979E+02
         0.34508E+02
         0.56254E+02
        -0.13022E+02
         0.85092E+02
         0.67236E+02
        -0.21815E+02
         0.82329E+02
        -0.20114E+02
         0.14707E+02
        -0.21403E+02
        -0.27818E+02
        -0.11521E+02
        -0.19896E+01
        -0.13154E+01
        -0.21324E+02
         0.19532E+01
         0.27905E+02
        -0.58890E+02
         0.72347E+01
         0.22220E+02
         0.38496E+02
         0.15102E+02
        -0.47645E+02
        -0.80517E+02
        -0.61844E+02
        -0.79247E+02
        -0.69538E+01
         0.20564E+02
         0.33585E+02
         0.94218E+02
         0.70304E+02
         0.74988E+02
         0.57418E+02
         0.43118E+02
         0.21456E+02
        -0.33063E+02
        -0.32436E+02
        -0.56704E+02
        -0.22811E+02
        -0.50830E+02
        -0.47465E+02
        -0.33790E+02
         0.33140E+01
        -0.30015E+02
         0.12815E+02
        -0.27687E+00
         0.28954E+02
         0.26525E+02
         0.26905E+02
         0.36690E+02
         0.31378E+02
         0.57796E+02
         0.41358E+02
         0.45190E+02
         0.25962E+02
         0.13128E+02
        -0.13112E+01
        -0.34013E+01
        -0.11792E+02
        -0.19258E+02
        -0.12802E+02
        -0.15657E+02
        -0.38111E+02
        -0.34313E+02
        -0.36390E+02
        -0.24891E+02
        -0.47674E+02
        -0.24570E+02
        -0.18771E+02
        -0.77887E+01
        -0.43559E+02
        -0.58702E+02
        -0.14350E+02
         0.74883E+01
         0.16422E+01
         0.24028E+02
        -0.43092E+02
        -0.46975E+02
        -0.34507E+02
        -0.41700E+02
         0.17129E+02
        -0.76994E+02
        -0.54627E+02
         0.21441E+02
        -0.74131E+02
         0.16423E+02
        -0.13957E+02
         0.16578E+02
         0.85823E+01
         0.14976E+02
         0.22609E+01
         0.71813E+01
         0.10068E+02
         0.25506E+02
        -0.22258E+02
         0.51376E+02
         0.15753E+01
        -0.11583E+02
        -0.48430E+02
        -0.17007E+02
         0.65295E+02
         0.69311E+02
         0.61941E+02
         0.74512E+02
         0.82495E+01
        -0.10951E+02
        -0.26614E+02
        -0.83285E+02
        -0.73729E+02
        -0.68125E+02
        -0.60754E+02
        -0.33359E+02
        -0.18789E+02
         0.25985E+02
         0.35967E+02
         0.19621E+02
         0.32394E+02
         0.37280E+02
         0.37193E+02
         0.29434E+02
        -0.15177E+02
         0.28461E+02
        -0.84324E+01
        -0.30822E+01
        -0.31341E+02
        -0.29771E+02
        -0.30882E+02
        -0.36149E+02
        -0.35308E+02
        -0.53800E+02
        -0.42804E+02
        -0.44682E+02
        -0.29625E+02
        -0.67260E+01
        -0.84371E-01
         0.55966E+01
         0.97696E+01
         0.21895E+02
         0.11472E+02
         0.21885E+02
         0.50699E+02
         0.36312E+02
         0.35407E+02
         0.29285E+02
         0.55733E+02
         0.27327E+02
         0.20315E+02
         0.81495E+01
         0.42394E+02
         0.61715E+02
         0.11162E+02
        -0.75549E+01
         0.10357E+01
        -0.19293E+02
         0.39603E+02
         0.42219E+02
         0.39777E+02
         0.45318E+02
        -0.64683E+01
         0.68819E+02
         0.46017E+02
        -0.30309E+02
         0.63476E+02
        -0.19983E+02
         0.20691E+02
        -0.20411E+02
        -0.75046E+01
        -0.12207E+02
        -0.12069E+01
        -0.92203E+01
        -0.13724E+02
        -0.64614E+01
         0.17814E+02
        -0.47465E+02
        -0.12875E+02
         0.85924E+01
         0.44740E+02
         0.97608E+01
        -0.54920E+02
        -0.67105E+02
        -0.58793E+02
        -0.64832E+02
        -0.70646E+01
         0.56842E+01
         0.17463E+02
         0.82368E+02
         0.75335E+02
         0.68442E+02
         0.57166E+02
         0.41528E+02
         0.14218E+02
        -0.25596E+02
        -0.19291E+02
        -0.12604E+02
        -0.17625E+02
        -0.42643E+02
        -0.34378E+02
        -0.16756E+02
         0.21347E+02
        -0.29466E+02
         0.10057E+02
         0.13308E+01
         0.31140E+02
         0.32851E+02
         0.33391E+02
         0.39596E+02
         0.34692E+02
         0.54814E+02
         0.38622E+02
         0.51183E+02
         0.28738E+02
         0.60082E+01
        -0.12576E+01
        -0.41142E+01
        -0.61706E+01
        -0.24698E+02
        -0.74479E+01
        -0.28501E+02
        -0.52734E+02
        -0.38923E+02
        -0.28085E+02
        -0.31894E+02
        -0.56928E+02
        -0.27537E+02
        -0.21451E+02
        -0.50626E+01
        -0.41213E+02
        -0.51427E+02
        -0.71934E+01
         0.10963E+02
        -0.77661E+00
         0.17222E+02
        -0.29686E+02
        -0.41482E+02
        -0.34566E+02
        -0.38128E+02
         0.26545E+02
        -0.62109E+02
        -0.41551E+02
         0.31428E+02
        -0.56095E+02
         0.10867E+02
        -0.20805E+02
         0.17131E+02
         0.32605E+01
         0.16894E+02
         0.60648E+01
         0.15730E+02
         0.11180E+02
         0.19636E+01
        -0.91913E+01
         0.43857E+02
         0.13967E+02
         0.30318E+01
        -0.39208E+02
         0.25691E+01
         0.55184E+02
         0.66055E+02
         0.58288E+02
         0.67735E+02
         0.33846E+01
        -0.20426E+01
        -0.10077E+02
        -0.76153E+02
        -0.67236E+02
        -0.64672E+02
        -0.57486E+02
        -0.40047E+02
        -0.18337E+02
         0.20023E+02
         0.20116E+02
         0.53785E+00
         0.15646E+02
         0.34354E+02
         0.29059E+02
         0.13746E+02
        -0.26214E+02
         0.22107E+02
        -0.42616E+01
        -0.52636E+00
        -0.29601E+02
        -0.27188E+02
        -0.34289E+02
        -0.38646E+02
        -0.33819E+02
        -0.51999E+02
        -0.33923E+02
        -0.53416E+02
        -0.23815E+02
        -0.52671E+01
         0.91633E+01
        -0.25152E+01
         0.12510E+02
         0.21340E+02
         0.14549E+02
         0.27831E+02
         0.53705E+02
         0.42849E+02
         0.29179E+02
         0.34747E+02
         0.63209E+02
         0.28163E+02
         0.26108E+02
         0.91149E+01
         0.35697E+02
         0.44685E+02
         0.79450E+01
        -0.53501E+01
         0.25935E+01
        -0.11786E+02
         0.17403E+02
         0.35095E+02
         0.37977E+02
         0.43392E+02
        -0.45989E+02
         0.58340E+02
         0.35962E+02
        -0.36896E+02
         0.56157E+02
        -0.14407E+02
         0.21258E+02
        -0.17337E+02
        -0.30043E+01
        -0.17782E+02
        -0.89399E+01
        -0.10570E+02
        -0.34776E+01
         0.14525E+02
         0.78972E+01
        -0.23410E+02
        -0.13195E+02
        -0.80974E+01
         0.17241E+02
        -0.55888E+00
        -0.48373E+02
        -0.48052E+02
        -0.52761E+02
        -0.53116E+02
        -0.50419E+01
         0.35715E+01
         0.12769E+02
         0.66344E+02
         0.61635E+02
         0.60146E+02
         0.63818E+02
         0.43069E+02
         0.18783E+02
        -0.14229E+02
        -0.17653E+02
        -0.71317E+01
        -0.43348E+01
        -0.21158E+02
        -0.21931E+02
        -0.81306E+01
         0.35915E+02
        -0.11294E+02
         0.65226E+01
         0.41712E+01
         0.24817E+02
         0.26832E+02
         0.32755E+02
         0.37864E+02
         0.37903E+02
         0.46010E+02
         0.38363E+02
         0.48859E+02
         0.18496E+02
         0.73077E+01
        -0.10571E+02
         0.55387E+01
        -0.90033E+01
        -0.19700E+02
        -0.15005E+02
        -0.19761E+02
        -0.36219E+02
        -0.39731E+02
        -0.23674E+02
        -0.29229E+02
        -0.57484E+02
        -0.24488E+02
        -0.23344E+02
        -0.96061E+01
        -0.34711E+02
        -0.37468E+02
        -0.43622E+01
         0.70712E+01
         0.24741E+01
         0.90575E+01
        -0.15073E+01
        -0.32405E+02
        -0.30306E+02
        -0.41536E+02
         0.79113E+02
        -0.56446E+02
        -0.40724E+02
         0.46275E+02
        -0.50887E+02
         0.12522E+02
        -0.87677E+01
         0.19345E+02
         0.60483E+01
         0.21484E+02
         0.16008E+02
         0.12957E+02
         0.41870E+01
        -0.22727E+02
        -0.10014E+02
         0.20504E+02
         0.15047E+02
         0.17630E+02
         0.34567E+01
         0.75307E+01
         0.46556E+02
         0.40036E+02
         0.53490E+02
         0.52263E+02
         0.15755E+02
        -0.18941E+01
        -0.14717E+02
        -0.63304E+02
        -0.50754E+02
        -0.53272E+02
        -0.65255E+02
        -0.36003E+02
        -0.27876E+02
         0.95795E+01
         0.22110E+02
         0.19384E+02
         0.18801E+01
         0.19195E+02
         0.24592E+02
         0.71831E+01
        -0.34418E+02
         0.69983E+01
        -0.11245E+02
         0.14938E+00
        -0.17885E+02
        -0.23950E+02
        -0.30375E+02
        -0.36296E+02
        -0.40287E+02
        -0.38917E+02
        -0.42879E+02
        -0.38522E+02
        -0.14808E+02
        -0.94385E+01
         0.14328E+02
        -0.20266E+01
         0.98678E+01
         0.21720E+02
         0.24074E+02
         0.22990E+02
         0.31411E+02
         0.44167E+02
         0.30378E+02
         0.29547E+02
         0.55546E+02
         0.28036E+02
         0.29259E+02
         0.15814E+02
         0.28045E+02
         0.37410E+02
         0.35276E+01
        -0.33655E+01
        -0.18847E+01
        -0.87613E+00
         0.22666E+01
         0.27402E+02
         0.24064E+02
         0.49356E+02
        -0.80853E+02
         0.45147E+02
         0.35583E+02
        -0.63992E+02
         0.42512E+02
        -0.91753E+01
         0.10078E+02
        -0.15222E+02
        -0.16263E+01
        -0.14509E+02
        -0.14516E+02
        -0.11086E+01
        -0.31075E+01
         0.36840E+02
         0.10535E+02
        -0.33737E+01
        -0.26287E+02
        -0.21529E+02
        -0.11035E+02
        -0.98812E+01
        -0.26189E+02
        -0.31539E+02
        -0.37032E+02
        -0.39463E+02
        -0.13919E+02
        -0.27239E+01
         0.12716E+02
         0.58073E+02
         0.41610E+02
         0.44454E+02
         0.65490E+02
         0.36401E+02
         0.24839E+02
        -0.18281E+01
        -0.60978E+01
        -0.84758E+01
        -0.15119E+01
        -0.12412E+02
        -0.14074E+02
        -0.59705E+01
         0.33314E+02
         0.44950E+01
         0.16815E+02
        -0.10024E+01
         0.16200E+02
         0.21827E+02
         0.27524E+02
         0.39534E+02
         0.35265E+02
         0.35192E+02
         0.44507E+02
         0.32494E+02
         0.15379E+02
         0.12107E+02
        -0.86821E+01
         0.33778E+01
        -0.49362E+01
        -0.19049E+02
        -0.18547E+02
        -0.21507E+02
        -0.17169E+02
        -0.29071E+02
        -0.28104E+02
        -0.17934E+02
        -0.39516E+02
        -0.24999E+02
        -0.18947E+02
        -0.13051E+02
        -0.18513E+02
        -0.17586E+02
         0.10189E+01
         0.42453E+01
         0.33948E+01
         0.18273E+01
        -0.78105E+01
        -0.28614E+02
        -0.22383E+02
        -0.34720E+02
         0.70186E+02
        -0.33197E+02
        -0.25608E+02
         0.64948E+02
        -0.34874E+02
         0.70873E+01
        -0.44564E+01
         0.12916E+02
         0.48215E+00
         0.16037E+02
         0.98884E+01
         0.59187E+01
         0.26740E+01
        -0.99956E+01
        -0.87987E+01
         0.81173E+01
         0.38374E+02
         0.24980E+02
         0.14338E+02
         0.12365E+02
         0.30771E+02
         0.15984E+02
         0.35318E+02
         0.27289E+02
         0.19822E+02
         0.35261E+01
        -0.99558E+01
        -0.46417E+02
        -0.33243E+02
        -0.43924E+02
        -0.57559E+02
        -0.20787E+02
        -0.18309E+02
        -0.14634E+00
         0.10921E+02
         0.18571E+02
         0.55482E+01
         0.14751E+02
         0.21104E+02
         0.70723E+01
        -0.23657E+02
        -0.19692E+01
        -0.13760E+02
         0.99153E+01
        -0.14994E+02
        -0.13441E+02
        -0.29546E+02
        -0.36067E+02
        -0.29565E+02
        -0.30930E+02
        -0.43968E+02
        -0.26499E+02
        -0.10311E+02
        -0.11601E+02
         0.12008E+02
        -0.86200E+00
         0.12328E+02
         0.19159E+02
         0.24549E+02
         0.27883E+02
         0.16345E+02
         0.26842E+02
         0.34370E+02
         0.15540E+02
         0.36851E+02
         0.25844E+02
         0.17957E+02
         0.12911E+02
         0.12782E+02
         0.19211E+02
         0.40964E+00
        -0.29104E+01
        -0.92842E+01
         0.16622E+00
         0.17374E+02
         0.17210E+02
         0.10656E+02
         0.31859E+02
        -0.40981E+02
         0.30911E+02
         0.65723E+01
        -0.51294E+02
         0.28440E+02
         0.21282E+01
         0.12850E+02
         0.39488E+01
        -0.46009E+00
        -0.47753E+01
        -0.36366E+01
         0.39788E+01
         0.19372E+01
         0.19618E+02
         0.11152E+02
        -0.89881E+01
        -0.34877E+02
        -0.46144E+02
         0.19370E+01
        -0.58640E+00
        -0.13936E+02
        -0.27800E+02
        -0.14459E+02
        -0.10668E+02
         0.71165E+01
        -0.15753E+01
        -0.50536E+01
         0.26671E+02
         0.31757E+02
         0.36152E+02
         0.43387E+02
         0.20410E+02
        -0.24826E+01
         0.12573E+02
         0.83137E+01
         0.32411E+01
         0.17173E+01
        -0.15025E+01
        -0.11039E+02
        -0.49749E+01
         0.19473E+02
         0.14510E+02
         0.20478E+01
        -0.52379E+01
         0.18317E+02
         0.17111E+02
         0.31660E+02
         0.33412E+02
         0.21464E+02
         0.34056E+02
         0.37816E+02
         0.26158E+02
         0.15073E+02
         0.95916E+01
         0.24836E+00
        -0.38186E+00
        -0.24116E+01
        -0.17325E+02
        -0.11793E+02
        -0.28082E+02
        -0.12567E+02
        -0.22697E+02
        -0.15243E+02
        -0.18541E+02
        -0.10980E+02
        -0.18560E+02
        -0.61547E+01
        -0.85206E+01
        -0.12243E+02
        -0.12797E+02
         0.16193E+02
         0.12041E+02
         0.28952E+01
         0.10425E+02
         0.66104E+01
        -0.18026E+02
        -0.14508E+02
         0.44725E+01
         0.37240E+02
        -0.27521E+02
         0.20857E+01
         0.13462E+02
        -0.17283E+02
         0.94518E+01
        -0.23717E+02
         0.16391E+02
         0.13653E+01
         0.76426E+01
         0.48288E+01
         0.98519E+01
        -0.26000E+01
        -0.38003E+01
        -0.75276E+01
         0.20095E+02
         0.62970E+02
         0.31971E+02
         0.11497E+01
         0.75799E+01
        -0.30073E+01
         0.45905E+02
        -0.48070E+01
         0.61347E+01
        -0.14867E+02
         0.34310E+01
         0.16426E+02
        -0.21157E+02
        -0.11711E+02
        -0.32749E+02
        -0.26072E+02
        -0.46290E+01
         0.26749E+01
        -0.10217E+02
        -0.14226E+02
        -0.10295E+02
        -0.99835E+00
         0.13838E+02
        -0.88657E+00
         0.26063E+02
        -0.93301E+01
        -0.19036E+02
         0.57126E+01
         0.11059E+02
        -0.64138E+01
        -0.22840E+02
        -0.13906E+02
        -0.27892E+02
        -0.57438E+01
        -0.32661E+02
        -0.21693E+02
        -0.16882E+02
        -0.59821E+01
        -0.49800E+01
         0.37174E+01
        -0.18638E+00
         0.61872E+01
         0.18419E+02
         0.13511E+02
         0.26988E+02
         0.19532E+02
         0.23341E+02
         0.84470E+01
         0.23412E+02
         0.96112E+01
         0.18578E+02
         0.80410E+01
         0.12160E+02
        -0.19055E+02
         0.27373E+02
         0.29204E+01
         0.19307E+02
        -0.32993E+01
         0.19874E+02
        -0.26666E+02
        -0.11911E+02
         0.11284E+02
         0.54317E+02
         0.78930E+02
        -0.35882E+01
        -0.16159E+02
        -0.75851E+02
         0.25218E+02
         0.29173E+02
         0.98911E+01
         0.78823E+01
         0.12677E+02
        -0.88470E+00
        -0.51563E+01
        -0.51140E+01
         0.59366E+01
         0.74918E+01
        -0.21524E+02
        -0.36279E+02
        -0.44230E+01
        -0.27404E+02
         0.28196E+02
         0.22964E+01
         0.27813E+02
        -0.68840E+02
         0.23324E+01
        -0.50356E+02
        -0.85713E+01
         0.99029E+01
        -0.10334E+01
         0.25132E+02
        -0.70502E+01
         0.13685E+02
         0.42751E+02
        -0.30998E+02
         0.13259E+02
         0.14981E+02
         0.61624E+02
         0.55198E+01
         0.30697E+02
        -0.22711E+01
         0.99120E-01
         0.34456E+02
         0.15339E+02
         0.40037E+01
         0.70976E+01
        -0.49606E+01
         0.65756E+01
         0.12268E+02
         0.14828E+02
         0.22088E+02
         0.22007E+01
         0.29890E+02
         0.11977E+02
         0.13759E+02
        -0.25834E+01
         0.83852E+01
         0.10508E+01
         0.88836E+01
        -0.42397E+01
         0.55077E+01
        -0.17616E+02
        -0.84731E+01
        -0.18383E+02
        -0.32980E+01
        -0.13749E+02
         0.20838E+02
        -0.38248E+02
         0.14776E+02
        -0.67832E+01
         0.44750E+00
         0.61817E+02
        -0.62191E+01
        -0.47420E+02
        -0.36084E+02
         0.44029E+02
        -0.63461E+01
         0.83638E+01
         0.44366E+02
        -0.17466E+02
        -0.36128E+02
        -0.10527E+03
         0.37683E+02
         0.85382E+01
         0.10813E+03
         0.16296E+02
        -0.19001E+02
         0.70868E+01
        -0.12131E+02
        -0.50222E+02
         0.25361E+02
        -0.89657E+01
         0.25698E+02
         0.37766E+01
         0.42411E+02
         0.21917E+02
         0.46230E+02
        -0.73281E+02
         0.50703E+02
        -0.43387E+02
         0.25774E+00
        -0.10839E+02
         0.18053E+02
         0.25198E+02
         0.48475E+02
        -0.74836E+01
         0.35480E+02
        -0.24941E+01
        -0.34408E+02
         0.35825E+02
        -0.27954E+01
        -0.23007E+02
         0.59949E+02
        -0.24302E+02
        -0.19076E+02
        -0.50624E+02
         0.35352E+02
        -0.25381E+02
         0.42570E+01
         0.57046E+01
        -0.37730E+02
        -0.10967E+02
         0.92132E+01
        -0.81482E+01
         0.59486E+01
         0.50299E+01
        -0.13514E+02
         0.15095E+02
        -0.21601E+02
         0.13352E+02
        -0.39788E+01
         0.36620E+01
        -0.14197E+01
         0.14196E+02
        -0.61889E+01
         0.86475E+01
        -0.79551E+01
         0.15307E+02
        -0.12357E+02
         0.27483E+02
         0.26301E+01
         0.65182E+01
         0.44997E+01
         0.11760E+02
        -0.69769E+01
         0.29734E+02
        -0.51836E+01
         0.12615E+02
        -0.86442E+01
  
SCALARS                     velocity_z  double 1
LOOKUP_TABLE default
        -0.21915E+03
        -0.12250E+03
        -0.94838E+02
        -0.15361E+03
         0.00000E+00
         0.00000E+00
         0.00000E+00
         0.00000E+00
         0.27569E+02
        -0.10420E+03
         0.00000E+00
         0.00000E+00
        -0.88354E+02
        -0.97408E+02
         0.00000E+00
         0.00000E+00
        -0.82636E+02
        -0.18401E+03
         0.00000E+00
         0.00000E+00
        -0.13108E+03
         0.21065E+02
        -0.39886E+02
         0.00000E+00
         0.00000E+00
         0.00000E+00
        -0.11427E+03
        -0.49777E+02
         0.00000E+00
         0.00000E+00
        -0.18878E+03
        -0.11885E+03
        -0.99333E+02
         0.00000E+00
         0.00000E+00
         0.00000E+00
        -0.11758E+03
        -0.11637E+03
         0.00000E+00
         0.00000E+00
        -0.46666E+02
        -0.61074E+02
         0.00000E+00
         0.00000E+00
        -0.17912E+02
        -0.58167E+02
         0.00000E+00
         0.00000E+00
        -0.14454E+03
         0.00000E+00
        -0.16151E+03
         0.00000E+00
        -0.11025E+03
         0.00000E+00
        -0.10489E+03
         0.00000E+00
        -0.14271E+03
        -0.12053E+03
         0.00000E+00
         0.00000E+00
        -0.12473E+03
        -0.29583E+02
         0.00000E+00
         0.00000E+00
        -0.10556E+03
         0.00000E+00
        -0.92793E+02
         0.00000E+00
        -0.11251E+03
        -0.32498E+01
         0.00000E+00
         0.00000E+00
        -0.10270E+03
         0.00000E+00
        -0.69059E+02
         0.00000E+00
        -0.55845E+02
         0.00000E+00
        -0.55881E+02
         0.00000E+00
        -0.59443E+02
        -0.51223E+02
         0.00000E+00
         0.00000E+00
        -0.63801E+02
         0.00000E+00
        -0.43237E+02
         0.00000E+00
        -0.24311E+02
         0.00000E+00
        -0.75927E+02
        -0.58884E+02
         0.00000E+00
         0.00000E+00
        -0.73409E+02
         0.00000E+00
        -0.79138E+02
         0.00000E+00
        -0.78627E+02
         0.00000E+00
        -0.21006E+02
        -0.88157E+02
         0.00000E+00
         0.00000E+00
        -0.70782E+02
        -0.67462E+02
         0.00000E+00
         0.00000E+00
        -0.80793E+02
         0.00000E+00
        -0.68633E+02
         0.00000E+00
        -0.63375E+02
         0.00000E+00
        -0.95636E+02
         0.00000E+00
        -0.57932E+02
         0.00000E+00
        -0.71060E+02
         0.00000E+00
        -0.54331E+02
         0.00000E+00
        -0.83330E+02
         0.00000E+00
        -0.60205E+02
         0.00000E+00
        -0.71564E+02
         0.00000E+00
        -0.60095E+02
         0.00000E+00
        -0.59793E+02
         0.00000E+00
        -0.61678E+02
         0.00000E+00
        -0.63740E+02
         0.00000E+00
        -0.57481E+02
         0.00000E+00
        -0.84723E+02
         0.00000E+00
        -0.61669E+02
         0.00000E+00
        -0.56518E+02
         0.00000E+00
        -0.53718E+02
         0.00000E+00
        -0.58471E+02
         0.00000E+00
        -0.62354E+02
         0.00000E+00
        -0.72504E+02
         0.00000E+00
        -0.60838E+02
         0.00000E+00
        -0.61768E+02
         0.00000E+00
        -0.44488E+02
         0.18849E+03
         0.30783E+02
        -0.30196E+02
         0.39723E+02
         0.17950E+02
         0.97882E+01
         0.12376E+03
         0.11177E+03
         0.36588E+02
         0.62006E+02
        -0.61702E+02
        -0.28784E+02
         0.53988E+02
        -0.33396E+02
        -0.89529E+02
         0.10629E+03
         0.20829E+03
         0.24076E+02
         0.75347E+02
        -0.18650E+02
         0.14335E+02
        -0.50328E+02
         0.15750E+03
         0.35686E+02
         0.93808E+01
         0.54149E+02
         0.74323E+02
         0.67867E+02
         0.55252E+02
         0.43595E+02
         0.17124E+03
         0.36955E+02
         0.71500E+02
        -0.30691E+02
         0.42382E+02
        -0.32463E+02
         0.11030E+02
         0.21827E+01
        -0.32040E+02
         0.19595E+02
        -0.25757E+01
        -0.29226E+00
        -0.44015E+02
        -0.21985E+02
        -0.11649E+02
        -0.51451E+02
         0.80201E+01
         0.69782E+02
        -0.30330E+02
         0.34275E+02
         0.34945E+02
         0.29101E+02
        -0.76565E+01
         0.35011E+01
         0.20753E+02
         0.27230E+02
         0.41384E+02
         0.27172E+02
         0.12811E+02
        -0.20687E+00
         0.20752E+02
        -0.44438E+01
         0.88087E+01
         0.10070E+02
         0.71777E+01
         0.20693E+02
         0.14365E+02
         0.20759E+02
         0.23939E+02
         0.31885E+02
         0.20623E+02
        -0.74683E+00
        -0.26420E-01
         0.56521E+01
         0.33979E+01
        -0.11183E+02
         0.31212E+01
        -0.17474E+03
        -0.27854E+02
        -0.78547E+02
        -0.20010E+03
        -0.60112E+02
        -0.94606E+02
        -0.27194E+03
        -0.89100E+02
        -0.14515E+03
        -0.18927E+03
        -0.12040E+03
         0.24509E+02
         0.15654E+02
        -0.53773E+02
        -0.55322E+02
        -0.23500E+03
        -0.87970E+02
        -0.12011E+03
        -0.12399E+03
        -0.14749E+03
        -0.64489E+02
        -0.38303E+02
         0.81744E+01
        -0.75085E+02
        -0.14707E+03
        -0.14220E+03
        -0.18873E+03
        -0.96469E+02
        -0.15022E+03
        -0.13109E+03
        -0.98875E+02
        -0.49103E+02
        -0.10228E+03
        -0.10474E+03
        -0.43374E+02
        -0.96743E+02
        -0.92650E+02
        -0.54623E+02
        -0.47887E+02
        -0.68858E+02
        -0.37195E+02
        -0.60803E+02
        -0.71398E+02
        -0.94255E+01
        -0.10089E+03
        -0.82429E+01
        -0.10441E+03
        -0.84312E+02
        -0.61273E+02
        -0.12363E+03
        -0.51441E+02
        -0.40846E+02
        -0.79165E+02
        -0.66535E+02
        -0.76671E+02
        -0.43215E+02
        -0.10409E+03
        -0.87252E+02
        -0.83501E+02
        -0.68125E+02
        -0.58855E+02
        -0.76900E+02
        -0.62388E+02
        -0.67888E+02
        -0.62689E+02
        -0.69085E+02
        -0.68831E+02
        -0.80569E+02
        -0.81355E+02
        -0.65464E+02
        -0.94986E+02
        -0.39886E+02
        -0.53450E+02
        -0.52785E+02
        -0.49495E+02
        -0.52017E+02
        -0.72751E+02
        -0.49277E+02
         0.78766E+02
         0.11885E+03
         0.74602E+02
        -0.50823E+02
         0.37298E+02
        -0.18730E+02
        -0.13020E+02
         0.11624E+03
         0.10112E+03
         0.11884E+02
         0.11844E+01
        -0.63151E+02
        -0.23860E+02
         0.10544E+03
        -0.61398E+02
        -0.27982E+02
         0.11984E+03
         0.10865E+03
         0.36808E+02
         0.58243E+02
        -0.35412E+02
        -0.52117E+01
        -0.52861E+02
         0.69155E+02
         0.27566E+02
         0.36187E+02
         0.19088E+02
         0.10338E+03
         0.44333E+02
         0.58037E+02
         0.61337E+02
         0.84343E+02
         0.70038E+02
         0.86752E+02
        -0.16437E+02
        -0.26729E+02
        -0.52762E+02
        -0.10875E+02
        -0.28211E+02
        -0.28482E+02
        -0.14004E+02
        -0.30317E+01
        -0.17548E+02
        -0.37475E+02
        -0.39572E+02
        -0.14060E+02
        -0.43262E+02
         0.53788E+01
         0.13915E+02
        -0.20007E+02
         0.62374E+01
         0.27658E+02
         0.14886E+02
        -0.15501E+02
         0.15689E+02
         0.20814E+02
         0.23438E+02
         0.43444E+02
         0.29886E+02
         0.96321E+01
        -0.11162E+01
         0.76921E+01
        -0.28641E+01
        -0.17402E+01
         0.36266E+01
         0.10934E+02
         0.93631E+01
         0.29181E+02
        -0.89969E+00
         0.34980E+02
         0.20819E+02
         0.79025E+01
        -0.44292E+01
        -0.40281E+01
        -0.44522E+01
        -0.10820E+02
        -0.10975E+02
        -0.56763E+01
        -0.17796E+03
        -0.80733E+02
        -0.85153E+02
        -0.18716E+03
        -0.48379E+02
        -0.73950E+02
        -0.14287E+03
        -0.14335E+03
        -0.15066E+03
        -0.14024E+03
        -0.91770E+02
        -0.21185E+02
        -0.25041E+02
        -0.96588E+02
        -0.10938E+02
        -0.20389E+03
        -0.12392E+03
        -0.10991E+03
        -0.13795E+03
        -0.12242E+03
        -0.30995E+02
        -0.62008E+02
        -0.32095E+02
        -0.47076E+02
        -0.13862E+03
        -0.11450E+03
        -0.16617E+03
        -0.11860E+03
        -0.12149E+03
        -0.15142E+03
        -0.11959E+03
        -0.62975E+02
        -0.11569E+03
        -0.87923E+02
        -0.70156E+02
        -0.66372E+02
        -0.77714E+02
        -0.50530E+02
        -0.50047E+02
        -0.44035E+02
        -0.53082E+02
        -0.58658E+02
        -0.47233E+02
        -0.43395E+02
        -0.53233E+02
        -0.23659E+02
        -0.94583E+02
        -0.66734E+02
        -0.74931E+02
        -0.97631E+02
        -0.73552E+02
        -0.54833E+02
        -0.78699E+02
        -0.61566E+02
        -0.69415E+02
        -0.69640E+02
        -0.79071E+02
        -0.96710E+02
        -0.10081E+03
        -0.72652E+02
        -0.70611E+02
        -0.73743E+02
        -0.66743E+02
        -0.61811E+02
        -0.75427E+02
        -0.65026E+02
        -0.87102E+02
        -0.69967E+02
        -0.79764E+02
        -0.78316E+02
        -0.90351E+02
        -0.41881E+02
        -0.58875E+02
        -0.46493E+02
        -0.50712E+02
        -0.45249E+02
        -0.56097E+02
        -0.61991E+02
         0.99158E+02
         0.76932E+02
         0.69651E+02
        -0.16095E+02
        -0.29861E+01
        -0.10852E+02
         0.10692E+02
         0.94546E+02
         0.68576E+02
         0.15737E+02
        -0.14551E+02
        -0.54413E+02
        -0.19504E+02
         0.63183E+02
        -0.71826E+02
         0.90233E+01
         0.95203E+02
         0.74854E+02
         0.26974E+02
         0.53425E+02
        -0.51269E+02
        -0.31214E+02
        -0.28842E+02
         0.25909E+02
         0.45674E+02
         0.42889E+02
         0.43848E+02
         0.68408E+02
         0.17236E+02
         0.68178E+02
         0.60352E+02
         0.26409E+02
         0.69437E+02
         0.54708E+02
         0.58653E+01
        -0.53540E+02
        -0.60763E+02
        -0.34739E+02
        -0.31457E+02
        -0.24199E+02
        -0.21732E+02
        -0.36403E+02
        -0.17261E+02
        -0.40566E+02
        -0.71844E+02
         0.23625E+01
        -0.44844E+02
         0.12893E+02
        -0.13167E+02
        -0.19711E+02
         0.34022E+02
        -0.12851E+02
        -0.27874E+00
        -0.79824E+01
         0.21073E+02
         0.12439E+02
         0.16739E+02
         0.23332E+02
         0.45491E+02
        -0.19204E+01
         0.72863E+01
        -0.48577E+01
         0.12243E+01
        -0.29438E+01
         0.44079E+01
         0.37102E+01
         0.19041E+02
         0.60381E+01
         0.59471E+01
         0.37377E+02
         0.83238E+01
         0.35549E+01
        -0.16479E+02
        -0.27192E+01
        -0.13906E+02
        -0.26690E+02
        -0.12538E+02
        -0.88691E+01
        -0.13211E+03
        -0.11574E+03
        -0.67786E+02
        -0.17054E+03
        -0.61859E+02
        -0.39477E+02
        -0.13998E+03
        -0.18483E+03
        -0.12247E+03
        -0.11451E+03
        -0.43995E+02
        -0.19756E+02
        -0.20641E+02
        -0.13624E+03
        -0.13629E+01
        -0.15825E+03
        -0.90742E+02
        -0.15502E+03
        -0.14403E+03
        -0.14832E+03
        -0.27551E+02
        -0.28979E+02
        -0.23834E+02
        -0.73296E+02
        -0.15904E+03
        -0.81491E+02
        -0.13057E+03
        -0.12804E+03
        -0.10393E+03
        -0.15531E+03
        -0.11157E+03
        -0.85271E+02
        -0.12034E+03
        -0.11361E+03
        -0.93090E+02
        -0.54987E+02
        -0.52478E+02
        -0.27626E+02
        -0.52373E+02
        -0.45917E+02
        -0.30846E+02
        -0.51140E+02
        -0.37632E+02
        -0.37345E+02
        -0.47087E+02
        -0.15441E+02
        -0.86804E+02
        -0.65562E+02
        -0.67732E+02
        -0.61361E+02
        -0.77027E+02
        -0.69423E+02
        -0.60600E+02
        -0.61954E+02
        -0.75865E+02
        -0.72912E+02
        -0.85814E+02
        -0.93855E+02
        -0.11031E+03
        -0.73355E+02
        -0.72982E+02
        -0.69583E+02
        -0.79143E+02
        -0.65083E+02
        -0.78876E+02
        -0.72389E+02
        -0.91498E+02
        -0.69847E+02
        -0.83748E+02
        -0.79547E+02
        -0.92392E+02
        -0.50180E+02
        -0.52555E+02
        -0.56900E+02
        -0.53548E+02
        -0.45812E+02
        -0.52636E+02
        -0.64902E+02
         0.97434E+02
         0.22608E+02
         0.51787E+02
        -0.13471E+02
        -0.41692E+02
         0.23300E+01
         0.35253E+01
         0.61438E+02
         0.70762E+02
         0.38166E+02
         0.57358E+01
        -0.72779E+02
        -0.30182E+02
         0.43844E+02
        -0.75290E+02
        -0.10267E+02
         0.68758E+02
         0.22349E+02
         0.13504E+02
         0.82182E+02
        -0.50192E+02
        -0.50103E+02
        -0.45483E+02
         0.26629E+02
         0.26706E+02
         0.27432E+02
         0.50826E+02
         0.39943E+02
         0.26280E+02
         0.46848E+02
         0.68071E+02
         0.12847E+02
         0.71643E+02
         0.49785E+02
         0.84265E+01
        -0.13677E+02
        -0.31350E+02
        -0.43653E+02
        -0.31976E+02
        -0.22365E+02
        -0.48792E+02
        -0.34676E+02
        -0.34643E+02
        -0.51599E+02
        -0.41988E+02
        -0.11928E+02
        -0.40682E+02
        -0.94905E+01
        -0.26454E+02
        -0.10182E+02
        -0.12329E+01
        -0.61464E+01
        -0.60644E+00
        -0.63380E+01
        -0.24153E+01
         0.11567E+02
         0.11127E+02
         0.29206E+02
         0.42855E+02
         0.20415E+01
         0.31239E+01
        -0.71810E+00
         0.57347E+01
         0.12958E+01
         0.62736E+01
         0.86098E+01
         0.20892E+02
         0.43495E+01
         0.18741E+02
         0.14393E+02
         0.13972E+02
        -0.25073E+01
        -0.11700E+02
        -0.61393E+01
        -0.13573E+02
        -0.18015E+02
        -0.20436E+02
        -0.73933E+01
        -0.75529E+02
        -0.10091E+03
        -0.50372E+02
        -0.13186E+03
        -0.98578E+02
        -0.44260E+02
        -0.10439E+03
        -0.14452E+03
        -0.12039E+03
        -0.16251E+03
        -0.69996E+02
        -0.34821E+02
        -0.32412E+02
        -0.69538E+02
        -0.20885E+02
        -0.13512E+03
        -0.10831E+03
        -0.16761E+03
        -0.11684E+03
        -0.92531E+02
        -0.37215E+02
        -0.33082E+02
        -0.40627E+02
        -0.56537E+02
        -0.14031E+03
        -0.61800E+02
        -0.89942E+02
        -0.10229E+03
        -0.70088E+02
        -0.12493E+03
        -0.54068E+02
        -0.93463E+02
        -0.77155E+02
        -0.90431E+02
        -0.77690E+02
        -0.83526E+02
        -0.69242E+02
        -0.35523E+02
        -0.65021E+02
        -0.60674E+02
        -0.30234E+02
        -0.53869E+02
        -0.52086E+02
        -0.47316E+02
        -0.44905E+02
        -0.35838E+02
        -0.87348E+02
        -0.68154E+02
        -0.83637E+02
        -0.86542E+02
        -0.86270E+02
        -0.66220E+02
        -0.59396E+02
        -0.58080E+02
        -0.61888E+02
        -0.69595E+02
        -0.80505E+02
        -0.85894E+02
        -0.10598E+03
        -0.74170E+02
        -0.71077E+02
        -0.67011E+02
        -0.73736E+02
        -0.67676E+02
        -0.75183E+02
        -0.77362E+02
        -0.84418E+02
        -0.75497E+02
        -0.76948E+02
        -0.82446E+02
        -0.71372E+02
        -0.51565E+02
        -0.53249E+02
        -0.44398E+02
        -0.61147E+02
        -0.19043E+02
        -0.67624E+02
        -0.50431E+02
         0.86264E+02
         0.10646E+01
         0.47730E+02
        -0.26746E+02
        -0.30350E+02
        -0.26791E+01
        -0.32246E+02
         0.29278E+02
         0.66288E+02
         0.42326E+02
         0.10040E+02
        -0.87307E+01
        -0.29350E+01
         0.72688E+00
        -0.55244E+02
        -0.18138E+02
         0.79687E+02
        -0.38782E+01
        -0.12952E+02
         0.28930E+02
        -0.16444E+02
        -0.42733E+02
        -0.79001E+01
         0.17375E+02
         0.44637E+02
         0.90476E+01
         0.12975E+02
         0.32709E+02
        -0.54794E+01
         0.16357E+02
         0.52585E+02
        -0.20087E+01
         0.52387E+02
         0.22986E+02
         0.36642E+02
        -0.16013E+02
        -0.30126E+02
        -0.50101E+02
        -0.74565E+01
        -0.99312E+01
        -0.50730E+02
        -0.18308E+02
        -0.14858E+02
        -0.49575E+02
        -0.41632E+02
         0.23467E+01
        -0.25202E+02
        -0.48354E+01
        -0.23463E+02
         0.30736E+01
         0.40068E+02
        -0.12619E+02
        -0.96496E+01
        -0.17012E+02
        -0.13712E+02
         0.20631E+02
        -0.54021E+01
         0.63213E+01
         0.33344E+02
         0.70831E+01
        -0.63272E+01
        -0.34076E+01
         0.23604E+01
        -0.22393E+01
        -0.16122E+01
         0.12127E+02
         0.31157E+01
         0.10670E+01
         0.42804E+01
         0.24686E+02
        -0.10064E+02
        -0.16248E+01
        -0.25337E+02
         0.12499E+01
        -0.21811E+02
        -0.43048E+02
        -0.17111E+02
        -0.96037E+01
        -0.54323E+02
        -0.69697E+02
        -0.35500E+02
        -0.11024E+03
        -0.85643E+02
        -0.44230E+02
        -0.84382E+02
        -0.10723E+03
        -0.10294E+03
        -0.15650E+03
        -0.69130E+02
        -0.75349E+02
        -0.55477E+02
        -0.40077E+02
        -0.48039E+02
        -0.11950E+03
        -0.99665E+02
        -0.11581E+03
        -0.91122E+02
        -0.55975E+02
        -0.64626E+02
        -0.59864E+02
        -0.57304E+02
        -0.40521E+02
        -0.15392E+03
        -0.49825E+02
        -0.56328E+02
        -0.83598E+02
        -0.48278E+02
        -0.71751E+02
        -0.41182E+02
        -0.66525E+02
        -0.53588E+02
        -0.72256E+02
        -0.10363E+03
        -0.91363E+02
        -0.77112E+02
        -0.35918E+02
        -0.62934E+02
        -0.69835E+02
        -0.52080E+02
        -0.57829E+02
        -0.50411E+02
        -0.59307E+02
        -0.55703E+02
        -0.65119E+02
        -0.91714E+02
        -0.56420E+02
        -0.84996E+02
        -0.10912E+03
        -0.10074E+03
        -0.69583E+02
        -0.51959E+02
        -0.52417E+02
        -0.59545E+02
        -0.68071E+02
        -0.75754E+02
        -0.69735E+02
        -0.94972E+02
        -0.78242E+02
        -0.70604E+02
        -0.63450E+02
        -0.72160E+02
        -0.68437E+02
        -0.75432E+02
        -0.78477E+02
        -0.72457E+02
        -0.75751E+02
        -0.72189E+02
        -0.72954E+02
        -0.64572E+02
        -0.40618E+02
        -0.56442E+02
        -0.51160E+02
        -0.45953E+02
        -0.20776E+02
        -0.61757E+02
        -0.56015E+02
         0.35224E+02
        -0.62832E+01
         0.21770E+02
        -0.57415E+02
        -0.96588E+01
         0.24392E+01
        -0.30954E+02
        -0.61215E+00
         0.53205E+02
         0.47802E+02
        -0.40315E+01
         0.14024E+01
         0.16433E+02
        -0.23290E+02
        -0.98719E+01
        -0.46885E+02
         0.75785E+02
         0.11038E+02
        -0.35300E+02
         0.72515E+01
         0.27213E+01
         0.19116E+01
        -0.51505E+01
         0.37424E+01
         0.52688E+02
        -0.21780E+01
        -0.71849E+01
         0.52201E+01
        -0.13393E+02
        -0.22913E+02
         0.73516E+01
        -0.47681E+01
         0.27396E+02
         0.16331E+02
         0.31102E+02
         0.83768E+00
        -0.20104E+01
        -0.30834E+02
        -0.23405E+02
        -0.40878E+01
         0.33346E+01
        -0.24847E+02
        -0.25154E+02
        -0.18289E+02
        -0.95982E+01
         0.40139E+02
        -0.49445E+02
        -0.25084E+01
         0.77453E+01
         0.12465E+02
         0.36457E+02
        -0.63888E+01
        -0.21818E+02
        -0.18827E+02
        -0.69707E+01
        -0.30362E+01
        -0.84599E+01
        -0.12329E+01
         0.81138E+01
         0.10507E+02
        -0.69270E+01
        -0.42354E+01
        -0.19348E+02
         0.43364E+01
        -0.73112E+01
         0.63004E+01
        -0.12535E+02
        -0.16845E+00
         0.39488E+00
        -0.12110E+02
        -0.11277E+02
        -0.16434E+02
        -0.17032E+02
        -0.50561E+01
        -0.33941E+02
        -0.35086E+02
        -0.20812E+02
        -0.15667E+02
        -0.55447E+02
        -0.59478E+02
        -0.40660E+02
        -0.11072E+03
        -0.58620E+02
        -0.43808E+02
        -0.71248E+02
        -0.66103E+02
        -0.77461E+02
        -0.11669E+03
        -0.45768E+02
        -0.84162E+02
        -0.72079E+02
        -0.61458E+02
        -0.72030E+02
        -0.10612E+03
        -0.81454E+02
        -0.60820E+02
        -0.79770E+02
        -0.65895E+02
        -0.83818E+02
        -0.72140E+02
        -0.72097E+02
        -0.76958E+01
        -0.13818E+03
        -0.38840E+02
        -0.62644E+02
        -0.65983E+02
        -0.52600E+02
        -0.67772E+02
        -0.46708E+02
        -0.31304E+02
        -0.52755E+02
        -0.73091E+02
        -0.90414E+02
        -0.99322E+02
        -0.91638E+02
        -0.44925E+02
        -0.41031E+02
        -0.71960E+02
        -0.92754E+02
        -0.50664E+02
        -0.28299E+02
        -0.80499E+02
        -0.86624E+02
        -0.88931E+02
        -0.85045E+02
        -0.44886E+02
        -0.86569E+02
        -0.10793E+03
        -0.75272E+02
        -0.70313E+02
        -0.47679E+02
        -0.63505E+02
        -0.65436E+02
        -0.59903E+02
        -0.66002E+02
        -0.72263E+02
        -0.71853E+02
        -0.82650E+02
        -0.69668E+02
        -0.63679E+02
        -0.48789E+02
        -0.74110E+02
        -0.67783E+02
        -0.80692E+02
        -0.57594E+02
        -0.71923E+02
        -0.71175E+02
        -0.40114E+02
        -0.68848E+02
        -0.26381E+02
        -0.67369E+02
        -0.53787E+02
        -0.34012E+02
        -0.47499E+02
        -0.55598E+02
        -0.55100E+02
         0.29465E+01
         0.95537E+01
         0.23896E+02
        -0.62151E+02
        -0.60504E+01
        -0.66765E+01
        -0.31239E+02
        -0.20019E+02
         0.16271E+02
         0.81438E+01
         0.11156E+02
        -0.56531E+01
         0.58972E+01
        -0.93381E+01
        -0.11640E+00
        -0.74249E+02
         0.35785E+02
         0.22877E+02
        -0.24242E+02
         0.33452E+02
         0.28809E+01
        -0.11450E+02
        -0.85392E-01
         0.16518E+02
         0.29515E+02
        -0.20835E+02
         0.63051E+00
        -0.91627E+01
        -0.11729E+02
        -0.69030E+01
        -0.16464E+02
         0.34364E+00
         0.17589E+02
         0.35176E+02
        -0.43202E+01
         0.28546E+01
         0.12043E+01
        -0.23835E+02
        -0.32608E+02
        -0.26509E+01
         0.30042E+02
        -0.26278E+02
        -0.45729E+02
        -0.12591E+02
        -0.76811E+01
         0.43229E+02
        -0.43588E+02
         0.24964E+01
        -0.12582E+01
        -0.73612E+01
         0.14527E+02
        -0.16894E+02
        -0.19958E+02
        -0.87617E+01
        -0.36428E+00
        -0.82290E+01
        -0.80284E+01
         0.29582E+00
        -0.83683E+01
         0.67144E+01
        -0.54276E+01
        -0.71096E+01
        -0.28778E+02
         0.82899E+00
        -0.56952E+01
         0.32869E+01
        -0.14319E+02
        -0.27373E+01
        -0.11785E+02
        -0.14899E+02
        -0.20614E+02
        -0.25517E+02
        -0.95404E+01
        -0.10417E+02
        -0.24318E+02
        -0.18385E+02
        -0.14550E+02
        -0.19027E+02
        -0.49861E+02
        -0.64183E+02
        -0.51863E+02
        -0.11932E+03
        -0.59921E+02
        -0.54311E+02
        -0.77550E+02
        -0.49511E+02
        -0.41325E+02
        -0.60100E+02
        -0.81713E+02
        -0.67369E+02
        -0.57690E+02
        -0.81637E+02
        -0.65135E+02
        -0.93789E+02
        -0.40113E+02
        -0.37098E+02
        -0.93525E+02
        -0.74625E+02
        -0.70212E+02
        -0.45451E+02
        -0.66178E+02
        -0.36043E+02
        -0.90248E+02
        -0.41207E+02
        -0.58859E+02
        -0.63743E+02
        -0.79586E+02
        -0.89027E+02
        -0.48199E+02
        -0.30338E+02
        -0.48720E+02
        -0.68426E+02
        -0.54391E+02
        -0.78637E+02
        -0.74224E+02
        -0.53549E+02
        -0.48530E+02
        -0.67129E+02
        -0.72031E+02
        -0.53981E+02
        -0.32564E+02
        -0.64238E+02
        -0.72467E+02
        -0.62398E+02
        -0.97849E+02
        -0.51610E+02
        -0.73575E+02
        -0.83193E+02
        -0.38100E+02
        -0.64159E+02
        -0.61874E+02
        -0.63501E+02
        -0.65720E+02
        -0.65284E+02
        -0.68278E+02
        -0.68631E+02
        -0.64526E+02
        -0.76012E+02
        -0.72676E+02
        -0.60562E+02
        -0.64617E+02
        -0.60887E+02
        -0.74260E+02
        -0.72759E+02
        -0.64904E+02
        -0.67528E+02
        -0.57837E+02
        -0.59824E+02
        -0.57050E+02
        -0.30519E+02
        -0.61157E+02
        -0.53684E+02
        -0.48897E+02
        -0.63049E+02
        -0.59548E+02
        -0.55969E+02
         0.29534E+01
         0.22010E+02
         0.35851E+02
        -0.55713E+02
         0.65736E+01
         0.10532E+02
        -0.35965E+01
        -0.19811E+02
        -0.17059E+02
        -0.51019E+02
         0.58438E+02
        -0.23266E+02
        -0.18131E+02
        -0.86484E+01
        -0.12211E+02
        -0.78000E+02
        -0.13194E+02
         0.61610E+01
        -0.13356E+02
         0.32659E+02
        -0.23867E+02
        -0.32440E+02
        -0.19280E+02
         0.69224E+02
        -0.19705E+02
        -0.58141E+01
        -0.43112E+01
         0.52991E+01
         0.30927E+01
         0.27178E+02
        -0.94900E+01
         0.94538E+01
         0.68575E+01
         0.23379E+02
        -0.40011E+02
        -0.32521E+02
        -0.31078E+02
        -0.11561E+02
        -0.15475E+02
        -0.18738E+02
        -0.15385E+02
        -0.24480E+02
        -0.24433E+02
        -0.34561E+02
        -0.35897E+02
         0.98838E-01
        -0.38301E+02
         0.12684E+02
        -0.15995E+02
        -0.39286E+02
        -0.23244E+02
        -0.19477E+02
        -0.41028E+01
        -0.95242E+01
         0.53443E+01
        -0.13618E+01
        -0.20927E+01
        -0.42378E+01
        -0.14734E+02
         0.50663E+00
        -0.35106E+01
        -0.13654E+02
         0.98670E+00
        -0.19764E+02
         0.75326E+00
        -0.77407E+01
        -0.45145E+01
        -0.54764E+01
        -0.18034E+02
         0.51208E+01
        -0.10517E+02
        -0.23092E+02
        -0.12814E+02
        -0.10738E+02
        -0.39795E+01
        -0.54983E+01
        -0.68517E+01
        -0.21554E+02
        -0.31076E+02
        -0.66623E+02
        -0.47641E+02
        -0.11499E+03
        -0.74058E+02
        -0.68436E+02
        -0.90249E+02
        -0.44186E+02
        -0.15547E+02
        -0.12594E+02
        -0.10173E+03
        -0.65315E+02
        -0.46890E+02
        -0.74360E+02
        -0.51997E+02
        -0.90452E+02
        -0.65028E+01
        -0.37791E+02
        -0.95143E+02
        -0.63017E+02
        -0.45090E+02
        -0.36520E+02
        -0.61830E+02
        -0.60566E+02
        -0.39251E+02
        -0.47765E+02
        -0.51842E+02
        -0.74092E+02
        -0.86428E+02
        -0.10129E+03
        -0.38522E+02
        -0.40642E+02
        -0.32891E+02
        -0.49974E+02
        -0.24220E+02
        -0.53550E+02
        -0.53079E+02
        -0.67479E+02
        -0.67502E+02
        -0.52076E+02
        -0.19188E+02
        -0.54201E+02
        -0.66626E+02
        -0.57038E+02
        -0.51577E+02
        -0.24249E+02
        -0.96842E+02
        -0.62456E+02
        -0.63024E+02
        -0.51854E+02
        -0.28995E+01
        -0.60747E+02
        -0.66904E+02
        -0.61801E+02
        -0.74521E+02
        -0.62359E+02
        -0.63402E+02
        -0.64216E+02
        -0.49373E+02
        -0.73209E+02
        -0.64678E+02
        -0.61097E+02
        -0.85178E+02
        -0.49057E+02
        -0.74513E+02
        -0.62804E+02
        -0.68820E+02
        -0.64200E+02
        -0.43162E+02
        -0.74386E+02
        -0.64936E+02
        -0.28524E+02
        -0.59641E+02
        -0.49334E+02
        -0.63739E+02
        -0.81729E+02
        -0.55572E+02
        -0.55137E+02
         0.74236E+01
         0.14788E+02
         0.34579E+02
        -0.49647E+02
         0.57079E+01
         0.16717E+02
        -0.13161E+02
        -0.47906E+02
        -0.26535E+02
        -0.79184E+02
         0.59302E+02
        -0.13253E+02
        -0.72529E+01
        -0.11430E+02
        -0.11536E+02
        -0.76224E+02
        -0.38622E+02
         0.66462E+01
        -0.33356E+02
         0.16636E+02
        -0.22128E+02
        -0.12540E+02
        -0.20585E+02
         0.67996E+02
        -0.52131E+02
        -0.38709E+01
         0.31479E+01
         0.11412E+02
         0.50910E+00
         0.29570E+02
        -0.49264E+00
         0.34704E+01
         0.10721E+02
         0.16404E+02
        -0.56674E+02
        -0.46723E+02
        -0.35689E+02
        -0.44577E+01
        -0.47869E+01
        -0.24980E+02
        -0.45069E+02
        -0.25625E+02
        -0.39232E+01
        -0.29013E+02
        -0.32064E+02
        -0.10619E+02
        -0.45054E+02
         0.29428E+01
        -0.29004E+02
        -0.64569E+02
        -0.65042E+02
        -0.30606E+02
        -0.48504E+01
        -0.87988E+01
         0.11113E+02
        -0.12517E+02
        -0.82490E+01
        -0.14445E+02
        -0.30346E+02
         0.13514E+01
        -0.13118E+02
        -0.94218E+01
        -0.17243E+01
        -0.17747E+02
        -0.81680E+01
        -0.11885E+02
        -0.14014E+02
        -0.88465E+01
        -0.29839E+02
        -0.41011E+01
        -0.99726E+01
        -0.24106E+02
        -0.15522E+02
        -0.12746E+02
         0.64034E+01
         0.16560E+02
        -0.65818E+01
        -0.23415E+02
        -0.14626E+02
        -0.51700E+02
        -0.29253E+02
        -0.11232E+03
        -0.57203E+02
        -0.48457E+02
        -0.58312E+02
        -0.17078E+02
        -0.11906E+02
        -0.17939E+01
        -0.70429E+02
        -0.87743E+02
        -0.59610E+02
        -0.60820E+02
        -0.70828E+02
        -0.80703E+02
         0.11800E+02
        -0.55998E+02
        -0.67453E+02
        -0.40479E+02
        -0.65327E+02
        -0.71679E+02
        -0.76825E+02
        -0.16534E+02
        -0.15282E+02
        -0.26272E+02
        -0.47931E+02
        -0.63733E+02
        -0.75130E+02
        -0.68594E+02
        -0.24343E+02
        -0.27699E+02
        -0.34907E+02
        -0.56256E+02
        -0.29901E+02
        -0.59590E+02
        -0.61861E+02
        -0.66683E+02
        -0.61414E+02
        -0.56510E+02
        -0.25178E+02
        -0.47140E+02
        -0.72623E+02
        -0.82705E+02
        -0.72401E+02
        -0.43547E+02
        -0.83573E+02
        -0.43419E+02
        -0.49693E+02
        -0.37615E+02
         0.28185E+02
        -0.37085E+02
        -0.65834E+02
        -0.55498E+02
        -0.55108E+02
        -0.50435E+02
        -0.55953E+02
        -0.38787E+02
        -0.29205E+02
        -0.75096E+02
        -0.49689E+02
        -0.70290E+02
        -0.55697E+02
        -0.65384E+02
        -0.51206E+02
        -0.61715E+02
        -0.50441E+02
        -0.52733E+02
        -0.38784E+02
        -0.37955E+02
        -0.54194E+02
        -0.31289E+02
        -0.54164E+02
        -0.48358E+02
        -0.69473E+02
        -0.92932E+02
        -0.63019E+02
        -0.55840E+02
         0.79420E+01
         0.51062E+01
         0.14900E+02
        -0.55820E+02
        -0.22509E+02
        -0.76497E+01
        -0.39679E+02
        -0.74967E+02
        -0.14829E+02
        -0.64517E+02
         0.37932E+02
        -0.87454E+01
         0.43426E+01
        -0.26963E+02
         0.15128E+02
        -0.88105E+02
        -0.43090E+02
         0.14396E+02
        -0.55289E+02
         0.47603E+01
        -0.12453E+02
         0.18706E+02
        -0.21550E+02
         0.51422E+02
        -0.57924E+02
        -0.18516E+02
        -0.18435E+00
        -0.13783E+02
        -0.16539E+02
         0.39938E+00
        -0.10834E+02
        -0.13339E+02
         0.13831E+02
         0.31741E+02
        -0.31160E+02
        -0.32408E+02
        -0.17556E+02
         0.77966E+01
        -0.16800E+02
        -0.16714E+02
        -0.38857E+01
        -0.32183E+02
        -0.19856E+01
        -0.15526E+02
        -0.11999E+02
         0.21920E+02
        -0.54695E+02
        -0.17264E+02
        -0.29229E+02
        -0.62705E+02
        -0.88628E+02
        -0.46227E+02
        -0.17280E+02
        -0.13025E+02
        -0.10897E+02
        -0.24917E+02
        -0.13604E+02
        -0.31770E+02
        -0.48134E+02
        -0.84589E+01
        -0.13093E+02
        -0.14643E+02
        -0.31839E+02
        -0.97099E+01
        -0.26710E+02
        -0.18394E+02
        -0.27653E+02
        -0.19086E+02
        -0.31744E+02
        -0.34247E+02
        -0.32867E+02
        -0.23894E+02
        -0.14047E+02
        -0.21172E+02
         0.12667E+02
         0.17425E+02
         0.37488E+01
        -0.19172E+02
        -0.96904E+01
        -0.29960E+02
        -0.16098E+02
        -0.96289E+02
        -0.48335E+02
        -0.30518E+02
        -0.52350E+02
        -0.17498E+02
        -0.17962E+02
        -0.22993E+02
        -0.49223E+02
        -0.67173E+02
        -0.47827E+02
        -0.45870E+02
        -0.95451E+02
        -0.69222E+02
         0.14565E+02
        -0.36938E+02
        -0.58397E+02
        -0.15841E+02
        -0.67432E+02
        -0.78392E+02
        -0.55828E+02
        -0.24002E+02
        -0.24773E+02
        -0.13861E+02
        -0.92317E+01
        -0.16811E+02
        -0.46576E+02
        -0.39445E+02
        -0.22286E+02
        -0.21129E+02
        -0.29916E+02
        -0.37991E+02
        -0.37653E+02
        -0.72285E+02
        -0.68393E+02
        -0.79164E+02
        -0.59104E+02
        -0.58780E+02
        -0.41606E+02
        -0.54780E+02
        -0.72472E+02
        -0.61304E+02
        -0.69921E+02
        -0.60981E+02
        -0.74073E+02
        -0.20720E+02
        -0.47176E+02
        -0.51029E+02
         0.38005E+02
        -0.26392E+02
        -0.40078E+02
        -0.46271E+02
        -0.38685E+02
        -0.38264E+02
        -0.43674E+02
        -0.37032E+02
        -0.46819E+01
        -0.58056E+02
        -0.57173E+02
        -0.45384E+02
        -0.44052E+02
        -0.51125E+02
        -0.43056E+02
        -0.50001E+02
        -0.41127E+02
        -0.49068E+02
        -0.34739E+02
        -0.29152E+02
        -0.31160E+02
        -0.31213E+02
        -0.47200E+02
        -0.48438E+02
        -0.55948E+02
        -0.87117E+02
        -0.59484E+02
        -0.55908E+02
        -0.22664E+02
         0.11937E+01
         0.10676E+02
        -0.68071E+02
        -0.23255E+02
        -0.32866E+02
        -0.13022E+02
        -0.17803E+02
        -0.35316E+02
        -0.48110E+02
         0.22749E+02
        -0.50058E+02
        -0.55179E+02
        -0.48410E+02
         0.23178E+02
        -0.77288E+02
        -0.25377E+02
        -0.12734E+01
        -0.36504E+02
        -0.15265E+02
        -0.29308E+02
         0.44879E+01
        -0.51374E+02
         0.51562E+02
        -0.59541E+02
        -0.85839E+01
        -0.22059E+02
        -0.37810E+02
         0.13610E+02
        -0.55809E+01
        -0.19727E+02
        -0.54536E+01
         0.82774E+01
         0.53259E+02
        -0.27556E+02
        -0.20251E+02
        -0.37994E+02
         0.21753E+02
        -0.22856E+02
        -0.50245E+02
        -0.19606E+02
        -0.50619E+02
        -0.17370E+02
        -0.55132E+02
        -0.54014E+02
         0.12530E+02
        -0.39806E+02
        -0.26417E+02
        -0.57865E+02
        -0.58825E+02
        -0.77304E+02
        -0.66200E+02
        -0.45113E+02
        -0.17545E+02
        -0.11940E+02
        -0.26198E+02
        -0.19402E+02
        -0.77677E+01
        -0.67228E+02
        -0.23587E+02
        -0.15090E+02
        -0.21063E+02
        -0.29972E+02
        -0.15392E+02
        -0.32168E+02
        -0.33151E+02
        -0.25919E+02
        -0.20497E+02
        -0.24765E+02
        -0.23638E+02
        -0.34772E+02
        -0.32365E+02
        -0.21626E+02
        -0.85039E+01
        -0.67924E+01
         0.22891E+02
        -0.10170E+02
        -0.14683E+02
         0.13215E+03
        -0.11554E+03
        -0.28499E+01
        -0.75965E+02
        -0.27094E+02
        -0.93306E+01
        -0.97808E+02
        -0.70801E+02
         0.50197E+02
        -0.10002E+03
        -0.85205E+02
         0.55656E+01
         0.53753E+02
         0.37496E+02
        -0.94267E+02
        -0.33289E+02
        -0.82946E+01
        -0.14768E+03
        -0.50583E+02
        -0.32121E+02
        -0.15854E+02
        -0.52407E+02
         0.38190E+01
        -0.78627E+02
        -0.18385E+02
        -0.13595E+02
        -0.13419E+02
        -0.14155E+02
        -0.85443E+02
        -0.19235E+02
         0.43747E+02
        -0.83639E+02
         0.28177E+02
        -0.98909E+02
        -0.33780E+02
        -0.53543E+02
        -0.34565E+02
        -0.75101E+02
        -0.29058E+02
        -0.39942E+01
        -0.63912E+02
         0.10966E+02
        -0.53742E+02
        -0.35109E+02
        -0.11736E+02
        -0.37534E+02
        -0.45980E+02
        -0.51085E+02
        -0.44205E+02
         0.76661E+01
        -0.32167E+01
        -0.12035E+01
        -0.22227E+02
        -0.48733E+02
        -0.41888E+02
        -0.38347E+02
        -0.48960E+02
        -0.70416E+02
        -0.73750E+00
        -0.37666E+02
        -0.52181E+02
        -0.45896E+02
        -0.37924E+02
        -0.50996E+02
        -0.40994E+02
        -0.38137E+02
        -0.52416E+02
        -0.49604E+02
        -0.42934E+02
        -0.35675E+02
        -0.41572E+02
        -0.16970E+02
        -0.46007E+02
        -0.33499E+02
        -0.64589E+02
        -0.63847E+02
        -0.55046E+02
        -0.48297E+02
        -0.14992E+03
         0.44406E+02
         0.57348E+00
        -0.68491E+02
        -0.89955E+02
         0.29418E+02
        -0.35158E+02
         0.74873E+02
        -0.11481E+03
        -0.34829E+02
         0.23421E+02
        -0.46364E+02
        -0.10247E+03
        -0.76723E+02
        -0.27012E+02
        -0.11598E+03
        -0.36051E+02
         0.21394E+03
        -0.50093E+02
         0.25408E+02
        -0.43323E+02
        -0.34701E+02
        -0.76003E+02
         0.69469E+02
        -0.11125E+02
        -0.40103E+02
        -0.10577E+02
        -0.32951E+02
         0.20354E+02
        -0.59292E+02
        -0.99971E+02
         0.52600E+02
        -0.68147E+02
        -0.55497E+02
        -0.27688E+02
        -0.13597E+02
        -0.26593E+02
        -0.14367E+02
        -0.35844E+02
        -0.55880E+02
        -0.18543E+02
        -0.71527E+02
        -0.98380E+01
        -0.21943E+02
        -0.84910E+02
         0.22090E+02
        -0.93305E+02
         0.23746E+02
        -0.14384E+02
        -0.50097E+02
         0.89329E+01
        -0.54766E+02
        -0.40492E+02
        -0.17158E+02
        -0.21402E+02
        -0.47883E+02
        -0.20960E+01
        -0.30890E+02
        -0.40582E+02
        -0.44734E+02
        -0.30790E+02
        -0.31488E+02
        -0.38573E+02
        -0.27428E+02
        -0.36781E+02
        -0.42267E+02
        -0.24571E+02
        -0.39435E+02
        -0.19035E+02
        -0.39026E+02
        -0.30747E+02
        -0.40016E+02
        -0.23657E+02
        -0.50054E+02
        -0.10036E+02
        -0.49369E+02
        -0.24627E+02
        -0.40199E+02
  
SCALARS                 acceleration_x  double 1
LOOKUP_TABLE default
        -0.12345E+07
        -0.22812E+07
        -0.14841E+07
        -0.50678E+06
        -0.17849E+07
        -0.47317E+06
         0.23535E+07
         0.73218E+06
        -0.28768E+07
        -0.18804E+07
        -0.17589E+07
         0.22089E+07
         0.95055E+06
        -0.11430E+07
        -0.21515E+07
         0.10240E+07
        -0.12880E+07
         0.37522E+06
         0.70356E+06
        -0.17833E+06
        -0.33659E+07
        -0.23138E+07
        -0.11008E+07
        -0.44127E+07
        -0.35938E+07
         0.24265E+07
        -0.10433E+07
         0.39128E+05
        -0.69766E+07
        -0.28543E+07
         0.10646E+07
         0.36358E+07
        -0.44545E+06
        -0.25442E+07
         0.20888E+06
         0.18737E+07
         0.30045E+07
         0.31905E+07
        -0.51814E+07
        -0.54331E+07
         0.41381E+07
         0.39960E+07
        -0.35239E+07
        -0.45406E+07
         0.26286E+07
         0.56014E+07
        -0.17316E+07
        -0.96858E+07
         0.19282E+07
         0.11681E+07
         0.34268E+07
         0.22733E+07
         0.54545E+06
        -0.74000E+06
         0.14431E+07
         0.36081E+05
         0.26885E+07
         0.45565E+07
         0.69013E+05
        -0.99951E+06
         0.11146E+07
         0.24817E+07
         0.22943E+07
         0.38263E+07
         0.16855E+07
         0.20567E+07
        -0.17557E+07
        -0.19110E+07
        -0.28083E+07
        -0.29018E+07
         0.52096E+07
        -0.65616E+06
        -0.12055E+07
         0.54996E+07
         0.10804E+07
        -0.19535E+07
        -0.32128E+06
        -0.21756E+07
         0.16060E+07
         0.40240E+07
         0.31803E+07
         0.69364E+06
        -0.13678E+07
         0.33032E+07
         0.12325E+07
        -0.32733E+07
         0.19927E+07
        -0.32293E+07
         0.29799E+07
        -0.16953E+07
         0.33039E+07
        -0.42367E+06
         0.49452E+07
         0.43046E+07
        -0.25131E+07
         0.41810E+07
        -0.14936E+07
         0.14393E+07
        -0.88290E+06
         0.69582E+07
        -0.37945E+07
        -0.36678E+07
        -0.74089E+07
         0.17343E+07
        -0.32969E+06
        -0.86804E+06
         0.41892E+06
         0.25721E+07
        -0.31603E+07
         0.13305E+08
         0.59512E+06
         0.63720E+07
        -0.19041E+06
         0.36368E+07
        -0.56045E+06
        -0.48869E+06
         0.24041E+07
        -0.19525E+07
         0.23526E+07
        -0.33269E+07
         0.87997E+06
        -0.13331E+07
         0.19945E+07
         0.31911E+07
         0.21040E+07
         0.99522E+07
         0.65615E+06
         0.23995E+07
         0.69007E+06
         0.39690E+06
         0.32494E+07
        -0.29119E+06
         0.85070E+06
        -0.16720E+07
         0.19192E+06
        -0.54476E+07
         0.78475E+06
        -0.57215E+07
         0.13237E+07
         0.20070E+07
        -0.31303E+07
        -0.12954E+07
        -0.78777E+06
         0.25282E+07
        -0.42456E+06
         0.19063E+07
         0.85288E+06
         0.22291E+07
        -0.28753E+07
         0.10941E+07
        -0.12086E+07
        -0.21553E+07
         0.10630E+05
         0.29635E+07
        -0.20272E+07
        -0.47243E+07
         0.16532E+07
         0.18133E+07
         0.31803E+07
         0.20937E+07
         0.16402E+07
         0.32258E+07
         0.57254E+07
        -0.26929E+06
        -0.40579E+06
        -0.12868E+07
         0.54409E+07
         0.26359E+07
         0.20221E+07
        -0.55871E+06
         0.12713E+07
         0.35968E+06
         0.23768E+07
         0.33846E+06
        -0.22299E+07
        -0.33112E+07
        -0.71129E+06
        -0.98865E+05
        -0.25102E+07
        -0.18031E+07
        -0.20013E+07
         0.35116E+06
        -0.12986E+07
         0.14388E+06
        -0.34390E+07
        -0.52277E+06
        -0.11736E+07
         0.19053E+06
         0.33779E+06
         0.30790E+06
         0.24249E+07
         0.47892E+05
         0.12616E+06
        -0.83465E+06
        -0.31189E+06
        -0.12857E+07
        -0.25135E+07
        -0.18304E+07
        -0.21789E+07
        -0.17778E+07
         0.41628E+06
        -0.33274E+07
         0.18520E+06
         0.50524E+06
        -0.92612E+04
         0.11156E+07
         0.20405E+07
         0.13289E+07
        -0.36507E+07
        -0.20539E+05
         0.11451E+07
        -0.18471E+07
         0.26231E+06
         0.32096E+07
         0.24366E+07
         0.44705E+06
         0.35290E+06
        -0.12991E+07
         0.77949E+05
         0.53559E+07
         0.77234E+06
        -0.73651E+06
         0.28201E+06
         0.15640E+07
        -0.67500E+05
        -0.19331E+07
        -0.29533E+07
        -0.94526E+06
        -0.42912E+07
        -0.71446E+06
        -0.85120E+06
        -0.16551E+07
         0.43270E+06
         0.23186E+06
        -0.14543E+07
        -0.36904E+07
        -0.35254E+07
        -0.12143E+07
        -0.39857E+07
        -0.16677E+07
        -0.27388E+07
        -0.26414E+07
        -0.60721E+06
        -0.89154E+06
         0.19627E+07
         0.66577E+06
        -0.75205E+06
        -0.94377E+06
        -0.49337E+06
         0.35509E+06
         0.20884E+07
        -0.10216E+07
         0.30054E+07
         0.32223E+07
         0.31173E+07
         0.22524E+07
         0.17782E+07
         0.42549E+07
         0.36519E+06
         0.20414E+07
         0.47306E+06
         0.24097E+07
        -0.17670E+07
         0.43988E+07
        -0.26841E+07
         0.10131E+05
        -0.29711E+07
        -0.36774E+07
        -0.26930E+07
        -0.30642E+07
        -0.31150E+07
        -0.11041E+07
         0.94451E+06
        -0.67109E+06
         0.12039E+07
         0.47438E+07
         0.12798E+07
         0.17951E+07
         0.21582E+07
        -0.27515E+07
         0.80016E+06
         0.24231E+07
        -0.18062E+06
        -0.25525E+07
        -0.20452E+07
        -0.22047E+07
        -0.37987E+07
        -0.11811E+07
        -0.15366E+07
        -0.40520E+07
         0.10991E+07
        -0.62501E+06
         0.17460E+07
         0.90360E+06
        -0.84768E+06
        -0.22963E+06
         0.43832E+06
         0.24100E+07
         0.17709E+07
         0.99265E+06
         0.11478E+07
         0.66015E+06
         0.45609E+06
        -0.83388E+05
         0.84449E+06
        -0.44065E+06
        -0.37245E+06
        -0.60459E+06
        -0.24068E+07
         0.11829E+07
        -0.37687E+07
        -0.35208E+07
         0.21137E+07
         0.25841E+07
         0.21851E+07
         0.22471E+07
         0.10372E+07
         0.26840E+07
         0.14466E+07
         0.16421E+07
         0.11346E+06
        -0.13693E+07
         0.35165E+07
         0.23334E+07
         0.29884E+07
        -0.57553E+06
        -0.13682E+07
        -0.47840E+06
        -0.31070E+07
         0.12560E+07
        -0.47942E+07
        -0.39944E+07
        -0.10401E+07
        -0.23141E+07
        -0.23568E+07
        -0.76160E+07
        -0.48345E+07
        -0.21561E+07
        -0.86022E+06
        -0.68596E+06
        -0.27291E+07
        -0.15826E+07
        -0.50359E+06
        -0.37719E+06
         0.15054E+06
         0.27067E+07
        -0.41437E+06
         0.17681E+07
         0.13716E+07
        -0.17912E+07
        -0.56603E+06
        -0.30861E+07
        -0.30327E+07
        -0.13112E+07
        -0.48460E+07
        -0.16177E+07
         0.33268E+05
        -0.11388E+06
        -0.24279E+06
         0.10603E+06
        -0.40575E+06
         0.13727E+07
         0.32320E+07
         0.34244E+07
        -0.39238E+07
        -0.11959E+07
        -0.13287E+06
        -0.14181E+07
         0.20481E+06
        -0.26403E+07
         0.31917E+06
        -0.74847E+06
        -0.23274E+07
        -0.57593E+06
         0.15172E+07
         0.91138E+06
         0.36532E+06
        -0.78038E+06
        -0.12781E+07
        -0.13580E+07
         0.10544E+07
        -0.98572E+06
         0.12763E+07
        -0.20696E+06
         0.18297E+07
         0.23429E+07
         0.18268E+07
         0.24855E+07
         0.45528E+05
         0.69568E+06
        -0.12668E+07
        -0.26909E+07
        -0.30529E+07
        -0.16212E+07
        -0.24522E+07
        -0.25633E+07
        -0.22738E+07
        -0.59249E+06
        -0.59055E+06
         0.51571E+06
        -0.23420E+07
         0.11684E+07
         0.39442E+06
        -0.31361E+07
        -0.12495E+07
         0.11693E+07
         0.73671E+06
        -0.12272E+06
         0.25705E+07
         0.35596E+07
         0.38746E+07
         0.28395E+07
         0.22685E+07
         0.39601E+07
         0.15624E+07
         0.25862E+07
        -0.62056E+06
         0.12470E+07
         0.28456E+07
         0.48478E+07
         0.73845E+06
         0.19412E+07
        -0.76157E+06
        -0.15147E+07
         0.11186E+07
        -0.58830E+06
        -0.73529E+06
        -0.10314E+07
         0.51081E+06
         0.15956E+07
         0.50841E+06
        -0.51185E+06
         0.57135E+06
         0.11008E+06
        -0.64357E+06
        -0.26318E+06
         0.18572E+07
         0.31377E+06
        -0.12000E+07
        -0.84812E+06
        -0.46551E+06
        -0.16111E+07
        -0.16475E+07
        -0.14374E+07
        -0.63092E+06
        -0.18494E+07
        -0.26579E+07
        -0.41075E+06
        -0.85253E+06
         0.13990E+07
         0.67083E+06
         0.10502E+07
         0.10115E+07
         0.14524E+07
        -0.40147E+06
        -0.48383E+05
         0.33418E+07
         0.11081E+07
         0.33884E+07
         0.77260E+06
        -0.97145E+06
         0.20825E+07
        -0.93204E+06
         0.57559E+06
         0.28671E+06
         0.16243E+07
         0.25316E+06
         0.30617E+06
         0.14845E+07
         0.19641E+07
         0.22452E+07
         0.13460E+07
         0.43898E+07
         0.35993E+07
         0.29335E+07
         0.24792E+07
        -0.36243E+06
        -0.75163E+06
         0.29362E+07
         0.61763E+06
         0.52013E+06
        -0.70764E+06
         0.31390E+06
        -0.31692E+06
        -0.24667E+07
         0.99361E+06
        -0.39582E+07
        -0.36086E+07
        -0.22056E+07
        -0.11495E+07
        -0.69262E+06
        -0.39290E+07
        -0.26669E+07
        -0.15128E+07
        -0.36801E+06
        -0.30261E+07
        -0.40441E+07
        -0.25635E+07
         0.39265E+06
        -0.99822E+06
         0.71023E+06
         0.24432E+07
         0.46982E+07
         0.25546E+07
         0.91225E+06
         0.43893E+06
        -0.31354E+06
        -0.14604E+07
        -0.13657E+07
        -0.15653E+07
         0.10091E+07
        -0.16666E+07
        -0.28864E+07
        -0.23218E+07
        -0.13532E+06
        -0.44190E+05
         0.45020E+06
         0.21305E+07
         0.20814E+07
         0.34971E+07
         0.26656E+07
         0.71806E+07
         0.41426E+07
         0.46892E+07
         0.30651E+07
         0.21277E+07
        -0.21343E+07
        -0.12072E+07
        -0.14241E+07
        -0.30244E+07
        -0.20784E+07
        -0.27167E+07
        -0.17661E+07
        -0.37677E+06
        -0.90224E+06
        -0.23933E+07
        -0.13447E+07
        -0.46417E+06
         0.37427E+06
         0.38647E+06
        -0.49154E+06
         0.16205E+07
         0.33615E+06
         0.43511E+07
         0.70140E+07
         0.48567E+07
        -0.27907E+07
        -0.20708E+07
        -0.29325E+07
        -0.25568E+07
        -0.20619E+07
        -0.16332E+07
        -0.28140E+07
        -0.35872E+07
        -0.88575E+06
        -0.12053E+07
        -0.28852E+07
        -0.57382E+06
        -0.17338E+07
        -0.23217E+07
         0.67377E+06
         0.14509E+07
         0.24966E+07
        -0.13109E+07
         0.27365E+07
         0.27146E+07
         0.10153E+07
         0.10771E+07
         0.21021E+07
         0.53281E+07
         0.38196E+07
         0.42620E+07
         0.81640E+06
         0.15984E+07
         0.37056E+07
         0.34187E+07
        -0.81328E+06
         0.14130E+07
        -0.32586E+07
        -0.20665E+07
        -0.41366E+07
        -0.15511E+07
        -0.10805E+07
        -0.75487E+06
         0.95757E+05
         0.18872E+07
        -0.14556E+06
         0.11652E+06
         0.28737E+07
         0.17756E+07
         0.15385E+07
         0.23846E+07
         0.74667E+06
        -0.77923E+06
        -0.14537E+07
        -0.14096E+07
        -0.38667E+07
        -0.18095E+07
         0.68865E+06
         0.96860E+06
        -0.83178E+06
         0.63270E+06
        -0.10771E+06
         0.10308E+07
         0.41769E+04
        -0.27971E+07
        -0.16762E+07
         0.34937E+06
         0.17755E+06
         0.37221E+06
         0.82332E+06
        -0.64175E+05
         0.18850E+07
         0.21663E+07
        -0.10819E+07
        -0.10078E+07
        -0.33874E+06
         0.15314E+07
        -0.22874E+05
        -0.19991E+07
        -0.24016E+07
         0.14555E+07
         0.27381E+06
         0.13146E+07
         0.18742E+07
         0.22338E+07
         0.18324E+07
         0.97046E+06
         0.88088E+06
         0.18889E+06
         0.20544E+07
         0.14283E+07
         0.11022E+07
         0.43726E+06
         0.17240E+07
         0.36312E+07
         0.28695E+07
        -0.97540E+06
         0.10583E+07
         0.33742E+05
        -0.90738E+06
         0.14067E+07
        -0.37136E+07
        -0.30984E+07
        -0.33649E+07
        -0.24308E+07
        -0.28291E+07
        -0.52432E+07
        -0.39889E+07
        -0.32846E+07
         0.14040E+07
        -0.13330E+07
        -0.36266E+06
        -0.27287E+07
        -0.73040E+06
        -0.20475E+07
         0.12782E+06
         0.16160E+07
         0.59557E+07
         0.42207E+07
         0.29234E+07
        -0.11395E+07
        -0.73655E+06
        -0.33898E+05
        -0.33132E+07
        -0.41517E+07
        -0.21356E+07
        -0.18072E+07
        -0.99046E+06
         0.62494E+05
         0.64732E+06
         0.87449E+06
        -0.14505E+06
         0.92994E+06
         0.17953E+07
         0.15693E+07
         0.15723E+07
         0.14352E+07
         0.15525E+07
         0.15602E+07
         0.57550E+06
        -0.14933E+07
        -0.24050E+07
        -0.13302E+07
        -0.29423E+06
         0.75342E+05
         0.49854E+06
        -0.30630E+07
        -0.21681E+07
        -0.75059E+06
        -0.59942E+06
        -0.55143E+06
        -0.61131E+06
         0.10857E+07
         0.80376E+06
        -0.16830E+07
         0.15121E+06
        -0.81634E+06
        -0.26258E+06
        -0.90474E+06
         0.81457E+06
         0.26261E+07
        -0.38457E+07
        -0.33727E+07
        -0.22418E+07
        -0.20546E+07
        -0.26785E+07
        -0.14009E+07
        -0.15739E+07
        -0.18361E+07
        -0.20950E+07
        -0.15412E+07
        -0.88474E+06
        -0.19366E+07
        -0.38099E+07
        -0.15089E+07
        -0.13139E+07
         0.20244E+07
         0.38922E+07
        -0.22401E+07
         0.47567E+07
         0.43612E+07
         0.20489E+06
         0.65889E+06
         0.11208E+07
         0.47237E+07
         0.23062E+07
         0.36072E+07
         0.15957E+07
         0.18037E+07
         0.71527E+06
         0.22726E+07
        -0.66398E+06
         0.10131E+07
        -0.18101E+07
        -0.74721E+05
        -0.44903E+07
        -0.25455E+07
        -0.38114E+07
         0.26067E+06
         0.15423E+07
         0.22882E+07
         0.36192E+07
         0.22136E+07
         0.18374E+07
         0.65647E+06
         0.21695E+05
         0.86681E+06
         0.72912E+06
         0.42358E+06
        -0.15584E+07
        -0.17643E+07
        -0.38056E+07
        -0.28155E+06
        -0.12257E+07
        -0.17618E+07
        -0.11371E+07
        -0.29312E+07
        -0.13443E+07
        -0.20293E+07
        -0.54262E+06
         0.15001E+07
         0.44565E+07
         0.10588E+07
        -0.66515E+06
        -0.17023E+07
        -0.16248E+07
         0.55157E+06
         0.34962E+06
         0.35905E+07
         0.76593E+06
         0.12857E+07
         0.81735E+06
        -0.15899E+07
        -0.25355E+04
        -0.22986E+07
        -0.18522E+07
        -0.43328E+07
        -0.59086E+07
        -0.45117E+07
         0.42875E+07
         0.31256E+07
         0.32898E+07
         0.30605E+07
         0.98334E+06
         0.84463E+05
         0.16797E+07
         0.38436E+07
         0.94676E+06
        -0.65299E+05
         0.84125E+05
        -0.10652E+07
        -0.16072E+07
         0.12095E+07
         0.67317E+06
        -0.17827E+07
        -0.36952E+07
         0.18266E+07
        -0.63481E+07
        -0.62924E+07
        -0.14329E+07
        -0.17528E+07
        -0.12933E+06
        -0.71328E+07
        -0.37879E+07
        -0.42825E+07
         0.94946E+06
        -0.41202E+05
        -0.12308E+07
        -0.39005E+07
        -0.27681E+06
        -0.20616E+07
         0.21958E+07
         0.30372E+07
         0.26616E+07
         0.21315E+07
        -0.37144E+06
        -0.39698E+06
        -0.20261E+06
        -0.12537E+07
        -0.37596E+07
        -0.25633E+07
         0.27338E+06
        -0.13009E+07
        -0.17796E+07
         0.84275E+06
        -0.24474E+06
        -0.33386E+06
         0.89505E+06
         0.21838E+07
        -0.61234E+06
        -0.58140E+05
         0.94050E+07
         0.77469E+07
         0.77852E+07
         0.28203E+07
         0.17531E+07
        -0.31414E+07
        -0.67787E+06
         0.17320E+06
         0.26332E+07
        -0.13347E+07
        -0.22833E+07
        -0.48630E+07
        -0.26755E+07
        -0.37364E+07
        -0.27366E+07
        -0.21384E+07
        -0.41289E+07
        -0.29357E+07
        -0.36640E+07
        -0.15378E+07
         0.87835E+06
         0.26790E+07
         0.34121E+07
         0.21996E+07
         0.20317E+07
         0.25747E+07
        -0.47841E+07
        -0.47474E+07
        -0.38300E+07
        -0.34968E+07
        -0.14048E+07
        -0.14435E+07
        -0.31647E+07
        -0.23102E+07
        -0.16539E+07
         0.24645E+05
        -0.63003E+07
        -0.65504E+05
        -0.27843E+06
        -0.24861E+07
        -0.35749E+06
         0.17683E+07
         0.32137E+07
        -0.24820E+07
         0.60907E+07
         0.62894E+07
        -0.31479E+06
         0.63232E+06
         0.23474E+06
         0.58600E+07
         0.24982E+07
         0.34137E+07
         0.13845E+07
         0.63282E+06
         0.33856E+07
         0.43892E+07
        -0.52650E+05
         0.92076E+06
        -0.14499E+07
        -0.21818E+07
         0.77151E+06
        -0.89242E+05
        -0.53539E+06
         0.17681E+07
         0.12098E+07
         0.20231E+07
         0.21141E+07
        -0.32283E+06
         0.11117E+07
        -0.17651E+06
        -0.13870E+07
        -0.22172E+07
         0.33496E+06
         0.35561E+05
        -0.60161E+06
         0.74055E+06
         0.23151E+07
         0.56116E+06
        -0.55620E+07
        -0.38136E+07
        -0.13187E+07
        -0.16092E+07
        -0.22589E+07
        -0.26727E+07
         0.10994E+07
         0.99982E+06
         0.11529E+07
        -0.23431E+07
        -0.38091E+07
        -0.22433E+07
         0.23538E+07
         0.21795E+07
         0.69423E+06
        -0.42041E+06
        -0.16213E+07
         0.67871E+06
        -0.10643E+06
        -0.28115E+06
         0.69297E+06
         0.75726E+05
        -0.10727E+07
        -0.44835E+07
        -0.28752E+07
        -0.39880E+07
         0.34987E+07
         0.46777E+07
         0.39936E+07
         0.28291E+07
         0.22701E+07
         0.16891E+07
         0.62243E+07
         0.20207E+07
         0.17688E+06
        -0.10391E+07
         0.36874E+07
        -0.43112E+06
        -0.90385E+05
         0.49126E+06
         0.16329E+06
        -0.10515E+07
        -0.12613E+07
         0.14147E+07
        -0.69434E+07
        -0.70641E+07
         0.49505E+06
         0.15394E+07
         0.89120E+04
        -0.84408E+07
         0.85140E+05
        -0.27092E+07
        -0.99076E+06
        -0.24869E+07
        -0.40763E+07
        -0.54537E+07
         0.94018E+06
        -0.68487E+06
         0.23916E+07
         0.22053E+07
        -0.34318E+07
        -0.50035E+06
        -0.41186E+06
         0.91462E+06
        -0.99064E+06
        -0.16517E+07
        -0.11905E+07
        -0.28407E+07
        -0.17551E+06
        -0.78646E+04
         0.18860E+06
        -0.53588E+06
         0.34425E+06
         0.11350E+07
         0.44277E+06
        -0.41597E+06
        -0.27486E+07
         0.26493E+05
         0.59983E+07
         0.36300E+07
         0.35720E+07
        -0.13757E+07
         0.52206E+06
         0.12061E+05
         0.59536E+05
         0.89630E+06
        -0.15629E+07
        -0.50514E+07
        -0.23495E+07
         0.62108E+06
        -0.11870E+07
        -0.20970E+07
        -0.23261E+07
        -0.15976E+07
        -0.32234E+07
        -0.25221E+07
        -0.96824E+06
        -0.47407E+06
         0.51910E+06
        -0.38478E+06
         0.18431E+07
         0.88042E+06
         0.15985E+07
         0.21722E+07
        -0.27338E+07
        -0.36725E+07
        -0.30438E+07
        -0.25537E+07
        -0.24469E+07
        -0.27858E+07
        -0.37971E+07
        -0.77524E+06
        -0.58285E+06
         0.91357E+06
        -0.11651E+07
         0.68782E+06
        -0.65335E+06
         0.71277E+06
         0.14792E+07
         0.97214E+06
         0.22267E+07
        -0.19669E+07
         0.61111E+07
         0.54335E+07
        -0.18431E+07
        -0.16482E+07
        -0.50898E+06
         0.77330E+07
         0.97447E+06
         0.38419E+07
         0.66146E+06
         0.17766E+07
         0.43303E+07
         0.36824E+07
        -0.11602E+07
         0.89068E+06
        -0.19915E+07
        -0.16929E+07
         0.53242E+06
         0.33356E+06
        -0.50875E+06
         0.12025E+05
         0.19773E+07
         0.99824E+06
        -0.32384E+07
         0.54087E+06
         0.24857E+07
        -0.55098E+06
        -0.52480E+06
         0.64510E+06
         0.40843E+06
        -0.14210E+07
        -0.10535E+07
         0.10644E+07
         0.10504E+07
        -0.14730E+07
        -0.63374E+07
        -0.36640E+07
        -0.69028E+07
        -0.45246E+07
        -0.15611E+07
        -0.60325E+06
         0.12419E+07
         0.75107E+06
         0.73540E+06
        -0.24212E+07
         0.11001E+07
         0.14271E+06
         0.14646E+07
         0.21271E+07
         0.19767E+07
         0.13614E+07
        -0.10346E+05
         0.97247E+06
        -0.51704E+06
        -0.57261E+06
         0.11484E+07
        -0.17133E+06
        -0.36559E+07
        -0.76338E+07
        -0.55966E+07
        -0.20949E+07
         0.28419E+07
         0.37253E+07
         0.26128E+07
         0.21184E+07
         0.22129E+07
         0.16294E+07
         0.54324E+07
         0.14787E+07
        -0.65617E+06
        -0.17587E+07
         0.24755E+07
         0.36799E+06
         0.12732E+07
        -0.73567E+06
        -0.86333E+06
        -0.16411E+07
        -0.36990E+07
         0.14253E+07
        -0.57812E+07
        -0.38698E+07
         0.20481E+07
         0.92689E+05
         0.21931E+07
        -0.82618E+07
        -0.23267E+07
        -0.38525E+07
         0.13467E+07
        -0.83007E+05
        -0.57133E+07
        -0.33042E+07
         0.73412E+06
        -0.13077E+07
         0.21132E+07
         0.87573E+06
        -0.72573E+06
        -0.26178E+06
         0.69386E+06
        -0.45408E+03
        -0.14819E+07
        -0.25914E+07
         0.42805E+06
        -0.69537E+06
        -0.12302E+07
         0.12088E+07
         0.15435E+07
         0.16584E+07
        -0.18594E+06
         0.62735E+06
         0.60499E+06
        -0.61233E+06
        -0.24864E+07
        -0.14257E+06
         0.39607E+07
         0.13043E+07
         0.21408E+07
        -0.15553E+07
        -0.27412E+07
        -0.13866E+07
         0.12170E+07
         0.15338E+07
        -0.11450E+07
        -0.11819E+07
        -0.76275E+06
        -0.15933E+06
        -0.24427E+07
        -0.30656E+07
        -0.23383E+07
         0.37211E+05
         0.70336E+06
         0.97250E+06
         0.30748E+07
         0.80962E+06
        -0.23392E+07
        -0.36611E+07
        -0.18391E+07
        -0.15604E+07
         0.46896E+06
         0.76604E+06
        -0.36494E+07
        -0.39428E+07
        -0.34028E+07
        -0.33466E+07
        -0.23090E+07
        -0.22587E+07
        -0.28624E+07
        -0.10539E+07
        -0.32251E+06
         0.16168E+07
         0.10003E+07
        -0.19433E+07
        -0.19061E+07
         0.16179E+07
        -0.11366E+07
         0.27280E+07
         0.53601E+07
        -0.19533E+07
         0.63359E+07
         0.44391E+07
        -0.91259E+06
        -0.43022E+06
        -0.17187E+07
         0.72082E+07
         0.38048E+07
         0.52718E+07
         0.49213E+06
        -0.20001E+06
         0.28683E+07
         0.23964E+07
         0.18189E+05
         0.19847E+07
        -0.21464E+07
        -0.18223E+07
        -0.12449E+07
        -0.70164E+06
        -0.11542E+07
        -0.11650E+07
        -0.89550E+06
         0.19915E+07
         0.32458E+07
         0.85329E+06
         0.33826E+06
        -0.20513E+07
        -0.15458E+07
        -0.62765E+06
         0.97286E+06
         0.21199E+05
        -0.77057E+06
        -0.47983E+06
        -0.16820E+07
        -0.83910E+06
         0.30910E+07
         0.23077E+07
        -0.31283E+07
        -0.29472E+07
        -0.15005E+05
         0.58916E+06
        -0.97549E+06
        -0.34612E+06
        -0.17016E+07
         0.35848E+07
         0.19086E+07
         0.33457E+07
        -0.65557E+06
        -0.46308E+06
         0.35251E+06
         0.24136E+07
         0.20323E+07
         0.12519E+07
         0.31323E+07
         0.21676E+07
         0.95275E+06
        -0.72165E+06
        -0.43656E+07
        -0.67250E+07
        -0.85930E+06
        -0.66179E+06
         0.34434E+07
         0.16394E+07
         0.16072E+07
         0.27811E+07
         0.63144E+06
         0.88166E+06
         0.14875E+07
         0.15844E+07
         0.76969E+06
        -0.16027E+07
         0.15659E+07
         0.69899E+06
         0.80433E+06
        -0.36305E+06
         0.10864E+07
        -0.19854E+07
        -0.54647E+07
         0.27088E+07
        -0.68613E+07
        -0.61471E+07
         0.68311E+06
         0.18804E+07
         0.12283E+07
        -0.52885E+07
        -0.56307E+07
        -0.31563E+07
        -0.10225E+07
        -0.17429E+07
        -0.16383E+07
        -0.27942E+07
         0.53800E+06
        -0.85948E+06
         0.27313E+07
         0.31055E+07
         0.27890E+07
         0.12508E+07
         0.82446E+06
         0.21439E+07
         0.36955E+06
        -0.25037E+07
        -0.37456E+07
        -0.27364E+06
         0.28248E+07
         0.14955E+07
         0.12566E+07
        -0.82027E+05
         0.10269E+07
         0.10428E+07
         0.13849E+07
         0.19596E+07
         0.10887E+07
         0.10632E+07
        -0.28444E+07
        -0.16492E+07
         0.14645E+07
         0.65152E+06
        -0.70818E+06
        -0.11451E+07
         0.34477E+06
         0.11579E+07
        -0.16186E+07
        -0.10896E+07
         0.22138E+06
        -0.21249E+07
        -0.31776E+07
        -0.26343E+07
        -0.13686E+07
        -0.27163E+06
         0.93233E+06
        -0.21435E+06
        -0.16217E+07
        -0.64366E+06
        -0.12817E+07
         0.24917E+06
         0.40483E+05
        -0.15709E+07
         0.10974E+07
         0.10682E+07
        -0.32818E+07
        -0.22127E+07
        -0.25308E+07
        -0.25062E+07
        -0.61538E+06
         0.28797E+06
        -0.10009E+07
        -0.30044E+07
        -0.28975E+06
         0.15500E+07
        -0.33133E+07
         0.10344E+07
         0.16845E+07
        -0.15718E+07
        -0.99528E+06
         0.24519E+07
         0.65315E+07
        -0.15781E+07
         0.61164E+07
         0.74501E+07
         0.56313E+06
        -0.36494E+06
        -0.98998E+06
         0.43839E+07
         0.76757E+07
         0.32775E+07
         0.18096E+07
         0.16372E+07
         0.16375E+06
         0.50942E+07
        -0.13442E+06
         0.15467E+06
        -0.19950E+07
        -0.28744E+07
        -0.52867E+07
        -0.23672E+07
        -0.10299E+06
        -0.49481E+06
        -0.17160E+07
         0.10264E+07
         0.45142E+07
         0.65231E+06
        -0.18338E+07
        -0.16123E+07
        -0.16541E+07
        -0.22317E+07
        -0.17076E+07
        -0.68328E+06
        -0.12180E+07
        -0.30538E+07
        -0.38743E+07
        -0.48232E+06
         0.14656E+07
         0.33009E+07
         0.51359E+06
        -0.30515E+07
         0.17944E+06
         0.38815E+07
        -0.67742E+06
        -0.15039E+07
        -0.81569E+06
         0.14064E+07
        -0.14745E+07
        -0.14793E+07
         0.29931E+06
         0.30371E+07
         0.19050E+07
         0.25947E+07
         0.16053E+07
        -0.15158E+07
         0.71674E+06
         0.31207E+06
         0.25897E+07
         0.49944E+06
        -0.20682E+07
         0.16023E+07
        -0.34510E+07
        -0.35235E+07
         0.42546E+07
         0.33607E+07
         0.28368E+07
         0.28782E+07
         0.85401E+06
         0.67982E+06
         0.36458E+07
         0.35040E+07
         0.21348E+06
        -0.21585E+07
         0.73745E+07
        -0.24790E+06
        -0.13702E+07
         0.24062E+07
         0.15384E+06
        -0.26216E+07
        -0.64232E+07
         0.14772E+07
        -0.78372E+07
        -0.83939E+07
         0.14062E+07
         0.12320E+07
         0.13133E+07
        -0.60485E+07
        -0.60447E+07
        -0.31083E+07
        -0.16550E+07
        -0.15736E+07
        -0.10220E+06
        -0.51689E+07
        -0.47045E+06
        -0.29139E+06
         0.90173E+06
         0.21644E+07
         0.36839E+06
        -0.53083E+05
        -0.86030E+06
         0.60036E+06
         0.25553E+07
         0.22675E+07
        -0.56765E+06
        -0.12582E+07
         0.47831E+06
         0.62796E+06
         0.88619E+06
         0.68645E+06
         0.19645E+07
         0.85172E+05
        -0.46746E+06
         0.24703E+07
         0.51803E+07
         0.16563E+07
        -0.59103E+07
        -0.18828E+07
        -0.28222E+07
         0.53621E+05
        -0.42316E+06
        -0.88305E+05
         0.99958E+06
         0.19884E+07
        -0.30260E+06
        -0.48089E+07
        -0.67705E+07
        -0.45047E+07
        -0.13288E+07
        -0.43537E+06
         0.39708E+07
         0.29130E+07
         0.16221E+06
        -0.28541E+06
        -0.36281E+07
        -0.14911E+07
        -0.17927E+07
         0.15399E+07
         0.36451E+07
        -0.22915E+06
         0.29304E+07
         0.33081E+07
        -0.49240E+07
        -0.39713E+07
        -0.24649E+07
        -0.34405E+07
        -0.19088E+06
        -0.25254E+07
        -0.34195E+07
        -0.44361E+07
        -0.12804E+07
         0.19432E+07
        -0.45242E+07
         0.20940E+07
         0.24341E+07
        -0.32273E+07
         0.21582E+06
         0.11548E+07
         0.56078E+07
        -0.19396E+07
         0.48725E+07
         0.81957E+07
        -0.34036E+07
        -0.33011E+07
        -0.34037E+07
         0.13427E+07
         0.88176E+07
         0.72738E+06
         0.18774E+07
         0.35265E+07
         0.42594E+06
         0.62894E+07
         0.40900E+06
        -0.67313E+06
        -0.55258E+06
        -0.20760E+07
         0.65345E+07
         0.24055E+07
         0.21549E+07
         0.36418E+06
         0.94378E+06
        -0.38399E+05
        -0.40913E+06
         0.16824E+07
         0.69860E+06
        -0.38573E+07
        -0.31420E+07
        -0.28209E+07
        -0.45368E+05
         0.54804E+06
         0.63759E+06
         0.52903E+06
        -0.11997E+07
        -0.27130E+07
        -0.27381E+06
        -0.40018E+07
        -0.49217E+07
         0.16804E+06
         0.67989E+06
        -0.16916E+07
         0.11275E+07
        -0.24867E+07
         0.18483E+07
         0.82274E+06
        -0.26478E+07
        -0.42248E+07
         0.38192E+07
         0.32667E+07
         0.42993E+07
         0.36882E+07
         0.60486E+06
         0.89338E+06
        -0.53122E+06
         0.43607E+06
         0.74467E+06
        -0.10554E+06
        -0.53612E+06
        -0.10728E+07
        -0.67319E+06
        -0.43232E+07
         0.53784E+07
         0.36662E+07
         0.20638E+07
         0.38112E+07
        -0.78756E+05
         0.19582E+07
         0.29440E+07
         0.44584E+07
         0.11328E+07
        -0.15369E+07
         0.46504E+06
        -0.25637E+07
        -0.37150E+07
         0.49252E+07
         0.74260E+06
        -0.11567E+07
        -0.44491E+07
         0.21161E+07
        -0.48200E+07
        -0.73619E+07
         0.30042E+07
        -0.91475E+05
         0.48884E+07
        -0.51475E+06
        -0.59259E+07
        -0.23877E+06
         0.41511E+06
        -0.40151E+07
         0.14874E+07
        -0.52584E+07
        -0.48800E+06
        -0.66950E+06
         0.66604E+06
         0.23575E+07
        -0.11375E+08
        -0.56381E+07
        -0.40189E+07
         0.22267E+07
         0.11015E+07
         0.21993E+07
         0.31633E+07
         0.27286E+07
         0.20527E+07
         0.31865E+07
         0.16294E+07
         0.22108E+07
        -0.17326E+07
        -0.12067E+07
        -0.12012E+06
        -0.31678E+05
        -0.58647E+06
         0.13215E+07
        -0.95065E+05
         0.24301E+07
         0.81955E+06
        -0.10988E+07
         0.16974E+06
         0.26759E+07
        -0.20825E+07
         0.19543E+07
         0.17204E+06
        -0.35225E+07
        -0.73774E+07
        -0.36340E+07
        -0.11985E+07
         0.36978E+07
         0.28932E+07
         0.24848E+07
         0.18041E+07
        -0.20564E+07
         0.26711E+07
        -0.15515E+07
        -0.13692E+06
        -0.47495E+06
         0.77523E+06
         0.34831E+07
        -0.46297E+06
        -0.44219E+06
        -0.44648E+07
        -0.18031E+07
        -0.68209E+06
        -0.26716E+07
         0.17670E+07
         0.11537E+07
        -0.13077E+07
        -0.50090E+07
        -0.15085E+07
         0.55838E+05
         0.35417E+05
         0.26309E+07
         0.45458E+07
        -0.22231E+07
        -0.24076E+07
         0.16014E+07
         0.44329E+07
        -0.12675E+07
         0.30890E+07
         0.67834E+07
        -0.29914E+07
        -0.59104E+06
        -0.44029E+07
        -0.14642E+07
         0.72116E+07
         0.80788E+06
        -0.18049E+07
         0.26675E+07
         0.23675E+07
         0.55206E+07
         0.17807E+07
         0.14625E+07
         0.15736E+06
        -0.31278E+07
         0.28723E+07
         0.43213E+07
         0.48319E+07
        -0.27512E+07
         0.99774E+06
         0.41787E+06
        -0.54682E+07
        -0.53429E+07
        -0.13625E+07
        -0.21765E+07
         0.38089E+06
         0.20387E+06
         0.12759E+07
         0.22822E+07
         0.12868E+06
        -0.16485E+07
         0.12803E+06
         0.12629E+07
        -0.29199E+07
        -0.53384E+07
         0.16635E+07
         0.14895E+07
        -0.13838E+06
        -0.26172E+06
        -0.20021E+06
        -0.13112E+07
        -0.10263E+07
         0.48145E+07
         0.55273E+07
         0.32327E+07
         0.19021E+07
         0.17165E+07
         0.12592E+07
        -0.11096E+07
        -0.17401E+07
        -0.20219E+07
        -0.23235E+07
         0.71414E+06
         0.92312E+06
         0.53975E+06
        -0.69327E+06
        -0.60052E+07
        -0.35773E+07
        -0.26846E+07
         0.40137E+07
         0.20298E+07
        -0.34920E+06
         0.12454E+07
        -0.11068E+07
        -0.18106E+07
        -0.13090E+07
         0.39850E+07
         0.26883E+07
         0.31118E+07
        -0.15880E+07
         0.26910E+06
        -0.21178E+07
         0.11857E+07
         0.24637E+07
        -0.57410E+06
        -0.53628E+07
         0.23575E+07
        -0.50364E+06
        -0.28981E+07
         0.23876E+07
         0.41848E+07
         0.19635E+07
         0.40770E+07
        -0.49385E+07
         0.49358E+06
         0.77431E+06
        -0.14959E+07
        -0.18400E+07
        -0.27137E+07
         0.10070E+07
         0.92975E+06
         0.13026E+07
        -0.46984E+06
        -0.10916E+07
        -0.70157E+06
        -0.11594E+07
         0.14217E+07
         0.85784E+06
         0.23887E+06
         0.51327E+07
         0.47402E+07
         0.44112E+07
         0.14674E+07
         0.53645E+06
        -0.35062E+06
        -0.11418E+05
        -0.63663E+06
         0.38577E+06
         0.19420E+07
         0.14927E+07
        -0.15422E+07
         0.10198E+07
        -0.20718E+07
        -0.24577E+07
         0.69042E+06
         0.10025E+07
        -0.91542E+06
        -0.73698E+06
        -0.42079E+06
         0.28568E+07
        -0.21351E+07
        -0.94747E+06
        -0.17736E+07
         0.77809E+06
        -0.17946E+07
        -0.20117E+07
        -0.23086E+07
        -0.25997E+07
        -0.19459E+07
        -0.47739E+06
         0.13190E+07
        -0.18178E+07
         0.14396E+06
         0.52271E+06
         0.52610E+06
        -0.26386E+06
        -0.18559E+07
        -0.25749E+07
         0.37320E+07
         0.29584E+07
        -0.10462E+07
         0.14334E+07
         0.25722E+07
         0.14385E+07
        -0.43197E+07
        -0.33135E+05
         0.74001E+06
         0.97281E+06
         0.16281E+06
        -0.18443E+07
        -0.99687E+06
         0.19713E+07
         0.21439E+07
         0.23662E+07
        -0.10549E+07
         0.24509E+07
        -0.53251E+06
        -0.99492E+06
        -0.25604E+07
         0.83233E+06
         0.25574E+07
         0.51125E+07
         0.22028E+07
         0.49669E+06
         0.99030E+06
         0.21496E+07
         0.21144E+07
         0.18094E+07
         0.12443E+07
        -0.54175E+06
        -0.51088E+06
        -0.25697E+07
         0.11764E+07
        -0.37303E+06
        -0.17347E+07
        -0.22870E+07
        -0.67778E+06
        -0.28908E+07
        -0.27499E+07
        -0.37083E+07
        -0.16188E+07
        -0.34707E+07
        -0.63569E+06
         0.54119E+06
        -0.40957E+06
         0.64005E+06
         0.21732E+07
        -0.15638E+07
         0.13501E+07
        -0.10332E+07
        -0.42804E+06
         0.39329E+06
         0.10456E+07
         0.20607E+07
         0.31230E+06
         0.15458E+07
         0.98036E+06
         0.31653E+06
         0.36669E+07
         0.57744E+07
         0.14007E+07
         0.88241E+06
         0.34900E+06
        -0.78413E+06
        -0.55737E+06
        -0.18002E+07
        -0.15803E+07
        -0.37653E+06
         0.81752E+06
         0.28984E+07
         0.75739E+06
        -0.17026E+07
        -0.18392E+07
        -0.28531E+07
        -0.10514E+07
        -0.22314E+07
         0.24276E+07
         0.59450E+06
         0.35380E+06
        -0.31335E+07
        -0.13302E+06
         0.93662E+07
        -0.25015E+07
         0.15219E+07
        -0.46550E+06
        -0.42565E+07
         0.16047E+07
        -0.39065E+07
        -0.23701E+07
         0.16359E+07
        -0.52737E+06
         0.12513E+07
         0.51118E+06
         0.83950E+06
         0.15598E+07
        -0.63491E+06
         0.26868E+07
         0.47179E+07
        -0.86078E+07
        -0.28273E+07
         0.24288E+07
         0.61851E+07
        -0.32817E+07
        -0.12657E+07
        -0.57664E+06
         0.15719E+06
         0.24700E+07
         0.91116E+05
         0.22101E+07
         0.37012E+07
         0.23670E+07
        -0.20659E+07
        -0.17773E+07
         0.56661E+06
         0.10117E+07
        -0.10940E+07
         0.95802E+06
         0.32424E+07
         0.23730E+07
        -0.14928E+07
        -0.22376E+07
         0.29783E+07
         0.23654E+06
        -0.82477E+06
         0.28359E+07
        -0.54075E+07
         0.43566E+07
        -0.12290E+07
        -0.22835E+07
         0.22290E+07
        -0.77728E+06
         0.74117E+06
        -0.78179E+06
        -0.86663E+06
         0.36128E+07
         0.84126E+05
         0.21073E+07
         0.40011E+07
         0.45042E+07
        -0.22996E+07
        -0.16036E+07
         0.13485E+07
        -0.17095E+07
        -0.29254E+07
        -0.25557E+06
         0.27016E+07
         0.40855E+07
         0.28714E+07
         0.12026E+07
         0.11396E+06
         0.16256E+07
        -0.59264E+06
        -0.16824E+06
  
SCALARS                 acceleration_y  double 1
LOOKUP_TABLE default
        -0.67777E+05
        -0.22151E+07
        -0.73947E+06
        -0.63512E+06
         0.20112E+07
        -0.28056E+07
        -0.62551E+06
        -0.18349E+07
         0.16854E+06
        -0.20973E+06
        -0.38285E+07
        -0.91260E+06
        -0.17025E+07
        -0.40118E+07
         0.20907E+07
         0.10702E+07
        -0.79208E+05
        -0.40107E+07
         0.28315E+07
         0.47678E+07
        -0.58926E+07
        -0.11939E+07
        -0.24795E+07
        -0.34947E+07
        -0.59795E+06
         0.38941E+07
        -0.41553E+07
        -0.27442E+07
         0.32356E+06
         0.63902E+06
         0.11238E+07
         0.14370E+07
         0.85104E+06
        -0.61865E+06
         0.48923E+07
         0.24547E+07
         0.22655E+07
        -0.14092E+07
         0.16286E+07
         0.15031E+07
        -0.11974E+07
         0.11026E+07
        -0.18780E+07
        -0.92743E+06
         0.10566E+07
         0.41383E+07
        -0.73305E+06
        -0.83267E+07
        -0.16377E+07
         0.43051E+07
         0.10214E+07
        -0.15775E+07
        -0.19906E+07
        -0.27290E+07
        -0.63051E+06
         0.33129E+06
        -0.13722E+07
        -0.25844E+07
         0.47187E+06
         0.19085E+07
        -0.63867E+06
         0.60302E+06
        -0.34203E+07
        -0.46736E+07
         0.63107E+06
        -0.36197E+07
         0.90191E+06
        -0.21284E+07
         0.85210E+05
        -0.13521E+07
        -0.20433E+07
        -0.59571E+06
        -0.21521E+07
        -0.12769E+07
        -0.41278E+07
         0.39916E+06
        -0.20448E+07
         0.15124E+07
        -0.32108E+06
        -0.18605E+07
        -0.28790E+07
        -0.20241E+07
         0.19861E+07
        -0.19490E+07
         0.15170E+07
         0.31596E+07
         0.28137E+07
        -0.16393E+07
         0.26819E+07
        -0.94050E+07
         0.23547E+07
        -0.35556E+06
         0.24022E+06
        -0.60465E+07
         0.41517E+07
        -0.36689E+07
         0.53675E+07
         0.12304E+07
         0.32177E+07
        -0.70811E+07
         0.31037E+07
         0.12177E+07
         0.20537E+07
        -0.36113E+07
        -0.87545E+05
         0.12913E+07
         0.16828E+07
        -0.24009E+07
        -0.10556E+07
         0.22384E+07
        -0.21014E+06
         0.25265E+07
         0.13197E+07
         0.49352E+07
         0.20906E+07
        -0.91923E+06
        -0.22636E+07
         0.14513E+07
         0.11055E+07
         0.59929E+07
        -0.30472E+07
         0.38172E+07
        -0.12807E+07
        -0.87953E+05
        -0.33719E+07
        -0.87853E+07
        -0.53722E+06
        -0.14741E+06
        -0.19208E+07
        -0.94077E+06
         0.26810E+06
        -0.23785E+07
         0.98693E+06
         0.13764E+07
         0.36976E+07
        -0.30221E+07
         0.19077E+07
        -0.71327E+07
         0.52759E+07
        -0.57300E+06
         0.33978E+07
        -0.90641E+07
         0.28130E+07
        -0.34086E+07
         0.69376E+06
        -0.23437E+07
         0.20094E+07
         0.18560E+07
         0.16437E+07
        -0.39102E+07
         0.89929E+06
         0.74630E+06
         0.99646E+06
         0.10686E+06
         0.71853E+06
        -0.89774E+06
        -0.28441E+06
        -0.17322E+06
         0.17582E+06
        -0.10311E+07
         0.29099E+04
        -0.38077E+06
         0.47811E+07
         0.21008E+07
        -0.23005E+07
         0.17020E+07
         0.55970E+07
         0.27370E+07
         0.11975E+07
         0.17582E+07
         0.35686E+07
        -0.10591E+07
        -0.12338E+07
        -0.64063E+06
        -0.24790E+06
        -0.98759E+06
        -0.24745E+07
         0.14078E+06
        -0.17519E+07
        -0.18488E+07
         0.19243E+07
        -0.25669E+07
         0.15718E+07
         0.10780E+07
         0.21389E+07
         0.27078E+06
        -0.14916E+07
        -0.59378E+06
        -0.25825E+06
         0.18570E+06
         0.11685E+07
         0.11050E+07
         0.86602E+06
         0.28923E+07
         0.22532E+07
         0.25406E+07
         0.19753E+07
         0.39582E+06
         0.51290E+06
        -0.43286E+06
         0.87916E+06
         0.20854E+07
        -0.34105E+07
        -0.12385E+06
        -0.76937E+06
        -0.25652E+07
        -0.15245E+07
         0.33564E+04
         0.52907E+06
         0.93241E+06
         0.11312E+06
         0.12828E+07
         0.42184E+07
         0.37960E+07
         0.67082E+06
         0.16365E+07
        -0.44244E+07
        -0.35796E+07
        -0.51015E+06
         0.18151E+07
         0.21673E+06
         0.58364E+06
         0.68333E+06
         0.23517E+07
         0.16433E+07
         0.35640E+07
         0.19508E+07
         0.30123E+07
        -0.71656E+06
        -0.61835E+06
         0.97360E+05
         0.42860E+07
         0.11934E+07
         0.30344E+07
        -0.12436E+07
        -0.21800E+07
        -0.85533E+06
         0.43892E+06
        -0.82541E+06
        -0.43664E+05
        -0.39909E+07
        -0.25396E+07
        -0.15040E+07
        -0.18506E+07
        -0.84217E+07
        -0.15731E+07
        -0.12537E+07
        -0.49060E+07
        -0.93366E+06
         0.11427E+07
        -0.52909E+06
         0.14785E+07
         0.23877E+07
         0.10759E+07
         0.87230E+06
        -0.28734E+06
         0.26393E+07
         0.22113E+07
        -0.24060E+07
         0.21799E+07
        -0.43977E+07
        -0.51541E+07
        -0.34749E+06
        -0.54581E+06
         0.21816E+07
         0.34328E+07
         0.30722E+07
         0.42058E+07
        -0.15305E+07
        -0.64749E+06
        -0.11662E+07
        -0.81899E+06
        -0.33932E+07
        -0.37979E+07
        -0.89434E+06
         0.30702E+06
        -0.17170E+07
         0.33249E+07
         0.35471E+07
         0.22088E+07
         0.21423E+07
         0.45195E+07
         0.37313E+07
         0.33461E+07
         0.34133E+07
         0.15553E+07
        -0.44793E+06
        -0.21814E+07
        -0.23185E+07
        -0.71277E+06
         0.12881E+07
        -0.75733E+06
         0.18638E+07
        -0.24995E+07
         0.48041E+06
        -0.20514E+07
        -0.19292E+07
        -0.21299E+07
        -0.18199E+07
        -0.37246E+06
         0.16792E+07
         0.25544E+07
        -0.17777E+06
         0.29110E+07
         0.16983E+07
         0.85475E+06
         0.29972E+07
         0.92504E+06
         0.27706E+07
         0.25542E+07
         0.20107E+05
         0.11266E+07
        -0.27639E+06
         0.13422E+07
        -0.26080E+06
        -0.98033E+06
        -0.52814E+06
        -0.13750E+07
         0.17383E+07
         0.32105E+07
        -0.65418E+05
         0.31128E+07
         0.50544E+07
         0.30415E+07
         0.23671E+07
         0.29920E+07
         0.14505E+06
        -0.13647E+07
         0.34017E+06
        -0.18518E+07
        -0.39148E+06
        -0.39677E+06
         0.72279E+06
         0.82411E+05
        -0.16056E+07
        -0.38908E+07
         0.26837E+07
        -0.26077E+07
         0.17481E+07
         0.17708E+07
         0.16597E+07
         0.12419E+07
        -0.29525E+07
        -0.23556E+07
        -0.30078E+07
        -0.25283E+07
        -0.17401E+07
         0.62406E+06
         0.82248E+06
         0.84332E+06
         0.15676E+07
         0.11800E+07
         0.29096E+06
         0.18561E+07
         0.52357E+06
        -0.24061E+07
        -0.13098E+07
        -0.24145E+07
        -0.10324E+07
        -0.98453E+06
        -0.24577E+07
        -0.29035E+07
        -0.33141E+07
        -0.16700E+07
        -0.14527E+07
        -0.28764E+07
        -0.30599E+07
        -0.11896E+07
         0.53351E+06
         0.65024E+06
         0.36564E+06
        -0.69547E+06
         0.15300E+07
        -0.23208E+07
        -0.27921E+07
         0.21620E+06
         0.26666E+07
         0.23375E+07
        -0.86792E+06
        -0.23788E+06
        -0.22022E+07
         0.27202E+06
         0.97656E+05
        -0.12634E+06
        -0.64651E+06
        -0.16658E+07
         0.14483E+07
        -0.39065E+07
        -0.79199E+06
        -0.91234E+06
        -0.19416E+07
        -0.17082E+07
        -0.12092E+07
         0.14419E+06
        -0.33051E+06
        -0.53120E+06
        -0.46443E+07
        -0.36827E+07
        -0.45222E+06
        -0.20752E+07
        -0.39920E+07
        -0.11837E+07
        -0.16890E+07
        -0.42475E+07
        -0.50787E+06
         0.68661E+06
        -0.13816E+06
         0.38828E+06
         0.78998E+06
        -0.18039E+07
         0.78094E+06
         0.10385E+07
         0.65852E+06
         0.39046E+07
        -0.11277E+07
         0.33207E+07
        -0.58027E+07
        -0.40105E+07
        -0.20349E+07
         0.89540E+05
         0.27907E+07
         0.33530E+07
         0.23708E+07
         0.20022E+07
        -0.19087E+07
         0.40410E+06
        -0.69431E+06
        -0.45137E+06
        -0.10689E+07
        -0.51036E+06
        -0.10779E+07
        -0.29381E+06
         0.14078E+07
         0.54785E+06
         0.54441E+06
        -0.80385E+06
         0.28332E+07
         0.29545E+07
         0.11011E+07
         0.56555E+06
         0.30814E+06
        -0.86676E+05
        -0.20343E+07
        -0.10601E+07
        -0.22212E+07
        -0.21757E+07
        -0.29533E+07
        -0.13575E+07
        -0.23956E+07
        -0.20374E+07
        -0.42885E+07
        -0.53831E+07
        -0.20634E+07
         0.26766E+05
        -0.62964E+06
         0.67240E+06
         0.84365E+06
         0.48653E+06
         0.16514E+06
         0.23255E+07
         0.13876E+07
         0.25079E+07
         0.29558E+07
         0.13363E+07
         0.27951E+07
         0.15074E+07
        -0.86043E+06
        -0.12504E+07
         0.34747E+06
         0.10902E+07
         0.33805E+06
        -0.13766E+06
         0.15464E+07
        -0.44026E+06
         0.18382E+07
         0.16587E+07
         0.16962E+07
         0.11738E+07
         0.70243E+07
         0.47406E+06
         0.11647E+07
         0.66098E+07
        -0.67014E+06
        -0.95292E+06
         0.14049E+07
        -0.52436E+06
        -0.70829E+06
        -0.21253E+06
        -0.16702E+07
         0.18213E+07
        -0.14566E+07
        -0.36123E+07
        -0.29884E+06
        -0.17054E+07
         0.53704E+07
         0.34267E+07
         0.23534E+07
         0.14998E+07
        -0.36672E+07
        -0.51068E+07
        -0.23415E+07
        -0.21337E+07
         0.12851E+07
         0.19715E+07
         0.14337E+07
         0.79320E+06
        -0.64579E+06
         0.14203E+07
         0.14167E+07
        -0.30920E+06
         0.28486E+06
        -0.58020E+06
        -0.25599E+07
        -0.34413E+07
        -0.16135E+07
        -0.16346E+07
        -0.15093E+07
        -0.18187E+07
        -0.34496E+07
        -0.33449E+07
         0.16605E+07
        -0.26648E+06
         0.13506E+07
         0.54667E+06
         0.34740E+07
         0.44695E+07
         0.44154E+07
         0.29677E+07
         0.23873E+07
         0.15889E+07
         0.15066E+07
         0.37486E+07
         0.19770E+07
         0.17334E+06
        -0.49573E+06
        -0.74113E+06
        -0.32909E+07
        -0.59305E+07
        -0.18396E+07
         0.14704E+07
        -0.43982E+06
        -0.43611E+06
        -0.34091E+07
        -0.53124E+07
        -0.34244E+07
        -0.66261E+05
        -0.37488E+06
        -0.22681E+07
        -0.10909E+07
         0.15022E+07
         0.17135E+07
         0.14399E+07
        -0.46181E+07
        -0.33949E+07
         0.19884E+07
        -0.31027E+07
        -0.47599E+07
        -0.20028E+07
        -0.20201E+07
        -0.42303E+07
        -0.26740E+07
         0.12932E+07
         0.11445E+07
         0.15265E+07
         0.22578E+07
        -0.35203E+06
         0.14541E+07
        -0.17241E+06
         0.17329E+07
         0.35799E+07
        -0.36088E+07
         0.40626E+07
        -0.44749E+07
        -0.32343E+07
        -0.91684E+06
        -0.14836E+06
         0.23974E+07
         0.27460E+07
         0.22073E+07
         0.16541E+07
        -0.42048E+06
        -0.13382E+07
        -0.18820E+07
        -0.17634E+07
        -0.28773E+07
        -0.75919E+05
         0.17175E+07
        -0.92850E+06
        -0.17593E+07
         0.14341E+07
         0.14541E+07
         0.17090E+07
         0.32458E+07
         0.30406E+07
         0.28972E+07
         0.31561E+07
         0.13498E+07
        -0.38290E+06
         0.25357E+07
         0.18067E+07
         0.15292E+07
        -0.19334E+07
        -0.21112E+07
        -0.85251E+06
        -0.22922E+07
        -0.12990E+07
        -0.25080E+07
         0.10328E+07
         0.14560E+07
         0.13510E+07
        -0.73636E+06
        -0.11318E+07
         0.40813E+06
         0.16889E+07
         0.19688E+07
         0.19876E+06
        -0.34100E+07
         0.26842E+06
         0.50972E+06
        -0.26234E+06
        -0.12666E+07
        -0.14974E+07
         0.23919E+07
         0.14213E+07
         0.10452E+07
         0.15484E+07
         0.61275E+06
         0.44653E+06
         0.84360E+06
        -0.38129E+06
         0.26615E+07
         0.39558E+07
         0.11648E+06
         0.32079E+07
         0.48093E+07
         0.30615E+07
         0.15700E+07
         0.13589E+07
         0.29904E+07
        -0.20157E+07
        -0.15775E+07
        -0.11876E+07
        -0.25946E+06
        -0.49599E+06
        -0.17628E+07
        -0.12503E+07
        -0.17230E+07
        -0.12410E+07
         0.14628E+07
        -0.32462E+07
         0.16925E+07
         0.33190E+07
         0.23898E+06
         0.16745E+07
        -0.19489E+07
        -0.43994E+07
        -0.98285E+06
        -0.49190E+06
         0.25444E+07
         0.20134E+07
         0.18293E+07
         0.27471E+07
         0.38317E+07
         0.38817E+07
         0.17378E+07
        -0.44759E+06
         0.46850E+06
        -0.22213E+07
        -0.23764E+07
        -0.38629E+07
        -0.37355E+07
        -0.32168E+07
        -0.29102E+07
        -0.23076E+07
        -0.23298E+07
        -0.19824E+07
         0.38997E+07
         0.26872E+07
         0.14464E+07
         0.14428E+07
        -0.22311E+06
        -0.25967E+07
        -0.34010E+07
        -0.12210E+07
        -0.41253E+05
         0.41275E+07
         0.29205E+07
         0.86666E+06
        -0.84756E+06
         0.66419E+06
         0.15630E+07
         0.11607E+07
         0.98457E+05
         0.14878E+07
        -0.12786E+07
        -0.16169E+07
        -0.45847E+07
        -0.33217E+07
        -0.25075E+07
         0.57896E+05
        -0.10186E+06
        -0.33502E+06
        -0.16230E+07
        -0.20569E+07
        -0.13821E+07
         0.51156E+06
         0.70165E+06
         0.15774E+07
        -0.21550E+07
        -0.21703E+07
        -0.29634E+06
        -0.28073E+07
        -0.89115E+06
        -0.32073E+07
        -0.13218E+07
        -0.16291E+07
        -0.35961E+07
         0.27412E+07
         0.22696E+06
         0.19484E+07
         0.22006E+07
        -0.16570E+06
         0.86793E+06
         0.92161E+06
         0.42882E+06
         0.23824E+07
        -0.31439E+07
         0.31320E+07
        -0.25684E+07
        -0.11370E+07
        -0.64776E+06
        -0.49661E+06
         0.40639E+07
         0.38628E+07
         0.29785E+07
         0.10139E+07
        -0.14623E+07
        -0.38839E+06
        -0.17193E+06
        -0.25253E+07
        -0.58299E+06
        -0.82403E+06
        -0.20380E+07
        -0.84639E+06
         0.43374E+06
         0.11748E+07
         0.34116E+07
         0.61150E+07
         0.22456E+07
         0.93827E+06
         0.59290E+06
         0.10120E+07
         0.23027E+07
         0.73339E+06
         0.51690E+06
         0.84255E+06
        -0.10637E+07
        -0.65573E+06
        -0.79331E+06
        -0.34445E+07
        -0.46583E+07
        -0.52533E+07
        -0.64264E+06
         0.19116E+07
         0.42394E+07
         0.66454E+05
        -0.39137E+07
         0.99499E+05
        -0.21300E+07
         0.81908E+06
         0.91452E+06
         0.23333E+07
         0.78603E+06
         0.24751E+07
         0.17718E+07
         0.42036E+07
         0.35847E+07
         0.33029E+07
         0.14747E+07
         0.12516E+07
         0.98204E+06
         0.12237E+07
        -0.39067E+06
        -0.11655E+07
         0.97231E+06
         0.32281E+06
         0.27640E+07
         0.58421E+07
         0.54861E+06
         0.59801E+07
         0.36805E+07
         0.37501E+07
         0.24232E+07
         0.34703E+07
         0.49527E+07
        -0.30629E+07
        -0.47604E+06
        -0.29521E+07
        -0.19505E+07
        -0.14977E+07
        -0.17699E+07
        -0.63512E+06
         0.40178E+05
        -0.73977E+06
         0.27098E+07
        -0.51817E+07
         0.32117E+07
         0.18665E+07
        -0.16430E+06
        -0.35591E+06
        -0.42095E+07
        -0.63163E+07
        -0.35597E+07
        -0.25947E+07
        -0.10239E+07
         0.31055E+06
         0.86402E+06
         0.48658E+07
         0.29060E+07
         0.35254E+07
         0.30221E+07
        -0.11894E+06
        -0.18774E+06
         0.32448E+05
        -0.14811E+07
        -0.35992E+07
        -0.14272E+07
        -0.20107E+06
         0.50902E+06
         0.10206E+06
        -0.10847E+07
        -0.21204E+07
        -0.61475E+06
        -0.17312E+07
         0.45287E+07
         0.42206E+07
         0.42852E+07
         0.39860E+07
         0.18890E+07
         0.32844E+07
         0.36826E+07
         0.65974E+07
         0.10508E+07
         0.42707E+06
         0.31056E+06
        -0.64569E+06
        -0.14380E+07
        -0.11547E+07
        -0.28519E+07
        -0.22536E+07
        -0.59124E+07
        -0.64629E+07
        -0.47635E+07
        -0.16180E+07
        -0.22878E+07
        -0.16135E+07
        -0.29480E+07
        -0.32488E+07
        -0.97916E+06
        -0.62233E+06
        -0.78136E+06
         0.10468E+07
        -0.66735E+06
         0.10251E+06
        -0.31207E+07
        -0.26827E+07
        -0.95928E+06
        -0.26433E+07
        -0.54999E+07
         0.29778E+06
         0.10293E+07
        -0.47524E+07
        -0.14403E+07
         0.40128E+07
        -0.85271E+06
         0.32091E+07
         0.24506E+07
         0.76318E+06
         0.20521E+06
         0.68772E+06
        -0.85011E+06
         0.44310E+07
        -0.32645E+07
         0.49814E+07
        -0.42073E+07
        -0.38729E+07
        -0.20306E+07
         0.10302E+06
         0.64038E+07
         0.47291E+07
         0.46941E+07
         0.19591E+07
        -0.45007E+06
         0.17130E+06
         0.61860E+06
        -0.24899E+07
        -0.24417E+07
        -0.15447E+07
        -0.18334E+07
        -0.10557E+07
         0.22589E+06
         0.53686E+06
         0.18028E+07
         0.29930E+06
         0.66629E+06
         0.55792E+06
        -0.48819E+06
        -0.64353E+06
        -0.60179E+06
        -0.20039E+06
        -0.47272E+06
        -0.15478E+07
        -0.16086E+07
         0.47499E+06
        -0.94553E+06
        -0.37461E+07
        -0.10238E+07
         0.27238E+06
         0.10119E+07
         0.39152E+07
         0.10686E+07
        -0.20340E+07
        -0.25389E+06
        -0.88861E+06
         0.15462E+07
         0.52855E+06
        -0.52162E+06
         0.11704E+06
        -0.14731E+07
         0.66485E+05
         0.31689E+07
         0.30459E+07
         0.37471E+07
         0.31310E+07
         0.14365E+07
         0.58361E+06
         0.15302E+07
         0.30268E+07
         0.29523E+06
        -0.12316E+07
        -0.70273E+05
        -0.64732E+06
         0.42778E+07
         0.33441E+07
         0.70913E+06
         0.17515E+07
         0.83074E+07
        -0.17283E+07
        -0.24119E+06
         0.64857E+07
        -0.12464E+07
        -0.21116E+07
         0.11712E+07
        -0.18130E+07
        -0.20661E+07
        -0.49047E+05
         0.23904E+07
        -0.34631E+06
         0.18146E+07
        -0.36281E+07
         0.25590E+07
        -0.55266E+07
         0.42878E+07
         0.34400E+07
         0.34183E+07
         0.23529E+07
        -0.35595E+07
        -0.54380E+07
        -0.27633E+07
        -0.26807E+07
        -0.80167E+06
         0.56926E+06
         0.43137E+06
         0.13493E+07
         0.20769E+07
         0.12905E+07
        -0.86138E+06
         0.76713E+05
        -0.11667E+07
         0.41052E+06
         0.82399E+06
         0.21500E+07
         0.54871E+06
        -0.51846E+06
         0.64008E+05
         0.10891E+07
         0.33446E+07
        -0.14076E+06
         0.13748E+07
         0.29108E+06
         0.48384E+06
         0.21999E+06
        -0.75381E+06
        -0.80653E+06
         0.12438E+07
         0.24247E+07
         0.39689E+07
         0.17290E+07
         0.17208E+05
        -0.63009E+06
         0.48333E+06
         0.26462E+07
        -0.10884E+07
        -0.18610E+07
        -0.69003E+06
        -0.35734E+07
        -0.67682E+07
        -0.43572E+07
        -0.69003E+06
        -0.26049E+07
        -0.27116E+07
        -0.25290E+06
        -0.19883E+07
         0.80245E+06
        -0.81268E+06
        -0.99832E+06
        -0.39106E+06
         0.82096E+06
         0.13783E+07
         0.18673E+07
        -0.46417E+07
        -0.30266E+07
        -0.33836E+06
        -0.68467E+06
        -0.72418E+07
         0.24143E+07
         0.13655E+07
        -0.46198E+07
         0.24717E+07
         0.23022E+07
        -0.55735E+06
         0.18464E+07
        -0.21328E+06
         0.67336E+06
        -0.28036E+07
         0.90883E+06
        -0.25843E+06
         0.38898E+07
        -0.12215E+07
         0.43734E+07
        -0.33329E+07
        -0.47808E+07
        -0.69034E+07
        -0.43791E+06
         0.46342E+07
         0.37399E+07
         0.25951E+07
         0.11834E+07
         0.92419E+06
        -0.79740E+05
         0.14602E+06
        -0.14297E+07
        -0.28216E+07
        -0.10073E+07
         0.92346E+06
        -0.18866E+07
         0.17184E+07
         0.12009E+07
        -0.12348E+06
        -0.41767E+07
         0.11229E+07
         0.17770E+07
         0.20879E+06
        -0.11347E+07
        -0.18595E+07
         0.83032E+06
         0.25226E+07
        -0.49688E+06
        -0.21464E+07
        -0.25996E+07
        -0.47131E+07
        -0.74667E+07
        -0.27128E+07
        -0.24113E+07
         0.12759E+07
        -0.18098E+07
        -0.24100E+07
         0.45785E+05
        -0.91292E+06
         0.17888E+07
        -0.26464E+05
         0.23978E+07
         0.10084E+07
         0.15659E+07
         0.35762E+07
         0.35817E+07
         0.21590E+07
         0.56355E+07
         0.67104E+07
         0.39634E+07
         0.19707E+07
        -0.58297E+06
         0.23068E+07
         0.29437E+07
         0.10595E+07
        -0.91903E+06
         0.10689E+07
        -0.79997E+06
         0.49570E+07
         0.50936E+07
         0.15057E+07
         0.34811E+07
         0.78366E+07
         0.47624E+06
         0.32667E+06
         0.43908E+07
        -0.62508E+06
        -0.23696E+07
         0.15315E+07
        -0.20534E+07
        -0.19807E+06
         0.44762E+06
        -0.65434E+06
        -0.11526E+07
        -0.50775E+06
        -0.33906E+07
         0.13092E+07
        -0.48519E+07
         0.30897E+07
         0.36381E+07
         0.34474E+07
        -0.88493E+06
        -0.49398E+07
        -0.59864E+07
        -0.41432E+07
        -0.27466E+07
         0.21771E+07
         0.10578E+07
         0.36918E+06
        -0.48030E+06
         0.21889E+07
         0.24937E+07
         0.87747E+06
         0.11516E+07
         0.43912E+06
        -0.56743E+06
         0.95041E+06
         0.44596E+07
        -0.26789E+06
        -0.29333E+07
        -0.18175E+07
        -0.61806E+06
        -0.22953E+06
        -0.14657E+07
        -0.43568E+06
        -0.71725E+06
        -0.11102E+06
         0.50741E+06
        -0.27842E+06
        -0.21570E+07
         0.65378E+06
         0.32213E+07
         0.39393E+07
         0.11581E+07
        -0.25647E+06
        -0.12715E+07
         0.56409E+06
         0.44741E+06
        -0.36268E+06
        -0.10932E+07
         0.10141E+07
        -0.15039E+06
         0.28211E+06
         0.33632E+07
         0.44364E+07
         0.36833E+07
         0.16329E+07
         0.90520E+06
         0.13423E+07
         0.40629E+06
        -0.16105E+07
        -0.41372E+06
        -0.60972E+06
         0.36009E+06
        -0.73431E+06
        -0.15397E+06
        -0.43533E+07
        -0.58440E+07
        -0.14843E+07
        -0.43840E+07
        -0.68578E+07
         0.59542E+06
         0.72903E+06
        -0.42617E+07
         0.24937E+07
         0.17893E+07
        -0.19557E+07
         0.16693E+07
        -0.70149E+06
        -0.23183E+06
         0.14351E+07
         0.14253E+07
         0.25059E+06
         0.12553E+07
        -0.21467E+07
         0.31751E+07
        -0.32587E+07
        -0.25551E+07
        -0.13527E+07
         0.93412E+06
         0.49657E+07
         0.42437E+07
         0.32591E+07
         0.74125E+06
        -0.25974E+07
         0.26066E+06
         0.13323E+07
         0.20441E+07
        -0.75400E+06
        -0.22133E+07
        -0.15688E+07
         0.78247E+05
         0.12771E+07
         0.30350E+06
         0.57797E+06
        -0.28142E+07
         0.80002E+06
         0.20447E+07
         0.14238E+07
         0.44409E+06
         0.89854E+06
         0.53625E+06
         0.27192E+07
         0.81497E+06
         0.32953E+05
        -0.15121E+07
        -0.30707E+07
        -0.11495E+07
        -0.89888E+06
        -0.21844E+07
        -0.27636E+07
        -0.57494E+07
         0.58335E+06
         0.14484E+07
         0.26123E+07
        -0.16821E+07
        -0.32460E+06
        -0.11078E+07
         0.19806E+07
         0.39272E+07
         0.27690E+07
         0.40462E+07
         0.34409E+07
         0.54055E+07
         0.37379E+07
         0.57218E+06
         0.19461E+06
        -0.20042E+07
         0.20905E+07
         0.11241E+07
         0.42048E+06
        -0.79484E+06
        -0.31702E+05
        -0.11950E+07
         0.15113E+07
         0.49547E+07
         0.19331E+07
         0.60284E+07
         0.67505E+07
        -0.13687E+07
        -0.13986E+07
         0.66761E+07
        -0.17586E+07
        -0.26289E+07
         0.14058E+07
        -0.19382E+07
        -0.98055E+06
         0.90069E+06
        -0.11737E+07
        -0.25824E+07
         0.30704E+06
        -0.13596E+07
         0.46717E+07
        -0.23465E+07
         0.46414E+07
         0.21404E+07
         0.26450E+06
         0.93000E+06
        -0.35784E+07
        -0.23205E+07
        -0.39882E+07
        -0.23370E+07
         0.10152E+07
         0.92759E+06
         0.15762E+05
        -0.20078E+07
         0.59028E+06
         0.30789E+07
         0.41334E+07
         0.68310E+06
        -0.22390E+07
         0.65678E+06
         0.15298E+07
         0.23764E+07
         0.16049E+07
        -0.62484E+06
        -0.18371E+07
        -0.22726E+07
        -0.26856E+07
        -0.17231E+07
        -0.17325E+07
         0.17062E+07
         0.19657E+07
         0.16240E+07
        -0.48375E+06
         0.77917E+06
         0.18689E+07
         0.28037E+07
         0.13459E+07
         0.19488E+07
         0.65763E+06
         0.24933E+07
         0.18194E+07
         0.68302E+06
         0.25218E+06
        -0.18165E+06
        -0.13475E+07
        -0.12642E+07
        -0.17156E+07
        -0.87308E+06
        -0.13836E+07
        -0.53858E+06
         0.53696E+06
         0.18024E+07
        -0.69829E+05
        -0.11381E+07
        -0.22172E+07
        -0.17952E+07
        -0.17928E+06
         0.10630E+07
         0.12621E+07
         0.93015E+06
        -0.37213E+07
        -0.75451E+07
        -0.19433E+07
        -0.83229E+07
        -0.47370E+06
         0.15844E+07
         0.56218E+06
        -0.38288E+07
        -0.14582E+07
         0.30652E+07
        -0.10322E+07
         0.27108E+07
         0.22636E+07
        -0.67822E+06
         0.14349E+07
         0.33065E+06
        -0.22335E+06
         0.40780E+07
        -0.61360E+07
         0.32143E+07
        -0.59287E+07
        -0.39730E+07
         0.96975E+06
        -0.29480E+06
         0.44661E+07
         0.28021E+07
         0.43386E+07
         0.27755E+07
         0.12198E+07
        -0.82675E+06
        -0.12889E+07
        -0.14185E+07
        -0.68802E+05
        -0.85807E+06
        -0.26975E+07
         0.76246E+06
         0.17547E+07
        -0.15741E+07
        -0.96597E+06
        -0.63638E+06
         0.23141E+06
         0.16393E+07
         0.36607E+07
         0.48266E+07
         0.44576E+07
         0.11220E+07
        -0.31992E+06
        -0.89195E+06
        -0.54423E+06
        -0.22317E+07
        -0.36393E+06
         0.63316E+06
        -0.32860E+07
        -0.56229E+06
        -0.39561E+07
         0.54649E+06
         0.30539E+07
         0.15191E+07
        -0.98810E+05
        -0.98651E+06
         0.35429E+05
        -0.21331E+06
         0.19167E+07
         0.14086E+07
        -0.35677E+07
        -0.15101E+07
        -0.61860E+06
         0.21064E+07
         0.26726E+07
         0.35186E+06
         0.74328E+06
         0.23768E+06
         0.30600E+07
         0.22612E+07
         0.69219E+06
        -0.12635E+06
        -0.72713E+06
         0.62483E+06
         0.33905E+07
         0.78596E+07
         0.21532E+07
         0.88548E+07
        -0.32763E+07
        -0.44457E+07
        -0.18594E+07
         0.27179E+07
        -0.36006E+07
        -0.35479E+07
         0.58120E+06
        -0.21378E+07
        -0.39370E+07
        -0.74998E+06
         0.32268E+06
        -0.32963E+06
         0.25091E+07
        -0.37979E+07
         0.62087E+07
        -0.24815E+07
         0.54866E+07
         0.35372E+07
        -0.18823E+07
         0.23992E+06
        -0.26305E+07
        -0.13345E+07
        -0.26150E+07
        -0.37537E+06
        -0.32060E+07
        -0.35967E+06
         0.13271E+06
         0.28486E+06
         0.48651E+06
        -0.28438E+06
        -0.11572E+07
        -0.34735E+07
        -0.26831E+07
         0.32253E+07
         0.32181E+07
         0.17488E+07
         0.15745E+07
        -0.43747E+06
        -0.24124E+07
        -0.21425E+07
        -0.62577E+06
         0.20709E+07
        -0.25875E+05
         0.21600E+07
        -0.11184E+07
        -0.11541E+07
        -0.83479E+06
         0.31588E+06
         0.23703E+07
         0.47672E+07
         0.64551E+07
         0.43024E+07
         0.59562E+07
         0.85415E+05
        -0.25713E+05
        -0.21511E+07
        -0.55138E+05
         0.36397E+07
         0.24943E+06
        -0.24748E+06
        -0.21405E+07
        -0.48066E+07
        -0.31001E+07
        -0.58394E+07
        -0.40611E+07
        -0.14449E+07
        -0.13768E+07
         0.25083E+07
        -0.21379E+07
        -0.16411E+07
        -0.25793E+06
         0.43162E+06
         0.44829E+06
        -0.29095E+06
        -0.35022E+07
        -0.77511E+07
        -0.14612E+07
        -0.81519E+07
         0.24865E+07
         0.81262E+07
         0.31141E+07
        -0.33351E+07
         0.72564E+07
         0.45340E+07
        -0.16689E+06
         0.37801E+07
         0.17321E+07
        -0.35023E+06
        -0.24684E+07
        -0.46069E+06
        -0.26411E+07
         0.13653E+07
        -0.70983E+07
         0.31208E+07
        -0.61248E+07
        -0.38415E+07
         0.96676E+06
        -0.19914E+07
         0.47109E+07
         0.10438E+07
         0.36631E+07
         0.43611E+06
         0.36248E+07
         0.12972E+07
         0.59086E+06
        -0.50017E+06
        -0.32232E+07
         0.75409E+05
         0.12047E+07
        -0.95952E+06
        -0.59058E+06
        -0.27889E+07
        -0.42243E+07
        -0.77659E+07
        -0.17017E+07
         0.14425E+07
         0.99843E+06
        -0.52017E+06
        -0.16420E+07
        -0.65514E+06
        -0.25848E+06
        -0.20508E+07
        -0.10904E+07
        -0.27960E+05
        -0.12130E+07
        -0.18691E+07
         0.19579E+06
        -0.40731E+05
        -0.10412E+07
         0.27241E+07
         0.58729E+06
        -0.13590E+07
        -0.28905E+07
         0.67323E+05
         0.20952E+07
         0.36329E+07
         0.19442E+07
         0.24220E+07
         0.30277E+07
        -0.11949E+07
         0.97194E+06
         0.12439E+07
         0.25861E+06
         0.20067E+07
         0.53627E+06
        -0.69023E+06
         0.14991E+07
         0.16716E+07
         0.29765E+06
        -0.11240E+07
         0.82633E+06
         0.52595E+05
         0.30813E+07
         0.80388E+07
        -0.95802E+06
         0.70473E+07
        -0.39592E+07
        -0.70273E+07
        -0.42339E+07
         0.22872E+07
        -0.66861E+07
        -0.42118E+07
        -0.21854E+07
        -0.47091E+07
        -0.24923E+07
         0.22143E+06
         0.15886E+07
        -0.47619E+06
         0.27877E+07
        -0.10428E+07
         0.47384E+07
        -0.16050E+07
         0.52244E+07
         0.36774E+07
        -0.19990E+07
         0.23631E+07
        -0.16505E+07
        -0.67725E+06
        -0.24334E+07
        -0.18242E+07
        -0.26178E+07
        -0.29694E+07
        -0.29722E+07
        -0.24001E+07
        -0.23719E+07
        -0.23059E+07
        -0.33112E+07
        -0.27191E+07
        -0.10710E+07
         0.35542E+07
         0.44275E+07
         0.46975E+07
         0.15351E+07
        -0.64298E+06
         0.33384E+06
         0.16274E+07
         0.25412E+07
         0.42428E+06
        -0.67619E+06
         0.24806E+07
        -0.35106E+07
         0.12045E+06
         0.49965E+05
         0.24217E+07
         0.14231E+07
         0.10198E+06
         0.45802E+07
         0.63381E+07
         0.52338E+07
         0.42171E+06
        -0.12321E+07
        -0.27186E+07
         0.64648E+06
         0.12703E+06
         0.20901E+07
        -0.10144E+07
        -0.23768E+07
         0.71090E+06
        -0.24422E+07
        -0.19998E+07
        -0.29525E+07
        -0.10527E+07
         0.95204E+06
         0.90502E+05
        -0.82576E+06
        -0.62750E+06
        -0.11692E+07
         0.32713E+06
        -0.17368E+07
        -0.15251E+07
        -0.19074E+07
        -0.65236E+07
         0.50445E+06
        -0.61600E+07
         0.37231E+04
         0.62326E+07
         0.34264E+07
        -0.21647E+07
         0.53859E+07
         0.34292E+07
         0.22315E+07
         0.41665E+07
         0.14424E+07
         0.83751E+05
        -0.97220E+05
        -0.47991E+06
        -0.14199E+07
        -0.74375E+06
        -0.48633E+07
        -0.71085E+06
        -0.28407E+07
        -0.28971E+07
        -0.54097E+06
        -0.20466E+07
         0.28004E+07
        -0.15918E+07
         0.33990E+07
         0.16898E+07
         0.23887E+06
         0.15198E+06
         0.11537E+07
         0.27766E+07
         0.21307E+07
         0.33034E+07
         0.44963E+07
         0.18941E+07
         0.30836E+06
        -0.29450E+07
        -0.27324E+07
        -0.19131E+07
        -0.18096E+07
        -0.11086E+07
        -0.11180E+06
         0.13567E+06
        -0.27948E+07
        -0.12137E+07
        -0.49308E+06
        -0.16549E+07
         0.47914E+06
         0.43516E+06
         0.28405E+06
         0.19736E+07
        -0.47319E+06
         0.66079E+06
        -0.21657E+07
        -0.64276E+07
        -0.17222E+07
        -0.10407E+07
         0.11026E+07
         0.62876E+06
         0.50939E+06
         0.73601E+05
        -0.53160E+06
        -0.39580E+07
        -0.55254E+07
        -0.29701E+07
         0.15537E+07
         0.20559E+07
         0.63073E+07
         0.28781E+07
         0.11751E+07
         0.34675E+06
        -0.14732E+07
        -0.11734E+07
        -0.61995E+06
        -0.33574E+06
        -0.79093E+06
         0.79414E+06
         0.19405E+07
         0.34997E+07
        -0.23239E+07
         0.46074E+07
        -0.19443E+07
        -0.34453E+07
        -0.18290E+07
         0.30994E+06
        -0.60820E+07
        -0.14711E+07
        -0.18668E+07
        -0.19940E+07
        -0.71200E+06
        -0.15414E+06
         0.65798E+05
        -0.80566E+06
         0.18265E+07
         0.32664E+07
         0.23075E+07
         0.21717E+07
         0.36546E+07
         0.58389E+06
         0.19456E+07
         0.32262E+07
        -0.33140E+06
         0.23107E+07
        -0.74886E+06
         0.24838E+07
         0.96314E+06
        -0.21985E+07
        -0.20896E+07
        -0.40695E+07
        -0.11693E+07
        -0.26695E+07
        -0.57904E+07
        -0.15969E+07
        -0.64166E+06
         0.17544E+07
         0.53911E+06
         0.30076E+06
         0.17299E+07
        -0.87090E+06
        -0.39787E+07
        -0.47929E+05
         0.37201E+07
         0.34777E+07
        -0.26044E+07
        -0.37818E+06
        -0.21762E+07
         0.30275E+06
         0.97861E+06
        -0.90917E+06
         0.12292E+07
        -0.23033E+07
        -0.43126E+06
         0.98124E+06
         0.12864E+07
         0.10472E+07
        -0.16133E+07
         0.14384E+07
        -0.68805E+06
        -0.16975E+07
        -0.29344E+07
        -0.40891E+07
        -0.27316E+07
        -0.10285E+07
        -0.16185E+06
        -0.25591E+07
        -0.71453E+06
         0.39810E+06
         0.34044E+07
         0.70254E+06
        -0.94850E+06
         0.39382E+06
         0.85292E+06
         0.57604E+06
        -0.25870E+06
        -0.18443E+07
         0.94533E+06
        -0.53037E+07
         0.10112E+06
        -0.15313E+07
         0.46523E+07
         0.13750E+07
        -0.12511E+06
        -0.42833E+07
         0.32311E+07
         0.12662E+07
         0.10085E+07
         0.17938E+07
        -0.11101E+07
        -0.20766E+07
        -0.62352E+05
        -0.41682E+06
         0.11299E+06
         0.12223E+06
        -0.23696E+07
         0.66247E+06
        -0.12695E+07
        -0.48258E+07
        -0.11666E+07
        -0.16498E+06
        -0.18791E+07
         0.15073E+06
        -0.19328E+07
        -0.15417E+07
         0.76240E+05
        -0.12759E+07
        -0.90932E+06
         0.35176E+07
         0.30659E+07
         0.22116E+07
         0.30484E+07
         0.48197E+06
         0.10380E+07
        -0.84356E+06
        -0.22821E+07
        -0.45109E+07
         0.28968E+07
         0.33436E+07
        -0.62836E+05
         0.25182E+07
         0.12010E+07
        -0.31342E+07
        -0.14005E+07
         0.19726E+07
        -0.39759E+06
        -0.63411E+06
        -0.42976E+06
         0.10763E+07
         0.22276E+07
        -0.43244E+06
        -0.16566E+07
        -0.54355E+07
        -0.68750E+07
         0.29815E+05
         0.12062E+07
        -0.14494E+07
        -0.31486E+06
         0.10299E+06
        -0.31146E+07
        -0.27847E+07
        -0.46564E+07
        -0.51904E+07
        -0.24452E+07
         0.26985E+07
         0.75401E+04
        -0.23521E+07
        -0.37153E+06
         0.12156E+07
        -0.62275E+06
        -0.12655E+07
        -0.40309E+06
        -0.53371E+06
        -0.19267E+07
        -0.98389E+06
         0.35874E+07
        -0.25478E+07
        -0.51001E+07
         0.77153E+07
         0.81668E+07
        -0.23424E+07
        -0.40840E+07
        -0.11503E+08
         0.70216E+06
         0.44527E+07
        -0.25003E+07
         0.60513E+07
         0.93675E+06
        -0.23327E+07
        -0.16481E+07
        -0.14562E+05
        -0.47084E+06
        -0.70820E+06
        -0.51967E+06
        -0.35243E+06
         0.44830E+07
        -0.23623E+07
         0.41965E+07
        -0.58953E+05
        -0.31461E+07
        -0.38034E+06
        -0.68890E+06
        -0.94671E+06
        -0.13382E+07
         0.23057E+07
        -0.13659E+07
         0.56522E+06
        -0.19408E+07
        -0.29755E+07
        -0.54083E+06
        -0.70085E+06
        -0.12267E+07
         0.15088E+07
         0.17629E+06
         0.44315E+07
        -0.14559E+07
         0.11403E+07
        -0.37224E+07
         0.14456E+07
         0.19264E+07
        -0.21504E+07
        -0.57437E+06
        -0.12052E+07
         0.11836E+07
         0.70902E+06
         0.29231E+07
         0.12996E+07
        -0.22640E+07
         0.13061E+07
        -0.77607E+06
        -0.18643E+07
        -0.14176E+07
         0.23797E+07
         0.14513E+07
         0.92663E+06
         0.22232E+06
         0.26522E+07
         0.69269E+06
        -0.21401E+07
        -0.90799E+07
        -0.60625E+06
        -0.19364E+07
        -0.36237E+06
        -0.52091E+07
        -0.29028E+07
        -0.27149E+07
         0.12819E+05
  
SCALARS                 acceleration_z  double 1
LOOKUP_TABLE default
         0.15964E+07
         0.55721E+07
         0.34169E+07
         0.36176E+07
         0.00000E+00
         0.00000E+00
         0.00000E+00
         0.00000E+00
         0.32178E+07
         0.42300E+07
         0.00000E+00
         0.00000E+00
         0.37414E+07
         0.50165E+07
         0.00000E+00
         0.00000E+00
         0.14262E+07
         0.19861E+07
         0.00000E+00
         0.00000E+00
         0.26514E+06
         0.30094E+07
         0.25970E+07
         0.00000E+00
         0.00000E+00
         0.00000E+00
         0.27702E+07
         0.60645E+06
         0.00000E+00
         0.00000E+00
         0.29633E+07
         0.30074E+07
         0.50959E+07
         0.00000E+00
         0.00000E+00
         0.00000E+00
         0.56984E+07
         0.24639E+07
         0.00000E+00
         0.00000E+00
         0.39967E+07
         0.23650E+07
         0.00000E+00
         0.00000E+00
         0.54570E+07
         0.59152E+07
         0.00000E+00
         0.00000E+00
         0.12004E+07
         0.00000E+00
         0.35425E+07
         0.00000E+00
         0.18517E+07
         0.00000E+00
         0.16474E+07
         0.00000E+00
         0.25310E+07
         0.43413E+07
         0.00000E+00
         0.00000E+00
         0.21901E+07
         0.25532E+07
         0.00000E+00
         0.00000E+00
         0.28454E+07
         0.00000E+00
         0.53264E+07
         0.00000E+00
         0.32811E+07
         0.26573E+07
         0.00000E+00
         0.00000E+00
         0.94764E+06
         0.00000E+00
        -0.12571E+07
         0.00000E+00
         0.22460E+07
         0.00000E+00
         0.67100E+07
         0.00000E+00
         0.43253E+07
         0.15847E+07
         0.00000E+00
         0.00000E+00
         0.45427E+07
         0.00000E+00
         0.22859E+07
         0.00000E+00
         0.19083E+07
         0.00000E+00
         0.41235E+07
         0.29569E+07
         0.00000E+00
         0.00000E+00
         0.36450E+07
         0.00000E+00
         0.43410E+07
         0.00000E+00
         0.46656E+07
         0.00000E+00
         0.45358E+07
         0.59322E+07
         0.00000E+00
         0.00000E+00
         0.39670E+07
         0.12846E+07
         0.00000E+00
         0.00000E+00
         0.61649E+07
         0.00000E+00
         0.53200E+07
         0.00000E+00
         0.74934E+07
         0.00000E+00
         0.30337E+07
         0.00000E+00
         0.47027E+07
         0.00000E+00
         0.39807E+07
         0.00000E+00
         0.38815E+07
         0.00000E+00
         0.51307E+07
         0.00000E+00
        -0.23813E+06
         0.00000E+00
         0.58122E+07
         0.00000E+00
         0.29866E+07
         0.00000E+00
         0.24615E+07
         0.00000E+00
         0.46079E+07
         0.00000E+00
         0.33628E+07
         0.00000E+00
         0.70670E+06
         0.00000E+00
         0.35820E+07
         0.00000E+00
         0.17832E+07
         0.00000E+00
         0.89283E+06
         0.00000E+00
         0.11659E+07
         0.00000E+00
        -0.12223E+07
         0.00000E+00
         0.32281E+07
         0.00000E+00
         0.90122E+06
         0.00000E+00
         0.94384E+05
         0.00000E+00
        -0.38927E+06
         0.00000E+00
        -0.18494E+07
         0.10583E+07
         0.21004E+07
         0.19823E+05
         0.20148E+07
        -0.67927E+06
        -0.38861E+07
        -0.69033E+07
        -0.83009E+06
         0.48500E+07
        -0.14359E+07
        -0.12678E+07
        -0.12894E+07
        -0.60448E+07
        -0.11568E+07
         0.81418E+06
        -0.19649E+06
        -0.23269E+06
         0.10163E+07
        -0.35272E+06
        -0.58471E+06
        -0.14965E+07
         0.23683E+07
        -0.18003E+07
        -0.30709E+07
        -0.32626E+07
         0.94863E+06
        -0.40981E+07
         0.32414E+07
         0.63958E+06
         0.13832E+07
        -0.34267E+07
         0.89202E+06
        -0.20927E+07
         0.11334E+07
         0.15023E+07
        -0.12976E+07
        -0.11186E+06
         0.12925E+07
         0.81733E+06
        -0.79854E+06
         0.16476E+07
         0.30755E+07
         0.45620E+06
        -0.30138E+07
        -0.18082E+06
         0.28342E+07
        -0.40502E+07
        -0.36673E+07
         0.25096E+07
         0.21115E+06
        -0.22531E+07
         0.34213E+07
         0.29617E+07
         0.69338E+07
         0.85482E+07
         0.63731E+07
         0.12387E+07
         0.45016E+07
         0.50866E+06
         0.11428E+07
        -0.61540E+07
        -0.63326E+07
        -0.43120E+07
         0.15825E+07
         0.15017E+07
         0.57335E+06
         0.16313E+07
         0.83808E+06
         0.43092E+06
         0.39600E+06
         0.25094E+07
         0.37626E+07
        -0.15313E+07
         0.58911E+07
         0.21469E+06
         0.58673E+07
        -0.32965E+07
         0.71497E+07
         0.63695E+07
         0.90019E+07
         0.53689E+07
         0.52428E+07
         0.45623E+07
         0.30606E+07
         0.43081E+07
         0.54321E+07
         0.10932E+08
         0.97616E+07
         0.37530E+07
         0.53632E+07
         0.36186E+06
        -0.14883E+07
         0.76070E+07
         0.50159E+07
         0.54805E+07
         0.69727E+07
         0.65736E+07
         0.10974E+07
         0.50178E+07
         0.56665E+07
        -0.13222E+07
         0.60541E+06
         0.34267E+07
         0.59354E+07
         0.30176E+07
         0.70905E+07
         0.73012E+07
         0.41908E+07
        -0.10903E+07
         0.50031E+07
         0.30200E+07
        -0.23832E+07
         0.22427E+07
         0.39239E+07
         0.34377E+07
         0.31056E+07
         0.81805E+06
         0.39155E+07
         0.63814E+07
         0.29854E+07
         0.86324E+07
         0.18640E+07
         0.71240E+06
         0.69778E+07
         0.32265E+07
         0.28500E+07
         0.95660E+07
         0.62038E+07
         0.20741E+07
         0.60504E+06
        -0.11267E+07
        -0.25474E+05
         0.43424E+07
         0.35462E+07
         0.45933E+07
         0.56079E+07
         0.30502E+07
         0.21912E+07
        -0.63895E+07
        -0.25233E+07
        -0.15166E+07
         0.12237E+07
        -0.47187E+06
         0.12652E+07
         0.96177E+05
         0.41755E+06
         0.19497E+07
         0.25847E+07
         0.89383E+06
         0.35508E+07
         0.71298E+06
         0.26060E+07
        -0.71143E+07
         0.16969E+07
        -0.71805E+07
        -0.93487E+07
        -0.93266E+07
        -0.50707E+07
        -0.49206E+07
        -0.33089E+07
        -0.98778E+06
        -0.84378E+07
        -0.49575E+07
        -0.92804E+07
        -0.22654E+07
        -0.51450E+07
         0.36445E+06
         0.36896E+06
        -0.38204E+07
        -0.75359E+06
        -0.11077E+07
        -0.78124E+07
        -0.49863E+07
        -0.18203E+07
        -0.48174E+07
        -0.40105E+07
         0.15852E+07
        -0.32558E+07
        -0.88637E+07
        -0.74961E+07
        -0.27496E+07
        -0.23750E+07
        -0.20870E+07
         0.20431E+07
        -0.18736E+07
        -0.53574E+07
        -0.53510E+07
        -0.59936E+07
        -0.48211E+07
        -0.37491E+07
        -0.96051E+06
         0.30013E+06
         0.11382E+07
        -0.44632E+06
        -0.90845E+05
        -0.28469E+06
        -0.49696E+06
        -0.20213E+07
        -0.34619E+06
        -0.29785E+07
        -0.13255E+07
         0.33019E+07
        -0.59426E+06
        -0.39189E+07
        -0.18723E+07
        -0.55584E+07
        -0.16053E+07
         0.33703E+07
         0.37456E+07
         0.21429E+07
         0.20825E+07
         0.49506E+06
         0.17533E+07
         0.31194E+07
         0.24606E+07
         0.94403E+06
        -0.28086E+07
        -0.60968E+07
        -0.65334E+07
        -0.29262E+07
        -0.43565E+06
         0.28166E+07
         0.38032E+07
         0.41646E+07
         0.57697E+07
         0.63200E+07
         0.38965E+07
         0.45576E+07
         0.35949E+07
         0.40726E+07
         0.26829E+07
         0.47118E+07
        -0.11829E+07
         0.37457E+07
         0.42894E+07
         0.48720E+07
         0.37326E+07
         0.16222E+07
         0.33243E+07
         0.44668E+07
         0.46139E+07
         0.21099E+07
         0.35088E+07
         0.70917E+07
         0.29594E+07
         0.42740E+07
         0.64215E+07
         0.26606E+07
         0.49893E+07
         0.27542E+07
         0.42439E+07
         0.51720E+07
         0.16647E+07
         0.34966E+07
         0.63719E+07
         0.62454E+07
         0.91499E+07
         0.59977E+07
         0.61824E+07
         0.36456E+07
         0.50004E+07
         0.28404E+07
         0.36215E+07
         0.35797E+07
         0.29562E+07
         0.35372E+07
         0.39542E+07
         0.43536E+06
         0.46591E+07
         0.50375E+07
         0.29983E+07
         0.28240E+07
         0.42829E+07
         0.26156E+07
         0.10486E+07
         0.37688E+07
         0.58488E+07
         0.18837E+07
         0.36206E+07
         0.82351E+07
         0.66346E+07
         0.38562E+07
         0.45583E+07
         0.30842E+07
         0.30619E+07
         0.70892E+06
        -0.57444E+06
         0.39196E+07
         0.25199E+07
         0.27565E+07
         0.41263E+07
         0.47182E+07
         0.48361E+07
         0.66027E+07
         0.42084E+07
         0.12740E+07
        -0.58025E+06
        -0.45051E+05
         0.20844E+07
         0.34088E+07
         0.25232E+07
         0.14889E+07
         0.34296E+07
         0.23589E+07
         0.17853E+07
         0.37635E+07
         0.28287E+07
        -0.54775E+05
        -0.22809E+07
        -0.30808E+07
         0.16814E+06
        -0.20634E+06
        -0.80374E+06
        -0.15261E+06
        -0.31088E+06
        -0.29958E+06
         0.35322E+06
        -0.62567E+06
         0.19571E+06
        -0.94060E+06
        -0.50757E+06
        -0.17954E+07
         0.51414E+06
        -0.16122E+06
        -0.33698E+06
         0.38094E+07
         0.24738E+07
         0.62331E+06
         0.98476E+06
         0.85599E+06
        -0.15296E+07
         0.23016E+06
         0.25138E+07
        -0.59796E+06
        -0.12905E+07
         0.45506E+07
         0.63304E+06
        -0.19737E+07
         0.16239E+07
        -0.30655E+07
         0.49062E+06
        -0.43725E+06
        -0.13987E+07
        -0.70192E+06
        -0.21704E+07
        -0.22775E+06
         0.27020E+06
         0.69861E+06
         0.23169E+07
         0.26147E+06
         0.13903E+07
         0.32216E+07
         0.14196E+07
        -0.70667E+06
         0.26364E+06
        -0.13117E+07
         0.24249E+06
        -0.52205E+06
         0.85091E+05
        -0.22235E+06
        -0.17101E+06
        -0.10038E+07
        -0.72255E+06
         0.59759E+07
        -0.13157E+07
         0.30172E+07
         0.33786E+07
         0.22352E+07
         0.91042E+06
        -0.48401E+07
        -0.14629E+07
         0.61124E+06
         0.25270E+05
        -0.42999E+07
        -0.17229E+07
         0.12701E+07
         0.28633E+07
         0.16277E+07
         0.23469E+07
        -0.67648E+06
        -0.10958E+07
        -0.13567E+07
         0.24276E+07
         0.25851E+07
         0.32726E+07
         0.13110E+07
        -0.22094E+07
        -0.32372E+07
         0.11298E+07
         0.53862E+07
         0.48729E+07
         0.43482E+07
         0.45630E+07
         0.32364E+07
         0.47370E+07
         0.79544E+07
         0.66325E+07
         0.38149E+07
         0.46694E+07
         0.70087E+07
         0.87370E+06
         0.47440E+07
         0.48883E+07
         0.84456E+06
         0.46697E+07
         0.24623E+07
         0.63255E+07
         0.61784E+07
         0.54373E+07
         0.40082E+07
         0.34888E+07
         0.25536E+07
         0.74990E+07
         0.45428E+07
         0.44089E+07
         0.42962E+07
         0.66664E+07
         0.24530E+07
         0.60449E+07
         0.54243E+07
         0.35931E+07
         0.64617E+07
         0.59656E+07
         0.19405E+07
         0.37856E+07
         0.55103E+07
         0.27005E+07
         0.18302E+07
         0.58228E+06
        -0.14701E+07
         0.33791E+07
         0.18489E+07
         0.35268E+07
         0.38401E+07
         0.24069E+07
         0.22954E+07
         0.42770E+07
         0.37018E+07
         0.13013E+07
        -0.37512E+07
         0.24741E+07
        -0.96923E+06
        -0.69390E+06
         0.22983E+06
         0.22657E+07
         0.16829E+07
         0.24928E+07
         0.47172E+07
         0.31623E+06
        -0.53497E+05
        -0.98801E+06
        -0.10575E+07
         0.28065E+06
         0.31095E+07
         0.22393E+07
         0.51032E+06
         0.14263E+07
        -0.60071E+06
        -0.12199E+07
        -0.32832E+07
        -0.99217E+06
        -0.12916E+07
        -0.28510E+07
        -0.25897E+07
        -0.67821E+06
        -0.37372E+07
        -0.19236E+07
        -0.11636E+07
        -0.32581E+07
        -0.29686E+07
        -0.71618E+06
        -0.28966E+06
         0.16184E+07
         0.15982E+07
        -0.31990E+06
        -0.96818E+06
        -0.22078E+07
        -0.10531E+07
         0.13559E+07
         0.19299E+07
        -0.32974E+06
        -0.72500E+05
         0.44435E+06
        -0.76127E+06
        -0.50432E+06
        -0.73520E+06
        -0.44450E+06
        -0.17548E+07
        -0.11497E+07
         0.24620E+06
        -0.24679E+07
        -0.88927E+06
        -0.14888E+07
         0.64129E+06
         0.17602E+07
        -0.14086E+07
        -0.89749E+06
        -0.15464E+07
        -0.32273E+07
        -0.74413E+06
        -0.11435E+07
        -0.10329E+06
        -0.32905E+07
        -0.12996E+07
         0.17215E+07
         0.58416E+06
         0.10532E+06
         0.74684E+06
         0.70409E+06
        -0.13512E+07
         0.22042E+07
         0.15512E+07
         0.23553E+06
        -0.10225E+07
         0.84458E+05
         0.26968E+06
         0.68349E+06
         0.34268E+07
         0.16965E+07
        -0.42042E+06
         0.19244E+07
         0.18097E+07
         0.43339E+06
         0.20956E+07
         0.45446E+07
         0.67830E+07
         0.37378E+07
         0.19210E+07
        -0.20789E+07
        -0.32066E+07
        -0.24364E+06
        -0.30313E+06
        -0.57651E+06
         0.14464E+07
         0.22286E+07
         0.23431E+07
         0.43779E+07
         0.47006E+07
        -0.79583E+06
         0.35634E+06
         0.29367E+07
         0.39145E+07
         0.91532E+07
         0.57069E+07
         0.45318E+07
         0.49406E+07
         0.20210E+07
         0.34263E+07
         0.31673E+07
         0.24686E+07
         0.18124E+07
         0.22871E+07
         0.28610E+07
         0.52983E+07
         0.64596E+07
         0.42384E+07
         0.53600E+07
         0.32910E+07
        -0.16856E+07
         0.40633E+07
         0.30947E+07
         0.60763E+07
         0.23240E+07
         0.28759E+07
         0.15746E+07
         0.37722E+07
         0.35928E+07
         0.40653E+07
         0.37406E+07
         0.66109E+07
         0.21907E+07
        -0.11557E+07
         0.10742E+07
        -0.15438E+05
        -0.71292E+06
         0.27769E+07
         0.18537E+07
         0.33116E+07
         0.39809E+07
         0.62005E+07
         0.25182E+07
         0.17884E+07
         0.16345E+07
         0.18191E+07
         0.16329E+07
         0.14886E+07
         0.81941E+06
         0.21900E+07
         0.27180E+07
         0.24478E+07
         0.51275E+07
         0.52688E+07
         0.22348E+07
         0.12886E+07
         0.46229E+07
         0.63831E+07
         0.18473E+07
        -0.69040E+07
         0.12973E+07
        -0.56507E+07
        -0.15249E+07
        -0.10835E+07
         0.32287E+07
         0.39257E+07
         0.34256E+07
        -0.21932E+06
         0.32728E+06
        -0.11702E+07
         0.21413E+07
        -0.10966E+07
        -0.21155E+06
        -0.16517E+07
         0.23276E+07
         0.26739E+07
         0.32730E+07
        -0.27352E+07
        -0.31056E+06
         0.73270E+06
         0.18566E+07
         0.25402E+07
         0.12480E+07
         0.46282E+07
         0.13382E+07
         0.41287E+06
         0.14244E+06
         0.86447E+06
         0.12834E+07
        -0.62181E+06
         0.10260E+07
         0.61247E+06
         0.23797E+07
        -0.33930E+07
        -0.58467E+07
        -0.16004E+07
        -0.44273E+07
        -0.22439E+07
         0.63382E+07
        -0.37455E+07
         0.66963E+06
        -0.42593E+07
        -0.95960E+06
         0.14433E+07
         0.23857E+07
        -0.33294E+07
        -0.27216E+07
        -0.12139E+07
        -0.72500E+06
        -0.46666E+07
         0.22687E+06
         0.27303E+07
         0.19419E+07
         0.68353E+07
         0.52262E+07
         0.95061E+06
        -0.38256E+06
         0.45177E+06
         0.40706E+06
        -0.37659E+07
        -0.14328E+07
        -0.12225E+07
         0.36452E+06
         0.69478E+06
         0.14043E+07
        -0.50816E+06
         0.17789E+07
         0.71254E+06
        -0.10885E+07
        -0.21900E+07
        -0.36905E+07
         0.90289E+06
         0.58990E+06
        -0.18472E+07
        -0.12613E+07
        -0.15857E+07
        -0.32957E+06
         0.37758E+07
         0.16159E+07
         0.29583E+06
        -0.19417E+06
        -0.71012E+06
         0.18058E+07
        -0.29567E+07
        -0.40633E+07
        -0.20327E+07
        -0.97924E+06
         0.29959E+07
         0.33745E+07
         0.95676E+06
         0.22730E+07
         0.30269E+07
        -0.83027E+06
        -0.27525E+07
        -0.17666E+07
        -0.96319E+06
        -0.87093E+06
        -0.15033E+07
         0.11683E+07
         0.53805E+07
         0.63315E+07
         0.57877E+07
         0.18958E+07
         0.27397E+07
         0.36174E+06
         0.16723E+07
         0.16844E+07
         0.15601E+07
         0.15579E+07
        -0.20656E+06
         0.12562E+07
         0.46332E+07
         0.51997E+07
        -0.12110E+07
         0.44273E+07
         0.50907E+07
         0.14340E+07
         0.56899E+07
         0.31923E+07
         0.59951E+07
         0.24944E+07
         0.20853E+07
         0.12408E+07
         0.56607E+07
         0.62630E+07
         0.24285E+07
        -0.11422E+07
         0.44453E+07
         0.16200E+07
         0.27568E+06
        -0.22060E+07
        -0.14872E+07
        -0.30628E+07
         0.12489E+07
        -0.10869E+06
         0.25241E+07
         0.31497E+07
         0.67082E+07
         0.54333E+07
         0.50909E+07
         0.18118E+07
        -0.21147E+07
         0.96572E+06
         0.67404E+07
         0.37782E+06
        -0.17398E+06
         0.26222E+07
         0.33862E+07
         0.34037E+07
        -0.56756E+06
        -0.32305E+06
         0.21664E+07
         0.47627E+07
         0.30909E+07
         0.17735E+07
         0.69854E+07
         0.36834E+07
         0.57867E+07
         0.42098E+07
         0.39824E+07
         0.12055E+07
        -0.97615E+06
        -0.84758E+06
         0.72007E+06
         0.19688E+07
         0.71013E+07
         0.72167E+07
         0.54200E+07
         0.22443E+07
         0.10022E+07
        -0.90123E+04
         0.22206E+07
         0.19372E+07
         0.19519E+07
         0.21490E+07
         0.39116E+07
         0.24333E+07
        -0.31422E+07
        -0.41547E+07
        -0.31838E+05
         0.29891E+07
         0.84728E+06
         0.12629E+07
         0.24289E+07
         0.11454E+07
         0.33574E+07
         0.18686E+07
         0.29199E+07
         0.23313E+07
        -0.13407E+07
        -0.17180E+07
         0.39442E+07
         0.12472E+07
         0.13522E+07
        -0.37257E+06
        -0.15269E+07
         0.16459E+07
        -0.17575E+07
         0.35765E+06
         0.54530E+06
        -0.96359E+06
        -0.16800E+06
        -0.11092E+07
         0.11552E+07
         0.26330E+07
        -0.30813E+06
         0.15248E+07
         0.98188E+04
         0.52408E+07
         0.52616E+07
         0.55394E+07
         0.20651E+07
         0.26610E+07
         0.79668E+06
        -0.63783E+06
         0.42389E+07
         0.93930E+06
         0.29513E+06
         0.59663E+06
         0.48445E+07
         0.36227E+07
        -0.21256E+07
         0.35178E+07
         0.44496E+07
        -0.83998E+06
        -0.13537E+07
        -0.78185E+06
         0.37549E+07
         0.33307E+07
         0.55665E+06
         0.11889E+07
         0.18147E+07
        -0.22729E+06
         0.37322E+07
        -0.92538E+05
         0.27593E+07
         0.56122E+07
         0.60679E+07
         0.17930E+07
         0.30249E+07
        -0.20645E+06
         0.15388E+07
         0.32582E+07
         0.33973E+07
         0.94826E+06
         0.42940E+07
         0.13697E+07
         0.42928E+07
         0.36400E+07
         0.25403E+07
         0.52948E+07
         0.36622E+07
         0.46128E+07
         0.13495E+07
         0.24903E+07
         0.75465E+07
         0.55894E+07
         0.23061E+07
         0.19767E+07
         0.23187E+07
         0.35056E+07
         0.27328E+07
         0.27136E+07
         0.20732E+06
         0.69551E+06
         0.24085E+07
         0.22121E+07
         0.23700E+06
        -0.80490E+06
         0.62250E+06
         0.83137E+06
         0.13252E+07
         0.46840E+07
         0.17502E+07
         0.10735E+07
         0.31616E+06
         0.19558E+07
         0.39980E+07
         0.53640E+07
         0.14304E+07
        -0.85547E+06
         0.25642E+07
         0.24761E+07
         0.70297E+06
         0.23965E+07
         0.32316E+07
         0.10908E+06
         0.10752E+07
         0.40026E+07
         0.79558E+06
         0.26330E+07
         0.14642E+07
         0.31379E+07
        -0.38846E+07
         0.10091E+06
         0.12580E+07
         0.22321E+07
        -0.10830E+05
         0.56222E+06
         0.13545E+07
         0.34194E+06
        -0.15965E+07
         0.32034E+07
         0.42619E+07
         0.74693E+07
         0.40876E+07
         0.10305E+07
        -0.40821E+06
         0.78622E+06
        -0.11200E+07
        -0.37806E+06
         0.52849E+07
         0.18618E+07
         0.78702E+06
         0.46221E+06
         0.27117E+07
         0.24701E+07
         0.16090E+07
         0.28935E+07
         0.15525E+07
         0.43300E+07
         0.23908E+07
         0.16828E+07
        -0.15531E+06
         0.16511E+07
         0.87488E+06
         0.20749E+07
         0.26920E+07
         0.24622E+07
         0.43734E+07
         0.53289E+07
         0.65729E+07
         0.26577E+07
        -0.31073E+06
        -0.11175E+07
        -0.13985E+07
         0.82481E+06
        -0.55256E+06
        -0.23097E+07
        -0.82324E+06
        -0.74631E+06
         0.16437E+07
         0.17514E+07
        -0.11826E+07
         0.63439E+06
         0.32936E+07
         0.58850E+07
        -0.21685E+07
         0.25189E+07
         0.18979E+07
        -0.21395E+07
         0.25654E+07
         0.24550E+07
         0.50479E+07
         0.19857E+07
        -0.11148E+06
        -0.23404E+07
         0.28018E+07
         0.44559E+07
         0.13213E+07
        -0.16587E+07
         0.29341E+07
         0.93224E+06
        -0.15183E+07
        -0.13840E+07
        -0.14538E+06
        -0.55661E+07
         0.54210E+06
         0.56361E+06
         0.11240E+07
         0.12383E+07
         0.47741E+07
         0.21933E+07
         0.15998E+07
         0.91038E+06
         0.20938E+07
         0.41517E+07
         0.46801E+07
         0.18757E+07
         0.11202E+07
         0.16949E+07
         0.88534E+06
         0.48781E+06
        -0.66559E+06
         0.65780E+06
         0.36379E+07
         0.65886E+07
         0.80384E+07
         0.37720E+07
        -0.69780E+07
        -0.51381E+07
        -0.25996E+07
        -0.22939E+07
        -0.17205E+07
        -0.13603E+07
         0.10432E+07
         0.31129E+07
         0.41359E+07
         0.48644E+07
        -0.27280E+07
         0.18866E+07
        -0.13801E+07
         0.12830E+07
        -0.12470E+07
         0.28063E+07
         0.30498E+07
        -0.17182E+07
         0.22142E+07
        -0.10708E+07
         0.86728E+06
         0.27566E+07
         0.20089E+07
         0.35530E+06
         0.24908E+07
         0.10464E+07
         0.11004E+07
         0.24827E+07
         0.22320E+07
         0.16281E+07
         0.22063E+07
         0.21581E+07
         0.40803E+07
         0.27021E+07
        -0.12223E+07
        -0.22103E+07
         0.38994E+07
        -0.20691E+06
        -0.35873E+06
         0.19344E+07
        -0.23016E+06
         0.25103E+07
        -0.14768E+07
         0.12710E+07
         0.25032E+07
         0.15238E+07
        -0.22115E+07
        -0.68057E+06
        -0.46979E+06
         0.48501E+07
        -0.51218E+06
         0.50273E+07
         0.11945E+07
         0.42432E+07
         0.44711E+07
         0.54553E+07
         0.31102E+07
         0.45746E+07
         0.62284E+06
        -0.84072E+06
        -0.42409E+07
        -0.27360E+07
        -0.15149E+07
         0.14333E+07
         0.16040E+07
        -0.16002E+07
        -0.61897E+07
         0.73786E+06
         0.33162E+07
         0.55909E+06
        -0.53267E+06
        -0.48704E+07
         0.98200E+06
         0.21024E+07
        -0.13705E+07
        -0.43762E+07
        -0.80220E+07
        -0.17550E+07
         0.71156E+07
         0.18365E+07
         0.15643E+07
         0.83766E+06
         0.43779E+05
        -0.61420E+06
         0.82989E+06
         0.10143E+05
         0.37795E+07
         0.33900E+07
         0.73882E+07
         0.44424E+05
         0.11994E+07
         0.33433E+06
         0.19800E+07
         0.47437E+06
        -0.95109E+06
         0.12233E+07
         0.75508E+06
         0.68680E+06
        -0.16734E+07
        -0.21888E+07
         0.72238E+06
         0.19938E+07
        -0.56088E+06
        -0.39537E+06
         0.22755E+07
         0.24190E+07
         0.25658E+07
         0.16850E+07
         0.92454E+05
        -0.10901E+07
        -0.99369E+06
         0.16067E+07
         0.37959E+07
         0.51812E+07
        -0.46696E+07
        -0.82995E+05
         0.11315E+07
         0.16123E+07
         0.30979E+07
        -0.45026E+06
         0.46307E+07
         0.22119E+07
         0.25551E+07
         0.33143E+07
         0.29266E+07
         0.53926E+06
         0.12726E+07
        -0.25767E+07
         0.42599E+07
        -0.26421E+07
         0.40594E+06
        -0.42834E+07
        -0.19315E+07
        -0.33694E+07
        -0.20079E+07
        -0.25646E+07
         0.15245E+07
         0.60147E+07
         0.46634E+07
         0.61713E+07
         0.46349E+07
         0.13419E+07
        -0.37212E+06
         0.40305E+07
         0.11519E+08
         0.25958E+07
        -0.29176E+07
         0.10104E+07
         0.24457E+07
         0.72081E+07
         0.20556E+07
         0.22018E+06
         0.36082E+07
         0.72582E+07
         0.58069E+07
         0.10931E+07
         0.39809E+06
         0.33468E+07
         0.22608E+07
         0.22578E+07
         0.13599E+07
         0.20486E+07
         0.21569E+07
         0.11460E+07
         0.24357E+07
        -0.14517E+07
        -0.21849E+07
         0.73062E+06
         0.11608E+07
         0.53265E+07
         0.14327E+07
         0.17189E+07
         0.19858E+07
        -0.13971E+07
        -0.43365E+07
        -0.48541E+07
        -0.12447E+07
         0.53486E+05
        -0.18603E+07
        -0.26923E+07
         0.31541E+07
         0.43538E+07
        -0.68345E+06
        -0.14525E+07
         0.25886E+06
         0.84001E+06
         0.23252E+07
         0.24576E+07
         0.26616E+07
         0.76144E+06
        -0.20382E+05
        -0.16041E+06
         0.10004E+08
         0.37254E+07
         0.20724E+07
         0.26942E+07
         0.88248E+06
         0.48095E+07
         0.22923E+07
         0.31288E+07
         0.16974E+07
        -0.47232E+06
         0.19459E+07
         0.21857E+07
         0.31967E+07
         0.31478E+07
         0.20372E+07
         0.48813E+07
        -0.78634E+06
         0.20759E+07
         0.18253E+07
         0.10874E+07
         0.36378E+07
         0.29506E+07
         0.20370E+07
        -0.23266E+06
         0.17048E+07
        -0.25528E+06
        -0.38864E+06
        -0.17050E+06
         0.81904E+06
         0.72936E+05
        -0.44706E+07
         0.30122E+06
         0.29533E+07
         0.26334E+07
         0.74036E+05
        -0.41280E+07
        -0.22517E+07
        -0.11308E+07
        -0.33785E+07
        -0.49869E+07
        -0.59502E+07
        -0.32367E+06
         0.35410E+07
         0.14273E+07
         0.64141E+07
         0.24519E+07
         0.12576E+07
         0.65436E+06
        -0.14813E+07
         0.20033E+07
        -0.11640E+07
        -0.45229E+06
        -0.24735E+07
         0.18000E+07
         0.28673E+07
         0.34912E+07
         0.27952E+07
         0.31788E+07
         0.21080E+07
         0.17645E+07
         0.51355E+07
         0.20575E+07
         0.97482E+06
        -0.67864E+06
        -0.16272E+07
         0.21505E+07
         0.31992E+05
         0.86084E+06
         0.33331E+07
         0.46498E+07
         0.54749E+07
         0.46547E+07
         0.31585E+07
         0.51010E+07
         0.26093E+07
         0.41655E+07
         0.71719E+06
         0.36892E+07
        -0.68737E+07
         0.11153E+07
         0.19787E+07
        -0.18724E+06
         0.87241E+06
        -0.15241E+07
         0.44027E+05
         0.89172E+06
         0.19137E+07
         0.37375E+07
         0.29225E+07
         0.31959E+07
         0.31817E+07
         0.35806E+06
         0.42990E+07
        -0.58786E+06
         0.35590E+07
         0.28969E+07
        -0.55107E+06
         0.29193E+07
         0.74022E+06
         0.76316E+06
         0.30028E+07
         0.87053E+07
        -0.57882E+07
         0.43194E+06
         0.18022E+07
         0.44187E+07
         0.35197E+07
         0.10050E+07
         0.26013E+06
         0.16770E+07
         0.37272E+07
         0.30299E+07
         0.41011E+07
         0.52080E+07
         0.60745E+07
         0.64526E+07
         0.52487E+07
         0.44471E+07
         0.72062E+06
         0.45589E+07
         0.97933E+06
         0.34170E+07
         0.13853E+07
         0.13160E+07
         0.25013E+07
         0.57057E+07
         0.35181E+07
         0.82361E+06
        -0.84395E+05
        -0.96825E+05
         0.35990E+07
         0.12473E+07
         0.26149E+07
         0.31555E+07
         0.30335E+07
         0.26297E+07
         0.33681E+06
         0.38247E+07
         0.20894E+07
         0.58512E+06
         0.47783E+07
         0.12995E+07
         0.14972E+05
         0.13486E+07
        -0.15400E+07
         0.54528E+05
         0.46863E+06
        -0.10022E+07
        -0.44235E+06
        -0.21192E+06
        -0.12829E+07
        -0.29319E+07
         0.14235E+06
        -0.32889E+06
         0.23970E+07
         0.55089E+06
         0.38447E+07
         0.49565E+07
         0.27427E+07
         0.20288E+07
         0.68761E+07
         0.48642E+07
         0.51096E+07
         0.36442E+07
         0.23852E+07
        -0.29997E+06
         0.28848E+07
         0.14622E+07
         0.22254E+07
         0.27530E+06
         0.16253E+07
         0.30877E+07
        -0.30504E+07
        -0.23061E+07
         0.17105E+07
        -0.19269E+07
         0.14191E+07
         0.97195E+06
         0.10016E+07
        -0.99007E+06
         0.43604E+07
         0.22397E+07
         0.18857E+07
         0.16102E+07
         0.34246E+06
         0.42197E+07
         0.66963E+07
         0.35870E+07
        -0.95423E+05
         0.17227E+07
         0.60344E+06
         0.19684E+07
        -0.18936E+07
        -0.43887E+07
        -0.32453E+07
        -0.45033E+06
        -0.78370E+06
        -0.25678E+07
         0.31030E+07
        -0.17174E+07
        -0.13661E+07
         0.47463E+06
         0.12684E+07
        -0.32337E+07
         0.47349E+06
         0.27902E+07
         0.14113E+07
         0.12052E+07
        -0.14843E+07
         0.35845E+07
         0.13886E+07
         0.45648E+07
         0.38307E+06
         0.12891E+07
         0.34590E+07
        -0.16386E+07
         0.13662E+07
         0.65254E+07
         0.28243E+06
         0.46126E+07
         0.55423E+07
         0.17019E+07
         0.57517E+07
         0.19578E+07
         0.20628E+07
         0.17883E+07
         0.39588E+07
         0.28766E+07
         0.47912E+07
         0.42602E+07
         0.19228E+07
         0.38933E+07
         0.12076E+07
         0.69736E+07
        -0.10560E+07
         0.25644E+07
         0.23364E+07
        -0.12082E+07
         0.30773E+07
        -0.76819E+06
         0.65865E+06
         0.13559E+07
        -0.19353E+07
         0.55690E+06
         0.42109E+07
         0.45324E+07
         0.21841E+07
        -0.25472E+07
         0.92085E+07
        -0.15703E+07
         0.20323E+07
         0.67307E+07
         0.79575E+06
         0.55996E+07
         0.25110E+07
         0.85226E+06
         0.43388E+07
         0.69880E+07
         0.44645E+07
         0.25634E+07
         0.18850E+07
         0.26944E+07
         0.27729E+07
         0.12993E+07
        -0.40383E+07
         0.59327E+05
         0.33782E+07
         0.14102E+07
         0.22471E+07
         0.29604E+07
         0.28110E+07
         0.46891E+07
         0.62259E+07
         0.70143E+07
         0.43633E+07
         0.40455E+07
         0.37673E+06
         0.42801E+07
        -0.28787E+06
         0.20663E+07
         0.26320E+07
         0.13372E+07
         0.47271E+07
         0.33368E+07
         0.13953E+07
         0.80495E+07
         0.77050E+07
         0.50197E+07
         0.61855E+06
        -0.83269E+06
        -0.90671E+05
        -0.11040E+07
        -0.15502E+07
         0.29071E+06
        -0.81636E+06
         0.12645E+07
         0.37470E+07
         0.66878E+06
         0.47680E+06
         0.31435E+07
        -0.39074E+05
         0.15764E+07
         0.33181E+07
         0.17092E+07
         0.10271E+07
         0.16308E+07
        -0.11817E+07
        -0.88202E+06
         0.85395E+06
         0.41596E+06
         0.36599E+07
        -0.12684E+07
         0.20612E+07
         0.40240E+07
         0.27826E+07
         0.10721E+07
         0.44681E+07
         0.34430E+07
         0.39041E+07
         0.42515E+07
         0.41916E+07
         0.17865E+07
        -0.64375E+06
        -0.18874E+07
         0.14075E+07
         0.15072E+07
        -0.27582E+07
         0.17681E+07
        -0.14715E+07
        -0.51803E+07
        -0.30297E+07
        -0.34239E+07
        -0.53037E+06
        -0.20487E+06
        -0.27678E+06
        -0.48447E+06
        -0.66523E+06
         0.12663E+07
         0.21583E+07
         0.52174E+07
         0.49934E+07
         0.68327E+07
         0.14299E+08
         0.73292E+07
         0.23776E+07
         0.10956E+07
         0.76577E+06
         0.17156E+07
         0.11944E+07
         0.68057E+06
        -0.13012E+07
        -0.22878E+07
        -0.28446E+07
        -0.19001E+07
         0.25647E+07
         0.17691E+07
         0.48014E+07
         0.22168E+07
        -0.77768E+06
         0.15825E+07
        -0.16612E+07
         0.20661E+07
         0.46913E+07
        -0.95771E+06
        -0.18960E+07
        -0.20994E+07
         0.29783E+07
         0.15346E+07
         0.12654E+07
         0.14961E+07
        -0.14933E+07
        -0.60701E+06
        -0.33478E+07
        -0.30423E+07
         0.14222E+07
         0.11327E+07
         0.38952E+07
         0.62157E+07
         0.33548E+07
         0.36969E+07
         0.11721E+07
         0.33569E+06
         0.18835E+07
         0.32792E+07
        -0.16622E+06
        -0.12962E+05
         0.28544E+06
         0.26436E+07
         0.15089E+07
         0.62342E+07
         0.32843E+07
         0.35924E+07
         0.17312E+07
         0.59418E+06
         0.56315E+06
         0.93855E+06
         0.25145E+07
         0.45924E+07
         0.15235E+07
         0.18902E+07
         0.25311E+07
         0.11374E+07
         0.50980E+07
         0.14864E+07
         0.88180E+07
        -0.13535E+07
         0.38968E+07
         0.63982E+07
         0.15023E+07
         0.33745E+07
        -0.95677E+06
        -0.11717E+07
         0.32571E+07
         0.83200E+07
         0.73383E+07
         0.41937E+07
         0.23812E+07
        -0.12046E+07
         0.46239E+06
         0.82403E+06
        -0.46002E+06
         0.32242E+06
         0.13138E+06
         0.43048E+07
         0.10450E+07
         0.34794E+07
         0.70807E+07
         0.45183E+07
         0.10836E+07
         0.29361E+07
         0.41132E+07
         0.21186E+07
         0.96782E+06
         0.11206E+07
        -0.74061E+06
         0.83856E+06
         0.20262E+07
         0.33145E+07
         0.23538E+07
         0.62522E+07
         0.10897E+07
         0.38756E+07
         0.56216E+07
         0.47980E+07
         0.20497E+07
         0.18786E+07
         0.52427E+06
         0.28269E+07
         0.32772E+07
         0.16396E+07
         0.19657E+07
         0.17472E+07
         0.10196E+06
         0.25601E+07
        -0.66516E+06
        -0.63095E+07
         0.15581E+07
         0.39278E+07
         0.22504E+07
         0.29577E+07
         0.52969E+07
         0.37571E+07
         0.10951E+07
         0.11941E+05
         0.22556E+07
         0.36629E+07
        -0.12224E+07
        -0.10981E+07
        -0.24120E+07
         0.62105E+07
         0.27088E+07
         0.36691E+07
         0.32938E+07
         0.60962E+07
         0.33667E+07
         0.31639E+07
         0.39990E+07
         0.13864E+07
         0.12528E+07
         0.19344E+07
         0.22964E+07
        -0.14434E+07
        -0.25312E+07
         0.56430E+07
         0.74386E+06
        -0.43633E+07
        -0.24442E+07
        -0.25232E+07
         0.30418E+07
         0.36698E+07
         0.24446E+07
         0.54028E+07
         0.64308E+06
         0.24285E+07
         0.94971E+06
         0.35202E+07
         0.49549E+07
         0.58224E+07
         0.55033E+07
         0.77589E+07
         0.38057E+07
         0.23148E+07
         0.14843E+07
         0.30989E+06
         0.58309E+07
         0.14837E+07
        -0.40444E+07
        -0.18580E+07
        -0.26343E+07
        -0.15556E+07
        -0.10149E+06
         0.72679E+06
         0.13041E+07
         0.36679E+07
         0.20044E+07
         0.23009E+07
         0.19993E+07
         0.75288E+06
         0.35399E+06
         0.49837E+06
        -0.44950E+07
         0.22907E+07
        -0.21661E+07
         0.25094E+07
         0.36008E+07
         0.17488E+07
         0.35366E+07
         0.56049E+07
         0.15078E+07
         0.23891E+07
         0.31767E+06
         0.18694E+07
         0.18332E+07
         0.82727E+07
        -0.14461E+07
        -0.38132E+06
         0.40183E+07
         0.18903E+07
         0.42102E+07
         0.52107E+06
        -0.19736E+07
         0.17528E+07
         0.78868E+07
         0.49735E+06
         0.72307E+07
         0.82669E+07
         0.10501E+08
         0.47654E+07
        -0.35832E+07
        -0.14160E+08
         0.46071E+07
        -0.75721E+06
         0.66718E+07
        -0.20316E+07
        -0.15124E+07
         0.80234E+06
         0.68949E+07
         0.19432E+07
        -0.10581E+07
         0.94240E+07
         0.40402E+07
         0.54881E+07
         0.73250E+07
        -0.50370E+05
         0.12261E+07
         0.43799E+07
         0.74553E+07
         0.76165E+07
         0.35075E+07
         0.41670E+07
         0.30133E+07
         0.67357E+07
         0.40219E+06
         0.46377E+07
         0.23235E+07
        -0.21271E+07
         0.49366E+07
         0.58191E+05
         0.17499E+07
        -0.44614E+07
         0.76537E+06
         0.38639E+07
         0.98585E+06
        -0.10226E+07
         0.30282E+07
         0.58961E+07
        -0.53785E+07
         0.72373E+07
         0.12833E+07
         0.38488E+06
         0.71457E+06
         0.45398E+07
         0.15025E+07
         0.16888E+07
        -0.20758E+07
         0.42332E+07
         0.95104E+07
         0.93627E+07
         0.35266E+07
         0.51485E+07
         0.72257E+07
         0.44825E+07
        -0.30347E+06
        -0.31249E+06
        -0.32447E+06
         0.21653E+07
         0.71301E+06
        -0.14781E+07
        -0.13511E+07
         0.48700E+06
        -0.80319E+06
         0.56573E+07
        -0.92505E+06
         0.16580E+07
  
SCALARS                         fint_x  double 1
LOOKUP_TABLE default
         0.30378E+01
         0.44600E+01
         0.31085E+01
         0.18220E+01
         0.21961E+01
         0.46262E+00
        -0.24647E+01
        -0.13159E+01
         0.55565E+01
         0.46308E+01
         0.16986E+01
        -0.27196E+01
        -0.13139E+01
         0.18989E+01
         0.14874E+01
        -0.85089E+00
         0.35128E+01
        -0.75512E+00
        -0.95931E+00
         0.17951E+00
         0.27512E+01
         0.35617E+01
         0.18635E+01
         0.18043E+01
         0.27663E+01
        -0.20540E+01
         0.14458E+01
        -0.68599E-01
         0.48379E+01
         0.25024E+01
        -0.34568E+01
        -0.92187E+01
         0.14354E+01
         0.41300E+01
        -0.26476E+00
        -0.30183E+01
        -0.57025E+01
        -0.69148E+01
         0.49172E+01
         0.58874E+01
        -0.84758E+01
        -0.90643E+01
         0.36090E+01
         0.51499E+01
        -0.45806E+01
        -0.60625E+01
         0.15089E+01
         0.52420E+01
        -0.39716E+01
        -0.12034E+01
        -0.58610E+01
        -0.19442E+01
        -0.98059E+00
         0.66568E+00
        -0.26498E+01
        -0.33144E-01
        -0.42776E+01
        -0.88257E+01
        -0.54917E-01
         0.96813E+00
        -0.27368E+01
        -0.43085E+01
        -0.28166E+01
        -0.33218E+01
        -0.46197E+01
        -0.28180E+01
         0.41772E+01
         0.22724E+01
         0.30388E+01
         0.48475E+01
        -0.28187E+01
         0.54815E+00
         0.22852E+01
        -0.52129E+01
        -0.21636E+01
         0.19562E+01
         0.62058E+00
         0.21011E+01
        -0.24381E+01
        -0.30545E+01
        -0.30354E+01
        -0.10947E+01
         0.65277E+00
        -0.26068E+01
        -0.25742E+01
         0.34185E+01
        -0.33610E+01
         0.27236E+01
        -0.44216E+01
         0.12580E+01
        -0.32122E+01
         0.70195E+00
        -0.24043E+01
        -0.35663E+01
         0.56500E+01
        -0.47001E+01
         0.35201E+01
        -0.16960E+01
         0.16791E+01
        -0.66161E+01
         0.44429E+01
         0.73691E+01
         0.43375E+01
        -0.17418E+01
         0.24622E+00
         0.82368E+00
        -0.15646E+00
        -0.12204E+01
         0.28091E+01
        -0.59148E+01
        -0.62288E+00
        -0.33346E+01
         0.19432E+00
        -0.18555E+01
         0.55546E+00
         0.24215E+00
        -0.25388E+01
         0.10308E+01
        -0.26213E+01
         0.18529E+01
        -0.92366E+00
         0.69949E+00
        -0.16372E+01
        -0.13096E+01
        -0.14086E+01
        -0.33315E+01
        -0.56689E+00
        -0.10366E+01
        -0.79387E+00
        -0.22829E+00
        -0.41065E+01
         0.18398E+00
        -0.10321E+01
         0.10142E+01
        -0.21012E+00
         0.29823E+01
        -0.78028E+00
         0.28446E+01
        -0.10690E+01
        -0.81047E+00
         0.21281E+01
         0.44037E+00
         0.69951E+00
        -0.11226E+01
         0.49898E+00
        -0.11203E+01
        -0.10354E+01
        -0.13531E+01
         0.28246E+01
        -0.53747E+00
         0.96407E+00
         0.85974E+00
        -0.10369E-01
        -0.14453E+01
         0.23411E+01
         0.27280E+01
        -0.40684E+01
        -0.35445E+01
        -0.66617E+01
        -0.75310E+01
        -0.31685E+01
        -0.79464E+01
        -0.79097E+01
         0.44711E+00
         0.11071E+01
         0.25878E+01
        -0.44429E+01
        -0.40567E+01
        -0.34229E+01
         0.77322E+00
        -0.22283E+01
        -0.11682E+01
        -0.60291E+01
        -0.10912E+01
         0.42324E+01
         0.71771E+01
         0.14568E+01
         0.22427E+00
         0.43739E+01
         0.19513E+01
         0.41204E+01
        -0.60054E+00
         0.23310E+01
        -0.26393E+00
         0.54694E+01
         0.10123E+01
         0.28818E+01
        -0.33075E+00
        -0.92634E+00
        -0.73321E+00
        -0.26238E+01
        -0.79989E-01
        -0.23911E+00
         0.16714E+01
         0.60247E+00
         0.19519E+01
         0.23990E+01
         0.28883E+01
         0.45505E+01
         0.29981E+01
        -0.61753E+00
         0.32342E+01
        -0.30681E+00
        -0.11359E+01
         0.21829E-01
        -0.21220E+01
        -0.23891E+01
        -0.26712E+01
         0.27255E+01
         0.19489E-01
        -0.10173E+01
         0.19333E+01
        -0.26775E+00
        -0.31817E+01
        -0.25742E+01
        -0.49848E+00
        -0.37064E+00
         0.10666E+01
        -0.52190E-01
        -0.46274E+01
        -0.88861E+00
         0.93095E+00
        -0.34217E+00
        -0.17123E+01
         0.67110E-01
         0.15610E+01
         0.20074E+01
         0.83928E+00
         0.50431E+01
         0.86735E+00
         0.83601E+00
         0.13199E+01
        -0.42210E+00
        -0.26774E+00
         0.35791E+01
         0.72122E+01
         0.73851E+01
         0.43700E+01
         0.77008E+01
         0.41096E+01
         0.37818E+01
         0.43831E+01
         0.16573E+01
         0.17918E+01
        -0.16012E+01
        -0.10245E+01
         0.12730E+01
         0.13043E+01
         0.86461E+00
        -0.11536E+01
        -0.53001E+01
         0.32954E+01
        -0.57047E+01
        -0.69855E+01
        -0.63843E+01
        -0.51096E+01
        -0.30982E+01
        -0.46042E+01
        -0.75158E+00
        -0.34909E+01
        -0.84790E+00
        -0.44160E+01
         0.28091E+01
        -0.85164E+01
         0.65918E+01
        -0.17584E-01
         0.81521E+01
         0.87654E+01
         0.29140E+01
         0.51170E+01
         0.59031E+01
         0.22108E+01
        -0.18246E+01
         0.10189E+01
        -0.11490E+01
        -0.74847E+01
        -0.26727E+01
        -0.30269E+01
        -0.32009E+01
         0.26737E+01
        -0.13255E+01
        -0.54479E+01
         0.42581E+00
         0.48564E+01
         0.23947E+01
         0.44340E+01
         0.28352E+01
         0.11207E+01
         0.13645E+01
         0.42412E+01
        -0.11222E+01
         0.61971E+00
        -0.18454E+01
        -0.10083E+01
         0.89084E+00
         0.18857E+00
        -0.29350E+00
        -0.20823E+01
        -0.20379E+01
        -0.12550E+01
        -0.13928E+01
        -0.72273E+00
        -0.45343E+00
         0.67333E-01
        -0.57392E+00
         0.39123E+00
         0.43772E+00
         0.73397E+00
         0.23634E+01
        -0.94316E+00
         0.36769E+01
         0.40656E+01
        -0.52021E+01
        -0.50491E+01
        -0.45779E+01
        -0.80905E+01
        -0.20043E+01
        -0.66159E+01
        -0.19965E+01
        -0.27232E+01
        -0.30977E+00
         0.27503E+01
        -0.28661E+01
        -0.35900E+01
        -0.50580E+01
         0.79430E+00
         0.23973E+01
         0.15547E+01
         0.78887E+01
        -0.40537E+01
         0.91005E+01
         0.86603E+01
         0.21300E+01
         0.52498E+01
         0.41058E+01
         0.82403E+01
         0.99452E+01
         0.36868E+01
         0.15395E+01
         0.12559E+01
         0.43368E+01
         0.30634E+01
         0.12369E+01
         0.65461E+00
        -0.41329E+00
        -0.64575E+01
         0.44837E+00
        -0.29520E+01
        -0.25989E+01
         0.35864E+01
         0.10936E+01
         0.46858E+01
         0.28945E+01
         0.20684E+01
         0.10120E+02
         0.27274E+01
        -0.49330E-01
         0.11064E+00
         0.40216E+00
        -0.23839E+00
         0.95669E+00
        -0.26123E+01
        -0.37845E+01
        -0.68905E+01
         0.29277E+01
         0.11347E+01
         0.11793E+00
         0.14844E+01
        -0.20916E+00
         0.26184E+01
        -0.33750E+00
         0.83578E+00
         0.24473E+01
         0.47307E+00
        -0.10160E+01
        -0.78746E+00
        -0.42044E+00
         0.98687E+00
         0.15511E+01
         0.14867E+01
        -0.10482E+01
         0.79587E+00
        -0.86722E+00
         0.18373E+00
        -0.21502E+01
        -0.28443E+01
        -0.17935E+01
        -0.19813E+01
        -0.44424E-01
        -0.80332E+00
         0.31181E+01
         0.52568E+01
         0.63965E+01
         0.58396E+01
         0.47394E+01
         0.63204E+01
         0.31364E+01
         0.98199E+00
         0.16130E+01
        -0.10351E+01
         0.19070E+01
        -0.17972E+01
        -0.66753E+00
         0.43222E+01
         0.21887E+01
        -0.38011E+01
        -0.18714E+01
         0.39627E+00
        -0.48795E+01
        -0.77185E+01
        -0.79346E+01
        -0.64421E+01
        -0.39515E+01
        -0.42844E+01
        -0.32128E+01
        -0.44218E+01
         0.11090E+01
        -0.22809E+01
        -0.45200E+01
        -0.93814E+01
        -0.18139E+01
        -0.33686E+01
         0.20918E+01
         0.36170E+01
        -0.12104E+01
         0.98203E+00
         0.13931E+01
         0.20650E+01
        -0.98694E+00
        -0.24227E+01
        -0.48525E+00
         0.80735E+00
        -0.11931E+01
        -0.18557E+00
         0.95404E+00
         0.25561E+00
        -0.30761E+01
        -0.70547E+00
         0.28298E+01
         0.16143E+01
         0.54510E+00
         0.32434E+01
         0.12289E+01
         0.13638E+01
         0.55971E+00
         0.19359E+01
         0.27149E+01
         0.40745E+00
         0.90187E+00
        -0.15633E+01
        -0.70581E+00
        -0.86285E+00
        -0.67740E+00
        -0.12549E+01
         0.46211E+00
         0.61199E-01
        -0.40561E+01
        -0.12131E+01
        -0.33682E+01
        -0.62375E+00
         0.66000E+00
        -0.18487E+01
         0.10953E+01
        -0.69876E+00
        -0.28142E+00
        -0.12945E+01
        -0.24706E+00
        -0.35353E+00
        -0.36540E+01
        -0.38362E+01
        -0.47045E+01
        -0.48509E+01
        -0.84857E+01
        -0.88776E+01
        -0.40443E+01
        -0.41067E+01
         0.99024E+00
         0.15077E+01
        -0.23886E+01
        -0.94990E+00
        -0.88023E+00
         0.97394E+00
        -0.54975E+00
         0.10305E+01
         0.62689E+01
        -0.32100E+01
         0.75142E+01
         0.78259E+01
         0.45166E+01
         0.26080E+01
         0.12064E+01
         0.42502E+01
         0.54816E+01
         0.25864E+01
         0.65666E+00
         0.55295E+01
         0.64210E+01
         0.49597E+01
        -0.96457E+00
         0.17320E+01
        -0.19518E+01
        -0.58394E+01
        -0.50836E+01
        -0.42636E+01
        -0.17281E+01
        -0.87871E+00
         0.60584E+00
         0.22176E+01
         0.13035E+01
         0.24686E+01
        -0.21071E+01
         0.28090E+01
         0.42780E+01
         0.22545E+01
         0.22411E+00
         0.99356E-01
        -0.10618E+01
        -0.40561E+01
        -0.24374E+01
        -0.70437E+01
        -0.19877E+01
        -0.68131E+01
        -0.36733E+01
        -0.49088E+01
        -0.31317E+01
        -0.21110E+01
         0.22589E+01
         0.13499E+01
         0.14993E+01
         0.24854E+01
         0.13921E+01
         0.23475E+01
         0.20331E+01
         0.47667E+00
         0.10952E+01
         0.26200E+01
         0.13366E+01
         0.37471E+00
        -0.25424E+00
        -0.34305E+00
         0.57764E+00
        -0.19674E+01
        -0.32990E+00
        -0.34669E+01
        -0.68457E+01
        -0.56079E+01
         0.68696E+01
         0.40436E+01
         0.61453E+01
         0.92187E+01
         0.39864E+01
         0.40294E+01
         0.38775E+01
         0.59384E+01
         0.24209E+01
         0.24161E+01
         0.23448E+01
         0.88236E+00
         0.29339E+01
         0.31909E+01
        -0.11798E+01
        -0.47193E+01
        -0.63476E+01
         0.42373E+01
        -0.51950E+01
        -0.58877E+01
        -0.20790E+01
        -0.24440E+01
        -0.36610E+01
        -0.57630E+01
        -0.78473E+01
        -0.72859E+01
        -0.14546E+01
        -0.29177E+01
        -0.58811E+01
        -0.66127E+01
         0.19981E+01
        -0.24513E+01
         0.89600E+01
         0.49434E+01
         0.44758E+01
         0.25883E+01
         0.20465E+01
         0.15111E+01
        -0.18504E+00
        -0.28659E+01
         0.13893E+00
        -0.18374E+00
        -0.60002E+01
        -0.29923E+01
        -0.22797E+01
        -0.23148E+01
        -0.12365E+01
         0.17520E+01
         0.34291E+01
         0.26841E+01
         0.45281E+01
         0.36464E+01
        -0.51335E+00
        -0.91900E+00
         0.73718E+00
        -0.66234E+00
         0.11007E+00
        -0.10230E+01
        -0.44225E-02
         0.31301E+01
         0.17657E+01
        -0.28717E+00
        -0.11893E+00
        -0.32163E+00
        -0.94792E+00
         0.81210E-01
        -0.22885E+01
        -0.23714E+01
         0.10753E+01
         0.81354E+00
         0.23007E+00
        -0.13592E+01
         0.26880E-01
         0.24269E+01
         0.23564E+01
        -0.11595E+01
        -0.26727E+00
        -0.15179E+01
        -0.46138E+01
        -0.43610E+01
        -0.38402E+01
        -0.35008E+01
        -0.17033E+01
        -0.46618E+00
        -0.28293E+01
        -0.23630E+01
        -0.30136E+01
        -0.87594E+00
        -0.13998E+01
        -0.55827E+01
        -0.48554E+01
         0.13387E+01
        -0.18526E+01
        -0.10978E+00
         0.23081E+01
        -0.45490E+01
         0.70502E+01
         0.67210E+01
         0.68899E+01
         0.55156E+01
         0.49267E+01
         0.56707E+01
         0.81916E+01
         0.56144E+01
        -0.24977E+01
         0.24309E+01
         0.57533E+00
         0.52769E+01
         0.17946E+01
         0.35517E+01
        -0.35165E+00
        -0.38694E+01
        -0.64442E+01
        -0.70415E+01
        -0.55364E+01
         0.22809E+01
         0.14234E+01
         0.51478E-01
         0.31623E+01
         0.65460E+01
         0.44588E+01
         0.30452E+01
         0.14672E+01
        -0.60650E-01
        -0.10719E+01
        -0.19662E+01
         0.34221E+00
        -0.17711E+01
        -0.21024E+01
        -0.31640E+01
        -0.11717E+01
        -0.13617E+01
        -0.13753E+01
        -0.16334E+01
        -0.58826E+00
         0.14822E+01
         0.25475E+01
         0.14897E+01
         0.31012E+00
        -0.61943E-01
        -0.33396E+00
         0.26468E+01
         0.24966E+01
         0.95005E+00
         0.72781E+00
         0.60361E+00
         0.60755E+00
        -0.87630E+00
        -0.54582E+00
         0.14937E+01
        -0.17769E+00
         0.99104E+00
         0.25759E+00
         0.72056E+00
        -0.79522E+00
        -0.30321E+01
         0.94678E+01
         0.65832E+01
         0.46986E+01
         0.74151E+01
         0.51801E+01
         0.34585E+01
         0.21665E+01
         0.30360E+01
         0.57300E+01
         0.30854E+01
         0.71767E+00
         0.29768E+01
         0.64463E+01
         0.20680E+01
         0.22997E+01
        -0.65887E+01
        -0.99050E+01
         0.72478E+01
        -0.90309E+01
        -0.94615E+01
        -0.41951E+00
        -0.14951E+01
        -0.19517E+01
        -0.51082E+01
        -0.47340E+01
        -0.61654E+01
        -0.28345E+01
        -0.32860E+01
        -0.11342E+01
        -0.43939E+01
         0.16316E+01
        -0.17571E+01
         0.49825E+01
         0.17908E+00
         0.48585E+01
         0.42460E+01
         0.72173E+01
        -0.52174E+00
        -0.29806E+01
        -0.34751E+01
        -0.34545E+01
        -0.34897E+01
        -0.38361E+01
        -0.11060E+01
        -0.32131E-01
        -0.84102E+00
        -0.12072E+01
        -0.95241E+00
         0.36772E+01
         0.33608E+01
         0.44568E+01
         0.56795E+00
         0.91313E+00
         0.16715E+01
         0.10068E+01
         0.30687E+01
         0.13745E+01
         0.20147E+01
         0.57502E+00
        -0.16811E+01
        -0.47000E+01
        -0.87069E+00
         0.44561E+00
         0.14711E+01
         0.18712E+01
        -0.69831E+00
        -0.42456E+00
        -0.39302E+01
        -0.76117E+00
        -0.10377E+01
        -0.55497E+00
         0.14109E+01
         0.29795E-02
         0.27905E+01
         0.18166E+01
         0.34501E+01
         0.57689E+01
         0.52092E+01
        -0.10556E+02
        -0.60997E+01
        -0.68958E+01
        -0.11051E+02
        -0.19021E+01
        -0.20858E+00
        -0.23109E+01
        -0.63516E+01
        -0.25904E+01
         0.13064E+00
        -0.68175E-01
         0.16370E+01
         0.27191E+01
        -0.16553E+01
        -0.11780E+01
         0.58038E+01
         0.94078E+01
        -0.59130E+01
         0.12053E+02
         0.13653E+02
         0.29337E+01
         0.39774E+01
         0.22517E+00
         0.77127E+01
         0.77721E+01
         0.73190E+01
        -0.16840E+01
         0.74989E-01
         0.19508E+01
         0.75396E+01
         0.68028E+00
         0.35753E+01
        -0.60472E+01
        -0.72854E+01
        -0.28798E+01
        -0.35546E+01
         0.70326E+00
         0.79449E+00
         0.39160E+00
         0.19041E+01
         0.35885E+01
         0.40404E+01
        -0.57072E+00
         0.21913E+01
         0.26350E+01
        -0.81747E+00
         0.40519E+00
         0.75068E+00
        -0.21124E+01
        -0.41608E+01
         0.71714E+00
         0.11734E+00
        -0.70045E+01
        -0.73498E+01
        -0.68897E+01
        -0.29528E+01
        -0.17928E+01
         0.31194E+01
         0.71867E+00
        -0.19424E+00
        -0.27787E+01
         0.10978E+01
         0.15298E+01
         0.42025E+01
         0.30816E+01
         0.47314E+01
         0.33235E+01
         0.23406E+01
         0.41030E+01
         0.23692E+01
         0.24874E+01
         0.13646E+01
        -0.10321E+01
        -0.32524E+01
        -0.33459E+01
        -0.17511E+01
        -0.19839E+01
        -0.29726E+01
         0.11779E+02
         0.92627E+01
         0.80287E+01
         0.12632E+02
         0.27178E+01
         0.35659E+01
         0.43517E+01
         0.38153E+01
         0.45267E+01
        -0.49272E-01
         0.51008E+01
         0.10065E+00
         0.47103E+00
         0.33979E+01
         0.62543E+00
        -0.57586E+01
        -0.81857E+01
         0.80385E+01
        -0.11564E+02
        -0.13648E+02
         0.64448E+00
        -0.14349E+01
        -0.40866E+00
        -0.63357E+01
        -0.51237E+01
        -0.58338E+01
        -0.24518E+01
        -0.11506E+01
        -0.53641E+01
        -0.84824E+01
         0.12940E+00
        -0.15966E+01
         0.39950E+01
         0.52383E+01
        -0.83476E+00
         0.14880E+00
         0.10135E+01
        -0.35383E+01
        -0.23385E+01
        -0.30728E+01
        -0.20179E+01
         0.50880E+00
        -0.23207E+01
         0.29729E+00
         0.20532E+01
         0.21501E+01
        -0.55451E+00
        -0.79959E-01
         0.14200E+01
        -0.14113E+01
        -0.27114E+01
        -0.11331E+01
         0.41411E+01
         0.36181E+01
         0.11664E+01
         0.16848E+01
         0.23106E+01
         0.26546E+01
        -0.11660E+01
        -0.11221E+01
        -0.12173E+01
         0.19277E+01
         0.25523E+01
         0.19386E+01
        -0.27115E+01
        -0.27605E+01
        -0.84322E+00
         0.46015E+00
         0.16110E+01
        -0.54769E+00
         0.72242E-01
         0.24947E+00
        -0.81428E+00
        -0.91931E-01
         0.10517E+01
         0.35684E+01
         0.28079E+01
         0.46042E+01
        -0.86151E+01
        -0.91248E+01
        -0.83725E+01
        -0.10225E+02
        -0.43925E+01
        -0.41737E+01
        -0.85543E+01
        -0.33353E+01
        -0.48430E+00
         0.20762E+01
        -0.29825E+01
         0.66236E+00
         0.15290E+00
        -0.67048E+00
        -0.28563E+00
         0.34253E+01
         0.32141E+01
        -0.45841E+01
         0.13184E+02
         0.15331E+02
        -0.10135E+01
        -0.34935E+01
        -0.15514E-01
         0.91251E+01
        -0.17454E+00
         0.46295E+01
         0.17520E+01
         0.45174E+01
         0.64557E+01
         0.10537E+02
        -0.23110E+01
         0.11874E+01
        -0.65934E+01
        -0.52995E+01
         0.37131E+01
         0.83411E+00
         0.77959E+00
        -0.18302E+01
         0.19149E+01
         0.25087E+01
         0.11363E+01
         0.44765E+01
         0.36638E+00
         0.13244E-01
        -0.27913E+00
         0.51954E+00
        -0.56984E+00
        -0.25520E+01
        -0.10453E+01
         0.79290E+00
         0.32192E+01
        -0.53521E-01
        -0.44646E+01
        -0.34439E+01
        -0.31581E+01
         0.14404E+01
        -0.53413E+00
        -0.11982E-01
        -0.63174E-01
        -0.10066E+01
         0.16512E+01
         0.41567E+01
         0.15744E+01
        -0.53674E+00
         0.13676E+01
         0.26566E+01
         0.28257E+01
         0.17486E+01
         0.32028E+01
         0.20350E+01
         0.65711E+00
         0.42063E+00
        -0.60995E+00
         0.46713E+00
        -0.18066E+01
        -0.70058E+00
        -0.15613E+01
        -0.25078E+01
         0.67320E+01
         0.71624E+01
         0.63816E+01
         0.92340E+01
         0.47352E+01
         0.68859E+01
         0.52158E+01
         0.12788E+01
         0.15964E+01
        -0.18241E+01
         0.94145E+00
        -0.10565E+01
         0.11052E+01
        -0.97145E+00
        -0.25868E+01
        -0.31677E+01
        -0.56769E+01
         0.63766E+01
        -0.11604E+02
        -0.11794E+02
         0.37731E+01
         0.37406E+01
         0.88591E+00
        -0.83590E+01
        -0.19969E+01
        -0.65643E+01
        -0.11679E+01
        -0.32238E+01
        -0.68552E+01
        -0.71131E+01
         0.28520E+01
        -0.15441E+01
         0.54933E+01
         0.40719E+01
        -0.57606E+00
        -0.55596E+00
         0.96286E+00
        -0.24061E-01
        -0.38225E+01
        -0.15163E+01
         0.30910E+01
        -0.85220E+00
        -0.51884E+01
         0.92773E+00
         0.77651E+00
        -0.62526E+00
        -0.67602E+00
         0.31952E+01
         0.24874E+01
        -0.20293E+01
        -0.12302E+01
         0.29772E+01
         0.47155E+01
         0.34761E+01
         0.60999E+01
         0.47376E+01
         0.15976E+01
         0.59942E+00
        -0.13184E+01
        -0.84412E+00
        -0.77741E+00
         0.19929E+01
        -0.73722E+00
        -0.12334E+00
        -0.16876E+01
        -0.26953E+01
        -0.24015E+01
        -0.14900E+01
         0.10279E-01
        -0.78463E+00
         0.35084E+00
         0.50802E+00
        -0.13494E+01
         0.20799E+00
         0.35827E+01
         0.60731E+01
         0.54670E+01
         0.24185E+01
        -0.69985E+01
        -0.72640E+01
        -0.54785E+01
        -0.76636E+01
        -0.42832E+01
        -0.40289E+01
        -0.74582E+01
        -0.24377E+01
         0.17978E+01
         0.35092E+01
        -0.19985E+01
        -0.56516E+00
        -0.21535E+01
         0.10013E+01
         0.15095E+01
         0.53490E+01
         0.94346E+01
        -0.46233E+01
         0.10978E+02
         0.84006E+01
        -0.41926E+01
        -0.21037E+00
        -0.38169E+01
         0.89297E+01
         0.47658E+01
         0.65820E+01
        -0.23741E+01
         0.15048E+00
         0.90406E+01
         0.63811E+01
        -0.18048E+01
         0.22668E+01
        -0.58321E+01
        -0.21083E+01
         0.78521E+00
         0.43622E+00
        -0.13130E+01
         0.90852E-03
         0.28649E+01
         0.39365E+01
        -0.40857E+00
         0.10955E+01
         0.25676E+01
        -0.20350E+01
        -0.22832E+01
        -0.16070E+01
         0.30773E+00
        -0.14107E+01
        -0.14287E+01
         0.11677E+01
         0.29123E+01
         0.28831E+00
        -0.29462E+01
        -0.12374E+01
        -0.18909E+01
         0.16286E+01
         0.28059E+01
         0.13781E+01
        -0.12925E+01
        -0.17250E+01
         0.12111E+01
         0.97303E+00
         0.51120E+00
         0.13770E+00
         0.28150E+01
         0.38854E+01
         0.28411E+01
        -0.40724E-01
        -0.69877E+00
        -0.78459E+00
        -0.20861E+01
        -0.71825E+00
         0.27486E+01
         0.44445E+01
         0.18019E+01
         0.12411E+01
        -0.45816E+00
        -0.88435E+00
         0.89876E+01
         0.76865E+01
         0.71356E+01
         0.12113E+02
         0.44699E+01
         0.55866E+01
         0.39277E+01
         0.17364E+01
         0.88395E+00
        -0.32241E+01
        -0.80673E+00
         0.29840E+01
         0.32239E+01
        -0.21988E+01
         0.19869E+01
        -0.88941E+01
        -0.13678E+02
         0.63391E+01
        -0.12032E+02
        -0.96377E+01
         0.18681E+01
         0.97647E+00
         0.29910E+01
        -0.77901E+01
        -0.77901E+01
        -0.90061E+01
        -0.86629E+00
         0.36224E+00
        -0.45369E+01
        -0.46269E+01
        -0.44723E-01
        -0.34398E+01
         0.59267E+01
         0.43911E+01
         0.13469E+01
         0.11690E+01
         0.21838E+01
         0.23307E+01
         0.17314E+01
        -0.30255E+01
        -0.30982E+01
        -0.13441E+01
        -0.70600E+00
         0.34530E+01
         0.22862E+01
         0.60804E+00
        -0.16100E+01
        -0.47669E-01
         0.18200E+01
         0.91518E+00
         0.19701E+01
         0.16977E+01
        -0.22985E+01
        -0.21892E+01
         0.27618E+01
         0.30862E+01
         0.15363E-01
        -0.58567E+00
         0.10364E+01
         0.38956E+00
         0.18009E+01
        -0.29519E+01
        -0.12792E+01
        -0.28916E+01
         0.75559E+00
         0.58707E+00
        -0.42836E+00
        -0.26414E+01
        -0.20189E+01
        -0.10099E+01
        -0.21248E+01
        -0.19228E+01
        -0.11195E+01
         0.87607E+00
         0.42765E+01
         0.53478E+01
         0.83961E+00
         0.76398E+00
        -0.84808E+01
        -0.31953E+01
        -0.33705E+01
        -0.10071E+02
        -0.12225E+01
        -0.21813E+01
        -0.20401E+01
        -0.26089E+01
        -0.21103E+01
         0.31939E+01
        -0.12618E+01
        -0.10731E+01
        -0.13603E+01
         0.49272E+00
        -0.18986E+01
         0.64751E+01
         0.13951E+02
        -0.87953E+01
         0.13030E+02
         0.13348E+02
        -0.13983E+01
        -0.42682E+01
        -0.21373E+01
         0.57148E+01
         0.11524E+02
         0.53916E+01
         0.17972E+01
         0.31533E+01
         0.25902E+01
         0.53938E+01
        -0.13230E+01
         0.14895E+01
        -0.75458E+01
        -0.74898E+01
        -0.30175E+01
        -0.20835E+01
        -0.15598E+01
        -0.42888E+01
        -0.71453E+00
         0.38037E+01
         0.35752E+01
         0.43097E+00
        -0.58954E+01
        -0.25170E+01
        -0.18579E+01
         0.79444E-01
        -0.16992E+01
        -0.23449E+01
        -0.32715E+01
        -0.37383E+01
        -0.12753E+01
        -0.21522E+01
         0.21145E+01
         0.15645E+01
        -0.12923E+01
        -0.68227E+00
         0.72522E+00
         0.11385E+01
        -0.36647E+00
        -0.13041E+01
         0.17141E+01
         0.89746E+00
        -0.14839E+00
         0.18366E+01
         0.36629E+01
         0.33403E+01
         0.16633E+01
         0.29726E+00
        -0.92613E+00
         0.17291E+00
         0.10999E+01
         0.57094E+00
         0.15059E+01
        -0.30249E+00
        -0.39648E-01
         0.12489E+01
        -0.10724E+01
        -0.12331E+01
         0.80833E+01
         0.43119E+01
         0.53079E+01
         0.90797E+01
         0.11917E+01
        -0.71267E+00
         0.13720E+01
         0.49442E+01
         0.79471E+00
        -0.30867E+01
         0.26671E+01
        -0.15878E+01
        -0.28486E+01
         0.21302E+01
         0.17391E+01
        -0.79988E+01
        -0.16682E+02
         0.51267E+01
        -0.11616E+02
        -0.16179E+02
        -0.11526E+01
         0.82837E+00
         0.17224E+01
        -0.47368E+01
        -0.15702E+02
        -0.55982E+01
        -0.31758E+01
        -0.29592E+01
        -0.25878E+00
        -0.98313E+01
         0.33058E+00
        -0.26800E+00
         0.55144E+01
         0.69388E+01
         0.57198E+01
         0.39424E+01
         0.19482E+00
         0.98979E+00
         0.33182E+01
        -0.15594E+01
        -0.43088E+01
        -0.10272E+01
         0.38270E+01
         0.27132E+01
         0.24451E+01
         0.21608E+01
         0.28254E+01
         0.15365E+01
         0.28777E+01
         0.58268E+01
         0.45382E+01
         0.97681E+00
        -0.10892E+01
        -0.31313E+01
        -0.45297E+00
         0.31956E+01
        -0.18380E+00
        -0.38602E+01
         0.72038E+00
         0.16951E+01
         0.86432E+00
        -0.11586E+01
         0.98841E+00
         0.12786E+01
        -0.34508E+00
        -0.38519E+01
        -0.23154E+01
        -0.28394E+01
        -0.15945E+01
         0.12227E+01
        -0.48606E+00
        -0.27679E+00
        -0.30427E+01
        -0.60631E+00
         0.20252E+01
        -0.12736E+01
         0.33727E+01
         0.40674E+01
        -0.10480E+02
        -0.65476E+01
        -0.59503E+01
        -0.10432E+02
        -0.16540E+01
        -0.16830E+01
        -0.49948E+01
        -0.57630E+01
        -0.58575E+00
         0.42957E+01
        -0.59306E+01
         0.38046E+00
         0.23169E+01
        -0.32565E+01
        -0.26876E+00
         0.85548E+01
         0.16413E+02
        -0.48012E+01
         0.14884E+02
         0.18231E+02
        -0.28781E+01
        -0.27966E+01
        -0.22848E+01
         0.65347E+01
         0.12360E+02
         0.53087E+01
         0.29000E+01
         0.28415E+01
         0.16144E+00
         0.99733E+01
         0.11571E+01
         0.50484E+00
        -0.24938E+01
        -0.52295E+01
        -0.39857E+00
         0.88391E-01
         0.16271E+01
        -0.12008E+01
        -0.49415E+01
        -0.34451E+01
         0.54183E+00
         0.19811E+01
        -0.99816E+00
        -0.10566E+01
        -0.13097E+01
        -0.66449E+00
        -0.32502E+01
        -0.19153E+00
         0.11046E+01
        -0.47146E+01
        -0.60682E+01
        -0.33561E+01
         0.43910E+01
         0.17861E+01
         0.24878E+01
        -0.56155E-01
         0.43354E+00
         0.87839E-01
        -0.10634E+01
        -0.22427E+01
         0.32083E+00
         0.39626E+01
         0.45390E+01
         0.38936E+01
         0.15321E+01
         0.55230E+00
        -0.48269E+01
        -0.31877E+01
        -0.16111E+00
         0.23019E+00
         0.24600E+01
         0.13224E+01
         0.21062E+01
        -0.18694E+01
        -0.35686E+01
         0.18210E+00
        -0.28643E+01
        -0.38186E+01
         0.12129E+02
         0.77356E+01
         0.51705E+01
         0.12477E+02
         0.36976E+00
         0.62538E+01
         0.46823E+01
         0.72916E+01
         0.35143E+01
        -0.38647E+01
         0.36349E+01
        -0.32132E+01
        -0.41157E+01
         0.43616E+01
        -0.37696E+00
        -0.37695E+01
        -0.14336E+02
         0.63072E+01
        -0.92541E+01
        -0.17802E+02
         0.69660E+01
         0.74938E+01
         0.59208E+01
        -0.14504E+01
        -0.18022E+02
        -0.12422E+01
        -0.32846E+01
        -0.63614E+01
        -0.67256E+00
        -0.12132E+02
        -0.10060E+01
         0.11661E+01
         0.15290E+01
         0.50203E+01
        -0.70698E+01
        -0.40047E+01
        -0.40751E+01
        -0.72839E+00
        -0.18252E+01
         0.58346E-01
         0.39053E+00
        -0.26487E+01
        -0.14578E+01
         0.64893E+01
         0.46424E+01
         0.27299E+01
         0.75054E-01
        -0.12324E+01
        -0.15068E+01
        -0.10098E+01
         0.14054E+01
         0.55001E+01
         0.20336E+00
         0.37962E+01
         0.43365E+01
        -0.17599E+00
        -0.69674E+00
         0.16830E+01
        -0.12001E+01
         0.28068E+01
        -0.19608E+01
        -0.67809E+00
         0.17752E+01
         0.36518E+01
        -0.44043E+01
        -0.41450E+01
        -0.52268E+01
        -0.40359E+01
        -0.60072E+00
        -0.72047E+00
         0.36014E+00
        -0.38672E+00
        -0.87488E+00
         0.12812E+00
         0.52475E+00
         0.85233E+00
         0.65808E+00
         0.49902E+01
        -0.13250E+02
        -0.71398E+01
        -0.43295E+01
        -0.13827E+02
         0.15258E+00
        -0.48506E+01
        -0.40292E+01
        -0.73237E+01
        -0.31103E+01
         0.30547E+01
        -0.37327E+00
         0.39332E+01
         0.62810E+01
        -0.66469E+01
        -0.12968E+01
         0.37769E+01
         0.11379E+02
        -0.68847E+01
         0.91547E+01
         0.15993E+02
        -0.61483E+01
         0.20766E+00
        -0.85026E+01
         0.55601E+00
         0.12107E+02
         0.40772E+00
        -0.72516E+00
         0.72356E+01
        -0.23477E+01
         0.10141E+02
         0.12005E+01
         0.11597E+01
        -0.18439E+01
        -0.57063E+01
         0.12306E+02
         0.93845E+01
         0.75992E+01
        -0.44532E+01
        -0.21303E+01
        -0.33419E+01
        -0.30195E+01
        -0.42952E+01
        -0.42831E+01
        -0.53600E+01
        -0.24068E+01
        -0.21390E+01
         0.28661E+01
         0.27137E+01
         0.28392E+00
         0.60481E-01
         0.68703E+00
        -0.26804E+01
         0.70583E-01
        -0.23051E+01
        -0.72174E+00
         0.11508E+01
        -0.17399E+00
        -0.26629E+01
         0.22174E+01
        -0.22074E+01
        -0.18262E+00
         0.29038E+01
         0.49467E+01
         0.31412E+01
         0.13823E+01
        -0.46931E+01
        -0.35178E+01
        -0.27190E+01
        -0.17917E+01
         0.16583E+01
        -0.18106E+01
         0.13758E+01
         0.16086E+00
         0.57657E+00
        -0.75863E+00
        -0.27667E+01
         0.45263E+00
         0.51040E+00
         0.11000E+02
         0.35109E+01
         0.14311E+01
         0.96974E+01
        -0.34239E+01
        -0.28587E+01
         0.17888E+01
         0.82234E+01
         0.41431E+01
        -0.11091E+00
        -0.28401E-01
        -0.40356E+01
        -0.76852E+01
         0.29961E+01
         0.42035E+01
        -0.52304E+01
        -0.11342E+02
         0.41257E+01
        -0.58672E+01
        -0.14738E+02
         0.61218E+01
         0.13418E+01
         0.76575E+01
         0.15814E+01
        -0.14727E+02
        -0.13795E+01
         0.31483E+01
        -0.48023E+01
        -0.37352E+01
        -0.10644E+02
        -0.43810E+01
        -0.25329E+01
        -0.43589E+00
         0.75776E+01
        -0.31075E+01
        -0.71914E+01
        -0.91354E+01
         0.55019E+01
        -0.19298E+01
        -0.63500E+00
         0.52196E+01
         0.84092E+01
         0.28429E+01
         0.36606E+01
        -0.56252E+00
        -0.19719E+00
        -0.21103E+01
        -0.51322E+01
        -0.30421E+00
         0.31481E+01
        -0.14998E+00
        -0.25628E+01
         0.21673E+01
         0.50640E+01
        -0.14643E+01
        -0.15600E+01
         0.14187E+00
         0.26051E+00
         0.21328E+00
         0.14821E+01
         0.10900E+01
        -0.39698E+01
        -0.37065E+01
        -0.27944E+01
        -0.21941E+01
        -0.21790E+01
        -0.15312E+01
         0.12141E+01
         0.17279E+01
         0.16303E+01
         0.15747E+01
        -0.63324E+00
        -0.10845E+01
        -0.65524E+00
         0.67830E+00
         0.47690E+01
         0.34978E+01
         0.30987E+01
        -0.98886E+01
        -0.39512E+01
         0.73267E+00
        -0.45227E+01
         0.21449E+01
         0.44876E+01
         0.17896E+01
        -0.65383E+01
        -0.73860E+01
        -0.61765E+01
         0.12721E+01
        -0.41269E+00
         0.35801E+01
        -0.15956E+01
        -0.43003E+01
         0.18756E+01
         0.13728E+02
        -0.76777E+01
         0.95662E+00
         0.62974E+01
        -0.48859E+01
        -0.95008E+01
        -0.34146E+01
        -0.44028E+01
         0.10081E+02
        -0.84271E+00
        -0.13485E+01
         0.26903E+01
         0.29016E+01
         0.52310E+01
        -0.24777E+01
        -0.16100E+01
        -0.36100E+01
         0.11393E+01
         0.11809E+01
         0.11673E+01
         0.21917E+01
        -0.28428E+01
        -0.16593E+01
        -0.36300E+00
        -0.48992E+01
        -0.74594E+01
        -0.92034E+01
        -0.24676E+01
        -0.79205E+00
         0.33905E+00
         0.18884E-01
         0.14316E+01
        -0.91209E+00
        -0.37092E+01
        -0.17487E+01
         0.31311E+01
        -0.75671E+00
         0.19652E+01
         0.21622E+01
        -0.72315E+00
        -0.10280E+01
         0.91135E+00
         0.78540E+00
         0.47596E+00
        -0.30359E+01
         0.17608E+01
         0.63538E+00
         0.15332E+01
        -0.89763E+00
         0.22786E+01
         0.24464E+01
         0.25259E+01
         0.25813E+01
         0.15689E+01
         0.32348E+00
        -0.11694E+01
         0.21355E+01
        -0.17476E+00
        -0.51130E+00
        -0.41770E+00
         0.25803E+00
         0.21421E+01
         0.63444E+01
        -0.72633E+01
        -0.62078E+01
         0.38012E+01
        -0.27784E+01
        -0.63773E+01
        -0.19656E+01
         0.70834E+01
         0.91070E-01
        -0.14679E+01
        -0.77858E+00
        -0.24965E+00
         0.31175E+01
         0.13396E+01
        -0.34402E+01
        -0.70063E+01
        -0.60598E+01
         0.34374E+01
        -0.46555E+01
         0.11573E+01
         0.20359E+01
         0.58133E+01
        -0.14473E+01
        -0.27615E+01
        -0.10431E+02
        -0.37607E+01
        -0.86372E+00
        -0.17793E+01
        -0.33884E+01
        -0.40750E+01
        -0.44523E+01
        -0.21544E+01
         0.15022E+01
         0.12399E+01
         0.27801E+01
        -0.19569E+01
         0.70506E+00
         0.34686E+01
         0.44240E+01
         0.10301E+01
         0.27593E+01
         0.43268E+01
         0.77366E+01
         0.27218E+01
         0.51232E+01
         0.61457E+00
        -0.89500E+00
         0.92105E+00
        -0.15135E+01
        -0.41517E+01
         0.18321E+01
        -0.27425E+01
         0.76640E+00
         0.40602E+00
        -0.34584E+00
        -0.10952E+01
        -0.21137E+01
        -0.31098E+00
        -0.16481E+01
        -0.11097E+01
        -0.33658E+00
        -0.30249E+01
        -0.38727E+01
        -0.12108E+01
        -0.10181E+01
        -0.44323E+00
         0.95373E+00
         0.60984E+00
         0.17874E+01
         0.12740E+01
         0.25510E+00
        -0.72479E+00
        -0.34050E+01
        -0.91944E+00
         0.16651E+01
         0.14600E+01
         0.27904E+01
         0.12135E+01
         0.27491E+01
        -0.23622E+01
        -0.62379E+00
        -0.64290E+00
         0.30372E+01
         0.16493E+00
        -0.63977E+01
         0.20504E+01
        -0.20919E+01
         0.46155E+00
         0.17026E+01
        -0.12302E+01
         0.33018E+01
         0.15914E+01
        -0.14274E+01
         0.86187E+00
        -0.16027E+01
        -0.83304E+00
        -0.79736E+00
        -0.16951E+01
         0.64962E+00
        -0.30503E+01
        -0.41017E+01
         0.46473E+01
         0.28839E+01
        -0.20732E+01
        -0.53739E+01
         0.29467E+01
         0.99743E+00
         0.55561E+00
        -0.19341E+00
        -0.21384E+01
        -0.12636E+00
        -0.26832E+01
        -0.20022E+01
        -0.19686E+01
         0.19523E+01
         0.17769E+01
        -0.54808E+00
        -0.76885E+00
         0.52213E+00
        -0.75368E+00
        -0.33824E+01
        -0.19949E+01
         0.11017E+01
         0.10815E+01
        -0.24627E+01
        -0.26599E+00
         0.97529E+00
        -0.27093E+01
         0.31678E+01
        -0.44261E+01
         0.45578E+00
         0.10830E+01
        -0.97986E+00
         0.40710E+00
        -0.38018E+00
         0.38930E+00
         0.46210E+00
        -0.20455E+01
        -0.44743E-01
        -0.86932E+00
        -0.13418E+01
        -0.19470E+01
         0.13268E+01
         0.10184E+01
        -0.82019E+00
         0.93526E+00
         0.14524E+01
         0.10302E+00
        -0.91515E+00
        -0.18111E+01
        -0.16867E+01
        -0.73000E+00
        -0.55722E-01
        -0.64514E+00
         0.28984E+00
         0.97091E-01
  
SCALARS                         fint_y  double 1
LOOKUP_TABLE default
         0.16678E+00
         0.43308E+01
         0.15488E+01
         0.22834E+01
        -0.24746E+01
         0.27430E+01
         0.65505E+00
         0.32978E+01
        -0.32554E+00
         0.51651E+00
         0.36972E+01
         0.11236E+01
         0.23533E+01
         0.66651E+01
        -0.14453E+01
        -0.88925E+00
         0.21603E+00
         0.80714E+01
        -0.38608E+01
        -0.47993E+01
         0.48165E+01
         0.18378E+01
         0.41974E+01
         0.14290E+01
         0.46027E+00
        -0.32963E+01
         0.57588E+01
         0.48112E+01
        -0.22438E+00
        -0.56024E+00
        -0.36491E+01
        -0.36436E+01
        -0.27425E+01
         0.10043E+01
        -0.62012E+01
        -0.39542E+01
        -0.42999E+01
         0.30542E+01
        -0.15456E+01
        -0.16288E+01
         0.24525E+01
        -0.25012E+01
         0.19234E+01
         0.10519E+01
        -0.18412E+01
        -0.44790E+01
         0.63877E+00
         0.45065E+01
         0.33734E+01
        -0.44349E+01
        -0.17469E+01
         0.13491E+01
         0.35786E+01
         0.24549E+01
         0.11578E+01
        -0.30432E+00
         0.21833E+01
         0.50058E+01
        -0.37549E+00
        -0.18485E+01
         0.15682E+01
        -0.10469E+01
         0.41990E+01
         0.40574E+01
        -0.17297E+01
         0.49595E+01
        -0.21459E+01
         0.25309E+01
        -0.92203E-01
         0.22587E+01
         0.11055E+01
         0.49765E+00
         0.40794E+01
         0.12103E+01
         0.82665E+01
        -0.39971E+00
         0.39497E+01
        -0.14607E+01
         0.48742E+00
         0.14123E+01
         0.27478E+01
         0.31945E+01
        -0.94784E+00
         0.15382E+01
        -0.31684E+01
        -0.32997E+01
        -0.47457E+01
         0.13826E+01
        -0.39794E+01
         0.69788E+01
        -0.22893E+01
         0.58912E+00
        -0.11680E+00
         0.50095E+01
        -0.93340E+01
         0.41244E+01
        -0.12650E+02
        -0.14499E+01
        -0.61195E+01
         0.67330E+01
        -0.36340E+01
        -0.24465E+01
        -0.12023E+01
         0.36270E+01
         0.65380E-01
        -0.12253E+01
        -0.62849E+00
         0.11391E+01
         0.93831E+00
        -0.99509E+00
         0.21994E+00
        -0.13222E+01
        -0.13468E+01
        -0.25180E+01
        -0.20720E+01
         0.45548E+00
         0.23905E+01
        -0.76617E+00
        -0.12318E+01
        -0.33377E+01
         0.31986E+01
        -0.20029E+01
         0.10512E+01
         0.36095E-01
         0.22575E+01
         0.29409E+01
         0.46414E+00
         0.63678E-01
         0.22097E+01
         0.54113E+00
        -0.33880E+00
         0.15028E+01
        -0.11973E+01
        -0.83493E+00
        -0.40483E+01
         0.16545E+01
        -0.18968E+01
         0.35462E+01
        -0.42607E+01
         0.23139E+00
        -0.23099E+01
         0.30813E+01
        -0.24978E+01
         0.15135E+01
        -0.81535E+00
         0.13773E+01
        -0.24394E+01
        -0.11267E+01
        -0.16147E+01
         0.19209E+01
        -0.71733E+00
        -0.29769E+00
        -0.97195E+00
        -0.52113E-01
        -0.82976E+00
         0.51838E+00
         0.69990E+00
         0.33859E+00
        -0.36829E+00
         0.37086E+01
        -0.56213E-02
         0.93800E+00
        -0.66051E+01
        -0.34881E+01
         0.62766E+01
        -0.34229E+01
        -0.45704E+01
        -0.42122E+01
        -0.20270E+01
        -0.24332E+01
        -0.62551E+01
         0.34399E+01
         0.31297E+01
         0.20654E+01
         0.47052E+00
         0.21406E+01
         0.50680E+01
        -0.31934E+00
         0.30526E+01
         0.20008E+01
        -0.39618E+01
         0.43898E+01
        -0.28214E+01
        -0.19775E+01
        -0.34018E+01
        -0.52436E+00
         0.36626E+01
         0.10307E+01
         0.70821E+00
        -0.44222E+00
        -0.12643E+01
        -0.18456E+01
        -0.16414E+01
        -0.57917E+01
        -0.43525E+01
        -0.38570E+01
        -0.18853E+01
        -0.62459E+00
        -0.10712E+01
         0.72998E+00
        -0.13042E+01
        -0.20269E+01
         0.56502E+01
         0.27844E+00
         0.18135E+01
         0.48795E+01
         0.17850E+01
        -0.67468E-02
        -0.39499E+00
        -0.88472E+00
        -0.10050E+00
        -0.13426E+01
        -0.43059E+01
        -0.37630E+01
        -0.70870E+00
        -0.18247E+01
         0.46467E+01
         0.29389E+01
         0.34157E+00
        -0.15682E+01
        -0.24936E+00
        -0.73773E+00
        -0.82910E+00
        -0.25747E+01
        -0.16338E+01
        -0.28780E+01
        -0.13259E+01
        -0.26746E+01
         0.84213E+00
         0.75066E+00
        -0.95622E-01
        -0.34180E+01
        -0.11642E+01
        -0.35040E+01
         0.30605E+01
         0.42605E+01
         0.17918E+01
        -0.15796E+01
         0.15948E+01
         0.10760E+00
         0.55107E+01
         0.42142E+01
         0.41050E+01
         0.37193E+01
         0.68706E+01
         0.24207E+01
         0.21221E+01
         0.67803E+01
         0.16362E+01
        -0.37126E+01
         0.13428E+01
        -0.47694E+01
        -0.45322E+01
        -0.23323E+01
        -0.17865E+01
         0.65184E+00
        -0.45984E+01
        -0.23928E+01
         0.49516E+01
        -0.37278E+01
         0.78824E+01
         0.94456E+01
         0.55243E+00
         0.10567E+01
        -0.53576E+01
        -0.59585E+01
        -0.84297E+01
        -0.10025E+02
         0.16561E+01
         0.10813E+01
         0.22100E+01
         0.16399E+01
         0.65550E+01
         0.57661E+01
         0.85359E+00
        -0.48441E+00
         0.35858E+01
        -0.56064E+01
        -0.52608E+01
        -0.21464E+01
        -0.35489E+01
        -0.10161E+02
        -0.87965E+01
        -0.63663E+01
        -0.39967E+01
        -0.31279E+01
         0.33432E+00
         0.20698E+01
         0.20588E+01
         0.74607E+00
        -0.13151E+01
         0.75090E+00
        -0.19699E+01
         0.27891E+01
        -0.50487E+00
         0.16847E+01
         0.12918E+01
         0.18403E+01
         0.20942E+01
         0.47090E+00
        -0.20376E+01
        -0.27966E+01
         0.17673E+00
        -0.23505E+01
        -0.11541E+01
        -0.75889E+00
        -0.35224E+01
        -0.11230E+01
        -0.27207E+01
        -0.20365E+01
        -0.19617E-01
        -0.13009E+01
         0.68025E+00
        -0.26225E+01
         0.54638E+00
         0.35296E+01
         0.10206E+01
         0.33892E+01
        -0.23990E+01
        -0.53242E+01
         0.17861E+00
        -0.62520E+01
        -0.41196E+01
        -0.46793E+01
        -0.40065E+01
        -0.41294E+01
        -0.25415E+00
         0.44350E+01
        -0.86370E+00
         0.59763E+01
         0.74311E+00
         0.86023E+00
        -0.14802E+01
        -0.18696E+00
         0.27971E+01
         0.42098E+01
        -0.55208E+01
         0.44589E+01
        -0.31286E+01
        -0.32420E+01
        -0.26374E+01
        -0.24038E+01
         0.72516E+01
         0.40881E+01
         0.82574E+01
         0.60319E+01
         0.18829E+01
        -0.10419E+01
        -0.15585E+01
        -0.16885E+01
        -0.30285E+01
        -0.17916E+01
        -0.27771E+00
        -0.29281E+01
        -0.10933E+01
         0.40566E+01
         0.19421E+01
         0.23457E+01
         0.17100E+01
         0.22135E+01
         0.57948E+01
         0.55254E+01
         0.38806E+01
         0.33603E+01
         0.10839E+01
         0.27293E+01
         0.27159E+01
         0.12452E+01
        -0.54484E+00
        -0.64486E+00
        -0.38663E+00
         0.77660E+00
        -0.16088E+01
         0.19063E+01
         0.18697E+01
        -0.18680E+00
        -0.30689E+01
        -0.29560E+01
         0.10533E+01
         0.26042E+00
         0.21892E+01
        -0.21963E+00
        -0.66357E-01
         0.11216E+00
         0.75979E+00
         0.20223E+01
        -0.14219E+01
         0.31140E+01
         0.77279E+00
         0.10535E+01
         0.47791E+01
         0.33371E+01
         0.25335E+01
        -0.51938E+00
         0.63879E+00
         0.13098E+01
         0.64062E+01
         0.61038E+01
         0.12351E+01
         0.41654E+01
         0.32505E+01
         0.18209E+01
         0.28585E+01
         0.58540E+01
         0.88964E+00
        -0.22320E+01
         0.35096E+00
        -0.12538E+01
        -0.14996E+01
         0.39116E+01
        -0.15993E+01
        -0.23561E+01
        -0.11471E+01
        -0.42242E+01
         0.23189E+01
        -0.56775E+01
         0.10369E+02
         0.73354E+01
         0.32324E+01
        -0.17328E+00
        -0.68549E+01
        -0.58185E+01
        -0.65120E+01
        -0.47809E+01
         0.20653E+01
        -0.67456E+00
         0.13154E+01
         0.90368E+00
         0.20652E+01
         0.77493E+00
         0.10288E+01
         0.46343E+00
        -0.29397E+01
        -0.92350E+00
        -0.80705E+00
         0.78073E+00
        -0.46926E+01
        -0.66427E+01
        -0.25967E+01
        -0.10765E+01
        -0.36082E+00
         0.17449E+00
         0.15174E+01
         0.10058E+01
         0.19705E+01
         0.22775E+01
         0.30166E+01
         0.13466E+01
         0.25342E+01
         0.22768E+01
         0.45121E+01
         0.44227E+01
         0.13819E+01
        -0.23127E-01
         0.72473E+00
        -0.85050E+00
        -0.10240E+01
        -0.53261E+00
        -0.16415E+00
        -0.18775E+01
        -0.94276E+00
        -0.22263E+01
        -0.34736E+01
        -0.16223E+01
        -0.27436E+01
        -0.12014E+01
         0.83967E+00
         0.14438E+01
        -0.85530E+00
        -0.21293E+01
        -0.70835E+00
         0.49611E+00
        -0.29893E+01
         0.10859E+01
        -0.25343E+01
        -0.27475E+01
        -0.46343E+01
        -0.23545E+01
        -0.57143E+01
        -0.72909E+00
        -0.19710E+01
        -0.90970E+01
         0.11737E+01
         0.30987E+01
        -0.35705E+01
         0.16940E+01
         0.13446E+01
         0.46090E+00
         0.34201E+01
        -0.41322E+01
         0.25371E+01
         0.39076E+01
         0.61423E+00
         0.29156E+01
        -0.95827E+01
        -0.62615E+01
        -0.37366E+01
        -0.29018E+01
         0.90088E+01
         0.88609E+01
         0.64350E+01
         0.50997E+01
        -0.13906E+01
        -0.32904E+01
        -0.27159E+01
        -0.15879E+01
         0.12478E+01
        -0.21567E+01
        -0.13521E+01
         0.48765E+00
        -0.59481E+00
         0.97791E+00
         0.37939E+01
         0.33415E+01
         0.26722E+01
         0.36753E+01
         0.35598E+01
         0.34625E+01
         0.40396E+01
         0.67373E+01
        -0.12382E+01
         0.25284E+00
        -0.11976E+01
        -0.57226E+00
        -0.35494E+01
        -0.44345E+01
        -0.46730E+01
        -0.33187E+01
        -0.25132E+01
        -0.13058E+01
        -0.10091E+01
        -0.32391E+01
        -0.22760E+01
        -0.21930E+00
         0.60177E+00
         0.81130E+00
         0.32711E+01
         0.47875E+01
         0.12497E+01
        -0.13052E+01
         0.51686E+00
         0.52944E+00
         0.33456E+01
         0.42329E+01
         0.33422E+01
         0.76510E-01
         0.92282E+00
         0.44289E+01
         0.22860E+01
        -0.54163E+01
        -0.33128E+01
        -0.35525E+01
         0.63634E+01
         0.56201E+01
        -0.54346E+01
         0.62196E+01
         0.38684E+01
         0.30797E+01
         0.34183E+01
         0.58141E+01
         0.46822E+01
        -0.42063E+01
        -0.29098E+01
        -0.49341E+01
        -0.42862E+01
         0.76354E+00
        -0.29775E+01
         0.39119E+00
        -0.30181E+01
        -0.38721E+01
         0.74143E+01
        -0.69450E+01
         0.79727E+01
         0.59041E+01
         0.14551E+01
         0.28697E+00
        -0.58901E+01
        -0.47640E+01
        -0.60692E+01
        -0.39570E+01
         0.45496E+00
         0.22330E+01
         0.35647E+01
         0.35298E+01
         0.55599E+01
         0.11529E+00
        -0.16393E+01
         0.14641E+01
         0.36733E+01
        -0.24168E+01
        -0.21547E+01
        -0.16590E+01
        -0.53752E+01
        -0.68364E+01
        -0.68343E+01
        -0.60097E+01
        -0.15807E+01
         0.77162E+00
        -0.18902E+01
        -0.17142E+01
        -0.13553E+01
         0.20240E+01
         0.21575E+01
         0.84601E+00
         0.24270E+01
         0.14537E+01
         0.26419E+01
        -0.84896E+00
        -0.97529E+00
        -0.11674E+01
         0.84780E+00
         0.14322E+01
        -0.49549E+00
        -0.18487E+01
        -0.19568E+01
        -0.16044E+00
         0.23160E+01
        -0.23824E+00
        -0.59899E+00
         0.31848E+00
         0.12428E+01
         0.11929E+01
        -0.23348E+01
        -0.16411E+01
        -0.25730E+01
        -0.30230E+01
        -0.12842E+01
        -0.16108E+01
        -0.16312E+01
         0.94101E+00
        -0.36654E+01
        -0.65446E+01
        -0.31847E+00
        -0.64263E+01
        -0.39048E+01
        -0.47069E+01
        -0.26565E+01
        -0.18650E+01
        -0.52350E+01
         0.65585E+01
         0.40127E+01
         0.38404E+01
         0.49259E+00
         0.10759E+01
         0.36096E+01
         0.28370E+01
         0.30004E+01
         0.13422E+01
        -0.30040E+01
         0.55489E+01
        -0.30109E+01
        -0.60527E+01
        -0.37913E+00
        -0.32383E+01
         0.47885E+01
         0.76315E+01
         0.27039E+01
         0.11778E+01
        -0.27531E+01
        -0.33589E+01
        -0.34644E+01
        -0.54986E+01
        -0.74047E+01
        -0.58949E+01
        -0.16587E+01
         0.70571E+00
        -0.97815E+00
         0.37428E+01
         0.35204E+01
         0.37490E+01
         0.61855E+01
         0.72327E+01
         0.68661E+01
         0.43950E+01
         0.27284E+01
         0.39969E+01
        -0.29062E+01
        -0.25496E+01
        -0.12813E+01
        -0.15105E+01
         0.22805E+00
         0.25774E+01
         0.36026E+01
         0.13674E+01
         0.43481E-01
        -0.33934E+01
        -0.19564E+01
        -0.74891E+00
         0.97596E+00
        -0.84069E+00
        -0.18978E+01
        -0.12705E+01
        -0.97852E-01
        -0.12009E+01
         0.86829E+00
         0.14351E+01
         0.53875E+01
         0.40326E+01
         0.24598E+01
        -0.46110E-01
         0.99444E-01
         0.38682E+00
         0.39956E+01
         0.40149E+01
         0.28968E+01
        -0.18463E+01
        -0.13570E+01
        -0.38943E+01
         0.29664E+01
         0.35886E+01
         0.81052E+00
         0.56201E+01
         0.72288E+00
         0.49301E+01
         0.22365E+01
         0.22327E+01
         0.62941E+01
        -0.89216E+01
        -0.57757E+00
        -0.63040E+01
        -0.41780E+01
         0.35949E+00
        -0.17771E+01
        -0.20912E+01
        -0.74669E+00
        -0.25764E+01
         0.64536E+01
        -0.53533E+01
         0.45624E+01
         0.20714E+01
         0.10272E+01
         0.96016E+00
        -0.99863E+01
        -0.66998E+01
        -0.81983E+01
        -0.24299E+01
         0.15822E+01
         0.64784E+00
         0.32557E+00
         0.50544E+01
         0.11267E+01
         0.12515E+01
         0.19452E+01
         0.13343E+01
        -0.90555E+00
        -0.19792E+01
        -0.50527E+01
        -0.59331E+01
        -0.37181E+01
        -0.21097E+01
        -0.13991E+01
        -0.19279E+01
        -0.26967E+01
        -0.14794E+01
        -0.38509E+00
        -0.79938E+00
         0.94179E+00
         0.68651E+00
         0.81110E+00
         0.34197E+01
         0.49365E+01
         0.58873E+01
         0.67775E+00
        -0.15720E+01
        -0.28401E+01
        -0.57427E-01
         0.45073E+01
        -0.12597E+00
         0.25865E+01
        -0.89656E+00
        -0.90884E+00
        -0.18832E+01
        -0.53371E+00
        -0.21966E+01
        -0.20820E+01
        -0.51032E+01
        -0.35159E+01
        -0.26299E+01
        -0.14399E+01
        -0.14451E+01
        -0.24178E+01
        -0.23881E+01
         0.81888E+00
         0.42085E+01
        -0.18807E+01
        -0.79719E+00
        -0.38026E+01
        -0.96541E+01
        -0.15010E+01
        -0.11964E+02
        -0.29826E+01
        -0.57635E+01
        -0.40997E+01
        -0.47496E+01
        -0.86667E+01
         0.99714E+01
         0.12120E+01
         0.95565E+01
         0.37034E+01
         0.32496E+01
         0.36238E+01
         0.14412E+01
        -0.69954E-01
         0.79991E+00
        -0.55601E+01
         0.88558E+01
        -0.56964E+01
        -0.33971E+01
         0.26043E+00
         0.68797E+00
         0.10345E+02
         0.10954E+02
         0.98034E+01
         0.62239E+01
         0.11079E+01
        -0.51790E+00
        -0.16359E+01
        -0.97381E+01
        -0.56165E+01
        -0.53543E+01
        -0.28845E+01
         0.18749E+00
         0.39194E+00
        -0.54659E-01
         0.21931E+01
         0.34912E+01
         0.23629E+01
         0.45210E+00
        -0.12013E+01
        -0.19447E+00
         0.12703E+01
         0.42793E+01
         0.45784E+00
         0.16425E+01
        -0.40078E+01
        -0.44189E+01
        -0.43822E+01
        -0.39581E+01
        -0.20027E+01
        -0.36834E+01
        -0.38861E+01
        -0.54265E+01
        -0.70401E+00
        -0.36906E+00
        -0.35770E+00
         0.81764E+00
         0.17464E+01
         0.12639E+01
         0.28340E+01
         0.18187E+01
         0.40138E+01
         0.57352E+01
         0.55975E+01
         0.19642E+01
         0.22434E+01
         0.12844E+01
         0.28786E+01
         0.37510E+01
         0.24109E+01
         0.12142E+01
         0.16379E+01
        -0.37815E+01
         0.12910E+01
        -0.25323E+00
         0.42912E+01
         0.44306E+01
         0.26256E+01
         0.52848E+01
         0.44528E+01
        -0.45758E+00
        -0.17413E+01
         0.64953E+01
         0.25198E+01
        -0.13068E+02
         0.21720E+01
        -0.10394E+02
        -0.46530E+01
        -0.16561E+01
        -0.42014E+00
        -0.15606E+01
         0.14800E+01
        -0.47907E+01
         0.66954E+01
        -0.85128E+01
         0.74510E+01
         0.70419E+01
         0.32173E+01
        -0.19909E+00
        -0.15739E+02
        -0.82004E+01
        -0.12934E+02
        -0.47037E+01
         0.48697E+00
        -0.28561E+00
        -0.11711E+01
         0.49828E+01
         0.47194E+01
         0.23461E+01
         0.17500E+01
         0.16639E+01
        -0.47155E+00
        -0.90421E+00
        -0.26687E+01
        -0.29024E+00
        -0.11030E+01
        -0.12545E+01
         0.11523E+01
         0.12264E+01
         0.70480E+00
         0.40464E+00
         0.35196E+00
         0.14685E+01
         0.14229E+01
        -0.49732E+00
         0.96717E+00
         0.37207E+01
         0.10859E+01
        -0.30569E+00
        -0.10684E+01
        -0.32210E+01
        -0.71601E+00
         0.17578E+01
         0.29247E+00
         0.11255E+01
        -0.18781E+01
        -0.57851E+00
         0.51831E+00
        -0.94445E-01
         0.99992E+00
        -0.58994E-01
        -0.37236E+01
        -0.36977E+01
        -0.36736E+01
        -0.24920E+01
        -0.14029E+01
        -0.67379E+00
        -0.37680E+01
        -0.59044E+01
        -0.61893E+00
         0.44511E+01
         0.13597E+00
         0.15995E+01
        -0.58792E+01
        -0.55196E+01
        -0.19416E+01
        -0.34996E+01
        -0.67194E+01
         0.26553E+01
         0.40800E+00
        -0.88518E+01
         0.21802E+01
         0.68784E+01
        -0.29847E+01
         0.58750E+01
         0.39230E+01
         0.10645E+00
        -0.48938E+01
         0.78591E+00
        -0.31587E+01
         0.39222E+01
        -0.52461E+01
         0.94437E+01
        -0.75821E+01
        -0.62486E+01
        -0.54137E+01
        -0.45461E+01
         0.87494E+01
         0.94286E+01
         0.76182E+01
         0.64419E+01
         0.86738E+00
        -0.94898E+00
        -0.81652E+00
        -0.27001E+01
        -0.40147E+01
        -0.19601E+01
         0.82218E+00
        -0.12089E+00
         0.24353E+01
        -0.69132E+00
        -0.12195E+01
        -0.20845E+01
        -0.90829E+00
         0.11658E+01
        -0.15111E+00
        -0.20759E+01
        -0.39172E+01
         0.28436E+00
        -0.10233E+01
        -0.27615E+00
        -0.42777E+00
        -0.23034E+00
         0.77124E+00
         0.80123E+00
        -0.13198E+01
        -0.27231E+01
        -0.41932E+01
        -0.14228E+01
        -0.11531E-01
         0.54454E+00
        -0.55685E+00
        -0.33523E+01
         0.13222E+01
         0.20368E+01
         0.68562E+00
         0.28833E+01
         0.45934E+01
         0.38660E+01
         0.81081E+00
         0.31624E+01
         0.26579E+01
         0.20124E+00
         0.19420E+01
        -0.92642E+00
         0.20012E+01
         0.19470E+01
         0.81990E+00
        -0.29685E+01
        -0.26673E+01
        -0.46156E+01
         0.63759E+01
         0.49926E+01
         0.92676E+00
         0.13671E+01
         0.58519E+01
        -0.37085E+01
        -0.23097E+01
         0.62964E+01
        -0.43226E+01
        -0.75014E+01
         0.14209E+01
        -0.59860E+01
         0.40498E+00
        -0.14616E+01
         0.57394E+01
        -0.20626E+01
         0.44981E+00
        -0.42047E+01
         0.25030E+01
        -0.74726E+01
         0.58846E+01
         0.86755E+01
         0.10929E+02
         0.84590E+00
        -0.11392E+02
        -0.64836E+01
        -0.71583E+01
        -0.28463E+01
        -0.99994E+00
         0.13290E+00
        -0.27636E+00
         0.28607E+01
         0.54545E+01
         0.15301E+01
        -0.88143E+00
         0.29726E+01
        -0.35869E+01
        -0.20221E+01
         0.18270E+00
         0.40483E+01
        -0.18585E+01
        -0.39956E+01
        -0.49298E+00
         0.21632E+01
         0.21779E+01
        -0.16783E+01
        -0.18770E+01
         0.47139E+00
         0.18968E+01
         0.27220E+01
         0.48232E+01
         0.74193E+01
         0.28798E+01
         0.27100E+01
        -0.13488E+01
         0.14896E+01
         0.16151E+01
        -0.39569E-01
         0.10519E+01
        -0.22667E+01
         0.32151E-01
        -0.26243E+01
        -0.10019E+01
        -0.12634E+01
        -0.24267E+01
        -0.31777E+01
        -0.25368E+01
        -0.68415E+01
        -0.65761E+01
        -0.31531E+01
        -0.19250E+01
         0.67302E+00
        -0.56808E+01
        -0.57399E+01
        -0.22215E+01
         0.33248E+01
        -0.20688E+01
         0.19780E+01
        -0.68055E+01
        -0.83972E+01
        -0.41256E+01
        -0.69462E+01
        -0.63264E+01
        -0.73142E+00
        -0.55254E+00
        -0.59760E+01
         0.10929E+01
         0.77236E+01
        -0.39062E+01
         0.66606E+01
         0.37612E+00
        -0.97169E+00
         0.13395E+01
         0.26160E+01
         0.88368E+00
         0.36647E+01
        -0.26817E+01
         0.82893E+01
        -0.54471E+01
        -0.65953E+01
        -0.54551E+01
         0.17090E+01
         0.12145E+02
         0.10377E+02
         0.11434E+02
         0.66121E+01
        -0.23555E+01
        -0.17626E+01
        -0.69863E+00
         0.96097E+00
        -0.42317E+01
        -0.37881E+01
        -0.83754E+00
        -0.18142E+01
        -0.91655E+00
         0.95529E+00
        -0.14059E+01
        -0.43214E+01
         0.44337E+00
         0.65959E+01
         0.42919E+01
         0.11786E+01
         0.26884E+00
         0.29640E+01
         0.32408E+00
         0.68045E+00
         0.98056E-01
        -0.53132E+00
         0.28499E+00
         0.21438E+01
        -0.69433E+00
        -0.36230E+01
        -0.41668E+01
        -0.95341E+00
         0.17189E+00
         0.10989E+01
        -0.65007E+00
        -0.56706E+00
         0.44067E+00
         0.11964E+01
        -0.10075E+01
         0.12133E+00
        -0.19140E+00
        -0.29836E+01
        -0.52126E+01
        -0.44714E+01
        -0.15999E+01
        -0.71998E+00
        -0.13114E+01
        -0.46903E+00
         0.39664E+01
         0.80655E+00
         0.12786E+01
        -0.13033E+01
         0.14215E+01
         0.38082E+00
         0.59736E+01
         0.96286E+01
         0.40683E+01
         0.87421E+01
         0.55310E+01
        -0.91429E+00
        -0.12330E+01
         0.57920E+01
        -0.43591E+01
        -0.58337E+01
         0.49905E+01
        -0.54173E+01
         0.13321E+01
         0.50332E+00
        -0.29376E+01
        -0.32349E+01
        -0.43609E+00
        -0.13567E+01
         0.43952E+01
        -0.54242E+01
         0.57362E+01
         0.46274E+01
         0.21396E+01
        -0.18036E+01
        -0.12210E+02
        -0.73551E+01
        -0.89991E+01
        -0.17861E+01
         0.28103E+01
        -0.43428E+00
        -0.25208E+01
        -0.40895E+01
         0.14578E+01
         0.33623E+01
         0.14974E+01
        -0.12325E+00
        -0.26655E+01
        -0.51089E+00
        -0.85479E+00
         0.27262E+01
        -0.13239E+01
        -0.45978E+01
        -0.33629E+01
        -0.84700E+00
        -0.10525E+01
        -0.10850E+01
        -0.20221E+01
        -0.77314E+00
        -0.29092E-01
         0.15834E+01
         0.31439E+01
         0.11427E+01
         0.95505E+00
         0.24586E+01
         0.29249E+01
         0.47343E+01
        -0.39099E+00
        -0.12518E+01
        -0.30109E+01
         0.21325E+01
         0.39445E+00
         0.12124E+01
        -0.19676E+01
        -0.31681E+01
        -0.18784E+01
        -0.35893E+01
        -0.40430E+01
        -0.65622E+01
        -0.36616E+01
        -0.45500E+00
        -0.19015E+00
         0.23137E+01
        -0.51486E+01
        -0.21910E+01
        -0.88181E+00
         0.28782E+01
         0.61380E-01
         0.29565E+01
        -0.20727E+01
        -0.81584E+01
        -0.53003E+01
        -0.12013E+02
        -0.54392E+01
         0.21013E+01
         0.23653E+01
        -0.90607E+01
         0.30736E+01
         0.85737E+01
        -0.35889E+01
         0.62933E+01
         0.18621E+01
        -0.19557E+01
         0.24025E+01
         0.58615E+01
        -0.53427E+00
         0.14691E+01
        -0.95609E+01
         0.40084E+01
        -0.81578E+01
        -0.38726E+01
        -0.41818E+00
        -0.17952E+01
         0.87992E+01
         0.40214E+01
         0.11018E+02
         0.56364E+01
        -0.10984E+01
        -0.15451E+01
        -0.29820E-01
         0.40166E+01
        -0.11413E+01
        -0.46776E+01
        -0.39453E+01
        -0.10759E+01
         0.46729E+01
        -0.11054E+01
        -0.22619E+01
        -0.23015E+01
        -0.26557E+01
         0.14051E+01
         0.43397E+01
         0.43354E+01
         0.31458E+01
         0.34880E+01
         0.12879E+01
        -0.16186E+01
        -0.17345E+01
        -0.17007E+01
         0.49539E+00
        -0.77472E+00
        -0.19866E+01
        -0.31578E+01
        -0.14253E+01
        -0.16051E+01
        -0.44081E+00
        -0.21549E+01
        -0.20973E+01
        -0.86608E+00
        -0.30648E+00
         0.19879E+00
         0.13385E+01
         0.10197E+01
         0.11636E+01
         0.77444E+00
         0.16257E+01
         0.65382E+00
        -0.52590E+00
        -0.14330E+01
         0.68237E-01
         0.13137E+01
         0.54610E+01
         0.34983E+01
         0.37601E+00
        -0.38510E+01
        -0.24439E+01
        -0.23019E+01
         0.51009E+01
         0.12416E+02
         0.53299E+01
         0.16575E+02
         0.38132E+00
        -0.24320E+01
        -0.95068E+00
         0.51891E+01
         0.25480E+01
        -0.99995E+01
         0.26363E+01
        -0.88063E+01
        -0.42988E+01
         0.14728E+01
        -0.29370E+01
        -0.75054E+00
         0.38861E+00
        -0.44062E+01
         0.12552E+02
        -0.54902E+01
         0.10404E+02
         0.71812E+01
        -0.15326E+01
         0.56894E+00
        -0.10983E+02
        -0.48554E+01
        -0.11992E+02
        -0.67000E+01
        -0.13197E+01
         0.13769E+01
         0.24381E+01
         0.28374E+01
         0.13304E+00
         0.13037E+01
         0.25748E+01
        -0.12007E+01
        -0.36620E+01
         0.26489E+01
         0.14279E+01
         0.61618E+00
        -0.38289E+00
        -0.36863E+01
        -0.86486E+01
        -0.92094E+01
        -0.52214E+01
        -0.22723E+01
         0.23775E+00
         0.84614E+00
         0.47999E+00
         0.23371E+01
         0.37277E+00
        -0.62968E+00
         0.34944E+01
         0.63376E+00
         0.41919E+01
        -0.45020E+00
        -0.20472E+01
        -0.13130E+01
         0.11392E+00
         0.12512E+01
        -0.43062E-01
         0.23343E+00
        -0.19038E+01
        -0.11362E+01
         0.24194E+01
         0.13394E+01
         0.72681E+00
        -0.25571E+01
        -0.26170E+01
        -0.27968E+00
        -0.72642E+00
        -0.27436E+00
        -0.75375E+01
        -0.44055E+01
        -0.14519E+01
         0.45798E+00
         0.14083E+01
        -0.15468E+01
        -0.46451E+01
        -0.12926E+02
        -0.59079E+01
        -0.17622E+02
         0.26348E+01
         0.68229E+01
         0.31442E+01
        -0.36783E+01
         0.62902E+01
         0.11578E+02
        -0.14851E+01
         0.69484E+01
         0.74771E+01
         0.16289E+01
        -0.66045E+00
         0.74826E+00
        -0.43651E+01
         0.41032E+01
        -0.12696E+02
         0.42382E+01
        -0.96140E+01
        -0.63871E+01
         0.29735E+01
        -0.46292E+00
         0.64698E+01
         0.23121E+01
         0.72322E+01
         0.90695E+00
         0.34686E+01
         0.59889E+00
        -0.25100E+00
        -0.56977E+00
        -0.94082E+00
         0.43208E+00
         0.11045E+01
         0.54692E+01
         0.55992E+01
        -0.54268E+01
        -0.47560E+01
        -0.16929E+01
        -0.26050E+01
         0.98374E+00
         0.57004E+01
         0.40889E+01
         0.73303E+00
        -0.41963E+01
         0.19223E-01
        -0.20490E+01
         0.98588E+00
         0.12086E+01
         0.85528E+00
        -0.31421E+00
        -0.25217E+01
        -0.53770E+01
        -0.68439E+01
        -0.35452E+01
        -0.39931E+01
        -0.73828E-01
         0.29648E-01
         0.27289E+01
         0.67026E-01
        -0.39829E+01
        -0.24774E+00
         0.19960E+00
         0.14513E+01
         0.42630E+01
         0.36423E+01
         0.70889E+01
         0.39758E+01
         0.11483E+01
         0.13457E+01
        -0.28954E+01
         0.52664E+01
         0.31966E+01
         0.54106E+00
        -0.15652E+01
        -0.86837E+00
         0.72049E+00
         0.47956E+01
         0.12740E+02
         0.40104E+01
         0.16213E+02
        -0.19978E+01
        -0.12469E+02
        -0.52655E+01
         0.45073E+01
        -0.12674E+02
        -0.14800E+02
         0.42662E+00
        -0.12292E+02
        -0.32896E+01
         0.76076E+00
         0.50519E+01
         0.10458E+01
         0.45943E+01
        -0.14749E+01
         0.14508E+02
        -0.53295E+01
         0.10716E+02
         0.69296E+01
        -0.15265E+01
         0.38415E+01
        -0.11588E+02
        -0.18081E+01
        -0.10136E+02
        -0.10547E+01
        -0.39217E+01
        -0.21596E+01
        -0.11174E+01
         0.10004E+01
         0.62334E+01
        -0.11458E+00
        -0.11499E+01
         0.15106E+01
         0.12324E+01
         0.46919E+01
         0.62415E+01
         0.75156E+01
         0.28152E+01
        -0.32437E+01
        -0.23596E+01
         0.99293E+00
         0.19235E+01
         0.13282E+01
         0.19197E+00
         0.19454E+01
         0.96071E+00
         0.29282E-01
         0.12430E+01
         0.18596E+01
        -0.20838E+00
         0.45973E-01
         0.11046E+01
        -0.22452E+01
        -0.39376E+00
         0.11747E+01
         0.33333E+01
        -0.85424E-01
        -0.25472E+01
        -0.39754E+01
        -0.19309E+01
        -0.19533E+01
        -0.20526E+01
         0.10596E+01
        -0.11419E+01
        -0.15101E+01
        -0.25313E+00
        -0.15943E+01
        -0.52423E+00
         0.79672E+00
        -0.36929E+01
        -0.32553E+01
        -0.62443E+00
         0.40780E+01
        -0.16009E+01
        -0.13028E+00
        -0.42170E+01
        -0.13205E+02
         0.26304E+01
        -0.14007E+02
         0.31779E+01
         0.10781E+02
         0.71584E+01
        -0.30867E+01
         0.11676E+02
         0.13752E+02
         0.55892E+01
         0.15321E+02
         0.47336E+01
        -0.48105E+00
        -0.32511E+01
         0.10810E+01
        -0.48488E+01
         0.11264E+01
        -0.96806E+01
         0.27407E+01
        -0.91266E+01
        -0.66269E+01
         0.31552E+01
        -0.45574E+01
         0.40603E+01
         0.11731E+01
         0.67368E+01
         0.44154E+01
         0.28322E+01
         0.49425E+01
         0.56201E+01
         0.48000E+01
         0.45873E+01
         0.35038E+01
         0.31606E+01
         0.42802E+01
         0.22347E+01
        -0.59785E+01
        -0.65403E+01
        -0.45449E+01
        -0.25393E+01
         0.14459E+01
        -0.78907E+00
        -0.31072E+01
        -0.29769E+01
        -0.86056E+00
         0.50205E+00
        -0.23531E+01
         0.30916E+01
        -0.12615E+00
        -0.51215E-01
        -0.24099E+01
        -0.15153E+01
        -0.11519E+00
        -0.48618E+01
        -0.52249E+01
        -0.35093E+01
        -0.36452E+00
         0.14210E+01
         0.34503E+01
        -0.78604E+00
        -0.13900E+00
        -0.20757E+01
         0.81800E+00
         0.16111E+01
        -0.63040E+00
         0.28693E+01
         0.24277E+01
         0.28893E+01
         0.83620E+00
        -0.93078E+00
        -0.10446E+00
         0.20344E+01
         0.12218E+01
         0.24530E+01
        -0.11874E+01
         0.33653E+01
         0.37789E+01
         0.26091E+01
         0.10710E+02
        -0.13855E+01
         0.12235E+02
        -0.29855E-02
        -0.95603E+01
        -0.57928E+01
         0.29173E+01
        -0.94031E+01
        -0.11200E+02
        -0.57097E+01
        -0.13562E+02
        -0.27396E+01
        -0.18197E+00
         0.19896E+00
         0.10895E+01
         0.24694E+01
         0.80328E+00
         0.99315E+01
         0.12138E+01
         0.49550E+01
         0.52156E+01
         0.85347E+00
         0.39461E+01
        -0.68895E+01
         0.27569E+01
        -0.94152E+01
        -0.40937E+01
        -0.25843E+00
        -0.25292E+00
        -0.21812E+01
        -0.55527E+01
        -0.41212E+01
        -0.50198E+01
        -0.42918E+01
        -0.29811E+01
        -0.64341E+00
         0.49531E+01
         0.40354E+01
         0.18505E+01
         0.29931E+01
         0.24930E+01
         0.26431E+00
        -0.25907E+00
         0.32741E+01
         0.24630E+01
         0.36599E+00
         0.15698E+01
        -0.42175E+00
        -0.45578E+00
        -0.29123E+00
        -0.19644E+01
         0.50407E+00
        -0.74691E+00
         0.23002E+01
         0.52999E+01
         0.11548E+01
         0.89961E+00
        -0.12719E+01
        -0.79817E+00
        -0.61943E+00
        -0.80535E-01
         0.52790E+00
         0.31915E+01
         0.37447E+01
         0.26336E+01
        -0.18253E+01
        -0.24958E+01
        -0.61711E+01
        -0.22857E+01
        -0.11490E+01
        -0.40024E+00
         0.36297E+01
         0.22841E+01
         0.13008E+01
         0.12192E+01
         0.15328E+01
        -0.19683E+01
        -0.26529E+01
        -0.57420E+01
         0.63850E+01
        -0.91452E+01
         0.15576E+01
         0.52838E+01
         0.30919E+01
        -0.41710E+00
         0.10616E+02
         0.48061E+01
         0.47786E+01
         0.64937E+01
         0.13524E+01
         0.33494E+00
        -0.13465E+00
         0.18291E+01
        -0.31763E+01
        -0.35274E+01
        -0.47100E+01
        -0.37078E+01
        -0.63648E+01
        -0.10501E+01
        -0.30682E+01
        -0.62191E+01
         0.81538E+00
        -0.40015E+01
         0.20754E+01
        -0.60227E+01
        -0.10420E+01
         0.36579E+01
         0.39501E+01
         0.81375E+01
         0.22617E+01
         0.40568E+01
         0.55270E+01
         0.25130E+01
         0.13388E+01
        -0.29501E+01
        -0.79598E+00
        -0.29083E+00
        -0.28611E+01
         0.19585E+01
         0.94070E+01
         0.91544E-01
        -0.43582E+01
        -0.70608E+01
         0.19325E+01
         0.35872E+00
         0.19146E+01
        -0.31710E+00
        -0.10035E+01
         0.90512E+00
        -0.13099E+01
         0.26053E+01
         0.45830E+00
        -0.80925E+00
        -0.86271E+00
        -0.90524E+00
         0.18612E+01
        -0.18264E+01
         0.83676E+00
         0.18573E+01
         0.29138E+01
         0.32969E+01
         0.18510E+01
         0.91185E+00
         0.19014E+00
         0.31066E+01
         0.69894E+00
        -0.31607E+00
        -0.33291E+01
        -0.81086E+00
         0.23370E+01
        -0.76648E+00
        -0.17897E+01
        -0.20929E+01
         0.50143E+00
         0.45728E+01
        -0.12917E+01
         0.86968E+01
        -0.27793E+00
         0.30374E+01
        -0.37234E+01
        -0.21083E+01
         0.21149E+00
         0.57561E+01
        -0.56388E+01
        -0.41379E+01
        -0.25827E+01
        -0.58448E+01
         0.21086E+01
         0.45130E+01
         0.12759E+00
         0.94637E+00
        -0.19648E+00
        -0.13198E+00
         0.48348E+01
        -0.11310E+01
         0.22076E+01
         0.86705E+01
         0.18390E+01
         0.31796E+00
         0.46238E+01
        -0.26100E+00
         0.53594E+01
         0.37417E+01
        -0.82482E-01
         0.21225E+01
         0.17187E+01
        -0.70335E+01
        -0.59308E+01
        -0.33611E+01
        -0.29098E+01
        -0.75836E+00
        -0.21656E+01
         0.14183E+01
         0.33687E+01
         0.43610E+01
        -0.47906E+01
        -0.75191E+01
         0.14859E+00
        -0.48107E+01
        -0.14070E+01
         0.63667E+01
         0.10389E+01
        -0.18711E+01
         0.34963E+00
         0.66419E+00
         0.44081E+00
        -0.10717E+01
        -0.23750E+01
         0.48949E+00
         0.17616E+01
         0.44839E+01
         0.46109E+01
        -0.25774E-01
        -0.13918E+01
         0.18407E+01
         0.38296E+00
        -0.11268E+00
         0.30925E+01
         0.22450E+01
         0.31548E+01
         0.46017E+01
         0.28725E+01
        -0.32759E+01
        -0.73742E-02
         0.18671E+01
         0.36336E+00
        -0.14030E+01
         0.76725E+00
         0.12314E+01
         0.42295E+00
         0.96983E+00
         0.18675E+01
         0.12199E+01
        -0.24504E+01
         0.20883E+01
         0.70103E+01
        -0.76499E+01
        -0.32667E+01
         0.17958E+01
         0.34517E+01
         0.77237E+01
        -0.61265E+00
        -0.72768E+01
         0.32024E+01
        -0.98614E+01
        -0.88973E+00
         0.25350E+01
         0.16863E+01
         0.16532E-01
         0.40935E+00
         0.38235E+00
         0.53006E+00
         0.30084E+00
        -0.38950E+01
         0.21212E+01
        -0.33069E+01
         0.56803E-01
         0.38711E+01
         0.32927E+00
         0.95541E+00
         0.11494E+01
         0.72393E+00
        -0.19177E+01
         0.12908E+01
        -0.56508E+00
         0.18773E+01
         0.22611E+01
         0.25813E+00
         0.55136E+00
         0.12797E+01
        -0.12684E+01
        -0.13010E+00
        -0.21419E+01
         0.12039E+01
        -0.12823E+01
         0.44018E+01
        -0.13810E+01
        -0.11285E+01
         0.21847E+01
         0.21301E+00
         0.57163E+00
        -0.52030E+00
        -0.37135E+00
        -0.14994E+01
        -0.64717E+00
         0.12072E+01
        -0.73948E+00
         0.41275E+00
         0.76906E+00
         0.47541E+00
        -0.10286E+01
        -0.83736E+00
        -0.58850E+00
        -0.13522E+00
        -0.14509E+01
        -0.34389E+00
         0.86268E+00
         0.30758E+01
         0.26874E+00
         0.11374E+01
         0.21996E+00
         0.25471E+01
         0.11520E+01
         0.13278E+01
        -0.73980E-02
  
SCALARS                         fint_z  double 1
LOOKUP_TABLE default
        -0.39285E+01
        -0.10894E+02
        -0.71567E+01
        -0.13006E+02
        -0.15487E+03
         0.41311E+02
         0.93755E+02
        -0.41687E+02
        -0.62152E+01
        -0.10417E+02
         0.10324E+03
         0.11248E+03
        -0.51716E+01
        -0.83342E+01
         0.45672E+02
        -0.12147E+03
        -0.38898E+01
        -0.39969E+01
        -0.28446E+03
        -0.12939E+03
        -0.21671E+00
        -0.46325E+01
        -0.43964E+01
         0.88155E+02
         0.10592E+03
         0.10188E+03
        -0.38392E+01
        -0.10632E+01
         0.71494E+02
         0.14531E+03
        -0.96217E+01
        -0.76253E+01
        -0.16421E+02
        -0.16140E+03
        -0.31605E+03
        -0.10287E+03
        -0.10816E+02
        -0.53400E+01
         0.99980E+02
         0.72960E+02
        -0.81860E+01
        -0.53647E+01
         0.17306E+03
         0.16044E+03
        -0.95096E+01
        -0.64021E+01
         0.13536E+03
         0.93190E+02
        -0.24725E+01
        -0.17380E+03
        -0.60588E+01
         0.45792E+01
        -0.33289E+01
         0.71076E+02
        -0.30250E+01
         0.40652E+02
        -0.40271E+01
        -0.84087E+01
         0.11300E+03
         0.16462E+03
        -0.53774E+01
        -0.44327E+01
         0.51845E+02
         0.82458E+02
        -0.77990E+01
         0.71951E+02
        -0.12673E+02
         0.93793E+02
        -0.35504E+01
        -0.44392E+01
         0.86105E+02
         0.11034E+03
        -0.17963E+01
         0.11442E+03
         0.25174E+01
         0.17639E+03
        -0.43383E+01
         0.16004E+03
        -0.10186E+02
         0.11361E+03
        -0.41282E+01
        -0.25010E+01
         0.89333E+02
         0.12102E+03
        -0.94878E+01
         0.18939E+03
        -0.38556E+01
         0.90491E+02
        -0.28316E+01
         0.92630E+02
        -0.40090E+01
        -0.48991E+01
         0.87940E+02
         0.13304E+03
        -0.81949E+01
         0.15082E+03
        -0.10231E+02
         0.12787E+03
        -0.88731E+01
         0.10120E+03
        -0.53107E+01
        -0.11919E+02
         0.96310E+02
         0.12307E+03
        -0.29626E+01
        -0.12189E+01
         0.60954E+02
         0.59821E+02
        -0.54797E+01
         0.74180E+02
        -0.55681E+01
         0.70804E+02
        -0.76471E+01
         0.63139E+02
        -0.30066E+01
         0.78070E+02
        -0.49662E+01
         0.98887E+02
        -0.44355E+01
         0.82112E+02
        -0.40742E+01
         0.76366E+02
        -0.42115E+01
         0.44621E+02
         0.15943E+00
         0.30627E+02
        -0.50215E+01
         0.30542E+02
        -0.34358E+01
         0.91199E+02
        -0.31107E+01
         0.10449E+03
        -0.55903E+01
         0.88799E+02
        -0.36817E+01
         0.71452E+02
        -0.70267E+00
         0.52979E+02
        -0.28928E+01
         0.53823E+02
        -0.12122E+01
         0.57298E+02
        -0.79280E+00
         0.41483E+02
        -0.13703E+01
         0.64075E+02
         0.14839E+01
         0.60346E+02
        -0.31712E+01
         0.62149E+02
        -0.71887E+00
         0.45800E+02
        -0.92063E-01
         0.79388E+02
         0.44953E+00
         0.69500E+02
         0.45512E+01
        -0.20687E+01
        -0.43996E+01
        -0.71301E-01
        -0.38922E+01
         0.16733E+01
         0.53686E+01
         0.11462E+02
         0.22647E+01
        -0.97540E+01
         0.11726E+01
         0.19511E+01
         0.21827E+01
         0.83656E+01
         0.20277E+01
        -0.26443E+01
         0.49842E+00
         0.75019E+00
        -0.19289E+01
         0.76454E+00
         0.11975E+01
         0.33947E+01
        -0.41267E+01
         0.19483E+01
         0.63226E+01
         0.55796E+01
        -0.17028E+01
         0.75175E+01
        -0.51551E+01
        -0.12385E+01
        -0.33964E+01
         0.59485E+01
        -0.24462E+01
         0.49835E+01
        -0.12264E+01
        -0.25092E+01
         0.24592E+01
         0.22400E+00
        -0.24966E+01
        -0.12408E+01
         0.76214E+00
        -0.25999E+01
        -0.64230E+01
        -0.76934E+00
         0.44708E+01
         0.17575E+00
        -0.46954E+01
         0.91057E+01
         0.86441E+01
        -0.47738E+01
        -0.24723E+00
         0.45291E+01
        -0.25543E+01
        -0.28102E+01
        -0.61601E+01
        -0.89470E+01
        -0.65052E+01
        -0.12279E+01
        -0.47558E+01
        -0.56718E+00
        -0.12002E+01
         0.50526E+01
         0.42399E+01
         0.37255E+01
        -0.18208E+01
        -0.18982E+01
        -0.69566E+00
        -0.17859E+01
        -0.83323E+00
        -0.34798E+00
        -0.26916E+00
        -0.22280E+01
        -0.44219E+01
         0.18589E+01
        -0.57859E+01
        -0.17121E+00
        -0.57236E+01
         0.38067E+01
        -0.17596E+02
        -0.12448E+02
        -0.18858E+02
        -0.19321E+02
        -0.10130E+02
        -0.11243E+02
        -0.42261E+01
        -0.71489E+01
        -0.14826E+02
        -0.21971E+02
        -0.79637E+01
        -0.57750E+01
        -0.90781E+01
        -0.50011E+00
         0.26083E+01
        -0.24714E+02
        -0.12730E+02
        -0.17679E+02
        -0.13235E+02
        -0.14250E+02
        -0.22475E+01
        -0.11383E+02
        -0.98728E+01
         0.14308E+01
        -0.12460E+01
        -0.58598E+01
        -0.10639E+02
        -0.55302E+01
        -0.11272E+02
        -0.14136E+02
        -0.10292E+02
         0.18926E+01
        -0.13728E+02
        -0.71984E+01
         0.25788E+01
        -0.37452E+01
        -0.74360E+01
        -0.68835E+01
        -0.59996E+01
        -0.12420E+01
        -0.37371E+01
        -0.10068E+02
        -0.62346E+01
        -0.14556E+02
        -0.27646E+01
        -0.69227E+00
        -0.11559E+02
        -0.72542E+01
        -0.67190E+01
        -0.18200E+02
        -0.72642E+01
        -0.41714E+01
        -0.45158E+00
         0.10691E+01
         0.22621E-01
        -0.45452E+01
        -0.36206E+01
        -0.45544E+01
        -0.59273E+01
        -0.34035E+01
        -0.23028E+01
         0.52472E+01
         0.16897E+01
         0.13104E+01
        -0.14082E+01
         0.59659E+00
        -0.15353E+01
        -0.10529E+00
        -0.41512E+00
        -0.15743E+01
        -0.17566E+01
        -0.79358E+00
        -0.41730E+01
        -0.86556E+00
        -0.25591E+01
         0.56723E+01
        -0.16556E+01
         0.82917E+01
         0.23009E+02
         0.18223E+02
         0.10623E+02
         0.17716E+02
         0.63941E+01
         0.24349E+01
         0.11645E+02
         0.82215E+01
         0.25338E+02
         0.45501E+01
         0.41934E+01
        -0.56071E+00
        -0.62447E+00
         0.52727E+01
         0.13204E+01
         0.36000E+01
         0.19836E+02
         0.16093E+02
         0.34552E+01
         0.10445E+02
         0.82132E+01
        -0.35962E+01
         0.56721E+01
         0.95904E+01
         0.15421E+02
         0.47016E+01
         0.42506E+01
         0.38209E+01
        -0.32467E+01
         0.36266E+01
         0.13158E+02
         0.92868E+01
         0.16454E+02
         0.11502E+02
         0.40566E+01
         0.16037E+01
        -0.56869E+00
        -0.22789E+01
         0.86228E+00
         0.13793E+00
         0.27172E+00
         0.78398E+00
         0.42210E+01
         0.58366E+00
         0.44165E+01
         0.12877E+01
        -0.54693E+01
         0.13361E+01
         0.92402E+01
         0.35629E+01
         0.65086E+01
         0.32300E+01
        -0.25146E+01
        -0.35540E+01
        -0.19020E+01
        -0.21798E+01
        -0.50557E+00
        -0.17388E+01
        -0.32985E+01
        -0.27477E+01
        -0.99267E+00
         0.23070E+01
         0.40828E+01
         0.56451E+01
         0.33676E+01
         0.55092E+00
        -0.34182E+01
        -0.41636E+01
        -0.41400E+01
        -0.46585E+01
        -0.42944E+01
        -0.34592E+01
        -0.53561E+01
        -0.43642E+01
        -0.39983E+01
        -0.21386E+01
        -0.45976E+01
         0.13659E+01
        -0.92194E+01
        -0.83795E+01
        -0.10208E+02
        -0.13446E+02
        -0.31352E+01
        -0.81968E+01
        -0.61614E+01
        -0.76472E+01
        -0.57627E+01
        -0.70429E+01
        -0.57745E+01
        -0.45522E+01
        -0.72334E+01
        -0.88502E+01
        -0.46606E+01
        -0.16219E+02
        -0.69961E+01
        -0.13704E+02
        -0.98178E+01
        -0.36096E+01
        -0.71605E+01
        -0.14456E+02
        -0.10879E+02
        -0.98990E+01
        -0.12333E+02
        -0.10570E+02
        -0.65147E+01
        -0.91459E+01
        -0.45118E+01
        -0.70083E+01
        -0.87928E+01
        -0.51299E+01
        -0.97157E+01
        -0.94422E+01
        -0.47108E+00
        -0.77773E+01
        -0.95438E+01
        -0.60028E+01
        -0.54562E+01
        -0.65032E+01
        -0.24965E+01
        -0.16540E+01
        -0.78699E+01
        -0.98594E+01
        -0.27924E+01
        -0.35165E+01
        -0.13640E+02
        -0.14917E+02
        -0.90937E+01
        -0.86761E+01
        -0.36116E+01
        -0.61640E+01
        -0.52879E+00
         0.54505E+00
        -0.34772E+01
        -0.26378E+01
        -0.28157E+01
        -0.40930E+01
        -0.49913E+01
        -0.54042E+01
        -0.69470E+01
        -0.34576E+01
        -0.85320E+00
         0.50137E+00
         0.51855E-01
        -0.26365E+01
        -0.41375E+01
        -0.27622E+01
        -0.14800E+01
        -0.27688E+01
        -0.16026E+01
        -0.15848E+01
        -0.44228E+01
        -0.34341E+01
         0.53765E-01
         0.18178E+01
         0.30065E+01
        -0.19415E+00
         0.50790E+00
         0.15698E+01
         0.31978E+00
         0.11204E+01
         0.57910E+00
        -0.87120E+00
         0.86259E+00
        -0.32417E+00
         0.25699E+01
         0.10181E+01
         0.14606E+01
        -0.79073E+00
         0.27284E+00
         0.46379E+00
        -0.66717E+01
        -0.80442E+01
        -0.15840E+01
        -0.31814E+01
        -0.16250E+01
         0.33172E+01
        -0.47132E+00
        -0.57034E+01
         0.10415E+01
         0.13960E+01
        -0.93533E+01
        -0.10823E+01
         0.35218E+01
        -0.29673E+01
         0.48673E+01
        -0.94923E+00
         0.10741E+01
         0.24268E+01
         0.19290E+01
         0.51875E+01
         0.24643E+00
        -0.45095E+00
        -0.13234E+01
        -0.46382E+01
        -0.50523E+00
        -0.21111E+01
        -0.30749E+01
        -0.22389E+01
         0.14756E+01
        -0.44435E+00
         0.19441E+01
        -0.23545E+00
         0.86459E+00
        -0.19132E+00
         0.52443E+00
         0.32556E+00
         0.11755E+01
         0.14553E+01
        -0.44561E+01
         0.12484E+01
        -0.26754E+01
        -0.35368E+01
        -0.22837E+01
        -0.90329E+00
         0.51225E+01
         0.16359E+01
        -0.64349E+00
        -0.20767E-01
         0.28799E+01
         0.14887E+01
        -0.14621E+01
        -0.36225E+01
        -0.19759E+01
        -0.25691E+01
         0.67241E+00
         0.88458E+00
         0.92161E+00
        -0.21549E+01
        -0.30380E+01
        -0.39729E+01
        -0.12866E+01
         0.17604E+01
         0.31596E+01
        -0.13046E+01
        -0.13259E+02
        -0.95155E+01
        -0.91119E+01
        -0.16452E+02
        -0.62570E+01
        -0.11687E+02
        -0.10961E+02
        -0.10980E+02
        -0.10427E+02
        -0.93602E+01
        -0.56961E+01
        -0.13435E+01
        -0.80277E+01
        -0.67184E+01
        -0.14788E+01
        -0.15189E+02
        -0.62605E+01
        -0.20446E+02
        -0.11729E+02
        -0.11793E+02
        -0.82075E+01
        -0.79158E+01
        -0.44474E+01
        -0.81112E+01
        -0.93330E+01
        -0.75370E+01
        -0.76543E+01
        -0.12169E+02
        -0.38931E+01
        -0.11693E+02
        -0.13326E+02
        -0.62335E+01
        -0.17767E+02
        -0.14271E+02
        -0.20996E+01
        -0.63168E+01
        -0.10437E+02
        -0.54058E+01
        -0.35366E+01
        -0.88422E+00
         0.14032E+01
        -0.53286E+01
        -0.38604E+01
        -0.59434E+01
        -0.56900E+01
        -0.23365E+01
        -0.38012E+01
        -0.96164E+01
        -0.87324E+01
        -0.24778E+01
         0.43928E+01
        -0.49857E+01
         0.72251E+00
         0.65837E+00
        -0.20369E+00
        -0.23719E+01
        -0.17198E+01
        -0.24737E+01
        -0.49945E+01
        -0.35388E+00
         0.56353E-01
         0.81210E+00
         0.70832E+00
        -0.24251E+00
        -0.35801E+01
        -0.28337E+01
        -0.61955E+00
        -0.15613E+01
         0.59705E+00
         0.98468E+00
         0.22299E+01
         0.88064E+00
         0.15178E+01
         0.34612E+01
         0.25409E+01
         0.54027E+00
         0.36479E+01
         0.22210E+01
         0.28645E+01
         0.63608E+01
         0.62214E+01
         0.25835E+01
         0.56010E+00
        -0.39942E+01
        -0.22010E+01
         0.52926E+00
         0.26471E+01
         0.44228E+01
         0.85502E+00
        -0.20846E+01
        -0.32656E+01
         0.45255E+00
         0.12692E+00
        -0.14458E+01
         0.19364E+01
         0.16309E+01
         0.13958E+01
         0.96422E+00
         0.35931E+01
         0.26086E+01
        -0.42874E+00
         0.26691E+01
         0.18262E+01
         0.25449E+01
        -0.11409E+01
        -0.32099E+01
         0.22346E+01
         0.17356E+01
         0.37996E+01
         0.55984E+01
         0.20472E+01
         0.27379E+01
         0.11176E+00
         0.54897E+01
         0.24612E+01
        -0.34458E+01
        -0.11289E+01
        -0.15994E+00
        -0.71284E+00
        -0.11101E+01
         0.28211E+01
        -0.37141E+01
        -0.22979E+01
        -0.22858E+00
         0.16932E+01
        -0.18990E+00
        -0.63625E+00
        -0.13017E+01
        -0.40131E+01
        -0.34205E+01
         0.31330E+00
        -0.18259E+01
        -0.16031E+01
        -0.45372E+00
        -0.21421E+01
        -0.45109E+01
        -0.71849E+01
        -0.41858E+01
        -0.20248E+01
         0.17092E+01
         0.21480E+01
         0.21054E+00
         0.34905E+00
         0.72971E+00
        -0.17561E+01
        -0.24394E+01
        -0.23287E+01
        -0.35336E+01
        -0.31921E+01
         0.70632E+00
        -0.41874E+00
        -0.35652E+01
        -0.38400E+01
        -0.72899E+01
        -0.55713E+01
        -0.52324E+01
        -0.12163E+02
        -0.39449E+01
        -0.71812E+01
        -0.11431E+02
        -0.47741E+01
        -0.44743E+01
        -0.31482E+01
        -0.47307E+01
        -0.14491E+02
        -0.12932E+02
        -0.34380E+01
        -0.82392E+01
        -0.55683E+01
         0.23102E+01
        -0.71118E+01
        -0.10072E+02
        -0.15463E+02
        -0.75193E+01
        -0.54600E+01
        -0.34161E+01
        -0.77236E+01
        -0.81526E+01
        -0.70787E+01
        -0.40451E+01
        -0.13570E+02
        -0.37444E+01
         0.20528E+01
        -0.19570E+01
         0.24480E-01
         0.13784E+01
        -0.68237E+01
        -0.32152E+01
        -0.91154E+01
        -0.95407E+01
        -0.67090E+01
        -0.42004E+01
        -0.33866E+01
        -0.32714E+01
        -0.35157E+01
        -0.24799E+01
        -0.14208E+01
        -0.12918E+01
        -0.45722E+01
        -0.45791E+01
        -0.36253E+01
        -0.49749E+01
        -0.87238E+01
        -0.50248E+01
        -0.30407E+01
        -0.88064E+01
        -0.74754E+01
        -0.37265E+01
         0.51434E+01
        -0.12308E+01
         0.50032E+01
         0.15965E+01
         0.11078E+01
        -0.32055E+01
        -0.41602E+01
        -0.38390E+01
         0.23131E+00
        -0.26913E+00
         0.78394E+00
        -0.18504E+01
         0.12629E+01
         0.26783E+00
         0.20057E+01
        -0.25477E+01
        -0.26573E+01
        -0.26416E+01
         0.18572E+01
         0.27561E+00
        -0.86099E+00
        -0.22540E+01
        -0.24914E+01
        -0.99374E+00
        -0.45188E+01
        -0.15451E+01
        -0.10165E+01
        -0.27797E+00
        -0.18120E+01
        -0.46339E+01
         0.12027E+01
        -0.25337E+01
        -0.84262E+00
        -0.39325E+01
         0.92836E+01
         0.11697E+02
         0.12969E+01
         0.68042E+01
         0.37964E+01
        -0.86748E+01
         0.65542E+01
        -0.21800E+01
         0.10844E+02
         0.31064E+01
        -0.27402E+01
        -0.51763E+01
         0.68167E+01
         0.61758E+01
         0.21135E+01
         0.78394E+00
         0.95753E+01
        -0.38773E+00
        -0.48426E+01
        -0.35343E+01
        -0.10835E+02
        -0.10102E+02
        -0.23362E+01
         0.66346E+00
        -0.12442E+01
        -0.97643E+00
         0.40746E+01
         0.23895E+01
         0.23145E+01
        -0.72953E+00
        -0.13428E+01
        -0.21328E+01
         0.48503E+00
        -0.28041E+01
        -0.14875E+01
         0.18336E+01
         0.32427E+01
         0.35798E+01
        -0.14948E+01
        -0.13264E+01
         0.43594E+01
         0.24032E+01
         0.18571E+01
         0.66513E+00
        -0.28120E+01
        -0.15331E+01
        -0.26180E+00
         0.20329E+00
         0.72620E+00
        -0.17932E+01
         0.31346E+01
         0.45569E+01
         0.21450E+01
         0.80544E+00
        -0.20072E+01
        -0.29162E+01
        -0.11020E+01
        -0.28783E+01
        -0.36761E+01
         0.90878E+00
         0.27352E+01
         0.14257E+01
         0.65389E+00
         0.77286E+00
         0.17665E+01
        -0.14183E+01
        -0.52760E+01
        -0.50404E+01
        -0.56516E+01
        -0.21888E+01
        -0.67458E+01
        -0.70579E+00
        -0.35055E+01
        -0.60850E+01
        -0.30181E+01
        -0.38484E+01
         0.28403E+00
        -0.20747E+01
        -0.12681E+02
        -0.10396E+02
         0.98043E+00
        -0.68030E+01
        -0.86122E+01
        -0.19598E+01
        -0.99546E+01
        -0.10396E+02
        -0.15270E+02
        -0.80789E+01
        -0.39593E+01
        -0.26925E+01
        -0.11589E+02
        -0.14213E+02
        -0.42278E+01
         0.12350E+01
        -0.91171E+01
        -0.27685E+01
        -0.48822E+00
         0.40110E+01
         0.23563E+01
         0.59189E+01
        -0.30696E+01
         0.18846E+00
        -0.69551E+01
        -0.75622E+01
        -0.72581E+01
        -0.90592E+01
        -0.96376E+01
        -0.36257E+01
         0.40874E+01
        -0.14668E+01
        -0.64335E+01
        -0.59546E+00
         0.36320E+00
        -0.44164E+01
        -0.50127E+01
        -0.33007E+01
         0.93957E+00
         0.72638E+00
        -0.51135E+01
        -0.90764E+01
        -0.36200E+01
        -0.35811E+01
        -0.52008E+01
        -0.34946E+01
        -0.51186E+01
        -0.44077E+01
        -0.40735E+01
        -0.11974E+01
         0.10353E+01
         0.95122E+00
        -0.76031E+00
        -0.16198E+01
        -0.47581E+01
        -0.62366E+01
        -0.62436E+01
        -0.28426E+01
        -0.12173E+01
         0.98642E-02
        -0.22065E+01
        -0.15632E+01
        -0.13249E+01
        -0.19069E+01
        -0.45964E+01
        -0.29540E+01
         0.30806E+01
         0.33067E+01
         0.31093E-01
        -0.34510E+01
        -0.20863E+01
        -0.24636E+01
        -0.50921E+01
        -0.41397E+01
        -0.64962E+01
        -0.46175E+01
        -0.40129E+01
        -0.38479E+01
         0.36709E+01
         0.34327E+01
        -0.31902E+01
        -0.19161E+01
        -0.22874E+01
         0.50849E+00
         0.26709E+01
        -0.53614E+01
         0.44787E+01
        -0.11589E+01
        -0.10354E+01
         0.20913E+01
         0.34394E+00
         0.25173E+01
        -0.20109E+01
        -0.28464E+01
         0.63170E+00
        -0.26055E+01
        -0.17362E-01
        -0.95197E+01
        -0.83329E+01
        -0.10703E+02
        -0.50761E+01
        -0.46137E+01
        -0.21964E+01
         0.15328E+01
        -0.45864E+01
        -0.15658E+01
        -0.55864E+00
        -0.11939E+01
        -0.93645E+01
        -0.55026E+01
         0.20288E+01
        -0.55435E+01
        -0.92883E+01
         0.14145E+01
         0.20035E+01
         0.75801E+00
        -0.62156E+01
        -0.74893E+01
        -0.13141E+01
        -0.22661E+01
        -0.21254E+01
         0.45917E+00
        -0.27779E+01
         0.87793E-01
        -0.24395E+01
        -0.58762E+01
        -0.62082E+01
        -0.17812E+01
        -0.32097E+01
         0.23186E+00
        -0.16257E+01
        -0.26811E+01
        -0.22765E+01
        -0.81950E+00
        -0.49472E+01
        -0.17352E+01
        -0.52147E+01
        -0.39839E+01
        -0.25240E+01
        -0.42723E+01
        -0.24854E+01
        -0.40928E+01
        -0.15857E+01
        -0.30232E+01
        -0.73970E+01
        -0.44477E+01
        -0.22524E+01
        -0.22821E+01
        -0.57098E+01
        -0.68369E+01
        -0.57297E+01
        -0.98122E+01
        -0.40121E+00
        -0.17191E+01
        -0.33083E+01
        -0.36490E+01
        -0.64912E+00
         0.16071E+01
        -0.50302E+00
        -0.12770E+01
        -0.22415E+01
        -0.63839E+01
        -0.30607E+01
        -0.34979E+01
        -0.80604E+00
        -0.63409E+01
        -0.75915E+01
        -0.11643E+02
        -0.29283E+01
         0.19415E+01
        -0.44631E+01
        -0.26766E+01
        -0.14405E+01
        -0.40947E+01
        -0.57058E+01
        -0.19795E+00
        -0.17021E+01
        -0.77317E+01
        -0.19558E+01
        -0.45646E+01
        -0.40386E+01
        -0.75475E+01
         0.42030E+01
        -0.16819E+00
        -0.23808E+01
        -0.44662E+01
         0.20935E-01
        -0.85402E+00
        -0.12929E+01
        -0.53877E+00
         0.33325E+01
        -0.53939E+01
        -0.63061E+01
        -0.72396E+01
        -0.67656E+01
        -0.23171E+01
         0.96384E+00
        -0.14989E+01
         0.13118E+01
         0.76414E+00
        -0.39323E+01
        -0.17662E+01
        -0.69548E+00
        -0.48397E+00
        -0.27751E+01
        -0.24544E+01
        -0.17081E+01
        -0.32520E+01
        -0.16412E+01
        -0.35639E+01
        -0.16022E+01
        -0.14544E+01
         0.17896E+00
        -0.20922E+01
        -0.10629E+01
        -0.22709E+01
        -0.26746E+01
        -0.19866E+01
        -0.29676E+01
        -0.47279E+01
        -0.77232E+01
        -0.32264E+01
         0.30451E+00
         0.88902E+00
         0.13661E+01
        -0.95221E+00
         0.13608E+01
         0.45036E+01
         0.17262E+01
         0.26999E+01
        -0.31814E+01
        -0.43304E+01
         0.16236E+01
        -0.10458E+01
        -0.90240E+01
        -0.11743E+02
         0.17506E+01
        -0.38686E+01
        -0.32101E+01
         0.29119E+01
        -0.44855E+01
        -0.80019E+01
        -0.12875E+02
        -0.64409E+01
         0.21170E+00
         0.50806E+01
        -0.57355E+01
        -0.10113E+02
        -0.22996E+01
         0.17928E+01
        -0.60101E+01
        -0.15927E+01
         0.26767E+01
         0.25090E+01
         0.23005E+00
         0.10749E+02
        -0.13328E+01
        -0.97697E+00
        -0.31020E+01
        -0.29811E+01
        -0.51654E+01
        -0.36550E+01
        -0.30273E+01
        -0.18215E+01
        -0.40479E+01
        -0.63067E+01
        -0.44671E+01
        -0.29550E+01
        -0.23380E+01
        -0.28534E+01
        -0.13097E+01
        -0.47269E+00
         0.11016E+01
        -0.14791E+01
        -0.85909E+01
        -0.12564E+02
        -0.94151E+01
        -0.76279E+01
         0.51905E+01
         0.48745E+01
         0.22961E+01
         0.24020E+01
         0.17611E+01
         0.13519E+01
        -0.11079E+01
        -0.35010E+01
        -0.43747E+01
        -0.40046E+01
         0.18283E+01
        -0.16305E+01
         0.15905E+01
        -0.16262E+01
         0.15151E+01
        -0.30713E+01
        -0.30299E+01
         0.13862E+01
        -0.15022E+01
         0.94998E+00
        -0.10190E+01
        -0.33464E+01
        -0.19683E+01
        -0.28260E+00
        -0.24334E+01
        -0.12080E+01
        -0.27101E+01
        -0.48401E+01
        -0.46806E+01
        -0.58926E+01
        -0.42711E+01
        -0.53378E+01
        -0.55989E+01
        -0.44520E+01
         0.33502E+01
         0.44076E+01
        -0.31450E+01
         0.31772E+00
         0.60672E+00
        -0.26291E+01
         0.40233E+00
        -0.81845E+01
         0.37685E+01
        -0.41247E+01
        -0.47536E+01
        -0.33084E+01
         0.45269E+01
         0.15447E+01
         0.81755E+00
        -0.52417E+01
         0.10487E+01
        -0.85885E+01
        -0.21027E+01
        -0.76848E+01
        -0.70720E+01
        -0.10533E+02
        -0.76473E+01
        -0.79286E+01
        -0.17198E+01
         0.20258E+01
         0.45885E+01
         0.45584E+01
         0.28663E+01
        -0.28675E+01
        -0.31013E+01
         0.24309E+01
         0.59081E+01
        -0.11623E+01
        -0.69214E+01
        -0.94113E+00
         0.78778E+00
         0.47183E+01
        -0.16251E+01
        -0.47277E+01
         0.32368E+01
         0.83467E+01
         0.93962E+01
         0.35508E+01
        -0.52913E+01
        -0.17423E+01
        -0.13810E+01
        -0.87717E+00
        -0.44823E-01
         0.61057E+00
        -0.88175E+00
        -0.11416E-01
        -0.40001E+01
        -0.27915E+01
        -0.49520E+01
        -0.38395E-01
        -0.13824E+01
        -0.42384E+00
        -0.24061E+01
        -0.51915E+00
         0.94483E+00
        -0.98684E+00
        -0.51221E+00
        -0.60925E+00
         0.19661E+01
         0.26572E+01
        -0.70763E+00
        -0.15855E+01
         0.54803E+00
         0.45642E+00
        -0.56044E+01
        -0.47149E+01
        -0.53808E+01
        -0.61017E+01
        -0.17900E+00
         0.26970E+01
         0.13628E+01
        -0.26456E+01
        -0.10408E+02
        -0.10325E+02
         0.37625E+01
         0.12742E+00
        -0.19135E+01
        -0.21882E+01
        -0.54143E+01
         0.14684E+01
        -0.11822E+02
        -0.71820E+01
        -0.48523E+01
        -0.71966E+01
        -0.59904E+01
        -0.12240E+01
        -0.22144E+01
         0.27844E+01
        -0.87180E+01
         0.45133E+01
        -0.71348E+00
         0.77499E+01
         0.30538E+01
         0.65042E+01
         0.49376E+01
         0.44443E+01
        -0.42118E+01
        -0.14506E+02
        -0.50455E+01
        -0.10280E+02
        -0.87685E+01
        -0.26844E+01
         0.71952E+00
        -0.61232E+01
        -0.10995E+02
        -0.40883E+01
         0.60890E+01
        -0.17006E+01
        -0.36162E+01
        -0.69811E+01
        -0.34014E+01
        -0.49510E+00
        -0.85232E+01
        -0.13846E+02
        -0.68018E+01
        -0.22127E+01
        -0.29594E+00
        -0.31750E+01
        -0.19949E+01
        -0.23644E+01
        -0.13926E+01
        -0.20369E+01
        -0.22926E+01
        -0.12907E+01
        -0.25794E+01
         0.11956E+01
         0.14645E+01
        -0.63148E+00
        -0.13381E+01
        -0.67540E+01
        -0.17412E+01
        -0.18811E+01
        -0.19726E+01
         0.11270E+01
         0.29413E+01
         0.43057E+01
         0.14624E+01
        -0.64931E-01
         0.18220E+01
         0.21404E+01
        -0.30822E+01
        -0.50260E+01
         0.16834E+01
         0.28304E+01
        -0.54292E+00
        -0.30433E+01
        -0.45025E+01
        -0.60821E+01
        -0.36484E+01
        -0.12531E+01
         0.55903E-01
         0.31945E+00
        -0.80529E+01
        -0.57185E+01
        -0.35045E+01
        -0.36514E+01
        -0.15420E+01
        -0.15690E+02
        -0.58547E+01
        -0.10164E+02
        -0.32236E+01
         0.10257E+01
        -0.39830E+01
        -0.49612E+01
        -0.55618E+01
        -0.34012E+01
        -0.41674E+01
        -0.83375E+01
         0.13800E+01
        -0.37521E+01
        -0.28847E+01
        -0.20985E+01
        -0.89461E+01
        -0.51127E+01
        -0.56307E+01
         0.56163E+00
        -0.18444E+01
         0.42516E+00
         0.73515E+00
         0.34106E+00
        -0.15838E+01
        -0.11081E+00
         0.42672E+01
        -0.47434E+00
        -0.61634E+01
        -0.44315E+01
        -0.10944E+00
         0.39969E+01
         0.37257E+01
         0.25429E+01
         0.79819E+01
         0.95153E+01
         0.69698E+01
         0.65551E+00
        -0.26315E+01
        -0.13540E+01
        -0.56569E+01
        -0.25677E+01
        -0.12882E+01
        -0.65076E+00
         0.15752E+01
        -0.22579E+01
         0.12334E+01
         0.37260E+00
         0.16581E+01
        -0.15557E+01
        -0.33057E+01
        -0.44278E+01
        -0.33974E+01
        -0.34786E+01
        -0.20938E+01
        -0.14232E+01
        -0.34826E+01
        -0.18249E+01
        -0.11453E+01
         0.82386E+00
         0.15933E+01
        -0.17094E+01
        -0.31267E-01
        -0.99372E+00
        -0.82101E+01
        -0.90591E+01
        -0.11484E+02
        -0.16872E+02
        -0.61174E+01
        -0.12628E+02
        -0.35748E+01
        -0.68509E+01
        -0.19678E+01
        -0.73422E+01
         0.55279E+01
        -0.17117E+01
        -0.33458E+01
         0.25341E+00
        -0.15241E+01
         0.49735E+01
        -0.11250E+00
        -0.28983E+01
        -0.36345E+01
        -0.81174E+01
        -0.59816E+01
        -0.72546E+01
        -0.55351E+01
        -0.38684E+00
        -0.87906E+01
         0.10040E+01
        -0.62363E+01
        -0.52309E+01
         0.87053E+00
        -0.56328E+01
        -0.18206E+01
        -0.13222E+01
        -0.83045E+01
        -0.21033E+02
         0.62623E+01
        -0.71923E+00
        -0.34086E+01
        -0.88383E+01
        -0.68064E+01
        -0.15271E+01
        -0.24829E+00
        -0.26405E+01
        -0.77780E+01
        -0.50981E+01
        -0.60609E+01
        -0.50414E+01
        -0.10050E+02
        -0.14510E+02
        -0.12402E+02
        -0.84873E+01
        -0.84413E+00
        -0.92375E+01
        -0.72758E+00
        -0.32414E+01
        -0.12212E+01
        -0.13783E+01
        -0.25627E+01
        -0.56756E+01
        -0.37428E+01
        -0.92896E+00
         0.89479E-01
         0.79784E-01
        -0.24128E+01
        -0.10781E+01
        -0.30151E+01
        -0.40030E+01
        -0.36875E+01
        -0.28777E+01
        -0.33452E+00
        -0.30847E+01
        -0.14167E+01
        -0.51894E+00
        -0.56140E+01
        -0.15775E+01
        -0.14657E-01
        -0.10717E+01
         0.15053E+01
        -0.62943E-01
        -0.11544E+01
         0.19521E+01
         0.92791E+00
         0.76851E+00
         0.24851E+01
         0.72604E+01
        -0.19492E+00
         0.54059E+00
        -0.65791E+01
        -0.10956E+01
        -0.30889E+01
        -0.76055E+01
        -0.46375E+01
        -0.27419E+01
        -0.12010E+02
        -0.15878E+02
        -0.13062E+02
        -0.11850E+02
        -0.45301E+01
         0.65158E+00
        -0.59041E+01
        -0.33193E+01
        -0.38711E+01
        -0.29740E+00
        -0.33219E+01
        -0.52731E+01
         0.53370E+01
         0.41600E+01
        -0.27009E+01
         0.37169E+01
        -0.34906E+01
        -0.16837E+01
        -0.27714E+01
         0.23943E+01
        -0.47175E+01
        -0.37286E+01
        -0.35661E+01
        -0.32206E+01
        -0.66229E+00
        -0.64117E+01
        -0.63917E+01
        -0.56471E+01
         0.19912E+00
        -0.28981E+01
        -0.89160E+00
        -0.19049E+01
         0.31327E+01
         0.98690E+01
         0.76695E+01
         0.85962E+00
         0.91805E+00
         0.52056E+01
        -0.23046E+01
         0.16291E+01
         0.12037E+01
        -0.49708E+00
        -0.12999E+01
         0.32173E+01
        -0.50395E+00
        -0.31493E+01
        -0.14972E+01
        -0.99330E+00
         0.99517E+00
        -0.30983E+01
        -0.16013E+01
        -0.57921E+01
        -0.46571E+00
        -0.14106E+01
        -0.34353E+01
         0.13214E+01
        -0.92620E+00
        -0.57869E+01
        -0.33182E+00
        -0.55996E+01
        -0.54247E+01
        -0.13521E+01
        -0.56226E+01
        -0.22599E+01
        -0.50817E+01
        -0.34827E+01
        -0.83050E+01
        -0.10436E+02
        -0.92824E+01
        -0.10553E+02
        -0.26315E+01
        -0.63955E+01
        -0.33157E+01
        -0.13860E+02
         0.84762E+00
        -0.39342E+01
        -0.39502E+01
         0.16305E+01
        -0.53738E+01
         0.25082E+01
        -0.16845E+01
        -0.44114E+01
         0.36757E+01
        -0.12098E+01
        -0.86179E+01
        -0.10289E+02
        -0.37989E+01
         0.27514E+01
        -0.18813E+02
         0.26816E+01
        -0.35503E+01
        -0.12129E+02
        -0.12560E+01
        -0.10799E+02
        -0.61769E+01
        -0.14762E+01
        -0.12012E+02
        -0.16914E+02
        -0.48302E+01
        -0.42667E+01
        -0.35644E+01
        -0.53885E+01
        -0.53629E+01
        -0.19744E+01
         0.38547E+01
        -0.93387E-01
        -0.70489E+01
        -0.23721E+01
        -0.33193E+01
        -0.28642E+01
        -0.46500E+01
        -0.10545E+02
        -0.14716E+02
        -0.13392E+02
        -0.51115E+01
        -0.82055E+01
        -0.27971E+00
        -0.40601E+01
         0.25352E+00
        -0.21641E+01
        -0.26978E+01
        -0.13307E+01
        -0.50334E+01
        -0.37690E+01
        -0.14810E+01
        -0.66357E+01
        -0.51663E+01
        -0.43390E+01
        -0.71340E+00
         0.10568E+01
         0.11024E+00
         0.12080E+01
         0.15395E+01
        -0.23443E+00
         0.55336E+00
        -0.11213E+01
        -0.44021E+01
        -0.81189E+00
        -0.46660E+00
        -0.24970E+01
         0.38202E-01
        -0.18196E+01
        -0.81747E+01
        -0.33279E+01
        -0.21550E+01
        -0.59195E+01
         0.22899E+01
         0.21855E+01
        -0.11681E+01
        -0.68289E+00
        -0.10052E+02
         0.25193E+01
        -0.16529E+01
        -0.61725E+01
        -0.47043E+01
        -0.14449E+01
        -0.78009E+01
        -0.11245E+02
        -0.99893E+01
        -0.13839E+02
        -0.79614E+01
        -0.38815E+01
         0.13174E+01
         0.42849E+01
        -0.24479E+01
        -0.16278E+01
         0.56327E+01
        -0.30191E+01
         0.25668E+01
         0.93261E+01
         0.47799E+01
         0.66018E+01
         0.13048E+01
         0.35483E+00
         0.76667E+00
         0.11737E+01
         0.71971E+00
        -0.21074E+01
        -0.40804E+01
        -0.10434E+02
        -0.96582E+01
        -0.10383E+02
        -0.13648E+02
        -0.11535E+02
        -0.49610E+01
        -0.18427E+01
        -0.11309E+01
        -0.16594E+01
        -0.19756E+01
        -0.15305E+01
         0.30761E+01
         0.43690E+01
         0.33324E+01
         0.38558E+01
        -0.19037E+01
        -0.16781E+01
        -0.42263E+01
        -0.23219E+01
         0.79732E+00
        -0.15751E+01
         0.17696E+01
        -0.23353E+01
        -0.49827E+01
         0.78969E+00
         0.12714E+01
         0.18148E+01
        -0.34354E+01
        -0.19481E+01
        -0.15387E+01
        -0.16370E+01
         0.14829E+01
         0.48945E+00
         0.22689E+01
         0.26976E+01
        -0.16708E+01
        -0.13750E+01
        -0.38111E+01
        -0.49362E+01
        -0.32803E+01
        -0.42671E+01
        -0.28877E+01
        -0.65346E+00
        -0.39518E+01
        -0.11908E+02
         0.32213E+00
         0.32128E-01
        -0.39024E+00
        -0.43375E+01
        -0.41456E+01
        -0.12374E+02
        -0.26311E+01
        -0.55094E+01
        -0.29265E+01
        -0.79961E+00
        -0.98297E+00
        -0.30662E+01
        -0.64365E+01
        -0.14956E+02
        -0.28938E+01
        -0.41073E+01
        -0.51796E+01
        -0.25822E+01
        -0.88653E+01
        -0.16051E+01
        -0.17999E+02
         0.23109E+01
        -0.67865E+01
        -0.11507E+02
        -0.23690E+01
        -0.65048E+01
         0.23541E+01
         0.20290E+01
        -0.90266E+01
        -0.20174E+02
        -0.79390E+01
        -0.69775E+01
        -0.45013E+01
         0.24087E+01
        -0.89440E+00
        -0.12522E+01
         0.43910E+00
        -0.50738E+00
        -0.27410E+00
        -0.72390E+01
        -0.15430E+01
        -0.33645E+01
        -0.11711E+02
        -0.10161E+02
        -0.25620E+01
        -0.56079E+01
        -0.48187E+01
        -0.43013E+01
        -0.71812E+00
        -0.10629E+01
         0.65157E+00
        -0.87830E+00
        -0.20779E+01
        -0.32997E+01
        -0.25084E+01
        -0.70719E+01
        -0.11580E+01
        -0.31963E+01
        -0.37699E+01
        -0.41475E+01
        -0.23646E+01
        -0.23852E+01
        -0.63758E+00
        -0.30931E+01
        -0.32541E+01
        -0.13220E+01
        -0.13320E+01
        -0.15491E+01
        -0.11978E+00
        -0.31078E+01
         0.65065E+00
         0.50095E+01
        -0.15237E+01
        -0.45334E+01
        -0.55448E+01
        -0.57564E+01
        -0.11115E+02
        -0.13651E+02
        -0.21226E+01
        -0.29607E-01
        -0.30821E+01
        -0.60064E+01
         0.33599E+01
         0.21781E+01
         0.19305E+01
        -0.95230E+01
        -0.45789E+01
        -0.49308E+01
        -0.57481E+01
        -0.19922E+02
        -0.86221E+01
        -0.10309E+02
        -0.75962E+01
        -0.30130E+01
        -0.25637E+01
        -0.43920E+01
        -0.39930E+01
         0.15586E+01
         0.51646E+01
        -0.96337E+01
        -0.12935E+01
         0.78395E+01
         0.38528E+01
         0.48627E+01
        -0.74849E+01
        -0.63542E+01
        -0.67786E+01
        -0.13113E+02
        -0.69573E+00
        -0.40398E+01
        -0.17951E+01
        -0.70387E+01
        -0.95850E+01
        -0.88485E+01
        -0.52531E+01
        -0.12208E+02
        -0.79400E+01
        -0.38921E+01
        -0.21910E+01
        -0.29959E+00
        -0.96429E+01
        -0.33366E+01
         0.95640E+01
         0.35496E+01
         0.30863E+01
         0.31599E+01
         0.75281E-01
        -0.68940E+00
        -0.11468E+01
        -0.38420E+01
        -0.20559E+01
        -0.22912E+01
        -0.21316E+01
        -0.85221E+00
        -0.37642E+00
        -0.41112E+00
         0.30147E+01
        -0.19803E+01
         0.24992E+01
        -0.31869E+01
        -0.43797E+01
        -0.19134E+01
        -0.35115E+01
        -0.45187E+01
        -0.10216E+01
        -0.21181E+01
        -0.37319E+00
        -0.22694E+01
        -0.17928E+01
        -0.65669E+01
         0.14143E+01
         0.44010E+00
        -0.49507E+01
        -0.18393E+01
        -0.44176E+01
        -0.94687E+00
         0.19129E+01
        -0.21733E+01
        -0.53872E+01
        -0.40766E+00
        -0.99389E+01
        -0.81968E+01
        -0.42002E+01
        -0.36534E+01
         0.30285E+01
         0.95083E+01
        -0.40198E+01
         0.12375E+01
        -0.85453E+01
         0.33108E+01
         0.14365E+01
        -0.87192E+00
        -0.70546E+01
        -0.22061E+01
         0.91995E+00
        -0.50880E+01
        -0.41209E+01
        -0.46846E+01
        -0.63642E+01
         0.45228E-01
        -0.96621E+00
        -0.42202E+01
        -0.91734E+01
        -0.65938E+01
        -0.48644E+01
        -0.50592E+01
        -0.16301E+01
        -0.56021E+01
        -0.38008E+00
        -0.46366E+01
        -0.22475E+01
         0.16164E+01
        -0.23561E+01
        -0.45779E-01
        -0.18254E+01
         0.37505E+01
        -0.56484E+00
        -0.18676E+01
        -0.81518E+00
         0.11499E+01
        -0.35809E+01
        -0.56327E+01
         0.31508E+01
        -0.73527E+01
        -0.47592E+00
        -0.18254E+00
        -0.31411E+00
        -0.23777E+01
        -0.77069E+00
        -0.84095E+00
         0.11068E+01
        -0.23968E+01
        -0.50581E+01
        -0.38623E+01
        -0.11827E+01
        -0.22255E+01
        -0.41689E+01
        -0.28468E+01
         0.18457E+00
         0.17096E+00
         0.16108E+00
        -0.87284E+00
        -0.24153E+00
         0.65524E+00
         0.79362E+00
        -0.29561E+00
         0.39273E+00
        -0.22452E+01
         0.45241E+00
        -0.95681E+00
  
SCALARS        characteristic_distance  double 1
LOOKUP_TABLE default
         0.00000E+00
         0.00000E+00
         0.00000E+00
         0.00000E+00
         0.00000E+00
         0.00000E+00
         0.00000E+00
         0.00000E+00
         0.00000E+00
         0.00000E+00
         0.00000E+00
         0.00000E+00
         0.00000E+00
         0.00000E+00
         0.00000E+00
         0.00000E+00
         0.00000E+00
         0.00000E+00
         0.00000E+00
         0.00000E+00
         0.00000E+00
         0.00000E+00
         0.00000E+00
         0.00000E+00
         0.00000E+00
         0.00000E+00
         0.00000E+00
         0.00000E+00
         0.00000E+00
         0.00000E+00
         0.00000E+00
         0.00000E+00
         0.00000E+00
         0.00000E+00
         0.00000E+00
         0.00000E+00
         0.00000E+00
         0.00000E+00
         0.00000E+00
         0.00000E+00
         0.00000E+00
         0.00000E+00
         0.00000E+00
         0.00000E+00
         0.00000E+00
         0.00000E+00
         0.00000E+00
         0.00000E+00
         0.00000E+00
         0.00000E+00
         0.00000E+00
         0.00000E+00
         0.00000E+00
         0.00000E+00
         0.00000E+00
         0.00000E+00
         0.00000E+00
         0.00000E+00
         0.00000E+00
         0.00000E+00
         0.00000E+00
         0.00000E+00
         0.00000E+00
         0.00000E+00
         0.00000E+00
         0.00000E+00
         0.00000E+00
         0.00000E+00
         0.00000E+00
         0.00000E+00
         0.00000E+00
         0.00000E+00
         0.00000E+00
         0.00000E+00
         0.00000E+00
         0.00000E+00
         0.00000E+00
         0.00000E+00
         0.00000E+00
         0.00000E+00
         0.00000E+00
         0.00000E+00
         0.00000E+00
         0.00000E+00
         0.00000E+00
         0.00000E+00
         0.00000E+00
         0.00000E+00
         0.00000E+00
         0.00000E+00
         0.00000E+00
         0.00000E+00
         0.00000E+00
         0.00000E+00
         0.00000E+00
         0.00000E+00
         0.00000E+00
         0.00000E+00
         0.00000E+00
         0.00000E+00
         0.00000E+00
         0.00000E+00
         0.00000E+00
         0.00000E+00
         0.00000E+00
         0.00000E+00
         0.00000E+00
         0.00000E+00
         0.00000E+00
         0.00000E+00
         0.00000E+00
         0.00000E+00
         0.00000E+00
         0.00000E+00
         0.00000E+00
         0.00000E+00
         0.00000E+00
         0.00000E+00
         0.00000E+00
         0.00000E+00
         0.00000E+00
         0.00000E+00
         0.00000E+00
         0.00000E+00
         0.00000E+00
         0.00000E+00
         0.00000E+00
         0.00000E+00
         0.00000E+00
         0.00000E+00
         0.00000E+00
         0.00000E+00
         0.00000E+00
         0.00000E+00
         0.00000E+00
         0.00000E+00
         0.00000E+00
         0.00000E+00
         0.00000E+00
         0.00000E+00
         0.00000E+00
         0.00000E+00
         0.00000E+00
         0.00000E+00
         0.00000E+00
         0.00000E+00
         0.00000E+00
         0.00000E+00
         0.00000E+00
         0.00000E+00
         0.00000E+00
         0.00000E+00
         0.00000E+00
         0.00000E+00
         0.00000E+00
         0.00000E+00
         0.00000E+00
         0.00000E+00
         0.00000E+00
         0.00000E+00
         0.00000E+00
         0.00000E+00
         0.00000E+00
         0.00000E+00
         0.00000E+00
         0.00000E+00
         0.00000E+00
         0.00000E+00
         0.00000E+00
         0.00000E+00
         0.00000E+00
         0.00000E+00
         0.00000E+00
         0.00000E+00
         0.00000E+00
         0.00000E+00
         0.00000E+00
         0.00000E+00
         0.00000E+00
         0.00000E+00
         0.00000E+00
         0.00000E+00
         0.00000E+00
         0.00000E+00
         0.00000E+00
         0.00000E+00
         0.00000E+00
         0.00000E+00
         0.00000E+00
         0.00000E+00
         0.00000E+00
         0.00000E+00
         0.00000E+00
         0.00000E+00
         0.00000E+00
         0.00000E+00
         0.00000E+00
         0.00000E+00
         0.00000E+00
         0.00000E+00
         0.00000E+00
         0.00000E+00
         0.00000E+00
         0.00000E+00
         0.00000E+00
         0.00000E+00
         0.00000E+00
         0.00000E+00
         0.00000E+00
         0.00000E+00
         0.00000E+00
         0.00000E+00
         0.00000E+00
         0.00000E+00
         0.00000E+00
         0.00000E+00
         0.00000E+00
         0.00000E+00
         0.00000E+00
         0.00000E+00
         0.00000E+00
         0.00000E+00
         0.00000E+00
         0.00000E+00
         0.00000E+00
         0.00000E+00
         0.00000E+00
         0.00000E+00
         0.00000E+00
         0.00000E+00
         0.00000E+00
         0.00000E+00
         0.00000E+00
         0.00000E+00
         0.00000E+00
         0.00000E+00
         0.00000E+00
         0.00000E+00
         0.00000E+00
         0.00000E+00
         0.00000E+00
         0.00000E+00
         0.00000E+00
         0.00000E+00
         0.00000E+00
         0.00000E+00
         0.00000E+00
         0.00000E+00
         0.00000E+00
         0.00000E+00
         0.00000E+00
         0.00000E+00
         0.00000E+00
         0.00000E+00
         0.00000E+00
         0.00000E+00
         0.00000E+00
         0.00000E+00
         0.00000E+00
         0.00000E+00
         0.00000E+00
         0.00000E+00
         0.00000E+00
         0.00000E+00
         0.00000E+00
         0.00000E+00
         0.00000E+00
         0.00000E+00
         0.00000E+00
         0.00000E+00
         0.00000E+00
         0.00000E+00
         0.00000E+00
         0.00000E+00
         0.00000E+00
         0.00000E+00
         0.00000E+00
         0.00000E+00
         0.00000E+00
         0.00000E+00
         0.00000E+00
         0.00000E+00
         0.00000E+00
         0.00000E+00
         0.00000E+00
         0.00000E+00
         0.00000E+00
         0.00000E+00
         0.00000E+00
         0.00000E+00
         0.00000E+00
         0.00000E+00
         0.00000E+00
         0.00000E+00
         0.00000E+00
         0.00000E+00
         0.00000E+00
         0.00000E+00
         0.00000E+00
         0.00000E+00
         0.00000E+00
         0.00000E+00
         0.00000E+00
         0.00000E+00
         0.00000E+00
         0.00000E+00
         0.00000E+00
         0.00000E+00
         0.00000E+00
         0.00000E+00
         0.00000E+00
         0.00000E+00
         0.00000E+00
         0.00000E+00
         0.00000E+00
         0.00000E+00
         0.00000E+00
         0.00000E+00
         0.00000E+00
         0.00000E+00
         0.00000E+00
         0.00000E+00
         0.00000E+00
         0.00000E+00
         0.00000E+00
         0.00000E+00
         0.00000E+00
         0.00000E+00
         0.00000E+00
         0.00000E+00
         0.00000E+00
         0.00000E+00
         0.00000E+00
         0.00000E+00
         0.00000E+00
         0.00000E+00
         0.00000E+00
         0.00000E+00
         0.00000E+00
         0.00000E+00
         0.00000E+00
         0.00000E+00
         0.00000E+00
         0.00000E+00
         0.00000E+00
         0.00000E+00
         0.00000E+00
         0.00000E+00
         0.00000E+00
         0.00000E+00
         0.00000E+00
         0.00000E+00
         0.00000E+00
         0.00000E+00
         0.00000E+00
         0.00000E+00
         0.00000E+00
         0.00000E+00
         0.00000E+00
         0.00000E+00
         0.00000E+00
         0.00000E+00
         0.00000E+00
         0.00000E+00
         0.00000E+00
         0.00000E+00
         0.00000E+00
         0.00000E+00
         0.00000E+00
         0.00000E+00
         0.00000E+00
         0.00000E+00
         0.00000E+00
         0.00000E+00
         0.00000E+00
         0.00000E+00
         0.00000E+00
         0.00000E+00
         0.00000E+00
         0.00000E+00
         0.00000E+00
         0.00000E+00
         0.00000E+00
         0.00000E+00
         0.00000E+00
         0.00000E+00
         0.00000E+00
         0.00000E+00
         0.00000E+00
         0.00000E+00
         0.00000E+00
         0.00000E+00
         0.00000E+00
         0.00000E+00
         0.00000E+00
         0.00000E+00
         0.00000E+00
         0.00000E+00
         0.00000E+00
         0.00000E+00
         0.00000E+00
         0.00000E+00
         0.00000E+00
         0.00000E+00
         0.00000E+00
         0.00000E+00
         0.00000E+00
         0.00000E+00
         0.00000E+00
         0.00000E+00
         0.00000E+00
         0.00000E+00
         0.00000E+00
         0.00000E+00
         0.00000E+00
         0.00000E+00
         0.00000E+00
         0.00000E+00
         0.00000E+00
         0.00000E+00
         0.00000E+00
         0.00000E+00
         0.00000E+00
         0.00000E+00
         0.00000E+00
         0.00000E+00
         0.00000E+00
         0.00000E+00
         0.00000E+00
         0.00000E+00
         0.00000E+00
         0.00000E+00
         0.00000E+00
         0.00000E+00
         0.00000E+00
         0.00000E+00
         0.00000E+00
         0.00000E+00
         0.00000E+00
         0.00000E+00
         0.00000E+00
         0.00000E+00
         0.00000E+00
         0.00000E+00
         0.00000E+00
         0.00000E+00
         0.00000E+00
         0.00000E+00
         0.00000E+00
         0.00000E+00
         0.00000E+00
         0.00000E+00
         0.00000E+00
         0.00000E+00
         0.00000E+00
         0.00000E+00
         0.00000E+00
         0.00000E+00
         0.00000E+00
         0.00000E+00
         0.00000E+00
         0.00000E+00
         0.00000E+00
         0.00000E+00
         0.00000E+00
         0.00000E+00
         0.00000E+00
         0.00000E+00
         0.00000E+00
         0.00000E+00
         0.00000E+00
         0.00000E+00
         0.00000E+00
         0.00000E+00
         0.00000E+00
         0.00000E+00
         0.00000E+00
         0.00000E+00
         0.00000E+00
         0.00000E+00
         0.00000E+00
         0.00000E+00
         0.00000E+00
         0.00000E+00
         0.00000E+00
         0.00000E+00
         0.00000E+00
         0.00000E+00
         0.00000E+00
         0.00000E+00
         0.00000E+00
         0.00000E+00
         0.00000E+00
         0.00000E+00
         0.00000E+00
         0.00000E+00
         0.00000E+00
         0.00000E+00
         0.00000E+00
         0.00000E+00
         0.00000E+00
         0.00000E+00
         0.00000E+00
         0.00000E+00
         0.00000E+00
         0.00000E+00
         0.00000E+00
         0.00000E+00
         0.00000E+00
         0.00000E+00
         0.00000E+00
         0.00000E+00
         0.00000E+00
         0.00000E+00
         0.00000E+00
         0.00000E+00
         0.00000E+00
         0.00000E+00
         0.00000E+00
         0.00000E+00
         0.00000E+00
         0.00000E+00
         0.00000E+00
         0.00000E+00
         0.00000E+00
         0.00000E+00
         0.00000E+00
         0.00000E+00
         0.00000E+00
         0.00000E+00
         0.00000E+00
         0.00000E+00
         0.00000E+00
         0.00000E+00
         0.00000E+00
         0.00000E+00
         0.00000E+00
         0.00000E+00
         0.00000E+00
         0.00000E+00
         0.00000E+00
         0.00000E+00
         0.00000E+00
         0.00000E+00
         0.00000E+00
         0.00000E+00
         0.00000E+00
         0.00000E+00
         0.00000E+00
         0.00000E+00
         0.00000E+00
         0.00000E+00
         0.00000E+00
         0.00000E+00
         0.00000E+00
         0.00000E+00
         0.00000E+00
         0.00000E+00
         0.00000E+00
         0.00000E+00
         0.00000E+00
         0.00000E+00
         0.00000E+00
         0.00000E+00
         0.00000E+00
         0.00000E+00
         0.00000E+00
         0.00000E+00
         0.00000E+00
         0.00000E+00
         0.00000E+00
         0.00000E+00
         0.00000E+00
         0.00000E+00
         0.00000E+00
         0.00000E+00
         0.00000E+00
         0.00000E+00
         0.00000E+00
         0.00000E+00
         0.00000E+00
         0.00000E+00
         0.00000E+00
         0.00000E+00
         0.00000E+00
         0.00000E+00
         0.00000E+00
         0.00000E+00
         0.00000E+00
         0.00000E+00
         0.00000E+00
         0.00000E+00
         0.00000E+00
         0.00000E+00
         0.00000E+00
         0.00000E+00
         0.00000E+00
         0.00000E+00
         0.00000E+00
         0.00000E+00
         0.00000E+00
         0.00000E+00
         0.00000E+00
         0.00000E+00
         0.00000E+00
         0.00000E+00
         0.00000E+00
         0.00000E+00
         0.00000E+00
         0.00000E+00
         0.00000E+00
         0.00000E+00
         0.00000E+00
         0.00000E+00
         0.00000E+00
         0.00000E+00
         0.00000E+00
         0.00000E+00
         0.00000E+00
         0.00000E+00
         0.00000E+00
         0.00000E+00
         0.00000E+00
         0.00000E+00
         0.00000E+00
         0.00000E+00
         0.00000E+00
         0.00000E+00
         0.00000E+00
         0.00000E+00
         0.00000E+00
         0.00000E+00
         0.00000E+00
         0.00000E+00
         0.00000E+00
         0.00000E+00
         0.00000E+00
         0.00000E+00
         0.00000E+00
         0.00000E+00
         0.00000E+00
         0.00000E+00
         0.00000E+00
         0.00000E+00
         0.00000E+00
         0.00000E+00
         0.00000E+00
         0.00000E+00
         0.00000E+00
         0.00000E+00
         0.00000E+00
         0.00000E+00
         0.00000E+00
         0.00000E+00
         0.00000E+00
         0.00000E+00
         0.00000E+00
         0.00000E+00
         0.00000E+00
         0.00000E+00
         0.00000E+00
         0.00000E+00
         0.00000E+00
         0.00000E+00
         0.00000E+00
         0.00000E+00
         0.00000E+00
         0.00000E+00
         0.00000E+00
         0.00000E+00
         0.00000E+00
         0.00000E+00
         0.00000E+00
         0.00000E+00
         0.00000E+00
         0.00000E+00
         0.00000E+00
         0.00000E+00
         0.00000E+00
         0.00000E+00
         0.00000E+00
         0.00000E+00
         0.00000E+00
         0.00000E+00
         0.00000E+00
         0.00000E+00
         0.00000E+00
         0.00000E+00
         0.00000E+00
         0.00000E+00
         0.00000E+00
         0.00000E+00
         0.00000E+00
         0.00000E+00
         0.00000E+00
         0.00000E+00
         0.00000E+00
         0.00000E+00
         0.00000E+00
         0.00000E+00
         0.00000E+00
         0.00000E+00
         0.00000E+00
         0.00000E+00
         0.00000E+00
         0.00000E+00
         0.00000E+00
         0.00000E+00
         0.00000E+00
         0.00000E+00
         0.00000E+00
         0.00000E+00
         0.00000E+00
         0.00000E+00
         0.00000E+00
         0.00000E+00
         0.00000E+00
         0.00000E+00
         0.00000E+00
         0.00000E+00
         0.00000E+00
         0.00000E+00
         0.00000E+00
         0.00000E+00
         0.00000E+00
         0.00000E+00
         0.00000E+00
         0.00000E+00
         0.00000E+00
         0.00000E+00
         0.00000E+00
         0.00000E+00
         0.00000E+00
         0.00000E+00
         0.00000E+00
         0.00000E+00
         0.00000E+00
         0.00000E+00
         0.00000E+00
         0.00000E+00
         0.00000E+00
         0.00000E+00
         0.00000E+00
         0.00000E+00
         0.00000E+00
         0.00000E+00
         0.00000E+00
         0.00000E+00
         0.00000E+00
         0.00000E+00
         0.00000E+00
         0.00000E+00
         0.00000E+00
         0.00000E+00
         0.00000E+00
         0.00000E+00
         0.00000E+00
         0.00000E+00
         0.00000E+00
         0.00000E+00
         0.00000E+00
         0.00000E+00
         0.00000E+00
         0.00000E+00
         0.00000E+00
         0.00000E+00
         0.00000E+00
         0.00000E+00
         0.00000E+00
         0.00000E+00
         0.00000E+00
         0.00000E+00
         0.00000E+00
         0.00000E+00
         0.00000E+00
         0.00000E+00
         0.00000E+00
         0.00000E+00
         0.00000E+00
         0.00000E+00
         0.00000E+00
         0.00000E+00
         0.00000E+00
         0.00000E+00
         0.00000E+00
         0.00000E+00
         0.00000E+00
         0.00000E+00
         0.00000E+00
         0.00000E+00
         0.00000E+00
         0.00000E+00
         0.00000E+00
         0.00000E+00
         0.00000E+00
         0.00000E+00
         0.00000E+00
         0.00000E+00
         0.00000E+00
         0.00000E+00
         0.00000E+00
         0.00000E+00
         0.00000E+00
         0.00000E+00
         0.00000E+00
         0.00000E+00
         0.00000E+00
         0.00000E+00
         0.00000E+00
         0.00000E+00
         0.00000E+00
         0.00000E+00
         0.00000E+00
         0.00000E+00
         0.00000E+00
         0.00000E+00
         0.00000E+00
         0.00000E+00
         0.00000E+00
         0.00000E+00
         0.00000E+00
         0.00000E+00
         0.00000E+00
         0.00000E+00
         0.00000E+00
         0.00000E+00
         0.00000E+00
         0.00000E+00
         0.00000E+00
         0.00000E+00
         0.00000E+00
         0.00000E+00
         0.00000E+00
         0.00000E+00
         0.00000E+00
         0.00000E+00
         0.00000E+00
         0.00000E+00
         0.00000E+00
         0.00000E+00
         0.00000E+00
         0.00000E+00
         0.00000E+00
         0.00000E+00
         0.00000E+00
         0.00000E+00
         0.00000E+00
         0.00000E+00
         0.00000E+00
         0.00000E+00
         0.00000E+00
         0.00000E+00
         0.00000E+00
         0.00000E+00
         0.00000E+00
         0.00000E+00
         0.00000E+00
         0.00000E+00
         0.00000E+00
         0.00000E+00
         0.00000E+00
         0.00000E+00
         0.00000E+00
         0.00000E+00
         0.00000E+00
         0.00000E+00
         0.00000E+00
         0.00000E+00
         0.00000E+00
         0.00000E+00
         0.00000E+00
         0.00000E+00
         0.00000E+00
         0.00000E+00
         0.00000E+00
         0.00000E+00
         0.00000E+00
         0.00000E+00
         0.00000E+00
         0.00000E+00
         0.00000E+00
         0.00000E+00
         0.00000E+00
         0.00000E+00
         0.00000E+00
         0.00000E+00
         0.00000E+00
         0.00000E+00
         0.00000E+00
         0.00000E+00
         0.00000E+00
         0.00000E+00
         0.00000E+00
         0.00000E+00
         0.00000E+00
         0.00000E+00
         0.00000E+00
         0.00000E+00
         0.00000E+00
         0.00000E+00
         0.00000E+00
         0.00000E+00
         0.00000E+00
         0.00000E+00
         0.00000E+00
         0.00000E+00
         0.00000E+00
         0.00000E+00
         0.00000E+00
         0.00000E+00
         0.00000E+00
         0.00000E+00
         0.00000E+00
         0.00000E+00
         0.00000E+00
         0.00000E+00
         0.00000E+00
         0.00000E+00
         0.00000E+00
         0.00000E+00
         0.00000E+00
         0.00000E+00
         0.00000E+00
         0.00000E+00
         0.00000E+00
         0.00000E+00
         0.00000E+00
         0.00000E+00
         0.00000E+00
         0.00000E+00
         0.00000E+00
         0.00000E+00
         0.00000E+00
         0.00000E+00
         0.00000E+00
         0.00000E+00
         0.00000E+00
         0.00000E+00
         0.00000E+00
         0.00000E+00
         0.00000E+00
         0.00000E+00
         0.00000E+00
         0.00000E+00
         0.00000E+00
         0.00000E+00
         0.00000E+00
         0.00000E+00
         0.00000E+00
         0.00000E+00
         0.00000E+00
         0.00000E+00
         0.00000E+00
         0.00000E+00
         0.00000E+00
         0.00000E+00
         0.00000E+00
         0.00000E+00
         0.00000E+00
         0.00000E+00
         0.00000E+00
         0.00000E+00
         0.00000E+00
         0.00000E+00
         0.00000E+00
         0.00000E+00
         0.00000E+00
         0.00000E+00
         0.00000E+00
         0.00000E+00
         0.00000E+00
         0.00000E+00
         0.00000E+00
         0.00000E+00
         0.00000E+00
         0.00000E+00
         0.00000E+00
         0.00000E+00
         0.00000E+00
         0.00000E+00
         0.00000E+00
         0.00000E+00
         0.00000E+00
         0.00000E+00
         0.00000E+00
         0.00000E+00
         0.00000E+00
         0.00000E+00
         0.00000E+00
         0.00000E+00
         0.00000E+00
         0.00000E+00
         0.00000E+00
         0.00000E+00
         0.00000E+00
         0.00000E+00
         0.00000E+00
         0.00000E+00
         0.00000E+00
         0.00000E+00
         0.00000E+00
         0.00000E+00
         0.00000E+00
         0.00000E+00
         0.00000E+00
         0.00000E+00
         0.00000E+00
         0.00000E+00
         0.00000E+00
         0.00000E+00
         0.00000E+00
         0.00000E+00
         0.00000E+00
         0.00000E+00
         0.00000E+00
         0.00000E+00
         0.00000E+00
         0.00000E+00
         0.00000E+00
         0.00000E+00
         0.00000E+00
         0.00000E+00
         0.00000E+00
         0.00000E+00
         0.00000E+00
         0.00000E+00
         0.00000E+00
         0.00000E+00
         0.00000E+00
         0.00000E+00
         0.00000E+00
         0.00000E+00
         0.00000E+00
         0.00000E+00
         0.00000E+00
         0.00000E+00
         0.00000E+00
         0.00000E+00
         0.00000E+00
         0.00000E+00
         0.00000E+00
         0.00000E+00
         0.00000E+00
         0.00000E+00
         0.00000E+00
         0.00000E+00
         0.00000E+00
         0.00000E+00
         0.00000E+00
         0.00000E+00
         0.00000E+00
         0.00000E+00
         0.00000E+00
         0.00000E+00
         0.00000E+00
         0.00000E+00
         0.00000E+00
         0.00000E+00
         0.00000E+00
         0.00000E+00
         0.00000E+00
         0.00000E+00
         0.00000E+00
         0.00000E+00
         0.00000E+00
         0.00000E+00
         0.00000E+00
         0.00000E+00
         0.00000E+00
         0.00000E+00
         0.00000E+00
         0.00000E+00
         0.00000E+00
         0.00000E+00
         0.00000E+00
         0.00000E+00
         0.00000E+00
         0.00000E+00
         0.00000E+00
         0.00000E+00
         0.00000E+00
         0.00000E+00
         0.00000E+00
         0.00000E+00
         0.00000E+00
         0.00000E+00
         0.00000E+00
         0.00000E+00
         0.00000E+00
         0.00000E+00
         0.00000E+00
         0.00000E+00
         0.00000E+00
         0.00000E+00
         0.00000E+00
         0.00000E+00
         0.00000E+00
         0.00000E+00
         0.00000E+00
         0.00000E+00
         0.00000E+00
         0.00000E+00
         0.00000E+00
         0.00000E+00
         0.00000E+00
         0.00000E+00
         0.00000E+00
         0.00000E+00
         0.00000E+00
         0.00000E+00
         0.00000E+00
         0.00000E+00
         0.00000E+00
         0.00000E+00
         0.00000E+00
         0.00000E+00
         0.00000E+00
         0.00000E+00
         0.00000E+00
         0.00000E+00
         0.00000E+00
         0.00000E+00
         0.00000E+00
         0.00000E+00
         0.00000E+00
         0.00000E+00
         0.00000E+00
         0.00000E+00
         0.00000E+00
         0.00000E+00
         0.00000E+00
         0.00000E+00
         0.00000E+00
         0.00000E+00
         0.00000E+00
         0.00000E+00
         0.00000E+00
         0.00000E+00
         0.00000E+00
         0.00000E+00
         0.00000E+00
         0.00000E+00
         0.00000E+00
         0.00000E+00
         0.00000E+00
         0.00000E+00
         0.00000E+00
         0.00000E+00
         0.00000E+00
         0.00000E+00
         0.00000E+00
         0.00000E+00
         0.00000E+00
         0.00000E+00
         0.00000E+00
         0.00000E+00
         0.00000E+00
         0.00000E+00
         0.00000E+00
         0.00000E+00
         0.00000E+00
         0.00000E+00
         0.00000E+00
         0.00000E+00
         0.00000E+00
         0.00000E+00
         0.00000E+00
         0.00000E+00
         0.00000E+00
         0.00000E+00
         0.00000E+00
         0.00000E+00
         0.00000E+00
         0.00000E+00
         0.00000E+00
         0.00000E+00
         0.00000E+00
         0.00000E+00
         0.00000E+00
         0.00000E+00
         0.00000E+00
         0.00000E+00
         0.00000E+00
         0.00000E+00
         0.00000E+00
         0.00000E+00
         0.00000E+00
         0.00000E+00
         0.00000E+00
         0.00000E+00
         0.00000E+00
         0.00000E+00
         0.00000E+00
         0.00000E+00
         0.00000E+00
         0.00000E+00
         0.00000E+00
         0.00000E+00
         0.00000E+00
         0.00000E+00
         0.00000E+00
         0.00000E+00
         0.00000E+00
         0.00000E+00
         0.00000E+00
         0.00000E+00
         0.00000E+00
         0.00000E+00
         0.00000E+00
         0.00000E+00
         0.00000E+00
         0.00000E+00
         0.00000E+00
         0.00000E+00
         0.00000E+00
         0.00000E+00
         0.00000E+00
         0.00000E+00
         0.00000E+00
         0.00000E+00
         0.00000E+00
         0.00000E+00
         0.00000E+00
         0.00000E+00
         0.00000E+00
         0.00000E+00
         0.00000E+00
         0.00000E+00
         0.00000E+00
         0.00000E+00
         0.00000E+00
         0.00000E+00
         0.00000E+00
         0.00000E+00
         0.00000E+00
         0.00000E+00
         0.00000E+00
         0.00000E+00
         0.00000E+00
         0.00000E+00
         0.00000E+00
         0.00000E+00
         0.00000E+00
         0.00000E+00
         0.00000E+00
         0.00000E+00
         0.00000E+00
         0.00000E+00
         0.00000E+00
         0.00000E+00
         0.00000E+00
         0.00000E+00
         0.00000E+00
         0.00000E+00
         0.00000E+00
         0.00000E+00
         0.00000E+00
         0.00000E+00
         0.00000E+00
         0.00000E+00
         0.00000E+00
         0.00000E+00
         0.00000E+00
         0.00000E+00
         0.00000E+00
         0.00000E+00
         0.00000E+00
         0.00000E+00
         0.00000E+00
         0.00000E+00
         0.00000E+00
         0.00000E+00
         0.00000E+00
         0.00000E+00
         0.00000E+00
         0.00000E+00
         0.00000E+00
         0.00000E+00
         0.00000E+00
         0.00000E+00
         0.00000E+00
         0.00000E+00
         0.00000E+00
         0.00000E+00
         0.00000E+00
         0.00000E+00
         0.00000E+00
         0.00000E+00
         0.00000E+00
         0.00000E+00
         0.00000E+00
         0.00000E+00
         0.00000E+00
         0.00000E+00
         0.00000E+00
         0.00000E+00
         0.00000E+00
         0.00000E+00
         0.00000E+00
         0.00000E+00
         0.00000E+00
         0.00000E+00
         0.00000E+00
         0.00000E+00
         0.00000E+00
         0.00000E+00
         0.00000E+00
         0.00000E+00
         0.00000E+00
         0.00000E+00
         0.00000E+00
         0.00000E+00
         0.00000E+00
         0.00000E+00
         0.00000E+00
         0.00000E+00
         0.00000E+00
         0.00000E+00
         0.00000E+00
         0.00000E+00
         0.00000E+00
         0.00000E+00
         0.00000E+00
         0.00000E+00
         0.00000E+00
         0.00000E+00
         0.00000E+00
         0.00000E+00
         0.00000E+00
         0.00000E+00
         0.00000E+00
         0.00000E+00
         0.00000E+00
         0.00000E+00
         0.00000E+00
         0.00000E+00
         0.00000E+00
         0.00000E+00
         0.00000E+00
         0.00000E+00
         0.00000E+00
         0.00000E+00
         0.00000E+00
         0.00000E+00
         0.00000E+00
         0.00000E+00
         0.00000E+00
         0.00000E+00
         0.00000E+00
         0.00000E+00
         0.00000E+00
         0.00000E+00
         0.00000E+00
         0.00000E+00
         0.00000E+00
         0.00000E+00
         0.00000E+00
         0.00000E+00
         0.00000E+00
         0.00000E+00
         0.00000E+00
         0.00000E+00
         0.00000E+00
         0.00000E+00
         0.00000E+00
         0.00000E+00
         0.00000E+00
         0.00000E+00
         0.00000E+00
         0.00000E+00
         0.00000E+00
         0.00000E+00
         0.00000E+00
         0.00000E+00
         0.00000E+00
         0.00000E+00
         0.00000E+00
         0.00000E+00
         0.00000E+00
         0.00000E+00
         0.00000E+00
         0.00000E+00
         0.00000E+00
         0.00000E+00
         0.00000E+00
         0.00000E+00
         0.00000E+00
         0.00000E+00
         0.00000E+00
         0.00000E+00
         0.00000E+00
         0.00000E+00
         0.00000E+00
         0.00000E+00
         0.00000E+00
         0.00000E+00
         0.00000E+00
         0.00000E+00
         0.00000E+00
         0.00000E+00
         0.00000E+00
         0.00000E+00
         0.00000E+00
         0.00000E+00
         0.00000E+00
         0.00000E+00
         0.00000E+00
         0.00000E+00
         0.00000E+00
         0.00000E+00
         0.00000E+00
         0.00000E+00
         0.00000E+00
         0.00000E+00
         0.00000E+00
         0.00000E+00
         0.00000E+00
         0.00000E+00
         0.00000E+00
         0.00000E+00
         0.00000E+00
         0.00000E+00
         0.00000E+00
         0.00000E+00
         0.00000E+00
         0.00000E+00
         0.00000E+00
         0.00000E+00
         0.00000E+00
         0.00000E+00
         0.00000E+00
         0.00000E+00
         0.00000E+00
         0.00000E+00
         0.00000E+00
         0.00000E+00
         0.00000E+00
         0.00000E+00
         0.00000E+00
         0.00000E+00
         0.00000E+00
         0.00000E+00
         0.00000E+00
         0.00000E+00
         0.00000E+00
         0.00000E+00
         0.00000E+00
         0.00000E+00
         0.00000E+00
         0.00000E+00
         0.00000E+00
         0.00000E+00
         0.00000E+00
         0.00000E+00
         0.00000E+00
         0.00000E+00
         0.00000E+00
         0.00000E+00
         0.00000E+00
         0.00000E+00
         0.00000E+00
         0.00000E+00
         0.00000E+00
         0.00000E+00
         0.00000E+00
         0.00000E+00
         0.00000E+00
         0.00000E+00
         0.00000E+00
         0.00000E+00
         0.00000E+00
         0.00000E+00
         0.00000E+00
         0.00000E+00
         0.00000E+00
         0.00000E+00
         0.00000E+00
         0.00000E+00
         0.00000E+00
         0.00000E+00
         0.00000E+00
         0.00000E+00
         0.00000E+00
         0.00000E+00
         0.00000E+00
         0.00000E+00
         0.00000E+00
         0.00000E+00
         0.00000E+00
         0.00000E+00
         0.00000E+00
         0.00000E+00
         0.00000E+00
         0.00000E+00
         0.00000E+00
         0.00000E+00
         0.00000E+00
         0.00000E+00
         0.00000E+00
         0.00000E+00
         0.00000E+00
         0.00000E+00
         0.00000E+00
         0.00000E+00
         0.00000E+00
         0.00000E+00
         0.00000E+00
         0.00000E+00
         0.00000E+00
         0.00000E+00
         0.00000E+00
         0.00000E+00
         0.00000E+00
         0.00000E+00
         0.00000E+00
         0.00000E+00
         0.00000E+00
         0.00000E+00
         0.00000E+00
         0.00000E+00
         0.00000E+00
         0.00000E+00
         0.00000E+00
         0.00000E+00
         0.00000E+00
         0.00000E+00
         0.00000E+00
         0.00000E+00
         0.00000E+00
         0.00000E+00
         0.00000E+00
         0.00000E+00
         0.00000E+00
         0.00000E+00
         0.00000E+00
         0.00000E+00
         0.00000E+00
         0.00000E+00
         0.00000E+00
         0.00000E+00
         0.00000E+00
         0.00000E+00
         0.00000E+00
         0.00000E+00
         0.00000E+00
         0.00000E+00
         0.00000E+00
         0.00000E+00
         0.00000E+00
         0.00000E+00
         0.00000E+00
         0.00000E+00
         0.00000E+00
         0.00000E+00
         0.00000E+00
         0.00000E+00
         0.00000E+00
         0.00000E+00
         0.00000E+00
         0.00000E+00
         0.00000E+00
         0.00000E+00
         0.00000E+00
         0.00000E+00
         0.00000E+00
         0.00000E+00
         0.00000E+00
         0.00000E+00
         0.00000E+00
         0.00000E+00
         0.00000E+00
         0.00000E+00
         0.00000E+00
         0.00000E+00
         0.00000E+00
         0.00000E+00
         0.00000E+00
         0.00000E+00
         0.00000E+00
         0.00000E+00
         0.00000E+00
         0.00000E+00
         0.00000E+00
         0.00000E+00
         0.00000E+00
         0.00000E+00
         0.00000E+00
         0.00000E+00
         0.00000E+00
         0.00000E+00
         0.00000E+00
         0.00000E+00
         0.00000E+00
         0.00000E+00
         0.00000E+00
         0.00000E+00
         0.00000E+00
         0.00000E+00
         0.00000E+00
         0.00000E+00
         0.00000E+00
         0.00000E+00
         0.00000E+00
         0.00000E+00
         0.00000E+00
         0.00000E+00
         0.00000E+00
         0.00000E+00
         0.00000E+00
         0.00000E+00
         0.00000E+00
         0.00000E+00
         0.00000E+00
         0.00000E+00
         0.00000E+00
         0.00000E+00
         0.00000E+00
         0.00000E+00
         0.00000E+00
         0.00000E+00
         0.00000E+00
         0.00000E+00
         0.00000E+00
         0.00000E+00
         0.00000E+00
         0.00000E+00
         0.00000E+00
         0.00000E+00
         0.00000E+00
         0.00000E+00
         0.00000E+00
         0.00000E+00
         0.00000E+00
         0.00000E+00
         0.00000E+00
         0.00000E+00
         0.00000E+00
         0.00000E+00
         0.00000E+00
         0.00000E+00
         0.00000E+00
         0.00000E+00
         0.00000E+00
         0.00000E+00
         0.00000E+00
         0.00000E+00
         0.00000E+00
         0.00000E+00
         0.00000E+00
         0.00000E+00
         0.00000E+00
         0.00000E+00
         0.00000E+00
         0.00000E+00
         0.00000E+00
         0.00000E+00
         0.00000E+00
         0.00000E+00
         0.00000E+00
         0.00000E+00
         0.00000E+00
         0.00000E+00
         0.00000E+00
         0.00000E+00
         0.00000E+00
         0.00000E+00
         0.00000E+00
         0.00000E+00
         0.00000E+00
         0.00000E+00
         0.00000E+00
         0.00000E+00
         0.00000E+00
         0.00000E+00
         0.00000E+00
         0.00000E+00
         0.00000E+00
         0.00000E+00
         0.00000E+00
         0.00000E+00
         0.00000E+00
         0.00000E+00
         0.00000E+00
         0.00000E+00
         0.00000E+00
         0.00000E+00
         0.00000E+00
         0.00000E+00
         0.00000E+00
         0.00000E+00
         0.00000E+00
         0.00000E+00
         0.00000E+00
         0.00000E+00
         0.00000E+00
         0.00000E+00
         0.00000E+00
         0.00000E+00
         0.00000E+00
         0.00000E+00
         0.00000E+00
         0.00000E+00
         0.00000E+00
         0.00000E+00
         0.00000E+00
         0.00000E+00
         0.00000E+00
         0.00000E+00
         0.00000E+00
         0.00000E+00
         0.00000E+00
         0.00000E+00
         0.00000E+00
         0.00000E+00
         0.00000E+00
         0.00000E+00
         0.00000E+00
         0.00000E+00
         0.00000E+00
         0.00000E+00
         0.00000E+00
         0.00000E+00
         0.00000E+00
         0.00000E+00
         0.00000E+00
         0.00000E+00
         0.00000E+00
         0.00000E+00
         0.00000E+00
         0.00000E+00
         0.00000E+00
         0.00000E+00
         0.00000E+00
         0.00000E+00
         0.00000E+00
         0.00000E+00
         0.00000E+00
         0.00000E+00
         0.00000E+00
         0.00000E+00
         0.00000E+00
         0.00000E+00
         0.00000E+00
         0.00000E+00
         0.00000E+00
         0.00000E+00
         0.00000E+00
         0.00000E+00
         0.00000E+00
         0.00000E+00
         0.00000E+00
         0.00000E+00
         0.00000E+00
         0.00000E+00
         0.00000E+00
         0.00000E+00
         0.00000E+00
         0.00000E+00
         0.00000E+00
         0.00000E+00
         0.00000E+00
         0.00000E+00
         0.00000E+00
         0.00000E+00
         0.00000E+00
         0.00000E+00
         0.00000E+00
         0.00000E+00
         0.00000E+00
         0.00000E+00
         0.00000E+00
         0.00000E+00
         0.00000E+00
         0.00000E+00
         0.00000E+00
         0.00000E+00
         0.00000E+00
         0.00000E+00
         0.00000E+00
         0.00000E+00
         0.00000E+00
         0.00000E+00
         0.00000E+00
         0.00000E+00
         0.00000E+00
         0.00000E+00
         0.00000E+00
         0.00000E+00
         0.00000E+00
         0.00000E+00
         0.00000E+00
         0.00000E+00
         0.00000E+00
         0.00000E+00
         0.00000E+00
         0.00000E+00
         0.00000E+00
         0.00000E+00
         0.00000E+00
         0.00000E+00
         0.00000E+00
         0.00000E+00
         0.00000E+00
         0.00000E+00
         0.00000E+00
         0.00000E+00
         0.00000E+00
         0.00000E+00
         0.00000E+00
         0.00000E+00
         0.00000E+00
         0.00000E+00
         0.00000E+00
         0.00000E+00
         0.00000E+00
         0.00000E+00
         0.00000E+00
         0.00000E+00
         0.00000E+00
         0.00000E+00
         0.00000E+00
         0.00000E+00
         0.00000E+00
         0.00000E+00
         0.00000E+00
         0.00000E+00
         0.00000E+00
         0.00000E+00
         0.00000E+00
         0.00000E+00
         0.00000E+00
         0.00000E+00
         0.00000E+00
         0.00000E+00
         0.00000E+00
         0.00000E+00
         0.00000E+00
         0.00000E+00
         0.00000E+00
         0.00000E+00
         0.00000E+00
         0.00000E+00
         0.00000E+00
         0.00000E+00
         0.00000E+00
         0.00000E+00
         0.00000E+00
         0.00000E+00
         0.00000E+00
         0.00000E+00
         0.00000E+00
         0.00000E+00
         0.00000E+00
         0.00000E+00
         0.00000E+00
         0.00000E+00
         0.00000E+00
         0.00000E+00
         0.00000E+00
         0.00000E+00
         0.00000E+00
         0.00000E+00
         0.00000E+00
         0.00000E+00
         0.00000E+00
         0.00000E+00
         0.00000E+00
         0.00000E+00
         0.00000E+00
         0.00000E+00
         0.00000E+00
         0.00000E+00
         0.00000E+00
         0.00000E+00
         0.00000E+00
         0.00000E+00
         0.00000E+00
         0.00000E+00
         0.00000E+00
         0.00000E+00
         0.00000E+00
         0.00000E+00
         0.00000E+00
         0.00000E+00
         0.00000E+00
         0.00000E+00
         0.00000E+00
         0.00000E+00
         0.00000E+00
         0.00000E+00
         0.00000E+00
         0.00000E+00
         0.00000E+00
         0.00000E+00
         0.00000E+00
         0.00000E+00
         0.00000E+00
         0.00000E+00
         0.00000E+00
         0.00000E+00
         0.00000E+00
         0.00000E+00
         0.00000E+00
         0.00000E+00
         0.00000E+00
         0.00000E+00
         0.00000E+00
         0.00000E+00
         0.00000E+00
         0.00000E+00
         0.00000E+00
         0.00000E+00
         0.00000E+00
         0.00000E+00
         0.00000E+00
         0.00000E+00
         0.00000E+00
         0.00000E+00
         0.00000E+00
         0.00000E+00
         0.00000E+00
         0.00000E+00
         0.00000E+00
         0.00000E+00
         0.00000E+00
         0.00000E+00
         0.00000E+00
         0.00000E+00
         0.00000E+00
         0.00000E+00
         0.00000E+00
         0.00000E+00
         0.00000E+00
         0.00000E+00
         0.00000E+00
         0.00000E+00
         0.00000E+00
         0.00000E+00
         0.00000E+00
         0.00000E+00
         0.00000E+00
         0.00000E+00
         0.00000E+00
         0.00000E+00
         0.00000E+00
         0.00000E+00
         0.00000E+00
         0.00000E+00
         0.00000E+00
         0.00000E+00
  
SCALARS                   max_wave_vel  double 1
LOOKUP_TABLE default
         0.00000E+00
         0.00000E+00
         0.00000E+00
         0.00000E+00
         0.00000E+00
         0.00000E+00
         0.00000E+00
         0.00000E+00
         0.00000E+00
         0.00000E+00
         0.00000E+00
         0.00000E+00
         0.00000E+00
         0.00000E+00
         0.00000E+00
         0.00000E+00
         0.00000E+00
         0.00000E+00
         0.00000E+00
         0.00000E+00
         0.00000E+00
         0.00000E+00
         0.00000E+00
         0.00000E+00
         0.00000E+00
         0.00000E+00
         0.00000E+00
         0.00000E+00
         0.00000E+00
         0.00000E+00
         0.00000E+00
         0.00000E+00
         0.00000E+00
         0.00000E+00
         0.00000E+00
         0.00000E+00
         0.00000E+00
         0.00000E+00
         0.00000E+00
         0.00000E+00
         0.00000E+00
         0.00000E+00
         0.00000E+00
         0.00000E+00
         0.00000E+00
         0.00000E+00
         0.00000E+00
         0.00000E+00
         0.00000E+00
         0.00000E+00
         0.00000E+00
         0.00000E+00
         0.00000E+00
         0.00000E+00
         0.00000E+00
         0.00000E+00
         0.00000E+00
         0.00000E+00
         0.00000E+00
         0.00000E+00
         0.00000E+00
         0.00000E+00
         0.00000E+00
         0.00000E+00
         0.00000E+00
         0.00000E+00
         0.00000E+00
         0.00000E+00
         0.00000E+00
         0.00000E+00
         0.00000E+00
         0.00000E+00
         0.00000E+00
         0.00000E+00
         0.00000E+00
         0.00000E+00
         0.00000E+00
         0.00000E+00
         0.00000E+00
         0.00000E+00
         0.00000E+00
         0.00000E+00
         0.00000E+00
         0.00000E+00
         0.00000E+00
         0.00000E+00
         0.00000E+00
         0.00000E+00
         0.00000E+00
         0.00000E+00
         0.00000E+00
         0.00000E+00
         0.00000E+00
         0.00000E+00
         0.00000E+00
         0.00000E+00
         0.00000E+00
         0.00000E+00
         0.00000E+00
         0.00000E+00
         0.00000E+00
         0.00000E+00
         0.00000E+00
         0.00000E+00
         0.00000E+00
         0.00000E+00
         0.00000E+00
         0.00000E+00
         0.00000E+00
         0.00000E+00
         0.00000E+00
         0.00000E+00
         0.00000E+00
         0.00000E+00
         0.00000E+00
         0.00000E+00
         0.00000E+00
         0.00000E+00
         0.00000E+00
         0.00000E+00
         0.00000E+00
         0.00000E+00
         0.00000E+00
         0.00000E+00
         0.00000E+00
         0.00000E+00
         0.00000E+00
         0.00000E+00
         0.00000E+00
         0.00000E+00
         0.00000E+00
         0.00000E+00
         0.00000E+00
         0.00000E+00
         0.00000E+00
         0.00000E+00
         0.00000E+00
         0.00000E+00
         0.00000E+00
         0.00000E+00
         0.00000E+00
         0.00000E+00
         0.00000E+00
         0.00000E+00
         0.00000E+00
         0.00000E+00
         0.00000E+00
         0.00000E+00
         0.00000E+00
         0.00000E+00
         0.00000E+00
         0.00000E+00
         0.00000E+00
         0.00000E+00
         0.00000E+00
         0.00000E+00
         0.00000E+00
         0.00000E+00
         0.00000E+00
         0.00000E+00
         0.00000E+00
         0.00000E+00
         0.00000E+00
         0.00000E+00
         0.00000E+00
         0.00000E+00
         0.00000E+00
         0.00000E+00
         0.00000E+00
         0.00000E+00
         0.00000E+00
         0.00000E+00
         0.00000E+00
         0.00000E+00
         0.00000E+00
         0.00000E+00
         0.00000E+00
         0.00000E+00
         0.00000E+00
         0.00000E+00
         0.00000E+00
         0.00000E+00
         0.00000E+00
         0.00000E+00
         0.00000E+00
         0.00000E+00
         0.00000E+00
         0.00000E+00
         0.00000E+00
         0.00000E+00
         0.00000E+00
         0.00000E+00
         0.00000E+00
         0.00000E+00
         0.00000E+00
         0.00000E+00
         0.00000E+00
         0.00000E+00
         0.00000E+00
         0.00000E+00
         0.00000E+00
         0.00000E+00
         0.00000E+00
         0.00000E+00
         0.00000E+00
         0.00000E+00
         0.00000E+00
         0.00000E+00
         0.00000E+00
         0.00000E+00
         0.00000E+00
         0.00000E+00
         0.00000E+00
         0.00000E+00
         0.00000E+00
         0.00000E+00
         0.00000E+00
         0.00000E+00
         0.00000E+00
         0.00000E+00
         0.00000E+00
         0.00000E+00
         0.00000E+00
         0.00000E+00
         0.00000E+00
         0.00000E+00
         0.00000E+00
         0.00000E+00
         0.00000E+00
         0.00000E+00
         0.00000E+00
         0.00000E+00
         0.00000E+00
         0.00000E+00
         0.00000E+00
         0.00000E+00
         0.00000E+00
         0.00000E+00
         0.00000E+00
         0.00000E+00
         0.00000E+00
         0.00000E+00
         0.00000E+00
         0.00000E+00
         0.00000E+00
         0.00000E+00
         0.00000E+00
         0.00000E+00
         0.00000E+00
         0.00000E+00
         0.00000E+00
         0.00000E+00
         0.00000E+00
         0.00000E+00
         0.00000E+00
         0.00000E+00
         0.00000E+00
         0.00000E+00
         0.00000E+00
         0.00000E+00
         0.00000E+00
         0.00000E+00
         0.00000E+00
         0.00000E+00
         0.00000E+00
         0.00000E+00
         0.00000E+00
         0.00000E+00
         0.00000E+00
         0.00000E+00
         0.00000E+00
         0.00000E+00
         0.00000E+00
         0.00000E+00
         0.00000E+00
         0.00000E+00
         0.00000E+00
         0.00000E+00
         0.00000E+00
         0.00000E+00
         0.00000E+00
         0.00000E+00
         0.00000E+00
         0.00000E+00
         0.00000E+00
         0.00000E+00
         0.00000E+00
         0.00000E+00
         0.00000E+00
         0.00000E+00
         0.00000E+00
         0.00000E+00
         0.00000E+00
         0.00000E+00
         0.00000E+00
         0.00000E+00
         0.00000E+00
         0.00000E+00
         0.00000E+00
         0.00000E+00
         0.00000E+00
         0.00000E+00
         0.00000E+00
         0.00000E+00
         0.00000E+00
         0.00000E+00
         0.00000E+00
         0.00000E+00
         0.00000E+00
         0.00000E+00
         0.00000E+00
         0.00000E+00
         0.00000E+00
         0.00000E+00
         0.00000E+00
         0.00000E+00
         0.00000E+00
         0.00000E+00
         0.00000E+00
         0.00000E+00
         0.00000E+00
         0.00000E+00
         0.00000E+00
         0.00000E+00
         0.00000E+00
         0.00000E+00
         0.00000E+00
         0.00000E+00
         0.00000E+00
         0.00000E+00
         0.00000E+00
         0.00000E+00
         0.00000E+00
         0.00000E+00
         0.00000E+00
         0.00000E+00
         0.00000E+00
         0.00000E+00
         0.00000E+00
         0.00000E+00
         0.00000E+00
         0.00000E+00
         0.00000E+00
         0.00000E+00
         0.00000E+00
         0.00000E+00
         0.00000E+00
         0.00000E+00
         0.00000E+00
         0.00000E+00
         0.00000E+00
         0.00000E+00
         0.00000E+00
         0.00000E+00
         0.00000E+00
         0.00000E+00
         0.00000E+00
         0.00000E+00
         0.00000E+00
         0.00000E+00
         0.00000E+00
         0.00000E+00
         0.00000E+00
         0.00000E+00
         0.00000E+00
         0.00000E+00
         0.00000E+00
         0.00000E+00
         0.00000E+00
         0.00000E+00
         0.00000E+00
         0.00000E+00
         0.00000E+00
         0.00000E+00
         0.00000E+00
         0.00000E+00
         0.00000E+00
         0.00000E+00
         0.00000E+00
         0.00000E+00
         0.00000E+00
         0.00000E+00
         0.00000E+00
         0.00000E+00
         0.00000E+00
         0.00000E+00
         0.00000E+00
         0.00000E+00
         0.00000E+00
         0.00000E+00
         0.00000E+00
         0.00000E+00
         0.00000E+00
         0.00000E+00
         0.00000E+00
         0.00000E+00
         0.00000E+00
         0.00000E+00
         0.00000E+00
         0.00000E+00
         0.00000E+00
         0.00000E+00
         0.00000E+00
         0.00000E+00
         0.00000E+00
         0.00000E+00
         0.00000E+00
         0.00000E+00
         0.00000E+00
         0.00000E+00
         0.00000E+00
         0.00000E+00
         0.00000E+00
         0.00000E+00
         0.00000E+00
         0.00000E+00
         0.00000E+00
         0.00000E+00
         0.00000E+00
         0.00000E+00
         0.00000E+00
         0.00000E+00
         0.00000E+00
         0.00000E+00
         0.00000E+00
         0.00000E+00
         0.00000E+00
         0.00000E+00
         0.00000E+00
         0.00000E+00
         0.00000E+00
         0.00000E+00
         0.00000E+00
         0.00000E+00
         0.00000E+00
         0.00000E+00
         0.00000E+00
         0.00000E+00
         0.00000E+00
         0.00000E+00
         0.00000E+00
         0.00000E+00
         0.00000E+00
         0.00000E+00
         0.00000E+00
         0.00000E+00
         0.00000E+00
         0.00000E+00
         0.00000E+00
         0.00000E+00
         0.00000E+00
         0.00000E+00
         0.00000E+00
         0.00000E+00
         0.00000E+00
         0.00000E+00
         0.00000E+00
         0.00000E+00
         0.00000E+00
         0.00000E+00
         0.00000E+00
         0.00000E+00
         0.00000E+00
         0.00000E+00
         0.00000E+00
         0.00000E+00
         0.00000E+00
         0.00000E+00
         0.00000E+00
         0.00000E+00
         0.00000E+00
         0.00000E+00
         0.00000E+00
         0.00000E+00
         0.00000E+00
         0.00000E+00
         0.00000E+00
         0.00000E+00
         0.00000E+00
         0.00000E+00
         0.00000E+00
         0.00000E+00
         0.00000E+00
         0.00000E+00
         0.00000E+00
         0.00000E+00
         0.00000E+00
         0.00000E+00
         0.00000E+00
         0.00000E+00
         0.00000E+00
         0.00000E+00
         0.00000E+00
         0.00000E+00
         0.00000E+00
         0.00000E+00
         0.00000E+00
         0.00000E+00
         0.00000E+00
         0.00000E+00
         0.00000E+00
         0.00000E+00
         0.00000E+00
         0.00000E+00
         0.00000E+00
         0.00000E+00
         0.00000E+00
         0.00000E+00
         0.00000E+00
         0.00000E+00
         0.00000E+00
         0.00000E+00
         0.00000E+00
         0.00000E+00
         0.00000E+00
         0.00000E+00
         0.00000E+00
         0.00000E+00
         0.00000E+00
         0.00000E+00
         0.00000E+00
         0.00000E+00
         0.00000E+00
         0.00000E+00
         0.00000E+00
         0.00000E+00
         0.00000E+00
         0.00000E+00
         0.00000E+00
         0.00000E+00
         0.00000E+00
         0.00000E+00
         0.00000E+00
         0.00000E+00
         0.00000E+00
         0.00000E+00
         0.00000E+00
         0.00000E+00
         0.00000E+00
         0.00000E+00
         0.00000E+00
         0.00000E+00
         0.00000E+00
         0.00000E+00
         0.00000E+00
         0.00000E+00
         0.00000E+00
         0.00000E+00
         0.00000E+00
         0.00000E+00
         0.00000E+00
         0.00000E+00
         0.00000E+00
         0.00000E+00
         0.00000E+00
         0.00000E+00
         0.00000E+00
         0.00000E+00
         0.00000E+00
         0.00000E+00
         0.00000E+00
         0.00000E+00
         0.00000E+00
         0.00000E+00
         0.00000E+00
         0.00000E+00
         0.00000E+00
         0.00000E+00
         0.00000E+00
         0.00000E+00
         0.00000E+00
         0.00000E+00
         0.00000E+00
         0.00000E+00
         0.00000E+00
         0.00000E+00
         0.00000E+00
         0.00000E+00
         0.00000E+00
         0.00000E+00
         0.00000E+00
         0.00000E+00
         0.00000E+00
         0.00000E+00
         0.00000E+00
         0.00000E+00
         0.00000E+00
         0.00000E+00
         0.00000E+00
         0.00000E+00
         0.00000E+00
         0.00000E+00
         0.00000E+00
         0.00000E+00
         0.00000E+00
         0.00000E+00
         0.00000E+00
         0.00000E+00
         0.00000E+00
         0.00000E+00
         0.00000E+00
         0.00000E+00
         0.00000E+00
         0.00000E+00
         0.00000E+00
         0.00000E+00
         0.00000E+00
         0.00000E+00
         0.00000E+00
         0.00000E+00
         0.00000E+00
         0.00000E+00
         0.00000E+00
         0.00000E+00
         0.00000E+00
         0.00000E+00
         0.00000E+00
         0.00000E+00
         0.00000E+00
         0.00000E+00
         0.00000E+00
         0.00000E+00
         0.00000E+00
         0.00000E+00
         0.00000E+00
         0.00000E+00
         0.00000E+00
         0.00000E+00
         0.00000E+00
         0.00000E+00
         0.00000E+00
         0.00000E+00
         0.00000E+00
         0.00000E+00
         0.00000E+00
         0.00000E+00
         0.00000E+00
         0.00000E+00
         0.00000E+00
         0.00000E+00
         0.00000E+00
         0.00000E+00
         0.00000E+00
         0.00000E+00
         0.00000E+00
         0.00000E+00
         0.00000E+00
         0.00000E+00
         0.00000E+00
         0.00000E+00
         0.00000E+00
         0.00000E+00
         0.00000E+00
         0.00000E+00
         0.00000E+00
         0.00000E+00
         0.00000E+00
         0.00000E+00
         0.00000E+00
         0.00000E+00
         0.00000E+00
         0.00000E+00
         0.00000E+00
         0.00000E+00
         0.00000E+00
         0.00000E+00
         0.00000E+00
         0.00000E+00
         0.00000E+00
         0.00000E+00
         0.00000E+00
         0.00000E+00
         0.00000E+00
         0.00000E+00
         0.00000E+00
         0.00000E+00
         0.00000E+00
         0.00000E+00
         0.00000E+00
         0.00000E+00
         0.00000E+00
         0.00000E+00
         0.00000E+00
         0.00000E+00
         0.00000E+00
         0.00000E+00
         0.00000E+00
         0.00000E+00
         0.00000E+00
         0.00000E+00
         0.00000E+00
         0.00000E+00
         0.00000E+00
         0.00000E+00
         0.00000E+00
         0.00000E+00
         0.00000E+00
         0.00000E+00
         0.00000E+00
         0.00000E+00
         0.00000E+00
         0.00000E+00
         0.00000E+00
         0.00000E+00
         0.00000E+00
         0.00000E+00
         0.00000E+00
         0.00000E+00
         0.00000E+00
         0.00000E+00
         0.00000E+00
         0.00000E+00
         0.00000E+00
         0.00000E+00
         0.00000E+00
         0.00000E+00
         0.00000E+00
         0.00000E+00
         0.00000E+00
         0.00000E+00
         0.00000E+00
         0.00000E+00
         0.00000E+00
         0.00000E+00
         0.00000E+00
         0.00000E+00
         0.00000E+00
         0.00000E+00
         0.00000E+00
         0.00000E+00
         0.00000E+00
         0.00000E+00
         0.00000E+00
         0.00000E+00
         0.00000E+00
         0.00000E+00
         0.00000E+00
         0.00000E+00
         0.00000E+00
         0.00000E+00
         0.00000E+00
         0.00000E+00
         0.00000E+00
         0.00000E+00
         0.00000E+00
         0.00000E+00
         0.00000E+00
         0.00000E+00
         0.00000E+00
         0.00000E+00
         0.00000E+00
         0.00000E+00
         0.00000E+00
         0.00000E+00
         0.00000E+00
         0.00000E+00
         0.00000E+00
         0.00000E+00
         0.00000E+00
         0.00000E+00
         0.00000E+00
         0.00000E+00
         0.00000E+00
         0.00000E+00
         0.00000E+00
         0.00000E+00
         0.00000E+00
         0.00000E+00
         0.00000E+00
         0.00000E+00
         0.00000E+00
         0.00000E+00
         0.00000E+00
         0.00000E+00
         0.00000E+00
         0.00000E+00
         0.00000E+00
         0.00000E+00
         0.00000E+00
         0.00000E+00
         0.00000E+00
         0.00000E+00
         0.00000E+00
         0.00000E+00
         0.00000E+00
         0.00000E+00
         0.00000E+00
         0.00000E+00
         0.00000E+00
         0.00000E+00
         0.00000E+00
         0.00000E+00
         0.00000E+00
         0.00000E+00
         0.00000E+00
         0.00000E+00
         0.00000E+00
         0.00000E+00
         0.00000E+00
         0.00000E+00
         0.00000E+00
         0.00000E+00
         0.00000E+00
         0.00000E+00
         0.00000E+00
         0.00000E+00
         0.00000E+00
         0.00000E+00
         0.00000E+00
         0.00000E+00
         0.00000E+00
         0.00000E+00
         0.00000E+00
         0.00000E+00
         0.00000E+00
         0.00000E+00
         0.00000E+00
         0.00000E+00
         0.00000E+00
         0.00000E+00
         0.00000E+00
         0.00000E+00
         0.00000E+00
         0.00000E+00
         0.00000E+00
         0.00000E+00
         0.00000E+00
         0.00000E+00
         0.00000E+00
         0.00000E+00
         0.00000E+00
         0.00000E+00
         0.00000E+00
         0.00000E+00
         0.00000E+00
         0.00000E+00
         0.00000E+00
         0.00000E+00
         0.00000E+00
         0.00000E+00
         0.00000E+00
         0.00000E+00
         0.00000E+00
         0.00000E+00
         0.00000E+00
         0.00000E+00
         0.00000E+00
         0.00000E+00
         0.00000E+00
         0.00000E+00
         0.00000E+00
         0.00000E+00
         0.00000E+00
         0.00000E+00
         0.00000E+00
         0.00000E+00
         0.00000E+00
         0.00000E+00
         0.00000E+00
         0.00000E+00
         0.00000E+00
         0.00000E+00
         0.00000E+00
         0.00000E+00
         0.00000E+00
         0.00000E+00
         0.00000E+00
         0.00000E+00
         0.00000E+00
         0.00000E+00
         0.00000E+00
         0.00000E+00
         0.00000E+00
         0.00000E+00
         0.00000E+00
         0.00000E+00
         0.00000E+00
         0.00000E+00
         0.00000E+00
         0.00000E+00
         0.00000E+00
         0.00000E+00
         0.00000E+00
         0.00000E+00
         0.00000E+00
         0.00000E+00
         0.00000E+00
         0.00000E+00
         0.00000E+00
         0.00000E+00
         0.00000E+00
         0.00000E+00
         0.00000E+00
         0.00000E+00
         0.00000E+00
         0.00000E+00
         0.00000E+00
         0.00000E+00
         0.00000E+00
         0.00000E+00
         0.00000E+00
         0.00000E+00
         0.00000E+00
         0.00000E+00
         0.00000E+00
         0.00000E+00
         0.00000E+00
         0.00000E+00
         0.00000E+00
         0.00000E+00
         0.00000E+00
         0.00000E+00
         0.00000E+00
         0.00000E+00
         0.00000E+00
         0.00000E+00
         0.00000E+00
         0.00000E+00
         0.00000E+00
         0.00000E+00
         0.00000E+00
         0.00000E+00
         0.00000E+00
         0.00000E+00
         0.00000E+00
         0.00000E+00
         0.00000E+00
         0.00000E+00
         0.00000E+00
         0.00000E+00
         0.00000E+00
         0.00000E+00
         0.00000E+00
         0.00000E+00
         0.00000E+00
         0.00000E+00
         0.00000E+00
         0.00000E+00
         0.00000E+00
         0.00000E+00
         0.00000E+00
         0.00000E+00
         0.00000E+00
         0.00000E+00
         0.00000E+00
         0.00000E+00
         0.00000E+00
         0.00000E+00
         0.00000E+00
         0.00000E+00
         0.00000E+00
         0.00000E+00
         0.00000E+00
         0.00000E+00
         0.00000E+00
         0.00000E+00
         0.00000E+00
         0.00000E+00
         0.00000E+00
         0.00000E+00
         0.00000E+00
         0.00000E+00
         0.00000E+00
         0.00000E+00
         0.00000E+00
         0.00000E+00
         0.00000E+00
         0.00000E+00
         0.00000E+00
         0.00000E+00
         0.00000E+00
         0.00000E+00
         0.00000E+00
         0.00000E+00
         0.00000E+00
         0.00000E+00
         0.00000E+00
         0.00000E+00
         0.00000E+00
         0.00000E+00
         0.00000E+00
         0.00000E+00
         0.00000E+00
         0.00000E+00
         0.00000E+00
         0.00000E+00
         0.00000E+00
         0.00000E+00
         0.00000E+00
         0.00000E+00
         0.00000E+00
         0.00000E+00
         0.00000E+00
         0.00000E+00
         0.00000E+00
         0.00000E+00
         0.00000E+00
         0.00000E+00
         0.00000E+00
         0.00000E+00
         0.00000E+00
         0.00000E+00
         0.00000E+00
         0.00000E+00
         0.00000E+00
         0.00000E+00
         0.00000E+00
         0.00000E+00
         0.00000E+00
         0.00000E+00
         0.00000E+00
         0.00000E+00
         0.00000E+00
         0.00000E+00
         0.00000E+00
         0.00000E+00
         0.00000E+00
         0.00000E+00
         0.00000E+00
         0.00000E+00
         0.00000E+00
         0.00000E+00
         0.00000E+00
         0.00000E+00
         0.00000E+00
         0.00000E+00
         0.00000E+00
         0.00000E+00
         0.00000E+00
         0.00000E+00
         0.00000E+00
         0.00000E+00
         0.00000E+00
         0.00000E+00
         0.00000E+00
         0.00000E+00
         0.00000E+00
         0.00000E+00
         0.00000E+00
         0.00000E+00
         0.00000E+00
         0.00000E+00
         0.00000E+00
         0.00000E+00
         0.00000E+00
         0.00000E+00
         0.00000E+00
         0.00000E+00
         0.00000E+00
         0.00000E+00
         0.00000E+00
         0.00000E+00
         0.00000E+00
         0.00000E+00
         0.00000E+00
         0.00000E+00
         0.00000E+00
         0.00000E+00
         0.00000E+00
         0.00000E+00
         0.00000E+00
         0.00000E+00
         0.00000E+00
         0.00000E+00
         0.00000E+00
         0.00000E+00
         0.00000E+00
         0.00000E+00
         0.00000E+00
         0.00000E+00
         0.00000E+00
         0.00000E+00
         0.00000E+00
         0.00000E+00
         0.00000E+00
         0.00000E+00
         0.00000E+00
         0.00000E+00
         0.00000E+00
         0.00000E+00
         0.00000E+00
         0.00000E+00
         0.00000E+00
         0.00000E+00
         0.00000E+00
         0.00000E+00
         0.00000E+00
         0.00000E+00
         0.00000E+00
         0.00000E+00
         0.00000E+00
         0.00000E+00
         0.00000E+00
         0.00000E+00
         0.00000E+00
         0.00000E+00
         0.00000E+00
         0.00000E+00
         0.00000E+00
         0.00000E+00
         0.00000E+00
         0.00000E+00
         0.00000E+00
         0.00000E+00
         0.00000E+00
         0.00000E+00
         0.00000E+00
         0.00000E+00
         0.00000E+00
         0.00000E+00
         0.00000E+00
         0.00000E+00
         0.00000E+00
         0.00000E+00
         0.00000E+00
         0.00000E+00
         0.00000E+00
         0.00000E+00
         0.00000E+00
         0.00000E+00
         0.00000E+00
         0.00000E+00
         0.00000E+00
         0.00000E+00
         0.00000E+00
         0.00000E+00
         0.00000E+00
         0.00000E+00
         0.00000E+00
         0.00000E+00
         0.00000E+00
         0.00000E+00
         0.00000E+00
         0.00000E+00
         0.00000E+00
         0.00000E+00
         0.00000E+00
         0.00000E+00
         0.00000E+00
         0.00000E+00
         0.00000E+00
         0.00000E+00
         0.00000E+00
         0.00000E+00
         0.00000E+00
         0.00000E+00
         0.00000E+00
         0.00000E+00
         0.00000E+00
         0.00000E+00
         0.00000E+00
         0.00000E+00
         0.00000E+00
         0.00000E+00
         0.00000E+00
         0.00000E+00
         0.00000E+00
         0.00000E+00
         0.00000E+00
         0.00000E+00
         0.00000E+00
         0.00000E+00
         0.00000E+00
         0.00000E+00
         0.00000E+00
         0.00000E+00
         0.00000E+00
         0.00000E+00
         0.00000E+00
         0.00000E+00
         0.00000E+00
         0.00000E+00
         0.00000E+00
         0.00000E+00
         0.00000E+00
         0.00000E+00
         0.00000E+00
         0.00000E+00
         0.00000E+00
         0.00000E+00
         0.00000E+00
         0.00000E+00
         0.00000E+00
         0.00000E+00
         0.00000E+00
         0.00000E+00
         0.00000E+00
         0.00000E+00
         0.00000E+00
         0.00000E+00
         0.00000E+00
         0.00000E+00
         0.00000E+00
         0.00000E+00
         0.00000E+00
         0.00000E+00
         0.00000E+00
         0.00000E+00
         0.00000E+00
         0.00000E+00
         0.00000E+00
         0.00000E+00
         0.00000E+00
         0.00000E+00
         0.00000E+00
         0.00000E+00
         0.00000E+00
         0.00000E+00
         0.00000E+00
         0.00000E+00
         0.00000E+00
         0.00000E+00
         0.00000E+00
         0.00000E+00
         0.00000E+00
         0.00000E+00
         0.00000E+00
         0.00000E+00
         0.00000E+00
         0.00000E+00
         0.00000E+00
         0.00000E+00
         0.00000E+00
         0.00000E+00
         0.00000E+00
         0.00000E+00
         0.00000E+00
         0.00000E+00
         0.00000E+00
         0.00000E+00
         0.00000E+00
         0.00000E+00
         0.00000E+00
         0.00000E+00
         0.00000E+00
         0.00000E+00
         0.00000E+00
         0.00000E+00
         0.00000E+00
         0.00000E+00
         0.00000E+00
         0.00000E+00
         0.00000E+00
         0.00000E+00
         0.00000E+00
         0.00000E+00
         0.00000E+00
         0.00000E+00
         0.00000E+00
         0.00000E+00
         0.00000E+00
         0.00000E+00
         0.00000E+00
         0.00000E+00
         0.00000E+00
         0.00000E+00
         0.00000E+00
         0.00000E+00
         0.00000E+00
         0.00000E+00
         0.00000E+00
         0.00000E+00
         0.00000E+00
         0.00000E+00
         0.00000E+00
         0.00000E+00
         0.00000E+00
         0.00000E+00
         0.00000E+00
         0.00000E+00
         0.00000E+00
         0.00000E+00
         0.00000E+00
         0.00000E+00
         0.00000E+00
         0.00000E+00
         0.00000E+00
         0.00000E+00
         0.00000E+00
         0.00000E+00
         0.00000E+00
         0.00000E+00
         0.00000E+00
         0.00000E+00
         0.00000E+00
         0.00000E+00
         0.00000E+00
         0.00000E+00
         0.00000E+00
         0.00000E+00
         0.00000E+00
         0.00000E+00
         0.00000E+00
         0.00000E+00
         0.00000E+00
         0.00000E+00
         0.00000E+00
         0.00000E+00
         0.00000E+00
         0.00000E+00
         0.00000E+00
         0.00000E+00
         0.00000E+00
         0.00000E+00
         0.00000E+00
         0.00000E+00
         0.00000E+00
         0.00000E+00
         0.00000E+00
         0.00000E+00
         0.00000E+00
         0.00000E+00
         0.00000E+00
         0.00000E+00
         0.00000E+00
         0.00000E+00
         0.00000E+00
         0.00000E+00
         0.00000E+00
         0.00000E+00
         0.00000E+00
         0.00000E+00
         0.00000E+00
         0.00000E+00
         0.00000E+00
         0.00000E+00
         0.00000E+00
         0.00000E+00
         0.00000E+00
         0.00000E+00
         0.00000E+00
         0.00000E+00
         0.00000E+00
         0.00000E+00
         0.00000E+00
         0.00000E+00
         0.00000E+00
         0.00000E+00
         0.00000E+00
         0.00000E+00
         0.00000E+00
         0.00000E+00
         0.00000E+00
         0.00000E+00
         0.00000E+00
         0.00000E+00
         0.00000E+00
         0.00000E+00
         0.00000E+00
         0.00000E+00
         0.00000E+00
         0.00000E+00
         0.00000E+00
         0.00000E+00
         0.00000E+00
         0.00000E+00
         0.00000E+00
         0.00000E+00
         0.00000E+00
         0.00000E+00
         0.00000E+00
         0.00000E+00
         0.00000E+00
         0.00000E+00
         0.00000E+00
         0.00000E+00
         0.00000E+00
         0.00000E+00
         0.00000E+00
         0.00000E+00
         0.00000E+00
         0.00000E+00
         0.00000E+00
         0.00000E+00
         0.00000E+00
         0.00000E+00
         0.00000E+00
         0.00000E+00
         0.00000E+00
         0.00000E+00
         0.00000E+00
         0.00000E+00
         0.00000E+00
         0.00000E+00
         0.00000E+00
         0.00000E+00
         0.00000E+00
         0.00000E+00
         0.00000E+00
         0.00000E+00
         0.00000E+00
         0.00000E+00
         0.00000E+00
         0.00000E+00
         0.00000E+00
         0.00000E+00
         0.00000E+00
         0.00000E+00
         0.00000E+00
         0.00000E+00
         0.00000E+00
         0.00000E+00
         0.00000E+00
         0.00000E+00
         0.00000E+00
         0.00000E+00
         0.00000E+00
         0.00000E+00
         0.00000E+00
         0.00000E+00
         0.00000E+00
         0.00000E+00
         0.00000E+00
         0.00000E+00
         0.00000E+00
         0.00000E+00
         0.00000E+00
         0.00000E+00
         0.00000E+00
         0.00000E+00
         0.00000E+00
         0.00000E+00
         0.00000E+00
         0.00000E+00
         0.00000E+00
         0.00000E+00
         0.00000E+00
         0.00000E+00
         0.00000E+00
         0.00000E+00
         0.00000E+00
         0.00000E+00
         0.00000E+00
         0.00000E+00
         0.00000E+00
         0.00000E+00
         0.00000E+00
         0.00000E+00
         0.00000E+00
         0.00000E+00
         0.00000E+00
         0.00000E+00
         0.00000E+00
         0.00000E+00
         0.00000E+00
         0.00000E+00
         0.00000E+00
         0.00000E+00
         0.00000E+00
         0.00000E+00
         0.00000E+00
         0.00000E+00
         0.00000E+00
         0.00000E+00
         0.00000E+00
         0.00000E+00
         0.00000E+00
         0.00000E+00
         0.00000E+00
         0.00000E+00
         0.00000E+00
         0.00000E+00
         0.00000E+00
         0.00000E+00
         0.00000E+00
         0.00000E+00
         0.00000E+00
         0.00000E+00
         0.00000E+00
         0.00000E+00
         0.00000E+00
         0.00000E+00
         0.00000E+00
         0.00000E+00
         0.00000E+00
         0.00000E+00
         0.00000E+00
         0.00000E+00
         0.00000E+00
         0.00000E+00
         0.00000E+00
         0.00000E+00
         0.00000E+00
         0.00000E+00
         0.00000E+00
         0.00000E+00
         0.00000E+00
         0.00000E+00
         0.00000E+00
         0.00000E+00
         0.00000E+00
         0.00000E+00
         0.00000E+00
         0.00000E+00
         0.00000E+00
         0.00000E+00
         0.00000E+00
         0.00000E+00
         0.00000E+00
         0.00000E+00
         0.00000E+00
         0.00000E+00
         0.00000E+00
         0.00000E+00
         0.00000E+00
         0.00000E+00
         0.00000E+00
         0.00000E+00
         0.00000E+00
         0.00000E+00
         0.00000E+00
         0.00000E+00
         0.00000E+00
         0.00000E+00
         0.00000E+00
         0.00000E+00
         0.00000E+00
         0.00000E+00
         0.00000E+00
         0.00000E+00
         0.00000E+00
         0.00000E+00
         0.00000E+00
         0.00000E+00
         0.00000E+00
         0.00000E+00
         0.00000E+00
         0.00000E+00
         0.00000E+00
         0.00000E+00
         0.00000E+00
         0.00000E+00
         0.00000E+00
         0.00000E+00
         0.00000E+00
         0.00000E+00
         0.00000E+00
         0.00000E+00
         0.00000E+00
         0.00000E+00
         0.00000E+00
         0.00000E+00
         0.00000E+00
         0.00000E+00
         0.00000E+00
         0.00000E+00
         0.00000E+00
         0.00000E+00
         0.00000E+00
         0.00000E+00
         0.00000E+00
         0.00000E+00
         0.00000E+00
         0.00000E+00
         0.00000E+00
         0.00000E+00
         0.00000E+00
         0.00000E+00
         0.00000E+00
         0.00000E+00
         0.00000E+00
         0.00000E+00
         0.00000E+00
         0.00000E+00
         0.00000E+00
         0.00000E+00
         0.00000E+00
         0.00000E+00
         0.00000E+00
         0.00000E+00
         0.00000E+00
         0.00000E+00
         0.00000E+00
         0.00000E+00
         0.00000E+00
         0.00000E+00
         0.00000E+00
         0.00000E+00
         0.00000E+00
         0.00000E+00
         0.00000E+00
         0.00000E+00
         0.00000E+00
         0.00000E+00
         0.00000E+00
         0.00000E+00
         0.00000E+00
         0.00000E+00
         0.00000E+00
         0.00000E+00
         0.00000E+00
         0.00000E+00
         0.00000E+00
         0.00000E+00
         0.00000E+00
         0.00000E+00
         0.00000E+00
         0.00000E+00
         0.00000E+00
         0.00000E+00
         0.00000E+00
         0.00000E+00
         0.00000E+00
         0.00000E+00
         0.00000E+00
         0.00000E+00
         0.00000E+00
         0.00000E+00
         0.00000E+00
         0.00000E+00
         0.00000E+00
         0.00000E+00
         0.00000E+00
         0.00000E+00
         0.00000E+00
         0.00000E+00
         0.00000E+00
         0.00000E+00
         0.00000E+00
         0.00000E+00
         0.00000E+00
         0.00000E+00
         0.00000E+00
         0.00000E+00
         0.00000E+00
         0.00000E+00
         0.00000E+00
         0.00000E+00
         0.00000E+00
         0.00000E+00
         0.00000E+00
         0.00000E+00
         0.00000E+00
         0.00000E+00
         0.00000E+00
         0.00000E+00
         0.00000E+00
         0.00000E+00
         0.00000E+00
         0.00000E+00
         0.00000E+00
         0.00000E+00
         0.00000E+00
         0.00000E+00
         0.00000E+00
         0.00000E+00
         0.00000E+00
         0.00000E+00
         0.00000E+00
         0.00000E+00
         0.00000E+00
         0.00000E+00
         0.00000E+00
         0.00000E+00
         0.00000E+00
         0.00000E+00
         0.00000E+00
         0.00000E+00
         0.00000E+00
         0.00000E+00
         0.00000E+00
         0.00000E+00
         0.00000E+00
         0.00000E+00
         0.00000E+00
         0.00000E+00
         0.00000E+00
         0.00000E+00
         0.00000E+00
         0.00000E+00
         0.00000E+00
         0.00000E+00
         0.00000E+00
         0.00000E+00
         0.00000E+00
         0.00000E+00
         0.00000E+00
         0.00000E+00
         0.00000E+00
         0.00000E+00
         0.00000E+00
         0.00000E+00
         0.00000E+00
         0.00000E+00
         0.00000E+00
         0.00000E+00
         0.00000E+00
         0.00000E+00
         0.00000E+00
         0.00000E+00
         0.00000E+00
         0.00000E+00
         0.00000E+00
         0.00000E+00
         0.00000E+00
         0.00000E+00
         0.00000E+00
         0.00000E+00
         0.00000E+00
         0.00000E+00
         0.00000E+00
         0.00000E+00
         0.00000E+00
         0.00000E+00
         0.00000E+00
         0.00000E+00
         0.00000E+00
         0.00000E+00
         0.00000E+00
         0.00000E+00
         0.00000E+00
         0.00000E+00
         0.00000E+00
         0.00000E+00
         0.00000E+00
         0.00000E+00
         0.00000E+00
         0.00000E+00
         0.00000E+00
         0.00000E+00
         0.00000E+00
         0.00000E+00
         0.00000E+00
         0.00000E+00
         0.00000E+00
         0.00000E+00
         0.00000E+00
         0.00000E+00
         0.00000E+00
         0.00000E+00
         0.00000E+00
         0.00000E+00
         0.00000E+00
         0.00000E+00
         0.00000E+00
         0.00000E+00
         0.00000E+00
         0.00000E+00
         0.00000E+00
         0.00000E+00
         0.00000E+00
         0.00000E+00
         0.00000E+00
         0.00000E+00
         0.00000E+00
         0.00000E+00
         0.00000E+00
         0.00000E+00
         0.00000E+00
         0.00000E+00
         0.00000E+00
         0.00000E+00
         0.00000E+00
         0.00000E+00
         0.00000E+00
         0.00000E+00
         0.00000E+00
         0.00000E+00
         0.00000E+00
         0.00000E+00
         0.00000E+00
         0.00000E+00
         0.00000E+00
         0.00000E+00
         0.00000E+00
         0.00000E+00
         0.00000E+00
         0.00000E+00
         0.00000E+00
         0.00000E+00
         0.00000E+00
         0.00000E+00
         0.00000E+00
         0.00000E+00
         0.00000E+00
         0.00000E+00
         0.00000E+00
         0.00000E+00
         0.00000E+00
         0.00000E+00
         0.00000E+00
         0.00000E+00
         0.00000E+00
         0.00000E+00
         0.00000E+00
         0.00000E+00
         0.00000E+00
         0.00000E+00
         0.00000E+00
         0.00000E+00
         0.00000E+00
         0.00000E+00
         0.00000E+00
         0.00000E+00
         0.00000E+00
         0.00000E+00
         0.00000E+00
         0.00000E+00
         0.00000E+00
         0.00000E+00
         0.00000E+00
         0.00000E+00
         0.00000E+00
         0.00000E+00
         0.00000E+00
         0.00000E+00
         0.00000E+00
         0.00000E+00
         0.00000E+00
         0.00000E+00
         0.00000E+00
         0.00000E+00
         0.00000E+00
         0.00000E+00
         0.00000E+00
         0.00000E+00
         0.00000E+00
         0.00000E+00
         0.00000E+00
         0.00000E+00
         0.00000E+00
         0.00000E+00
         0.00000E+00
         0.00000E+00
         0.00000E+00
         0.00000E+00
         0.00000E+00
         0.00000E+00
         0.00000E+00
         0.00000E+00
         0.00000E+00
         0.00000E+00
         0.00000E+00
         0.00000E+00
         0.00000E+00
         0.00000E+00
         0.00000E+00
         0.00000E+00
         0.00000E+00
         0.00000E+00
         0.00000E+00
         0.00000E+00
         0.00000E+00
         0.00000E+00
         0.00000E+00
         0.00000E+00
         0.00000E+00
         0.00000E+00
         0.00000E+00
         0.00000E+00
         0.00000E+00
         0.00000E+00
         0.00000E+00
         0.00000E+00
         0.00000E+00
         0.00000E+00
         0.00000E+00
         0.00000E+00
         0.00000E+00
         0.00000E+00
         0.00000E+00
         0.00000E+00
         0.00000E+00
         0.00000E+00
         0.00000E+00
         0.00000E+00
         0.00000E+00
         0.00000E+00
         0.00000E+00
         0.00000E+00
         0.00000E+00
         0.00000E+00
         0.00000E+00
         0.00000E+00
         0.00000E+00
         0.00000E+00
         0.00000E+00
         0.00000E+00
         0.00000E+00
         0.00000E+00
         0.00000E+00
         0.00000E+00
         0.00000E+00
         0.00000E+00
         0.00000E+00
         0.00000E+00
         0.00000E+00
         0.00000E+00
         0.00000E+00
         0.00000E+00
         0.00000E+00
         0.00000E+00
         0.00000E+00
         0.00000E+00
         0.00000E+00
         0.00000E+00
         0.00000E+00
         0.00000E+00
         0.00000E+00
         0.00000E+00
         0.00000E+00
         0.00000E+00
         0.00000E+00
         0.00000E+00
         0.00000E+00
         0.00000E+00
         0.00000E+00
         0.00000E+00
         0.00000E+00
         0.00000E+00
         0.00000E+00
         0.00000E+00
         0.00000E+00
         0.00000E+00
         0.00000E+00
         0.00000E+00
         0.00000E+00
         0.00000E+00
         0.00000E+00
         0.00000E+00
         0.00000E+00
         0.00000E+00
         0.00000E+00
         0.00000E+00
         0.00000E+00
         0.00000E+00
         0.00000E+00
         0.00000E+00
         0.00000E+00
         0.00000E+00
         0.00000E+00
         0.00000E+00
         0.00000E+00
         0.00000E+00
         0.00000E+00
         0.00000E+00
         0.00000E+00
         0.00000E+00
         0.00000E+00
         0.00000E+00
         0.00000E+00
         0.00000E+00
         0.00000E+00
         0.00000E+00
         0.00000E+00
         0.00000E+00
         0.00000E+00
         0.00000E+00
         0.00000E+00
         0.00000E+00
  
SCALARS                      eps_shear  double 1
LOOKUP_TABLE default
         0.00000E+00
         0.00000E+00
         0.00000E+00
         0.00000E+00
         0.00000E+00
         0.00000E+00
         0.00000E+00
         0.00000E+00
         0.00000E+00
         0.00000E+00
         0.00000E+00
         0.00000E+00
         0.00000E+00
         0.00000E+00
         0.00000E+00
         0.00000E+00
         0.00000E+00
         0.00000E+00
         0.00000E+00
         0.00000E+00
         0.00000E+00
         0.00000E+00
         0.00000E+00
         0.00000E+00
         0.00000E+00
         0.00000E+00
         0.00000E+00
         0.00000E+00
         0.00000E+00
         0.00000E+00
         0.00000E+00
         0.00000E+00
         0.00000E+00
         0.00000E+00
         0.00000E+00
         0.00000E+00
         0.00000E+00
         0.00000E+00
         0.00000E+00
         0.00000E+00
         0.00000E+00
         0.00000E+00
         0.00000E+00
         0.00000E+00
         0.00000E+00
         0.00000E+00
         0.00000E+00
         0.00000E+00
         0.00000E+00
         0.00000E+00
         0.00000E+00
         0.00000E+00
         0.00000E+00
         0.00000E+00
         0.00000E+00
         0.00000E+00
         0.00000E+00
         0.00000E+00
         0.00000E+00
         0.00000E+00
         0.00000E+00
         0.00000E+00
         0.00000E+00
         0.00000E+00
         0.00000E+00
         0.00000E+00
         0.00000E+00
         0.00000E+00
         0.00000E+00
         0.00000E+00
         0.00000E+00
         0.00000E+00
         0.00000E+00
         0.00000E+00
         0.00000E+00
         0.00000E+00
         0.00000E+00
         0.00000E+00
         0.00000E+00
         0.00000E+00
         0.00000E+00
         0.00000E+00
         0.00000E+00
         0.00000E+00
         0.00000E+00
         0.00000E+00
         0.00000E+00
         0.00000E+00
         0.00000E+00
         0.00000E+00
         0.00000E+00
         0.00000E+00
         0.00000E+00
         0.00000E+00
         0.00000E+00
         0.00000E+00
         0.00000E+00
         0.00000E+00
         0.00000E+00
         0.00000E+00
         0.00000E+00
         0.00000E+00
         0.00000E+00
         0.00000E+00
         0.00000E+00
         0.00000E+00
         0.00000E+00
         0.00000E+00
         0.00000E+00
         0.00000E+00
         0.00000E+00
         0.00000E+00
         0.00000E+00
         0.00000E+00
         0.00000E+00
         0.00000E+00
         0.00000E+00
         0.00000E+00
         0.00000E+00
         0.00000E+00
         0.00000E+00
         0.00000E+00
         0.00000E+00
         0.00000E+00
         0.00000E+00
         0.00000E+00
         0.00000E+00
         0.00000E+00
         0.00000E+00
         0.00000E+00
         0.00000E+00
         0.00000E+00
         0.00000E+00
         0.00000E+00
         0.00000E+00
         0.00000E+00
         0.00000E+00
         0.00000E+00
         0.00000E+00
         0.00000E+00
         0.00000E+00
         0.00000E+00
         0.00000E+00
         0.00000E+00
         0.00000E+00
         0.00000E+00
         0.00000E+00
         0.00000E+00
         0.00000E+00
         0.00000E+00
         0.00000E+00
         0.00000E+00
         0.00000E+00
         0.00000E+00
         0.00000E+00
         0.00000E+00
         0.00000E+00
         0.00000E+00
         0.00000E+00
         0.00000E+00
         0.00000E+00
         0.00000E+00
         0.00000E+00
         0.00000E+00
         0.00000E+00
         0.00000E+00
         0.00000E+00
         0.00000E+00
         0.00000E+00
         0.00000E+00
         0.00000E+00
         0.00000E+00
         0.00000E+00
         0.00000E+00
         0.00000E+00
         0.00000E+00
         0.00000E+00
         0.00000E+00
         0.00000E+00
         0.00000E+00
         0.00000E+00
         0.00000E+00
         0.00000E+00
         0.00000E+00
         0.00000E+00
         0.00000E+00
         0.00000E+00
         0.00000E+00
         0.00000E+00
         0.00000E+00
         0.00000E+00
         0.00000E+00
         0.00000E+00
         0.00000E+00
         0.00000E+00
         0.00000E+00
         0.00000E+00
         0.00000E+00
         0.00000E+00
         0.00000E+00
         0.00000E+00
         0.00000E+00
         0.00000E+00
         0.00000E+00
         0.00000E+00
         0.00000E+00
         0.00000E+00
         0.00000E+00
         0.00000E+00
         0.00000E+00
         0.00000E+00
         0.00000E+00
         0.00000E+00
         0.00000E+00
         0.00000E+00
         0.00000E+00
         0.00000E+00
         0.00000E+00
         0.00000E+00
         0.00000E+00
         0.00000E+00
         0.00000E+00
         0.00000E+00
         0.00000E+00
         0.00000E+00
         0.00000E+00
         0.00000E+00
         0.00000E+00
         0.00000E+00
         0.00000E+00
         0.00000E+00
         0.00000E+00
         0.00000E+00
         0.00000E+00
         0.00000E+00
         0.00000E+00
         0.00000E+00
         0.00000E+00
         0.00000E+00
         0.00000E+00
         0.00000E+00
         0.00000E+00
         0.00000E+00
         0.00000E+00
         0.00000E+00
         0.00000E+00
         0.00000E+00
         0.00000E+00
         0.00000E+00
         0.00000E+00
         0.00000E+00
         0.00000E+00
         0.00000E+00
         0.00000E+00
         0.00000E+00
         0.00000E+00
         0.00000E+00
         0.00000E+00
         0.00000E+00
         0.00000E+00
         0.00000E+00
         0.00000E+00
         0.00000E+00
         0.00000E+00
         0.00000E+00
         0.00000E+00
         0.00000E+00
         0.00000E+00
         0.00000E+00
         0.00000E+00
         0.00000E+00
         0.00000E+00
         0.00000E+00
         0.00000E+00
         0.00000E+00
         0.00000E+00
         0.00000E+00
         0.00000E+00
         0.00000E+00
         0.00000E+00
         0.00000E+00
         0.00000E+00
         0.00000E+00
         0.00000E+00
         0.00000E+00
         0.00000E+00
         0.00000E+00
         0.00000E+00
         0.00000E+00
         0.00000E+00
         0.00000E+00
         0.00000E+00
         0.00000E+00
         0.00000E+00
         0.00000E+00
         0.00000E+00
         0.00000E+00
         0.00000E+00
         0.00000E+00
         0.00000E+00
         0.00000E+00
         0.00000E+00
         0.00000E+00
         0.00000E+00
         0.00000E+00
         0.00000E+00
         0.00000E+00
         0.00000E+00
         0.00000E+00
         0.00000E+00
         0.00000E+00
         0.00000E+00
         0.00000E+00
         0.00000E+00
         0.00000E+00
         0.00000E+00
         0.00000E+00
         0.00000E+00
         0.00000E+00
         0.00000E+00
         0.00000E+00
         0.00000E+00
         0.00000E+00
         0.00000E+00
         0.00000E+00
         0.00000E+00
         0.00000E+00
         0.00000E+00
         0.00000E+00
         0.00000E+00
         0.00000E+00
         0.00000E+00
         0.00000E+00
         0.00000E+00
         0.00000E+00
         0.00000E+00
         0.00000E+00
         0.00000E+00
         0.00000E+00
         0.00000E+00
         0.00000E+00
         0.00000E+00
         0.00000E+00
         0.00000E+00
         0.00000E+00
         0.00000E+00
         0.00000E+00
         0.00000E+00
         0.00000E+00
         0.00000E+00
         0.00000E+00
         0.00000E+00
         0.00000E+00
         0.00000E+00
         0.00000E+00
         0.00000E+00
         0.00000E+00
         0.00000E+00
         0.00000E+00
         0.00000E+00
         0.00000E+00
         0.00000E+00
         0.00000E+00
         0.00000E+00
         0.00000E+00
         0.00000E+00
         0.00000E+00
         0.00000E+00
         0.00000E+00
         0.00000E+00
         0.00000E+00
         0.00000E+00
         0.00000E+00
         0.00000E+00
         0.00000E+00
         0.00000E+00
         0.00000E+00
         0.00000E+00
         0.00000E+00
         0.00000E+00
         0.00000E+00
         0.00000E+00
         0.00000E+00
         0.00000E+00
         0.00000E+00
         0.00000E+00
         0.00000E+00
         0.00000E+00
         0.00000E+00
         0.00000E+00
         0.00000E+00
         0.00000E+00
         0.00000E+00
         0.00000E+00
         0.00000E+00
         0.00000E+00
         0.00000E+00
         0.00000E+00
         0.00000E+00
         0.00000E+00
         0.00000E+00
         0.00000E+00
         0.00000E+00
         0.00000E+00
         0.00000E+00
         0.00000E+00
         0.00000E+00
         0.00000E+00
         0.00000E+00
         0.00000E+00
         0.00000E+00
         0.00000E+00
         0.00000E+00
         0.00000E+00
         0.00000E+00
         0.00000E+00
         0.00000E+00
         0.00000E+00
         0.00000E+00
         0.00000E+00
         0.00000E+00
         0.00000E+00
         0.00000E+00
         0.00000E+00
         0.00000E+00
         0.00000E+00
         0.00000E+00
         0.00000E+00
         0.00000E+00
         0.00000E+00
         0.00000E+00
         0.00000E+00
         0.00000E+00
         0.00000E+00
         0.00000E+00
         0.00000E+00
         0.00000E+00
         0.00000E+00
         0.00000E+00
         0.00000E+00
         0.00000E+00
         0.00000E+00
         0.00000E+00
         0.00000E+00
         0.00000E+00
         0.00000E+00
         0.00000E+00
         0.00000E+00
         0.00000E+00
         0.00000E+00
         0.00000E+00
         0.00000E+00
         0.00000E+00
         0.00000E+00
         0.00000E+00
         0.00000E+00
         0.00000E+00
         0.00000E+00
         0.00000E+00
         0.00000E+00
         0.00000E+00
         0.00000E+00
         0.00000E+00
         0.00000E+00
         0.00000E+00
         0.00000E+00
         0.00000E+00
         0.00000E+00
         0.00000E+00
         0.00000E+00
         0.00000E+00
         0.00000E+00
         0.00000E+00
         0.00000E+00
         0.00000E+00
         0.00000E+00
         0.00000E+00
         0.00000E+00
         0.00000E+00
         0.00000E+00
         0.00000E+00
         0.00000E+00
         0.00000E+00
         0.00000E+00
         0.00000E+00
         0.00000E+00
         0.00000E+00
         0.00000E+00
         0.00000E+00
         0.00000E+00
         0.00000E+00
         0.00000E+00
         0.00000E+00
         0.00000E+00
         0.00000E+00
         0.00000E+00
         0.00000E+00
         0.00000E+00
         0.00000E+00
         0.00000E+00
         0.00000E+00
         0.00000E+00
         0.00000E+00
         0.00000E+00
         0.00000E+00
         0.00000E+00
         0.00000E+00
         0.00000E+00
         0.00000E+00
         0.00000E+00
         0.00000E+00
         0.00000E+00
         0.00000E+00
         0.00000E+00
         0.00000E+00
         0.00000E+00
         0.00000E+00
         0.00000E+00
         0.00000E+00
         0.00000E+00
         0.00000E+00
         0.00000E+00
         0.00000E+00
         0.00000E+00
         0.00000E+00
         0.00000E+00
         0.00000E+00
         0.00000E+00
         0.00000E+00
         0.00000E+00
         0.00000E+00
         0.00000E+00
         0.00000E+00
         0.00000E+00
         0.00000E+00
         0.00000E+00
         0.00000E+00
         0.00000E+00
         0.00000E+00
         0.00000E+00
         0.00000E+00
         0.00000E+00
         0.00000E+00
         0.00000E+00
         0.00000E+00
         0.00000E+00
         0.00000E+00
         0.00000E+00
         0.00000E+00
         0.00000E+00
         0.00000E+00
         0.00000E+00
         0.00000E+00
         0.00000E+00
         0.00000E+00
         0.00000E+00
         0.00000E+00
         0.00000E+00
         0.00000E+00
         0.00000E+00
         0.00000E+00
         0.00000E+00
         0.00000E+00
         0.00000E+00
         0.00000E+00
         0.00000E+00
         0.00000E+00
         0.00000E+00
         0.00000E+00
         0.00000E+00
         0.00000E+00
         0.00000E+00
         0.00000E+00
         0.00000E+00
         0.00000E+00
         0.00000E+00
         0.00000E+00
         0.00000E+00
         0.00000E+00
         0.00000E+00
         0.00000E+00
         0.00000E+00
         0.00000E+00
         0.00000E+00
         0.00000E+00
         0.00000E+00
         0.00000E+00
         0.00000E+00
         0.00000E+00
         0.00000E+00
         0.00000E+00
         0.00000E+00
         0.00000E+00
         0.00000E+00
         0.00000E+00
         0.00000E+00
         0.00000E+00
         0.00000E+00
         0.00000E+00
         0.00000E+00
         0.00000E+00
         0.00000E+00
         0.00000E+00
         0.00000E+00
         0.00000E+00
         0.00000E+00
         0.00000E+00
         0.00000E+00
         0.00000E+00
         0.00000E+00
         0.00000E+00
         0.00000E+00
         0.00000E+00
         0.00000E+00
         0.00000E+00
         0.00000E+00
         0.00000E+00
         0.00000E+00
         0.00000E+00
         0.00000E+00
         0.00000E+00
         0.00000E+00
         0.00000E+00
         0.00000E+00
         0.00000E+00
         0.00000E+00
         0.00000E+00
         0.00000E+00
         0.00000E+00
         0.00000E+00
         0.00000E+00
         0.00000E+00
         0.00000E+00
         0.00000E+00
         0.00000E+00
         0.00000E+00
         0.00000E+00
         0.00000E+00
         0.00000E+00
         0.00000E+00
         0.00000E+00
         0.00000E+00
         0.00000E+00
         0.00000E+00
         0.00000E+00
         0.00000E+00
         0.00000E+00
         0.00000E+00
         0.00000E+00
         0.00000E+00
         0.00000E+00
         0.00000E+00
         0.00000E+00
         0.00000E+00
         0.00000E+00
         0.00000E+00
         0.00000E+00
         0.00000E+00
         0.00000E+00
         0.00000E+00
         0.00000E+00
         0.00000E+00
         0.00000E+00
         0.00000E+00
         0.00000E+00
         0.00000E+00
         0.00000E+00
         0.00000E+00
         0.00000E+00
         0.00000E+00
         0.00000E+00
         0.00000E+00
         0.00000E+00
         0.00000E+00
         0.00000E+00
         0.00000E+00
         0.00000E+00
         0.00000E+00
         0.00000E+00
         0.00000E+00
         0.00000E+00
         0.00000E+00
         0.00000E+00
         0.00000E+00
         0.00000E+00
         0.00000E+00
         0.00000E+00
         0.00000E+00
         0.00000E+00
         0.00000E+00
         0.00000E+00
         0.00000E+00
         0.00000E+00
         0.00000E+00
         0.00000E+00
         0.00000E+00
         0.00000E+00
         0.00000E+00
         0.00000E+00
         0.00000E+00
         0.00000E+00
         0.00000E+00
         0.00000E+00
         0.00000E+00
         0.00000E+00
         0.00000E+00
         0.00000E+00
         0.00000E+00
         0.00000E+00
         0.00000E+00
         0.00000E+00
         0.00000E+00
         0.00000E+00
         0.00000E+00
         0.00000E+00
         0.00000E+00
         0.00000E+00
         0.00000E+00
         0.00000E+00
         0.00000E+00
         0.00000E+00
         0.00000E+00
         0.00000E+00
         0.00000E+00
         0.00000E+00
         0.00000E+00
         0.00000E+00
         0.00000E+00
         0.00000E+00
         0.00000E+00
         0.00000E+00
         0.00000E+00
         0.00000E+00
         0.00000E+00
         0.00000E+00
         0.00000E+00
         0.00000E+00
         0.00000E+00
         0.00000E+00
         0.00000E+00
         0.00000E+00
         0.00000E+00
         0.00000E+00
         0.00000E+00
         0.00000E+00
         0.00000E+00
         0.00000E+00
         0.00000E+00
         0.00000E+00
         0.00000E+00
         0.00000E+00
         0.00000E+00
         0.00000E+00
         0.00000E+00
         0.00000E+00
         0.00000E+00
         0.00000E+00
         0.00000E+00
         0.00000E+00
         0.00000E+00
         0.00000E+00
         0.00000E+00
         0.00000E+00
         0.00000E+00
         0.00000E+00
         0.00000E+00
         0.00000E+00
         0.00000E+00
         0.00000E+00
         0.00000E+00
         0.00000E+00
         0.00000E+00
         0.00000E+00
         0.00000E+00
         0.00000E+00
         0.00000E+00
         0.00000E+00
         0.00000E+00
         0.00000E+00
         0.00000E+00
         0.00000E+00
         0.00000E+00
         0.00000E+00
         0.00000E+00
         0.00000E+00
         0.00000E+00
         0.00000E+00
         0.00000E+00
         0.00000E+00
         0.00000E+00
         0.00000E+00
         0.00000E+00
         0.00000E+00
         0.00000E+00
         0.00000E+00
         0.00000E+00
         0.00000E+00
         0.00000E+00
         0.00000E+00
         0.00000E+00
         0.00000E+00
         0.00000E+00
         0.00000E+00
         0.00000E+00
         0.00000E+00
         0.00000E+00
         0.00000E+00
         0.00000E+00
         0.00000E+00
         0.00000E+00
         0.00000E+00
         0.00000E+00
         0.00000E+00
         0.00000E+00
         0.00000E+00
         0.00000E+00
         0.00000E+00
         0.00000E+00
         0.00000E+00
         0.00000E+00
         0.00000E+00
         0.00000E+00
         0.00000E+00
         0.00000E+00
         0.00000E+00
         0.00000E+00
         0.00000E+00
         0.00000E+00
         0.00000E+00
         0.00000E+00
         0.00000E+00
         0.00000E+00
         0.00000E+00
         0.00000E+00
         0.00000E+00
         0.00000E+00
         0.00000E+00
         0.00000E+00
         0.00000E+00
         0.00000E+00
         0.00000E+00
         0.00000E+00
         0.00000E+00
         0.00000E+00
         0.00000E+00
         0.00000E+00
         0.00000E+00
         0.00000E+00
         0.00000E+00
         0.00000E+00
         0.00000E+00
         0.00000E+00
         0.00000E+00
         0.00000E+00
         0.00000E+00
         0.00000E+00
         0.00000E+00
         0.00000E+00
         0.00000E+00
         0.00000E+00
         0.00000E+00
         0.00000E+00
         0.00000E+00
         0.00000E+00
         0.00000E+00
         0.00000E+00
         0.00000E+00
         0.00000E+00
         0.00000E+00
         0.00000E+00
         0.00000E+00
         0.00000E+00
         0.00000E+00
         0.00000E+00
         0.00000E+00
         0.00000E+00
         0.00000E+00
         0.00000E+00
         0.00000E+00
         0.00000E+00
         0.00000E+00
         0.00000E+00
         0.00000E+00
         0.00000E+00
         0.00000E+00
         0.00000E+00
         0.00000E+00
         0.00000E+00
         0.00000E+00
         0.00000E+00
         0.00000E+00
         0.00000E+00
         0.00000E+00
         0.00000E+00
         0.00000E+00
         0.00000E+00
         0.00000E+00
         0.00000E+00
         0.00000E+00
         0.00000E+00
         0.00000E+00
         0.00000E+00
         0.00000E+00
         0.00000E+00
         0.00000E+00
         0.00000E+00
         0.00000E+00
         0.00000E+00
         0.00000E+00
         0.00000E+00
         0.00000E+00
         0.00000E+00
         0.00000E+00
         0.00000E+00
         0.00000E+00
         0.00000E+00
         0.00000E+00
         0.00000E+00
         0.00000E+00
         0.00000E+00
         0.00000E+00
         0.00000E+00
         0.00000E+00
         0.00000E+00
         0.00000E+00
         0.00000E+00
         0.00000E+00
         0.00000E+00
         0.00000E+00
         0.00000E+00
         0.00000E+00
         0.00000E+00
         0.00000E+00
         0.00000E+00
         0.00000E+00
         0.00000E+00
         0.00000E+00
         0.00000E+00
         0.00000E+00
         0.00000E+00
         0.00000E+00
         0.00000E+00
         0.00000E+00
         0.00000E+00
         0.00000E+00
         0.00000E+00
         0.00000E+00
         0.00000E+00
         0.00000E+00
         0.00000E+00
         0.00000E+00
         0.00000E+00
         0.00000E+00
         0.00000E+00
         0.00000E+00
         0.00000E+00
         0.00000E+00
         0.00000E+00
         0.00000E+00
         0.00000E+00
         0.00000E+00
         0.00000E+00
         0.00000E+00
         0.00000E+00
         0.00000E+00
         0.00000E+00
         0.00000E+00
         0.00000E+00
         0.00000E+00
         0.00000E+00
         0.00000E+00
         0.00000E+00
         0.00000E+00
         0.00000E+00
         0.00000E+00
         0.00000E+00
         0.00000E+00
         0.00000E+00
         0.00000E+00
         0.00000E+00
         0.00000E+00
         0.00000E+00
         0.00000E+00
         0.00000E+00
         0.00000E+00
         0.00000E+00
         0.00000E+00
         0.00000E+00
         0.00000E+00
         0.00000E+00
         0.00000E+00
         0.00000E+00
         0.00000E+00
         0.00000E+00
         0.00000E+00
         0.00000E+00
         0.00000E+00
         0.00000E+00
         0.00000E+00
         0.00000E+00
         0.00000E+00
         0.00000E+00
         0.00000E+00
         0.00000E+00
         0.00000E+00
         0.00000E+00
         0.00000E+00
         0.00000E+00
         0.00000E+00
         0.00000E+00
         0.00000E+00
         0.00000E+00
         0.00000E+00
         0.00000E+00
         0.00000E+00
         0.00000E+00
         0.00000E+00
         0.00000E+00
         0.00000E+00
         0.00000E+00
         0.00000E+00
         0.00000E+00
         0.00000E+00
         0.00000E+00
         0.00000E+00
         0.00000E+00
         0.00000E+00
         0.00000E+00
         0.00000E+00
         0.00000E+00
         0.00000E+00
         0.00000E+00
         0.00000E+00
         0.00000E+00
         0.00000E+00
         0.00000E+00
         0.00000E+00
         0.00000E+00
         0.00000E+00
         0.00000E+00
         0.00000E+00
         0.00000E+00
         0.00000E+00
         0.00000E+00
         0.00000E+00
         0.00000E+00
         0.00000E+00
         0.00000E+00
         0.00000E+00
         0.00000E+00
         0.00000E+00
         0.00000E+00
         0.00000E+00
         0.00000E+00
         0.00000E+00
         0.00000E+00
         0.00000E+00
         0.00000E+00
         0.00000E+00
         0.00000E+00
         0.00000E+00
         0.00000E+00
         0.00000E+00
         0.00000E+00
         0.00000E+00
         0.00000E+00
         0.00000E+00
         0.00000E+00
         0.00000E+00
         0.00000E+00
         0.00000E+00
         0.00000E+00
         0.00000E+00
         0.00000E+00
         0.00000E+00
         0.00000E+00
         0.00000E+00
         0.00000E+00
         0.00000E+00
         0.00000E+00
         0.00000E+00
         0.00000E+00
         0.00000E+00
         0.00000E+00
         0.00000E+00
         0.00000E+00
         0.00000E+00
         0.00000E+00
         0.00000E+00
         0.00000E+00
         0.00000E+00
         0.00000E+00
         0.00000E+00
         0.00000E+00
         0.00000E+00
         0.00000E+00
         0.00000E+00
         0.00000E+00
         0.00000E+00
         0.00000E+00
         0.00000E+00
         0.00000E+00
         0.00000E+00
         0.00000E+00
         0.00000E+00
         0.00000E+00
         0.00000E+00
         0.00000E+00
         0.00000E+00
         0.00000E+00
         0.00000E+00
         0.00000E+00
         0.00000E+00
         0.00000E+00
         0.00000E+00
         0.00000E+00
         0.00000E+00
         0.00000E+00
         0.00000E+00
         0.00000E+00
         0.00000E+00
         0.00000E+00
         0.00000E+00
         0.00000E+00
         0.00000E+00
         0.00000E+00
         0.00000E+00
         0.00000E+00
         0.00000E+00
         0.00000E+00
         0.00000E+00
         0.00000E+00
         0.00000E+00
         0.00000E+00
         0.00000E+00
         0.00000E+00
         0.00000E+00
         0.00000E+00
         0.00000E+00
         0.00000E+00
         0.00000E+00
         0.00000E+00
         0.00000E+00
         0.00000E+00
         0.00000E+00
         0.00000E+00
         0.00000E+00
         0.00000E+00
         0.00000E+00
         0.00000E+00
         0.00000E+00
         0.00000E+00
         0.00000E+00
         0.00000E+00
         0.00000E+00
         0.00000E+00
         0.00000E+00
         0.00000E+00
         0.00000E+00
         0.00000E+00
         0.00000E+00
         0.00000E+00
         0.00000E+00
         0.00000E+00
         0.00000E+00
         0.00000E+00
         0.00000E+00
         0.00000E+00
         0.00000E+00
         0.00000E+00
         0.00000E+00
         0.00000E+00
         0.00000E+00
         0.00000E+00
         0.00000E+00
         0.00000E+00
         0.00000E+00
         0.00000E+00
         0.00000E+00
         0.00000E+00
         0.00000E+00
         0.00000E+00
         0.00000E+00
         0.00000E+00
         0.00000E+00
         0.00000E+00
         0.00000E+00
         0.00000E+00
         0.00000E+00
         0.00000E+00
         0.00000E+00
         0.00000E+00
         0.00000E+00
         0.00000E+00
         0.00000E+00
         0.00000E+00
         0.00000E+00
         0.00000E+00
         0.00000E+00
         0.00000E+00
         0.00000E+00
         0.00000E+00
         0.00000E+00
         0.00000E+00
         0.00000E+00
         0.00000E+00
         0.00000E+00
         0.00000E+00
         0.00000E+00
         0.00000E+00
         0.00000E+00
         0.00000E+00
         0.00000E+00
         0.00000E+00
         0.00000E+00
         0.00000E+00
         0.00000E+00
         0.00000E+00
         0.00000E+00
         0.00000E+00
         0.00000E+00
         0.00000E+00
         0.00000E+00
         0.00000E+00
         0.00000E+00
         0.00000E+00
         0.00000E+00
         0.00000E+00
         0.00000E+00
         0.00000E+00
         0.00000E+00
         0.00000E+00
         0.00000E+00
         0.00000E+00
         0.00000E+00
         0.00000E+00
         0.00000E+00
         0.00000E+00
         0.00000E+00
         0.00000E+00
         0.00000E+00
         0.00000E+00
         0.00000E+00
         0.00000E+00
         0.00000E+00
         0.00000E+00
         0.00000E+00
         0.00000E+00
         0.00000E+00
         0.00000E+00
         0.00000E+00
         0.00000E+00
         0.00000E+00
         0.00000E+00
         0.00000E+00
         0.00000E+00
         0.00000E+00
         0.00000E+00
         0.00000E+00
         0.00000E+00
         0.00000E+00
         0.00000E+00
         0.00000E+00
         0.00000E+00
         0.00000E+00
         0.00000E+00
         0.00000E+00
         0.00000E+00
         0.00000E+00
         0.00000E+00
         0.00000E+00
         0.00000E+00
         0.00000E+00
         0.00000E+00
         0.00000E+00
         0.00000E+00
         0.00000E+00
         0.00000E+00
         0.00000E+00
         0.00000E+00
         0.00000E+00
         0.00000E+00
         0.00000E+00
         0.00000E+00
         0.00000E+00
         0.00000E+00
         0.00000E+00
         0.00000E+00
         0.00000E+00
         0.00000E+00
         0.00000E+00
         0.00000E+00
         0.00000E+00
         0.00000E+00
         0.00000E+00
         0.00000E+00
         0.00000E+00
         0.00000E+00
         0.00000E+00
         0.00000E+00
         0.00000E+00
         0.00000E+00
         0.00000E+00
         0.00000E+00
         0.00000E+00
         0.00000E+00
         0.00000E+00
         0.00000E+00
         0.00000E+00
         0.00000E+00
         0.00000E+00
         0.00000E+00
         0.00000E+00
         0.00000E+00
         0.00000E+00
         0.00000E+00
         0.00000E+00
         0.00000E+00
         0.00000E+00
         0.00000E+00
         0.00000E+00
         0.00000E+00
         0.00000E+00
         0.00000E+00
         0.00000E+00
         0.00000E+00
         0.00000E+00
         0.00000E+00
         0.00000E+00
         0.00000E+00
         0.00000E+00
         0.00000E+00
         0.00000E+00
         0.00000E+00
         0.00000E+00
         0.00000E+00
         0.00000E+00
         0.00000E+00
         0.00000E+00
         0.00000E+00
         0.00000E+00
         0.00000E+00
         0.00000E+00
         0.00000E+00
         0.00000E+00
         0.00000E+00
         0.00000E+00
         0.00000E+00
         0.00000E+00
         0.00000E+00
         0.00000E+00
         0.00000E+00
         0.00000E+00
         0.00000E+00
         0.00000E+00
         0.00000E+00
         0.00000E+00
         0.00000E+00
         0.00000E+00
         0.00000E+00
         0.00000E+00
         0.00000E+00
         0.00000E+00
         0.00000E+00
         0.00000E+00
         0.00000E+00
         0.00000E+00
         0.00000E+00
         0.00000E+00
         0.00000E+00
         0.00000E+00
         0.00000E+00
         0.00000E+00
         0.00000E+00
         0.00000E+00
         0.00000E+00
         0.00000E+00
         0.00000E+00
         0.00000E+00
         0.00000E+00
         0.00000E+00
         0.00000E+00
         0.00000E+00
         0.00000E+00
         0.00000E+00
         0.00000E+00
         0.00000E+00
         0.00000E+00
         0.00000E+00
         0.00000E+00
         0.00000E+00
         0.00000E+00
         0.00000E+00
         0.00000E+00
         0.00000E+00
         0.00000E+00
         0.00000E+00
         0.00000E+00
         0.00000E+00
         0.00000E+00
         0.00000E+00
         0.00000E+00
         0.00000E+00
         0.00000E+00
         0.00000E+00
         0.00000E+00
         0.00000E+00
         0.00000E+00
         0.00000E+00
         0.00000E+00
         0.00000E+00
         0.00000E+00
         0.00000E+00
         0.00000E+00
         0.00000E+00
         0.00000E+00
         0.00000E+00
         0.00000E+00
         0.00000E+00
         0.00000E+00
         0.00000E+00
         0.00000E+00
         0.00000E+00
         0.00000E+00
         0.00000E+00
         0.00000E+00
         0.00000E+00
         0.00000E+00
         0.00000E+00
         0.00000E+00
         0.00000E+00
         0.00000E+00
         0.00000E+00
         0.00000E+00
         0.00000E+00
         0.00000E+00
         0.00000E+00
         0.00000E+00
         0.00000E+00
         0.00000E+00
         0.00000E+00
         0.00000E+00
         0.00000E+00
         0.00000E+00
         0.00000E+00
         0.00000E+00
         0.00000E+00
         0.00000E+00
         0.00000E+00
         0.00000E+00
         0.00000E+00
         0.00000E+00
         0.00000E+00
         0.00000E+00
         0.00000E+00
         0.00000E+00
         0.00000E+00
         0.00000E+00
         0.00000E+00
         0.00000E+00
         0.00000E+00
         0.00000E+00
         0.00000E+00
         0.00000E+00
         0.00000E+00
         0.00000E+00
         0.00000E+00
         0.00000E+00
         0.00000E+00
         0.00000E+00
         0.00000E+00
         0.00000E+00
         0.00000E+00
         0.00000E+00
         0.00000E+00
         0.00000E+00
         0.00000E+00
         0.00000E+00
         0.00000E+00
         0.00000E+00
         0.00000E+00
         0.00000E+00
         0.00000E+00
         0.00000E+00
         0.00000E+00
         0.00000E+00
         0.00000E+00
         0.00000E+00
         0.00000E+00
         0.00000E+00
         0.00000E+00
         0.00000E+00
         0.00000E+00
         0.00000E+00
         0.00000E+00
         0.00000E+00
         0.00000E+00
         0.00000E+00
         0.00000E+00
         0.00000E+00
         0.00000E+00
         0.00000E+00
         0.00000E+00
         0.00000E+00
         0.00000E+00
         0.00000E+00
         0.00000E+00
         0.00000E+00
         0.00000E+00
         0.00000E+00
         0.00000E+00
         0.00000E+00
         0.00000E+00
         0.00000E+00
         0.00000E+00
         0.00000E+00
         0.00000E+00
         0.00000E+00
         0.00000E+00
         0.00000E+00
         0.00000E+00
         0.00000E+00
         0.00000E+00
         0.00000E+00
         0.00000E+00
         0.00000E+00
         0.00000E+00
         0.00000E+00
         0.00000E+00
         0.00000E+00
         0.00000E+00
         0.00000E+00
         0.00000E+00
         0.00000E+00
         0.00000E+00
         0.00000E+00
         0.00000E+00
         0.00000E+00
         0.00000E+00
         0.00000E+00
         0.00000E+00
         0.00000E+00
         0.00000E+00
         0.00000E+00
         0.00000E+00
         0.00000E+00
         0.00000E+00
         0.00000E+00
         0.00000E+00
         0.00000E+00
         0.00000E+00
         0.00000E+00
         0.00000E+00
         0.00000E+00
         0.00000E+00
         0.00000E+00
         0.00000E+00
         0.00000E+00
         0.00000E+00
         0.00000E+00
         0.00000E+00
         0.00000E+00
         0.00000E+00
         0.00000E+00
         0.00000E+00
         0.00000E+00
         0.00000E+00
         0.00000E+00
         0.00000E+00
         0.00000E+00
         0.00000E+00
         0.00000E+00
         0.00000E+00
         0.00000E+00
         0.00000E+00
         0.00000E+00
         0.00000E+00
         0.00000E+00
         0.00000E+00
         0.00000E+00
         0.00000E+00
         0.00000E+00
         0.00000E+00
         0.00000E+00
         0.00000E+00
         0.00000E+00
         0.00000E+00
         0.00000E+00
         0.00000E+00
         0.00000E+00
         0.00000E+00
         0.00000E+00
         0.00000E+00
         0.00000E+00
         0.00000E+00
         0.00000E+00
         0.00000E+00
         0.00000E+00
         0.00000E+00
         0.00000E+00
         0.00000E+00
         0.00000E+00
         0.00000E+00
         0.00000E+00
         0.00000E+00
         0.00000E+00
         0.00000E+00
         0.00000E+00
         0.00000E+00
         0.00000E+00
         0.00000E+00
         0.00000E+00
         0.00000E+00
         0.00000E+00
         0.00000E+00
         0.00000E+00
         0.00000E+00
         0.00000E+00
         0.00000E+00
         0.00000E+00
         0.00000E+00
         0.00000E+00
         0.00000E+00
         0.00000E+00
         0.00000E+00
         0.00000E+00
         0.00000E+00
         0.00000E+00
         0.00000E+00
         0.00000E+00
         0.00000E+00
         0.00000E+00
         0.00000E+00
         0.00000E+00
         0.00000E+00
         0.00000E+00
         0.00000E+00
         0.00000E+00
         0.00000E+00
         0.00000E+00
         0.00000E+00
         0.00000E+00
         0.00000E+00
         0.00000E+00
         0.00000E+00
         0.00000E+00
         0.00000E+00
         0.00000E+00
         0.00000E+00
         0.00000E+00
         0.00000E+00
         0.00000E+00
         0.00000E+00
         0.00000E+00
         0.00000E+00
         0.00000E+00
         0.00000E+00
         0.00000E+00
         0.00000E+00
         0.00000E+00
         0.00000E+00
         0.00000E+00
         0.00000E+00
         0.00000E+00
         0.00000E+00
         0.00000E+00
         0.00000E+00
         0.00000E+00
         0.00000E+00
         0.00000E+00
         0.00000E+00
         0.00000E+00
         0.00000E+00
         0.00000E+00
         0.00000E+00
         0.00000E+00
         0.00000E+00
         0.00000E+00
         0.00000E+00
         0.00000E+00
         0.00000E+00
         0.00000E+00
         0.00000E+00
         0.00000E+00
         0.00000E+00
         0.00000E+00
         0.00000E+00
         0.00000E+00
         0.00000E+00
         0.00000E+00
         0.00000E+00
         0.00000E+00
         0.00000E+00
         0.00000E+00
         0.00000E+00
         0.00000E+00
         0.00000E+00
         0.00000E+00
         0.00000E+00
         0.00000E+00
         0.00000E+00
         0.00000E+00
         0.00000E+00
         0.00000E+00
         0.00000E+00
         0.00000E+00
         0.00000E+00
         0.00000E+00
         0.00000E+00
         0.00000E+00
         0.00000E+00
         0.00000E+00
         0.00000E+00
         0.00000E+00
         0.00000E+00
         0.00000E+00
         0.00000E+00
         0.00000E+00
         0.00000E+00
         0.00000E+00
         0.00000E+00
         0.00000E+00
         0.00000E+00
         0.00000E+00
         0.00000E+00
         0.00000E+00
         0.00000E+00
         0.00000E+00
         0.00000E+00
         0.00000E+00
         0.00000E+00
         0.00000E+00
         0.00000E+00
         0.00000E+00
         0.00000E+00
         0.00000E+00
         0.00000E+00
         0.00000E+00
         0.00000E+00
         0.00000E+00
         0.00000E+00
         0.00000E+00
         0.00000E+00
         0.00000E+00
         0.00000E+00
         0.00000E+00
         0.00000E+00
         0.00000E+00
         0.00000E+00
         0.00000E+00
         0.00000E+00
         0.00000E+00
         0.00000E+00
         0.00000E+00
         0.00000E+00
         0.00000E+00
         0.00000E+00
         0.00000E+00
         0.00000E+00
         0.00000E+00
         0.00000E+00
         0.00000E+00
         0.00000E+00
         0.00000E+00
         0.00000E+00
         0.00000E+00
         0.00000E+00
         0.00000E+00
         0.00000E+00
         0.00000E+00
         0.00000E+00
         0.00000E+00
         0.00000E+00
         0.00000E+00
         0.00000E+00
         0.00000E+00
         0.00000E+00
         0.00000E+00
         0.00000E+00
         0.00000E+00
         0.00000E+00
         0.00000E+00
         0.00000E+00
         0.00000E+00
         0.00000E+00
         0.00000E+00
         0.00000E+00
         0.00000E+00
         0.00000E+00
         0.00000E+00
         0.00000E+00
         0.00000E+00
         0.00000E+00
         0.00000E+00
         0.00000E+00
         0.00000E+00
         0.00000E+00
         0.00000E+00
         0.00000E+00
         0.00000E+00
         0.00000E+00
         0.00000E+00
         0.00000E+00
         0.00000E+00
         0.00000E+00
         0.00000E+00
         0.00000E+00
         0.00000E+00
         0.00000E+00
         0.00000E+00
         0.00000E+00
         0.00000E+00
         0.00000E+00
         0.00000E+00
         0.00000E+00
         0.00000E+00
         0.00000E+00
         0.00000E+00
         0.00000E+00
         0.00000E+00
         0.00000E+00
         0.00000E+00
         0.00000E+00
         0.00000E+00
         0.00000E+00
         0.00000E+00
         0.00000E+00
         0.00000E+00
         0.00000E+00
         0.00000E+00
         0.00000E+00
         0.00000E+00
         0.00000E+00
         0.00000E+00
         0.00000E+00
         0.00000E+00
         0.00000E+00
         0.00000E+00
         0.00000E+00
         0.00000E+00
         0.00000E+00
         0.00000E+00
         0.00000E+00
         0.00000E+00
         0.00000E+00
         0.00000E+00
         0.00000E+00
         0.00000E+00
         0.00000E+00
         0.00000E+00
         0.00000E+00
         0.00000E+00
         0.00000E+00
         0.00000E+00
         0.00000E+00
         0.00000E+00
         0.00000E+00
         0.00000E+00
         0.00000E+00
         0.00000E+00
         0.00000E+00
         0.00000E+00
         0.00000E+00
         0.00000E+00
         0.00000E+00
         0.00000E+00
         0.00000E+00
         0.00000E+00
         0.00000E+00
         0.00000E+00
         0.00000E+00
         0.00000E+00
         0.00000E+00
         0.00000E+00
         0.00000E+00
         0.00000E+00
         0.00000E+00
         0.00000E+00
         0.00000E+00
         0.00000E+00
         0.00000E+00
         0.00000E+00
         0.00000E+00
         0.00000E+00
         0.00000E+00
         0.00000E+00
         0.00000E+00
         0.00000E+00
         0.00000E+00
         0.00000E+00
         0.00000E+00
         0.00000E+00
         0.00000E+00
         0.00000E+00
         0.00000E+00
         0.00000E+00
         0.00000E+00
         0.00000E+00
         0.00000E+00
         0.00000E+00
         0.00000E+00
         0.00000E+00
         0.00000E+00
         0.00000E+00
         0.00000E+00
         0.00000E+00
         0.00000E+00
         0.00000E+00
         0.00000E+00
         0.00000E+00
         0.00000E+00
         0.00000E+00
         0.00000E+00
         0.00000E+00
         0.00000E+00
         0.00000E+00
         0.00000E+00
         0.00000E+00
         0.00000E+00
         0.00000E+00
         0.00000E+00
         0.00000E+00
         0.00000E+00
         0.00000E+00
         0.00000E+00
         0.00000E+00
         0.00000E+00
         0.00000E+00
         0.00000E+00
         0.00000E+00
         0.00000E+00
         0.00000E+00
         0.00000E+00
         0.00000E+00
         0.00000E+00
         0.00000E+00
         0.00000E+00
         0.00000E+00
         0.00000E+00
         0.00000E+00
         0.00000E+00
         0.00000E+00
         0.00000E+00
         0.00000E+00
         0.00000E+00
         0.00000E+00
         0.00000E+00
         0.00000E+00
         0.00000E+00
         0.00000E+00
  
SCALARS                        eps_vol  double 1
LOOKUP_TABLE default
         0.00000E+00
         0.00000E+00
         0.00000E+00
         0.00000E+00
         0.00000E+00
         0.00000E+00
         0.00000E+00
         0.00000E+00
         0.00000E+00
         0.00000E+00
         0.00000E+00
         0.00000E+00
         0.00000E+00
         0.00000E+00
         0.00000E+00
         0.00000E+00
         0.00000E+00
         0.00000E+00
         0.00000E+00
         0.00000E+00
         0.00000E+00
         0.00000E+00
         0.00000E+00
         0.00000E+00
         0.00000E+00
         0.00000E+00
         0.00000E+00
         0.00000E+00
         0.00000E+00
         0.00000E+00
         0.00000E+00
         0.00000E+00
         0.00000E+00
         0.00000E+00
         0.00000E+00
         0.00000E+00
         0.00000E+00
         0.00000E+00
         0.00000E+00
         0.00000E+00
         0.00000E+00
         0.00000E+00
         0.00000E+00
         0.00000E+00
         0.00000E+00
         0.00000E+00
         0.00000E+00
         0.00000E+00
         0.00000E+00
         0.00000E+00
         0.00000E+00
         0.00000E+00
         0.00000E+00
         0.00000E+00
         0.00000E+00
         0.00000E+00
         0.00000E+00
         0.00000E+00
         0.00000E+00
         0.00000E+00
         0.00000E+00
         0.00000E+00
         0.00000E+00
         0.00000E+00
         0.00000E+00
         0.00000E+00
         0.00000E+00
         0.00000E+00
         0.00000E+00
         0.00000E+00
         0.00000E+00
         0.00000E+00
         0.00000E+00
         0.00000E+00
         0.00000E+00
         0.00000E+00
         0.00000E+00
         0.00000E+00
         0.00000E+00
         0.00000E+00
         0.00000E+00
         0.00000E+00
         0.00000E+00
         0.00000E+00
         0.00000E+00
         0.00000E+00
         0.00000E+00
         0.00000E+00
         0.00000E+00
         0.00000E+00
         0.00000E+00
         0.00000E+00
         0.00000E+00
         0.00000E+00
         0.00000E+00
         0.00000E+00
         0.00000E+00
         0.00000E+00
         0.00000E+00
         0.00000E+00
         0.00000E+00
         0.00000E+00
         0.00000E+00
         0.00000E+00
         0.00000E+00
         0.00000E+00
         0.00000E+00
         0.00000E+00
         0.00000E+00
         0.00000E+00
         0.00000E+00
         0.00000E+00
         0.00000E+00
         0.00000E+00
         0.00000E+00
         0.00000E+00
         0.00000E+00
         0.00000E+00
         0.00000E+00
         0.00000E+00
         0.00000E+00
         0.00000E+00
         0.00000E+00
         0.00000E+00
         0.00000E+00
         0.00000E+00
         0.00000E+00
         0.00000E+00
         0.00000E+00
         0.00000E+00
         0.00000E+00
         0.00000E+00
         0.00000E+00
         0.00000E+00
         0.00000E+00
         0.00000E+00
         0.00000E+00
         0.00000E+00
         0.00000E+00
         0.00000E+00
         0.00000E+00
         0.00000E+00
         0.00000E+00
         0.00000E+00
         0.00000E+00
         0.00000E+00
         0.00000E+00
         0.00000E+00
         0.00000E+00
         0.00000E+00
         0.00000E+00
         0.00000E+00
         0.00000E+00
         0.00000E+00
         0.00000E+00
         0.00000E+00
         0.00000E+00
         0.00000E+00
         0.00000E+00
         0.00000E+00
         0.00000E+00
         0.00000E+00
         0.00000E+00
         0.00000E+00
         0.00000E+00
         0.00000E+00
         0.00000E+00
         0.00000E+00
         0.00000E+00
         0.00000E+00
         0.00000E+00
         0.00000E+00
         0.00000E+00
         0.00000E+00
         0.00000E+00
         0.00000E+00
         0.00000E+00
         0.00000E+00
         0.00000E+00
         0.00000E+00
         0.00000E+00
         0.00000E+00
         0.00000E+00
         0.00000E+00
         0.00000E+00
         0.00000E+00
         0.00000E+00
         0.00000E+00
         0.00000E+00
         0.00000E+00
         0.00000E+00
         0.00000E+00
         0.00000E+00
         0.00000E+00
         0.00000E+00
         0.00000E+00
         0.00000E+00
         0.00000E+00
         0.00000E+00
         0.00000E+00
         0.00000E+00
         0.00000E+00
         0.00000E+00
         0.00000E+00
         0.00000E+00
         0.00000E+00
         0.00000E+00
         0.00000E+00
         0.00000E+00
         0.00000E+00
         0.00000E+00
         0.00000E+00
         0.00000E+00
         0.00000E+00
         0.00000E+00
         0.00000E+00
         0.00000E+00
         0.00000E+00
         0.00000E+00
         0.00000E+00
         0.00000E+00
         0.00000E+00
         0.00000E+00
         0.00000E+00
         0.00000E+00
         0.00000E+00
         0.00000E+00
         0.00000E+00
         0.00000E+00
         0.00000E+00
         0.00000E+00
         0.00000E+00
         0.00000E+00
         0.00000E+00
         0.00000E+00
         0.00000E+00
         0.00000E+00
         0.00000E+00
         0.00000E+00
         0.00000E+00
         0.00000E+00
         0.00000E+00
         0.00000E+00
         0.00000E+00
         0.00000E+00
         0.00000E+00
         0.00000E+00
         0.00000E+00
         0.00000E+00
         0.00000E+00
         0.00000E+00
         0.00000E+00
         0.00000E+00
         0.00000E+00
         0.00000E+00
         0.00000E+00
         0.00000E+00
         0.00000E+00
         0.00000E+00
         0.00000E+00
         0.00000E+00
         0.00000E+00
         0.00000E+00
         0.00000E+00
         0.00000E+00
         0.00000E+00
         0.00000E+00
         0.00000E+00
         0.00000E+00
         0.00000E+00
         0.00000E+00
         0.00000E+00
         0.00000E+00
         0.00000E+00
         0.00000E+00
         0.00000E+00
         0.00000E+00
         0.00000E+00
         0.00000E+00
         0.00000E+00
         0.00000E+00
         0.00000E+00
         0.00000E+00
         0.00000E+00
         0.00000E+00
         0.00000E+00
         0.00000E+00
         0.00000E+00
         0.00000E+00
         0.00000E+00
         0.00000E+00
         0.00000E+00
         0.00000E+00
         0.00000E+00
         0.00000E+00
         0.00000E+00
         0.00000E+00
         0.00000E+00
         0.00000E+00
         0.00000E+00
         0.00000E+00
         0.00000E+00
         0.00000E+00
         0.00000E+00
         0.00000E+00
         0.00000E+00
         0.00000E+00
         0.00000E+00
         0.00000E+00
         0.00000E+00
         0.00000E+00
         0.00000E+00
         0.00000E+00
         0.00000E+00
         0.00000E+00
         0.00000E+00
         0.00000E+00
         0.00000E+00
         0.00000E+00
         0.00000E+00
         0.00000E+00
         0.00000E+00
         0.00000E+00
         0.00000E+00
         0.00000E+00
         0.00000E+00
         0.00000E+00
         0.00000E+00
         0.00000E+00
         0.00000E+00
         0.00000E+00
         0.00000E+00
         0.00000E+00
         0.00000E+00
         0.00000E+00
         0.00000E+00
         0.00000E+00
         0.00000E+00
         0.00000E+00
         0.00000E+00
         0.00000E+00
         0.00000E+00
         0.00000E+00
         0.00000E+00
         0.00000E+00
         0.00000E+00
         0.00000E+00
         0.00000E+00
         0.00000E+00
         0.00000E+00
         0.00000E+00
         0.00000E+00
         0.00000E+00
         0.00000E+00
         0.00000E+00
         0.00000E+00
         0.00000E+00
         0.00000E+00
         0.00000E+00
         0.00000E+00
         0.00000E+00
         0.00000E+00
         0.00000E+00
         0.00000E+00
         0.00000E+00
         0.00000E+00
         0.00000E+00
         0.00000E+00
         0.00000E+00
         0.00000E+00
         0.00000E+00
         0.00000E+00
         0.00000E+00
         0.00000E+00
         0.00000E+00
         0.00000E+00
         0.00000E+00
         0.00000E+00
         0.00000E+00
         0.00000E+00
         0.00000E+00
         0.00000E+00
         0.00000E+00
         0.00000E+00
         0.00000E+00
         0.00000E+00
         0.00000E+00
         0.00000E+00
         0.00000E+00
         0.00000E+00
         0.00000E+00
         0.00000E+00
         0.00000E+00
         0.00000E+00
         0.00000E+00
         0.00000E+00
         0.00000E+00
         0.00000E+00
         0.00000E+00
         0.00000E+00
         0.00000E+00
         0.00000E+00
         0.00000E+00
         0.00000E+00
         0.00000E+00
         0.00000E+00
         0.00000E+00
         0.00000E+00
         0.00000E+00
         0.00000E+00
         0.00000E+00
         0.00000E+00
         0.00000E+00
         0.00000E+00
         0.00000E+00
         0.00000E+00
         0.00000E+00
         0.00000E+00
         0.00000E+00
         0.00000E+00
         0.00000E+00
         0.00000E+00
         0.00000E+00
         0.00000E+00
         0.00000E+00
         0.00000E+00
         0.00000E+00
         0.00000E+00
         0.00000E+00
         0.00000E+00
         0.00000E+00
         0.00000E+00
         0.00000E+00
         0.00000E+00
         0.00000E+00
         0.00000E+00
         0.00000E+00
         0.00000E+00
         0.00000E+00
         0.00000E+00
         0.00000E+00
         0.00000E+00
         0.00000E+00
         0.00000E+00
         0.00000E+00
         0.00000E+00
         0.00000E+00
         0.00000E+00
         0.00000E+00
         0.00000E+00
         0.00000E+00
         0.00000E+00
         0.00000E+00
         0.00000E+00
         0.00000E+00
         0.00000E+00
         0.00000E+00
         0.00000E+00
         0.00000E+00
         0.00000E+00
         0.00000E+00
         0.00000E+00
         0.00000E+00
         0.00000E+00
         0.00000E+00
         0.00000E+00
         0.00000E+00
         0.00000E+00
         0.00000E+00
         0.00000E+00
         0.00000E+00
         0.00000E+00
         0.00000E+00
         0.00000E+00
         0.00000E+00
         0.00000E+00
         0.00000E+00
         0.00000E+00
         0.00000E+00
         0.00000E+00
         0.00000E+00
         0.00000E+00
         0.00000E+00
         0.00000E+00
         0.00000E+00
         0.00000E+00
         0.00000E+00
         0.00000E+00
         0.00000E+00
         0.00000E+00
         0.00000E+00
         0.00000E+00
         0.00000E+00
         0.00000E+00
         0.00000E+00
         0.00000E+00
         0.00000E+00
         0.00000E+00
         0.00000E+00
         0.00000E+00
         0.00000E+00
         0.00000E+00
         0.00000E+00
         0.00000E+00
         0.00000E+00
         0.00000E+00
         0.00000E+00
         0.00000E+00
         0.00000E+00
         0.00000E+00
         0.00000E+00
         0.00000E+00
         0.00000E+00
         0.00000E+00
         0.00000E+00
         0.00000E+00
         0.00000E+00
         0.00000E+00
         0.00000E+00
         0.00000E+00
         0.00000E+00
         0.00000E+00
         0.00000E+00
         0.00000E+00
         0.00000E+00
         0.00000E+00
         0.00000E+00
         0.00000E+00
         0.00000E+00
         0.00000E+00
         0.00000E+00
         0.00000E+00
         0.00000E+00
         0.00000E+00
         0.00000E+00
         0.00000E+00
         0.00000E+00
         0.00000E+00
         0.00000E+00
         0.00000E+00
         0.00000E+00
         0.00000E+00
         0.00000E+00
         0.00000E+00
         0.00000E+00
         0.00000E+00
         0.00000E+00
         0.00000E+00
         0.00000E+00
         0.00000E+00
         0.00000E+00
         0.00000E+00
         0.00000E+00
         0.00000E+00
         0.00000E+00
         0.00000E+00
         0.00000E+00
         0.00000E+00
         0.00000E+00
         0.00000E+00
         0.00000E+00
         0.00000E+00
         0.00000E+00
         0.00000E+00
         0.00000E+00
         0.00000E+00
         0.00000E+00
         0.00000E+00
         0.00000E+00
         0.00000E+00
         0.00000E+00
         0.00000E+00
         0.00000E+00
         0.00000E+00
         0.00000E+00
         0.00000E+00
         0.00000E+00
         0.00000E+00
         0.00000E+00
         0.00000E+00
         0.00000E+00
         0.00000E+00
         0.00000E+00
         0.00000E+00
         0.00000E+00
         0.00000E+00
         0.00000E+00
         0.00000E+00
         0.00000E+00
         0.00000E+00
         0.00000E+00
         0.00000E+00
         0.00000E+00
         0.00000E+00
         0.00000E+00
         0.00000E+00
         0.00000E+00
         0.00000E+00
         0.00000E+00
         0.00000E+00
         0.00000E+00
         0.00000E+00
         0.00000E+00
         0.00000E+00
         0.00000E+00
         0.00000E+00
         0.00000E+00
         0.00000E+00
         0.00000E+00
         0.00000E+00
         0.00000E+00
         0.00000E+00
         0.00000E+00
         0.00000E+00
         0.00000E+00
         0.00000E+00
         0.00000E+00
         0.00000E+00
         0.00000E+00
         0.00000E+00
         0.00000E+00
         0.00000E+00
         0.00000E+00
         0.00000E+00
         0.00000E+00
         0.00000E+00
         0.00000E+00
         0.00000E+00
         0.00000E+00
         0.00000E+00
         0.00000E+00
         0.00000E+00
         0.00000E+00
         0.00000E+00
         0.00000E+00
         0.00000E+00
         0.00000E+00
         0.00000E+00
         0.00000E+00
         0.00000E+00
         0.00000E+00
         0.00000E+00
         0.00000E+00
         0.00000E+00
         0.00000E+00
         0.00000E+00
         0.00000E+00
         0.00000E+00
         0.00000E+00
         0.00000E+00
         0.00000E+00
         0.00000E+00
         0.00000E+00
         0.00000E+00
         0.00000E+00
         0.00000E+00
         0.00000E+00
         0.00000E+00
         0.00000E+00
         0.00000E+00
         0.00000E+00
         0.00000E+00
         0.00000E+00
         0.00000E+00
         0.00000E+00
         0.00000E+00
         0.00000E+00
         0.00000E+00
         0.00000E+00
         0.00000E+00
         0.00000E+00
         0.00000E+00
         0.00000E+00
         0.00000E+00
         0.00000E+00
         0.00000E+00
         0.00000E+00
         0.00000E+00
         0.00000E+00
         0.00000E+00
         0.00000E+00
         0.00000E+00
         0.00000E+00
         0.00000E+00
         0.00000E+00
         0.00000E+00
         0.00000E+00
         0.00000E+00
         0.00000E+00
         0.00000E+00
         0.00000E+00
         0.00000E+00
         0.00000E+00
         0.00000E+00
         0.00000E+00
         0.00000E+00
         0.00000E+00
         0.00000E+00
         0.00000E+00
         0.00000E+00
         0.00000E+00
         0.00000E+00
         0.00000E+00
         0.00000E+00
         0.00000E+00
         0.00000E+00
         0.00000E+00
         0.00000E+00
         0.00000E+00
         0.00000E+00
         0.00000E+00
         0.00000E+00
         0.00000E+00
         0.00000E+00
         0.00000E+00
         0.00000E+00
         0.00000E+00
         0.00000E+00
         0.00000E+00
         0.00000E+00
         0.00000E+00
         0.00000E+00
         0.00000E+00
         0.00000E+00
         0.00000E+00
         0.00000E+00
         0.00000E+00
         0.00000E+00
         0.00000E+00
         0.00000E+00
         0.00000E+00
         0.00000E+00
         0.00000E+00
         0.00000E+00
         0.00000E+00
         0.00000E+00
         0.00000E+00
         0.00000E+00
         0.00000E+00
         0.00000E+00
         0.00000E+00
         0.00000E+00
         0.00000E+00
         0.00000E+00
         0.00000E+00
         0.00000E+00
         0.00000E+00
         0.00000E+00
         0.00000E+00
         0.00000E+00
         0.00000E+00
         0.00000E+00
         0.00000E+00
         0.00000E+00
         0.00000E+00
         0.00000E+00
         0.00000E+00
         0.00000E+00
         0.00000E+00
         0.00000E+00
         0.00000E+00
         0.00000E+00
         0.00000E+00
         0.00000E+00
         0.00000E+00
         0.00000E+00
         0.00000E+00
         0.00000E+00
         0.00000E+00
         0.00000E+00
         0.00000E+00
         0.00000E+00
         0.00000E+00
         0.00000E+00
         0.00000E+00
         0.00000E+00
         0.00000E+00
         0.00000E+00
         0.00000E+00
         0.00000E+00
         0.00000E+00
         0.00000E+00
         0.00000E+00
         0.00000E+00
         0.00000E+00
         0.00000E+00
         0.00000E+00
         0.00000E+00
         0.00000E+00
         0.00000E+00
         0.00000E+00
         0.00000E+00
         0.00000E+00
         0.00000E+00
         0.00000E+00
         0.00000E+00
         0.00000E+00
         0.00000E+00
         0.00000E+00
         0.00000E+00
         0.00000E+00
         0.00000E+00
         0.00000E+00
         0.00000E+00
         0.00000E+00
         0.00000E+00
         0.00000E+00
         0.00000E+00
         0.00000E+00
         0.00000E+00
         0.00000E+00
         0.00000E+00
         0.00000E+00
         0.00000E+00
         0.00000E+00
         0.00000E+00
         0.00000E+00
         0.00000E+00
         0.00000E+00
         0.00000E+00
         0.00000E+00
         0.00000E+00
         0.00000E+00
         0.00000E+00
         0.00000E+00
         0.00000E+00
         0.00000E+00
         0.00000E+00
         0.00000E+00
         0.00000E+00
         0.00000E+00
         0.00000E+00
         0.00000E+00
         0.00000E+00
         0.00000E+00
         0.00000E+00
         0.00000E+00
         0.00000E+00
         0.00000E+00
         0.00000E+00
         0.00000E+00
         0.00000E+00
         0.00000E+00
         0.00000E+00
         0.00000E+00
         0.00000E+00
         0.00000E+00
         0.00000E+00
         0.00000E+00
         0.00000E+00
         0.00000E+00
         0.00000E+00
         0.00000E+00
         0.00000E+00
         0.00000E+00
         0.00000E+00
         0.00000E+00
         0.00000E+00
         0.00000E+00
         0.00000E+00
         0.00000E+00
         0.00000E+00
         0.00000E+00
         0.00000E+00
         0.00000E+00
         0.00000E+00
         0.00000E+00
         0.00000E+00
         0.00000E+00
         0.00000E+00
         0.00000E+00
         0.00000E+00
         0.00000E+00
         0.00000E+00
         0.00000E+00
         0.00000E+00
         0.00000E+00
         0.00000E+00
         0.00000E+00
         0.00000E+00
         0.00000E+00
         0.00000E+00
         0.00000E+00
         0.00000E+00
         0.00000E+00
         0.00000E+00
         0.00000E+00
         0.00000E+00
         0.00000E+00
         0.00000E+00
         0.00000E+00
         0.00000E+00
         0.00000E+00
         0.00000E+00
         0.00000E+00
         0.00000E+00
         0.00000E+00
         0.00000E+00
         0.00000E+00
         0.00000E+00
         0.00000E+00
         0.00000E+00
         0.00000E+00
         0.00000E+00
         0.00000E+00
         0.00000E+00
         0.00000E+00
         0.00000E+00
         0.00000E+00
         0.00000E+00
         0.00000E+00
         0.00000E+00
         0.00000E+00
         0.00000E+00
         0.00000E+00
         0.00000E+00
         0.00000E+00
         0.00000E+00
         0.00000E+00
         0.00000E+00
         0.00000E+00
         0.00000E+00
         0.00000E+00
         0.00000E+00
         0.00000E+00
         0.00000E+00
         0.00000E+00
         0.00000E+00
         0.00000E+00
         0.00000E+00
         0.00000E+00
         0.00000E+00
         0.00000E+00
         0.00000E+00
         0.00000E+00
         0.00000E+00
         0.00000E+00
         0.00000E+00
         0.00000E+00
         0.00000E+00
         0.00000E+00
         0.00000E+00
         0.00000E+00
         0.00000E+00
         0.00000E+00
         0.00000E+00
         0.00000E+00
         0.00000E+00
         0.00000E+00
         0.00000E+00
         0.00000E+00
         0.00000E+00
         0.00000E+00
         0.00000E+00
         0.00000E+00
         0.00000E+00
         0.00000E+00
         0.00000E+00
         0.00000E+00
         0.00000E+00
         0.00000E+00
         0.00000E+00
         0.00000E+00
         0.00000E+00
         0.00000E+00
         0.00000E+00
         0.00000E+00
         0.00000E+00
         0.00000E+00
         0.00000E+00
         0.00000E+00
         0.00000E+00
         0.00000E+00
         0.00000E+00
         0.00000E+00
         0.00000E+00
         0.00000E+00
         0.00000E+00
         0.00000E+00
         0.00000E+00
         0.00000E+00
         0.00000E+00
         0.00000E+00
         0.00000E+00
         0.00000E+00
         0.00000E+00
         0.00000E+00
         0.00000E+00
         0.00000E+00
         0.00000E+00
         0.00000E+00
         0.00000E+00
         0.00000E+00
         0.00000E+00
         0.00000E+00
         0.00000E+00
         0.00000E+00
         0.00000E+00
         0.00000E+00
         0.00000E+00
         0.00000E+00
         0.00000E+00
         0.00000E+00
         0.00000E+00
         0.00000E+00
         0.00000E+00
         0.00000E+00
         0.00000E+00
         0.00000E+00
         0.00000E+00
         0.00000E+00
         0.00000E+00
         0.00000E+00
         0.00000E+00
         0.00000E+00
         0.00000E+00
         0.00000E+00
         0.00000E+00
         0.00000E+00
         0.00000E+00
         0.00000E+00
         0.00000E+00
         0.00000E+00
         0.00000E+00
         0.00000E+00
         0.00000E+00
         0.00000E+00
         0.00000E+00
         0.00000E+00
         0.00000E+00
         0.00000E+00
         0.00000E+00
         0.00000E+00
         0.00000E+00
         0.00000E+00
         0.00000E+00
         0.00000E+00
         0.00000E+00
         0.00000E+00
         0.00000E+00
         0.00000E+00
         0.00000E+00
         0.00000E+00
         0.00000E+00
         0.00000E+00
         0.00000E+00
         0.00000E+00
         0.00000E+00
         0.00000E+00
         0.00000E+00
         0.00000E+00
         0.00000E+00
         0.00000E+00
         0.00000E+00
         0.00000E+00
         0.00000E+00
         0.00000E+00
         0.00000E+00
         0.00000E+00
         0.00000E+00
         0.00000E+00
         0.00000E+00
         0.00000E+00
         0.00000E+00
         0.00000E+00
         0.00000E+00
         0.00000E+00
         0.00000E+00
         0.00000E+00
         0.00000E+00
         0.00000E+00
         0.00000E+00
         0.00000E+00
         0.00000E+00
         0.00000E+00
         0.00000E+00
         0.00000E+00
         0.00000E+00
         0.00000E+00
         0.00000E+00
         0.00000E+00
         0.00000E+00
         0.00000E+00
         0.00000E+00
         0.00000E+00
         0.00000E+00
         0.00000E+00
         0.00000E+00
         0.00000E+00
         0.00000E+00
         0.00000E+00
         0.00000E+00
         0.00000E+00
         0.00000E+00
         0.00000E+00
         0.00000E+00
         0.00000E+00
         0.00000E+00
         0.00000E+00
         0.00000E+00
         0.00000E+00
         0.00000E+00
         0.00000E+00
         0.00000E+00
         0.00000E+00
         0.00000E+00
         0.00000E+00
         0.00000E+00
         0.00000E+00
         0.00000E+00
         0.00000E+00
         0.00000E+00
         0.00000E+00
         0.00000E+00
         0.00000E+00
         0.00000E+00
         0.00000E+00
         0.00000E+00
         0.00000E+00
         0.00000E+00
         0.00000E+00
         0.00000E+00
         0.00000E+00
         0.00000E+00
         0.00000E+00
         0.00000E+00
         0.00000E+00
         0.00000E+00
         0.00000E+00
         0.00000E+00
         0.00000E+00
         0.00000E+00
         0.00000E+00
         0.00000E+00
         0.00000E+00
         0.00000E+00
         0.00000E+00
         0.00000E+00
         0.00000E+00
         0.00000E+00
         0.00000E+00
         0.00000E+00
         0.00000E+00
         0.00000E+00
         0.00000E+00
         0.00000E+00
         0.00000E+00
         0.00000E+00
         0.00000E+00
         0.00000E+00
         0.00000E+00
         0.00000E+00
         0.00000E+00
         0.00000E+00
         0.00000E+00
         0.00000E+00
         0.00000E+00
         0.00000E+00
         0.00000E+00
         0.00000E+00
         0.00000E+00
         0.00000E+00
         0.00000E+00
         0.00000E+00
         0.00000E+00
         0.00000E+00
         0.00000E+00
         0.00000E+00
         0.00000E+00
         0.00000E+00
         0.00000E+00
         0.00000E+00
         0.00000E+00
         0.00000E+00
         0.00000E+00
         0.00000E+00
         0.00000E+00
         0.00000E+00
         0.00000E+00
         0.00000E+00
         0.00000E+00
         0.00000E+00
         0.00000E+00
         0.00000E+00
         0.00000E+00
         0.00000E+00
         0.00000E+00
         0.00000E+00
         0.00000E+00
         0.00000E+00
         0.00000E+00
         0.00000E+00
         0.00000E+00
         0.00000E+00
         0.00000E+00
         0.00000E+00
         0.00000E+00
         0.00000E+00
         0.00000E+00
         0.00000E+00
         0.00000E+00
         0.00000E+00
         0.00000E+00
         0.00000E+00
         0.00000E+00
         0.00000E+00
         0.00000E+00
         0.00000E+00
         0.00000E+00
         0.00000E+00
         0.00000E+00
         0.00000E+00
         0.00000E+00
         0.00000E+00
         0.00000E+00
         0.00000E+00
         0.00000E+00
         0.00000E+00
         0.00000E+00
         0.00000E+00
         0.00000E+00
         0.00000E+00
         0.00000E+00
         0.00000E+00
         0.00000E+00
         0.00000E+00
         0.00000E+00
         0.00000E+00
         0.00000E+00
         0.00000E+00
         0.00000E+00
         0.00000E+00
         0.00000E+00
         0.00000E+00
         0.00000E+00
         0.00000E+00
         0.00000E+00
         0.00000E+00
         0.00000E+00
         0.00000E+00
         0.00000E+00
         0.00000E+00
         0.00000E+00
         0.00000E+00
         0.00000E+00
         0.00000E+00
         0.00000E+00
         0.00000E+00
         0.00000E+00
         0.00000E+00
         0.00000E+00
         0.00000E+00
         0.00000E+00
         0.00000E+00
         0.00000E+00
         0.00000E+00
         0.00000E+00
         0.00000E+00
         0.00000E+00
         0.00000E+00
         0.00000E+00
         0.00000E+00
         0.00000E+00
         0.00000E+00
         0.00000E+00
         0.00000E+00
         0.00000E+00
         0.00000E+00
         0.00000E+00
         0.00000E+00
         0.00000E+00
         0.00000E+00
         0.00000E+00
         0.00000E+00
         0.00000E+00
         0.00000E+00
         0.00000E+00
         0.00000E+00
         0.00000E+00
         0.00000E+00
         0.00000E+00
         0.00000E+00
         0.00000E+00
         0.00000E+00
         0.00000E+00
         0.00000E+00
         0.00000E+00
         0.00000E+00
         0.00000E+00
         0.00000E+00
         0.00000E+00
         0.00000E+00
         0.00000E+00
         0.00000E+00
         0.00000E+00
         0.00000E+00
         0.00000E+00
         0.00000E+00
         0.00000E+00
         0.00000E+00
         0.00000E+00
         0.00000E+00
         0.00000E+00
         0.00000E+00
         0.00000E+00
         0.00000E+00
         0.00000E+00
         0.00000E+00
         0.00000E+00
         0.00000E+00
         0.00000E+00
         0.00000E+00
         0.00000E+00
         0.00000E+00
         0.00000E+00
         0.00000E+00
         0.00000E+00
         0.00000E+00
         0.00000E+00
         0.00000E+00
         0.00000E+00
         0.00000E+00
         0.00000E+00
         0.00000E+00
         0.00000E+00
         0.00000E+00
         0.00000E+00
         0.00000E+00
         0.00000E+00
         0.00000E+00
         0.00000E+00
         0.00000E+00
         0.00000E+00
         0.00000E+00
         0.00000E+00
         0.00000E+00
         0.00000E+00
         0.00000E+00
         0.00000E+00
         0.00000E+00
         0.00000E+00
         0.00000E+00
         0.00000E+00
         0.00000E+00
         0.00000E+00
         0.00000E+00
         0.00000E+00
         0.00000E+00
         0.00000E+00
         0.00000E+00
         0.00000E+00
         0.00000E+00
         0.00000E+00
         0.00000E+00
         0.00000E+00
         0.00000E+00
         0.00000E+00
         0.00000E+00
         0.00000E+00
         0.00000E+00
         0.00000E+00
         0.00000E+00
         0.00000E+00
         0.00000E+00
         0.00000E+00
         0.00000E+00
         0.00000E+00
         0.00000E+00
         0.00000E+00
         0.00000E+00
         0.00000E+00
         0.00000E+00
         0.00000E+00
         0.00000E+00
         0.00000E+00
         0.00000E+00
         0.00000E+00
         0.00000E+00
         0.00000E+00
         0.00000E+00
         0.00000E+00
         0.00000E+00
         0.00000E+00
         0.00000E+00
         0.00000E+00
         0.00000E+00
         0.00000E+00
         0.00000E+00
         0.00000E+00
         0.00000E+00
         0.00000E+00
         0.00000E+00
         0.00000E+00
         0.00000E+00
         0.00000E+00
         0.00000E+00
         0.00000E+00
         0.00000E+00
         0.00000E+00
         0.00000E+00
         0.00000E+00
         0.00000E+00
         0.00000E+00
         0.00000E+00
         0.00000E+00
         0.00000E+00
         0.00000E+00
         0.00000E+00
         0.00000E+00
         0.00000E+00
         0.00000E+00
         0.00000E+00
         0.00000E+00
         0.00000E+00
         0.00000E+00
         0.00000E+00
         0.00000E+00
         0.00000E+00
         0.00000E+00
         0.00000E+00
         0.00000E+00
         0.00000E+00
         0.00000E+00
         0.00000E+00
         0.00000E+00
         0.00000E+00
         0.00000E+00
         0.00000E+00
         0.00000E+00
         0.00000E+00
         0.00000E+00
         0.00000E+00
         0.00000E+00
         0.00000E+00
         0.00000E+00
         0.00000E+00
         0.00000E+00
         0.00000E+00
         0.00000E+00
         0.00000E+00
         0.00000E+00
         0.00000E+00
         0.00000E+00
         0.00000E+00
         0.00000E+00
         0.00000E+00
         0.00000E+00
         0.00000E+00
         0.00000E+00
         0.00000E+00
         0.00000E+00
         0.00000E+00
         0.00000E+00
         0.00000E+00
         0.00000E+00
         0.00000E+00
         0.00000E+00
         0.00000E+00
         0.00000E+00
         0.00000E+00
         0.00000E+00
         0.00000E+00
         0.00000E+00
         0.00000E+00
         0.00000E+00
         0.00000E+00
         0.00000E+00
         0.00000E+00
         0.00000E+00
         0.00000E+00
         0.00000E+00
         0.00000E+00
         0.00000E+00
         0.00000E+00
         0.00000E+00
         0.00000E+00
         0.00000E+00
         0.00000E+00
         0.00000E+00
         0.00000E+00
         0.00000E+00
         0.00000E+00
         0.00000E+00
         0.00000E+00
         0.00000E+00
         0.00000E+00
         0.00000E+00
         0.00000E+00
         0.00000E+00
         0.00000E+00
         0.00000E+00
         0.00000E+00
         0.00000E+00
         0.00000E+00
         0.00000E+00
         0.00000E+00
         0.00000E+00
         0.00000E+00
         0.00000E+00
         0.00000E+00
         0.00000E+00
         0.00000E+00
         0.00000E+00
         0.00000E+00
         0.00000E+00
         0.00000E+00
         0.00000E+00
         0.00000E+00
         0.00000E+00
         0.00000E+00
         0.00000E+00
         0.00000E+00
         0.00000E+00
         0.00000E+00
         0.00000E+00
         0.00000E+00
         0.00000E+00
         0.00000E+00
         0.00000E+00
         0.00000E+00
         0.00000E+00
         0.00000E+00
         0.00000E+00
         0.00000E+00
         0.00000E+00
         0.00000E+00
         0.00000E+00
         0.00000E+00
         0.00000E+00
         0.00000E+00
         0.00000E+00
         0.00000E+00
         0.00000E+00
         0.00000E+00
         0.00000E+00
         0.00000E+00
         0.00000E+00
         0.00000E+00
         0.00000E+00
         0.00000E+00
         0.00000E+00
         0.00000E+00
         0.00000E+00
         0.00000E+00
         0.00000E+00
         0.00000E+00
         0.00000E+00
         0.00000E+00
         0.00000E+00
         0.00000E+00
         0.00000E+00
         0.00000E+00
         0.00000E+00
         0.00000E+00
         0.00000E+00
         0.00000E+00
         0.00000E+00
         0.00000E+00
         0.00000E+00
         0.00000E+00
         0.00000E+00
         0.00000E+00
         0.00000E+00
         0.00000E+00
         0.00000E+00
         0.00000E+00
         0.00000E+00
         0.00000E+00
         0.00000E+00
         0.00000E+00
         0.00000E+00
         0.00000E+00
         0.00000E+00
         0.00000E+00
         0.00000E+00
         0.00000E+00
         0.00000E+00
         0.00000E+00
         0.00000E+00
         0.00000E+00
         0.00000E+00
         0.00000E+00
         0.00000E+00
         0.00000E+00
         0.00000E+00
         0.00000E+00
         0.00000E+00
         0.00000E+00
         0.00000E+00
         0.00000E+00
         0.00000E+00
         0.00000E+00
         0.00000E+00
         0.00000E+00
         0.00000E+00
         0.00000E+00
         0.00000E+00
         0.00000E+00
         0.00000E+00
         0.00000E+00
         0.00000E+00
         0.00000E+00
         0.00000E+00
         0.00000E+00
         0.00000E+00
         0.00000E+00
         0.00000E+00
         0.00000E+00
         0.00000E+00
         0.00000E+00
         0.00000E+00
         0.00000E+00
         0.00000E+00
         0.00000E+00
         0.00000E+00
         0.00000E+00
         0.00000E+00
         0.00000E+00
         0.00000E+00
         0.00000E+00
         0.00000E+00
         0.00000E+00
         0.00000E+00
         0.00000E+00
         0.00000E+00
         0.00000E+00
         0.00000E+00
         0.00000E+00
         0.00000E+00
         0.00000E+00
         0.00000E+00
         0.00000E+00
         0.00000E+00
         0.00000E+00
         0.00000E+00
         0.00000E+00
         0.00000E+00
         0.00000E+00
         0.00000E+00
         0.00000E+00
         0.00000E+00
         0.00000E+00
         0.00000E+00
         0.00000E+00
         0.00000E+00
         0.00000E+00
         0.00000E+00
         0.00000E+00
         0.00000E+00
         0.00000E+00
         0.00000E+00
         0.00000E+00
         0.00000E+00
         0.00000E+00
         0.00000E+00
         0.00000E+00
         0.00000E+00
         0.00000E+00
         0.00000E+00
         0.00000E+00
         0.00000E+00
         0.00000E+00
         0.00000E+00
         0.00000E+00
         0.00000E+00
         0.00000E+00
         0.00000E+00
         0.00000E+00
         0.00000E+00
         0.00000E+00
         0.00000E+00
         0.00000E+00
         0.00000E+00
         0.00000E+00
         0.00000E+00
         0.00000E+00
         0.00000E+00
         0.00000E+00
         0.00000E+00
         0.00000E+00
         0.00000E+00
         0.00000E+00
         0.00000E+00
         0.00000E+00
         0.00000E+00
         0.00000E+00
         0.00000E+00
         0.00000E+00
         0.00000E+00
         0.00000E+00
         0.00000E+00
         0.00000E+00
         0.00000E+00
         0.00000E+00
         0.00000E+00
         0.00000E+00
         0.00000E+00
         0.00000E+00
         0.00000E+00
         0.00000E+00
         0.00000E+00
         0.00000E+00
         0.00000E+00
         0.00000E+00
         0.00000E+00
         0.00000E+00
         0.00000E+00
         0.00000E+00
         0.00000E+00
         0.00000E+00
         0.00000E+00
         0.00000E+00
         0.00000E+00
         0.00000E+00
         0.00000E+00
         0.00000E+00
         0.00000E+00
         0.00000E+00
         0.00000E+00
         0.00000E+00
         0.00000E+00
         0.00000E+00
         0.00000E+00
         0.00000E+00
         0.00000E+00
         0.00000E+00
         0.00000E+00
         0.00000E+00
         0.00000E+00
         0.00000E+00
         0.00000E+00
         0.00000E+00
         0.00000E+00
         0.00000E+00
         0.00000E+00
         0.00000E+00
         0.00000E+00
         0.00000E+00
         0.00000E+00
         0.00000E+00
         0.00000E+00
         0.00000E+00
         0.00000E+00
         0.00000E+00
         0.00000E+00
         0.00000E+00
         0.00000E+00
         0.00000E+00
         0.00000E+00
         0.00000E+00
         0.00000E+00
         0.00000E+00
         0.00000E+00
         0.00000E+00
         0.00000E+00
         0.00000E+00
         0.00000E+00
         0.00000E+00
         0.00000E+00
         0.00000E+00
         0.00000E+00
         0.00000E+00
         0.00000E+00
         0.00000E+00
         0.00000E+00
         0.00000E+00
         0.00000E+00
         0.00000E+00
         0.00000E+00
         0.00000E+00
         0.00000E+00
         0.00000E+00
         0.00000E+00
         0.00000E+00
         0.00000E+00
         0.00000E+00
         0.00000E+00
         0.00000E+00
         0.00000E+00
         0.00000E+00
         0.00000E+00
         0.00000E+00
         0.00000E+00
         0.00000E+00
         0.00000E+00
         0.00000E+00
         0.00000E+00
         0.00000E+00
         0.00000E+00
         0.00000E+00
         0.00000E+00
         0.00000E+00
         0.00000E+00
         0.00000E+00
         0.00000E+00
         0.00000E+00
         0.00000E+00
         0.00000E+00
         0.00000E+00
         0.00000E+00
         0.00000E+00
         0.00000E+00
         0.00000E+00
         0.00000E+00
         0.00000E+00
         0.00000E+00
         0.00000E+00
         0.00000E+00
         0.00000E+00
         0.00000E+00
         0.00000E+00
         0.00000E+00
         0.00000E+00
         0.00000E+00
         0.00000E+00
         0.00000E+00
         0.00000E+00
         0.00000E+00
         0.00000E+00
         0.00000E+00
         0.00000E+00
         0.00000E+00
         0.00000E+00
         0.00000E+00
         0.00000E+00
         0.00000E+00
         0.00000E+00
         0.00000E+00
         0.00000E+00
         0.00000E+00
         0.00000E+00
         0.00000E+00
         0.00000E+00
         0.00000E+00
         0.00000E+00
         0.00000E+00
         0.00000E+00
         0.00000E+00
         0.00000E+00
         0.00000E+00
         0.00000E+00
         0.00000E+00
         0.00000E+00
         0.00000E+00
         0.00000E+00
         0.00000E+00
         0.00000E+00
         0.00000E+00
         0.00000E+00
         0.00000E+00
         0.00000E+00
         0.00000E+00
         0.00000E+00
         0.00000E+00
         0.00000E+00
         0.00000E+00
         0.00000E+00
         0.00000E+00
         0.00000E+00
         0.00000E+00
         0.00000E+00
         0.00000E+00
         0.00000E+00
         0.00000E+00
         0.00000E+00
         0.00000E+00
         0.00000E+00
         0.00000E+00
         0.00000E+00
         0.00000E+00
         0.00000E+00
         0.00000E+00
         0.00000E+00
         0.00000E+00
         0.00000E+00
         0.00000E+00
         0.00000E+00
         0.00000E+00
         0.00000E+00
         0.00000E+00
         0.00000E+00
         0.00000E+00
         0.00000E+00
         0.00000E+00
         0.00000E+00
         0.00000E+00
         0.00000E+00
         0.00000E+00
         0.00000E+00
         0.00000E+00
         0.00000E+00
         0.00000E+00
         0.00000E+00
         0.00000E+00
         0.00000E+00
         0.00000E+00
         0.00000E+00
         0.00000E+00
         0.00000E+00
         0.00000E+00
         0.00000E+00
         0.00000E+00
         0.00000E+00
         0.00000E+00
         0.00000E+00
         0.00000E+00
         0.00000E+00
         0.00000E+00
         0.00000E+00
         0.00000E+00
         0.00000E+00
         0.00000E+00
         0.00000E+00
         0.00000E+00
         0.00000E+00
         0.00000E+00
         0.00000E+00
         0.00000E+00
         0.00000E+00
         0.00000E+00
         0.00000E+00
         0.00000E+00
         0.00000E+00
         0.00000E+00
         0.00000E+00
         0.00000E+00
         0.00000E+00
         0.00000E+00
         0.00000E+00
         0.00000E+00
         0.00000E+00
         0.00000E+00
         0.00000E+00
         0.00000E+00
         0.00000E+00
         0.00000E+00
         0.00000E+00
         0.00000E+00
         0.00000E+00
         0.00000E+00
         0.00000E+00
         0.00000E+00
         0.00000E+00
         0.00000E+00
         0.00000E+00
         0.00000E+00
         0.00000E+00
         0.00000E+00
         0.00000E+00
         0.00000E+00
  
SCALARS                            eps  double 1
LOOKUP_TABLE default
         0.19623E+01
         0.16649E+01
         0.16836E+01
         0.19193E+01
         0.00000E+00
         0.00000E+00
         0.00000E+00
         0.00000E+00
         0.14151E+01
         0.14664E+01
         0.00000E+00
         0.00000E+00
         0.15069E+01
         0.15946E+01
         0.00000E+00
         0.00000E+00
         0.21195E+01
         0.17708E+01
         0.00000E+00
         0.00000E+00
         0.14282E+01
         0.12790E+01
         0.13310E+01
         0.00000E+00
         0.00000E+00
         0.00000E+00
         0.15470E+01
         0.14522E+01
         0.00000E+00
         0.00000E+00
         0.19564E+01
         0.19040E+01
         0.22167E+01
         0.00000E+00
         0.00000E+00
         0.00000E+00
         0.16898E+01
         0.17325E+01
         0.00000E+00
         0.00000E+00
         0.14662E+01
         0.15699E+01
         0.00000E+00
         0.00000E+00
         0.13938E+01
         0.16135E+01
         0.00000E+00
         0.00000E+00
         0.17537E+01
         0.00000E+00
         0.15852E+01
         0.00000E+00
         0.16289E+01
         0.00000E+00
         0.15487E+01
         0.00000E+00
         0.14609E+01
         0.16482E+01
         0.00000E+00
         0.00000E+00
         0.17690E+01
         0.15232E+01
         0.00000E+00
         0.00000E+00
         0.18468E+01
         0.00000E+00
         0.16949E+01
         0.00000E+00
         0.13641E+01
         0.13949E+01
         0.00000E+00
         0.00000E+00
         0.14265E+01
         0.00000E+00
         0.14982E+01
         0.00000E+00
         0.14128E+01
         0.00000E+00
         0.12730E+01
         0.00000E+00
         0.12679E+01
         0.14039E+01
         0.00000E+00
         0.00000E+00
         0.15218E+01
         0.00000E+00
         0.13388E+01
         0.00000E+00
         0.12713E+01
         0.00000E+00
         0.12935E+01
         0.13955E+01
         0.00000E+00
         0.00000E+00
         0.14640E+01
         0.00000E+00
         0.14318E+01
         0.00000E+00
         0.13141E+01
         0.00000E+00
         0.13502E+01
         0.14205E+01
         0.00000E+00
         0.00000E+00
         0.12080E+01
         0.12002E+01
         0.00000E+00
         0.00000E+00
         0.11397E+01
         0.00000E+00
         0.11667E+01
         0.00000E+00
         0.11482E+01
         0.00000E+00
         0.12270E+01
         0.00000E+00
         0.12547E+01
         0.00000E+00
         0.11659E+01
         0.00000E+00
         0.10477E+01
         0.00000E+00
         0.10064E+01
         0.00000E+00
         0.10914E+01
         0.00000E+00
         0.11912E+01
         0.00000E+00
         0.12077E+01
         0.00000E+00
         0.12068E+01
         0.00000E+00
         0.11881E+01
         0.00000E+00
         0.12160E+01
         0.00000E+00
         0.12151E+01
         0.00000E+00
         0.11315E+01
         0.00000E+00
         0.12342E+01
         0.00000E+00
         0.12189E+01
         0.00000E+00
         0.11312E+01
         0.00000E+00
         0.11387E+01
         0.00000E+00
         0.11249E+01
         0.00000E+00
         0.12968E+01
         0.00000E+00
         0.12741E+01
         0.00000E+00
         0.12090E+01
         0.00000E+00
         0.18356E+01
         0.13275E+01
         0.13121E+01
         0.16995E+01
         0.10534E+01
         0.10920E+01
         0.11549E+01
         0.14300E+01
         0.20423E+01
         0.16196E+01
         0.10655E+01
         0.87177E+00
         0.90990E+00
         0.11866E+01
         0.99213E+00
         0.17926E+01
         0.18184E+01
         0.21027E+01
         0.14402E+01
         0.14544E+01
         0.11023E+01
         0.11754E+01
         0.10002E+01
         0.12687E+01
         0.15775E+01
         0.12905E+01
         0.12785E+01
         0.12437E+01
         0.10904E+01
         0.13266E+01
         0.14790E+01
         0.11532E+01
         0.16053E+01
         0.13942E+01
         0.92399E+00
         0.97226E+00
         0.10054E+01
         0.10252E+01
         0.96720E+00
         0.84412E+00
         0.80061E+00
         0.95100E+00
         0.10957E+01
         0.95114E+00
         0.89654E+00
         0.86756E+00
         0.99559E+00
         0.10831E+01
         0.10988E+01
         0.10148E+01
         0.94713E+00
         0.10700E+01
         0.79757E+00
         0.82981E+00
         0.73992E+00
         0.77509E+00
         0.76020E+00
         0.80417E+00
         0.85936E+00
         0.84854E+00
         0.71647E+00
         0.66034E+00
         0.72920E+00
         0.80452E+00
         0.82687E+00
         0.83718E+00
         0.77479E+00
         0.75693E+00
         0.79374E+00
         0.70253E+00
         0.76418E+00
         0.83056E+00
         0.79323E+00
         0.83258E+00
         0.71983E+00
         0.72440E+00
         0.83153E+00
         0.84257E+00
         0.15693E+01
         0.12299E+01
         0.12114E+01
         0.15037E+01
         0.99759E+00
         0.10463E+01
         0.11077E+01
         0.13318E+01
         0.17077E+01
         0.14827E+01
         0.10192E+01
         0.87451E+00
         0.89941E+00
         0.11225E+01
         0.95895E+00
         0.15683E+01
         0.15846E+01
         0.17792E+01
         0.13299E+01
         0.13538E+01
         0.10631E+01
         0.11073E+01
         0.10027E+01
         0.11788E+01
         0.14547E+01
         0.11835E+01
         0.12052E+01
         0.11715E+01
         0.10490E+01
         0.12592E+01
         0.13629E+01
         0.11034E+01
         0.14430E+01
         0.12803E+01
         0.86732E+00
         0.91599E+00
         0.95620E+00
         0.97645E+00
         0.92382E+00
         0.80746E+00
         0.76464E+00
         0.92339E+00
         0.10451E+01
         0.94033E+00
         0.84442E+00
         0.81652E+00
         0.94783E+00
         0.10563E+01
         0.10486E+01
         0.94650E+00
         0.89285E+00
         0.10219E+01
         0.73905E+00
         0.77052E+00
         0.73287E+00
         0.71988E+00
         0.66442E+00
         0.67805E+00
         0.73297E+00
         0.75246E+00
         0.66383E+00
         0.65404E+00
         0.67294E+00
         0.71715E+00
         0.72696E+00
         0.75115E+00
         0.68561E+00
         0.68943E+00
         0.72066E+00
         0.65783E+00
         0.74514E+00
         0.81319E+00
         0.74606E+00
         0.74828E+00
         0.69682E+00
         0.72673E+00
         0.78727E+00
         0.78345E+00
         0.12594E+01
         0.94760E+00
         0.91463E+00
         0.11851E+01
         0.75494E+00
         0.81057E+00
         0.89552E+00
         0.10464E+01
         0.13851E+01
         0.11861E+01
         0.84533E+00
         0.71303E+00
         0.70621E+00
         0.90767E+00
         0.72613E+00
         0.12311E+01
         0.12835E+01
         0.14352E+01
         0.10373E+01
         0.10860E+01
         0.78804E+00
         0.82765E+00
         0.75011E+00
         0.91205E+00
         0.11776E+01
         0.92011E+00
         0.95510E+00
         0.91884E+00
         0.79550E+00
         0.99157E+00
         0.10483E+01
         0.82590E+00
         0.10953E+01
         0.94439E+00
         0.66362E+00
         0.67775E+00
         0.70222E+00
         0.71348E+00
         0.70244E+00
         0.63591E+00
         0.60261E+00
         0.68585E+00
         0.79164E+00
         0.70090E+00
         0.66055E+00
         0.65235E+00
         0.71637E+00
         0.78446E+00
         0.78522E+00
         0.72018E+00
         0.68619E+00
         0.77756E+00
         0.68153E+00
         0.68518E+00
         0.69296E+00
         0.65613E+00
         0.66939E+00
         0.68003E+00
         0.69988E+00
         0.68795E+00
         0.65024E+00
         0.66217E+00
         0.66106E+00
         0.67133E+00
         0.70691E+00
         0.71313E+00
         0.66617E+00
         0.67111E+00
         0.67428E+00
         0.64986E+00
         0.68020E+00
         0.73469E+00
         0.69058E+00
         0.66618E+00
         0.63896E+00
         0.64996E+00
         0.71493E+00
         0.72101E+00
         0.11107E+01
         0.92816E+00
         0.88689E+00
         0.10840E+01
         0.79911E+00
         0.85920E+00
         0.89677E+00
         0.10519E+01
         0.10579E+01
         0.11129E+01
         0.85228E+00
         0.78112E+00
         0.79296E+00
         0.91042E+00
         0.77734E+00
         0.10998E+01
         0.11346E+01
         0.11460E+01
         0.99465E+00
         0.10251E+01
         0.82694E+00
         0.84770E+00
         0.80499E+00
         0.89060E+00
         0.10706E+01
         0.89045E+00
         0.93518E+00
         0.89207E+00
         0.81983E+00
         0.94297E+00
         0.10010E+01
         0.84060E+00
         0.10586E+01
         0.95867E+00
         0.73391E+00
         0.75854E+00
         0.78937E+00
         0.78297E+00
         0.76822E+00
         0.73492E+00
         0.72129E+00
         0.75653E+00
         0.81688E+00
         0.78873E+00
         0.74357E+00
         0.73731E+00
         0.78756E+00
         0.86324E+00
         0.86135E+00
         0.80472E+00
         0.78540E+00
         0.84303E+00
         0.74557E+00
         0.77533E+00
         0.78963E+00
         0.74998E+00
         0.77854E+00
         0.76376E+00
         0.70621E+00
         0.71214E+00
         0.73086E+00
         0.76745E+00
         0.74761E+00
         0.76205E+00
         0.76504E+00
         0.74504E+00
         0.76241E+00
         0.79019E+00
         0.78795E+00
         0.80625E+00
         0.75683E+00
         0.78864E+00
         0.80301E+00
         0.78785E+00
         0.80293E+00
         0.78665E+00
         0.79707E+00
         0.81481E+00
         0.53290E+00
         0.56667E+00
         0.55259E+00
         0.59455E+00
         0.59748E+00
         0.62225E+00
         0.61411E+00
         0.57909E+00
         0.49323E+00
         0.56565E+00
         0.65505E+00
         0.66149E+00
         0.64393E+00
         0.65559E+00
         0.64233E+00
         0.59423E+00
         0.55527E+00
         0.55853E+00
         0.63918E+00
         0.65741E+00
         0.63156E+00
         0.64238E+00
         0.64379E+00
         0.63330E+00
         0.57814E+00
         0.63024E+00
         0.64667E+00
         0.60746E+00
         0.59651E+00
         0.62523E+00
         0.62878E+00
         0.60945E+00
         0.60576E+00
         0.57936E+00
         0.59370E+00
         0.56890E+00
         0.60074E+00
         0.63239E+00
         0.61657E+00
         0.61577E+00
         0.63883E+00
         0.61324E+00
         0.63339E+00
         0.64773E+00
         0.65266E+00
         0.67042E+00
         0.63360E+00
         0.62482E+00
         0.61456E+00
         0.60170E+00
         0.61457E+00
         0.61248E+00
         0.73927E+00
         0.79133E+00
         0.77829E+00
         0.75948E+00
         0.78470E+00
         0.76831E+00
         0.71735E+00
         0.69549E+00
         0.74795E+00
         0.82814E+00
         0.80711E+00
         0.77857E+00
         0.73716E+00
         0.73354E+00
         0.76738E+00
         0.81300E+00
         0.82359E+00
         0.84845E+00
         0.77459E+00
         0.79065E+00
         0.80328E+00
         0.76762E+00
         0.78925E+00
         0.74218E+00
         0.75860E+00
         0.79067E+00
         0.50846E+00
         0.47880E+00
         0.46694E+00
         0.47848E+00
         0.53266E+00
         0.52833E+00
         0.50236E+00
         0.51828E+00
         0.51722E+00
         0.50469E+00
         0.52002E+00
         0.59023E+00
         0.56895E+00
         0.50892E+00
         0.54564E+00
         0.50355E+00
         0.49627E+00
         0.49205E+00
         0.50122E+00
         0.47226E+00
         0.53492E+00
         0.51172E+00
         0.57013E+00
         0.51000E+00
         0.47109E+00
         0.50220E+00
         0.47769E+00
         0.47027E+00
         0.50024E+00
         0.46274E+00
         0.46992E+00
         0.48897E+00
         0.47983E+00
         0.50204E+00
         0.56442E+00
         0.53206E+00
         0.53503E+00
         0.52479E+00
         0.53583E+00
         0.58596E+00
         0.62689E+00
         0.56339E+00
         0.52173E+00
         0.57214E+00
         0.57476E+00
         0.60538E+00
         0.55405E+00
         0.53751E+00
         0.54288E+00
         0.57640E+00
         0.60815E+00
         0.56263E+00
         0.67266E+00
         0.72648E+00
         0.71445E+00
         0.72394E+00
         0.75539E+00
         0.75595E+00
         0.72305E+00
         0.70232E+00
         0.72722E+00
         0.77433E+00
         0.76507E+00
         0.74230E+00
         0.70953E+00
         0.71633E+00
         0.73804E+00
         0.76401E+00
         0.76633E+00
         0.79860E+00
         0.71137E+00
         0.73283E+00
         0.77252E+00
         0.75501E+00
         0.76189E+00
         0.70241E+00
         0.71464E+00
         0.72372E+00
         0.26525E+00
         0.31800E+00
         0.31785E+00
         0.25484E+00
         0.42476E+00
         0.40075E+00
         0.37712E+00
         0.30653E+00
         0.23820E+00
         0.27819E+00
         0.41834E+00
         0.50224E+00
         0.47518E+00
         0.37699E+00
         0.47116E+00
         0.27287E+00
         0.27890E+00
         0.25997E+00
         0.32676E+00
         0.32023E+00
         0.43992E+00
         0.42498E+00
         0.47809E+00
         0.38488E+00
         0.30574E+00
         0.37123E+00
         0.35169E+00
         0.36808E+00
         0.40778E+00
         0.35127E+00
         0.32951E+00
         0.39095E+00
         0.30607E+00
         0.32111E+00
         0.48546E+00
         0.44257E+00
         0.44134E+00
         0.45594E+00
         0.46282E+00
         0.50091E+00
         0.55214E+00
         0.47909E+00
         0.43889E+00
         0.48957E+00
         0.51891E+00
         0.56789E+00
         0.49199E+00
         0.45215E+00
         0.43121E+00
         0.44366E+00
         0.49264E+00
         0.43214E+00
         0.68074E+00
         0.68581E+00
         0.69596E+00
         0.70167E+00
         0.71967E+00
         0.73209E+00
         0.74643E+00
         0.71433E+00
         0.72071E+00
         0.77338E+00
         0.77690E+00
         0.74843E+00
         0.71002E+00
         0.71043E+00
         0.72797E+00
         0.73161E+00
         0.74905E+00
         0.78785E+00
         0.75381E+00
         0.72722E+00
         0.70243E+00
         0.69052E+00
         0.72420E+00
         0.69221E+00
         0.66834E+00
         0.65965E+00
         0.30440E+00
         0.29992E+00
         0.29189E+00
         0.27103E+00
         0.32315E+00
         0.30365E+00
         0.32150E+00
         0.32158E+00
         0.28138E+00
         0.28343E+00
         0.33097E+00
         0.36516E+00
         0.35487E+00
         0.31407E+00
         0.34007E+00
         0.29099E+00
         0.27341E+00
         0.27620E+00
         0.29159E+00
         0.27397E+00
         0.33844E+00
         0.31665E+00
         0.34713E+00
         0.31684E+00
         0.27311E+00
         0.30986E+00
         0.29270E+00
         0.29818E+00
         0.32997E+00
         0.29214E+00
         0.27511E+00
         0.30106E+00
         0.26525E+00
         0.27822E+00
         0.37084E+00
         0.34594E+00
         0.34203E+00
         0.33326E+00
         0.34766E+00
         0.38371E+00
         0.42751E+00
         0.37244E+00
         0.32613E+00
         0.34869E+00
         0.36903E+00
         0.41038E+00
         0.35212E+00
         0.31335E+00
         0.31864E+00
         0.35110E+00
         0.39435E+00
         0.34391E+00
         0.47457E+00
         0.45646E+00
         0.48924E+00
         0.49508E+00
         0.51117E+00
         0.52060E+00
         0.52363E+00
         0.51378E+00
         0.50719E+00
         0.51245E+00
         0.51710E+00
         0.49241E+00
         0.48106E+00
         0.49014E+00
         0.49838E+00
         0.49902E+00
         0.49228E+00
         0.52378E+00
         0.52768E+00
         0.50278E+00
         0.49638E+00
         0.49773E+00
         0.52387E+00
         0.51277E+00
         0.49730E+00
         0.45290E+00
         0.23899E+00
         0.20448E+00
         0.18556E+00
         0.19637E+00
         0.22826E+00
         0.19312E+00
         0.22786E+00
         0.23908E+00
         0.24074E+00
         0.24884E+00
         0.24488E+00
         0.27892E+00
         0.25332E+00
         0.23698E+00
         0.27698E+00
         0.23503E+00
         0.24059E+00
         0.22890E+00
         0.22061E+00
         0.21642E+00
         0.23716E+00
         0.23725E+00
         0.25307E+00
         0.21939E+00
         0.23532E+00
         0.21114E+00
         0.22974E+00
         0.22888E+00
         0.23694E+00
         0.21735E+00
         0.19200E+00
         0.20959E+00
         0.18526E+00
         0.17719E+00
         0.28233E+00
         0.25991E+00
         0.24130E+00
         0.27139E+00
         0.26967E+00
         0.28633E+00
         0.31694E+00
         0.27523E+00
         0.25073E+00
         0.25595E+00
         0.28249E+00
         0.32256E+00
         0.26749E+00
         0.22774E+00
         0.21292E+00
         0.23724E+00
         0.26417E+00
         0.21736E+00
         0.39976E+00
         0.38397E+00
         0.40434E+00
         0.39854E+00
         0.39276E+00
         0.41452E+00
         0.45653E+00
         0.44559E+00
         0.44469E+00
         0.45587E+00
         0.46087E+00
         0.44297E+00
         0.41805E+00
         0.40749E+00
         0.40520E+00
         0.40815E+00
         0.41945E+00
         0.44643E+00
         0.45762E+00
         0.44438E+00
         0.40210E+00
         0.37984E+00
         0.39363E+00
         0.38976E+00
         0.37240E+00
         0.36200E+00
         0.27969E+00
         0.24309E+00
         0.23350E+00
         0.24308E+00
         0.20938E+00
         0.19924E+00
         0.24701E+00
         0.27739E+00
         0.28882E+00
         0.27834E+00
         0.24176E+00
         0.23015E+00
         0.22337E+00
         0.24959E+00
         0.23245E+00
         0.28126E+00
         0.28272E+00
         0.28190E+00
         0.24846E+00
         0.24556E+00
         0.23017E+00
         0.23267E+00
         0.21571E+00
         0.24545E+00
         0.27033E+00
         0.24365E+00
         0.25210E+00
         0.25488E+00
         0.25351E+00
         0.25159E+00
         0.24598E+00
         0.22155E+00
         0.24660E+00
         0.22153E+00
         0.22389E+00
         0.22091E+00
         0.21826E+00
         0.23179E+00
         0.23995E+00
         0.24804E+00
         0.26108E+00
         0.24780E+00
         0.23645E+00
         0.21116E+00
         0.21734E+00
         0.23121E+00
         0.21335E+00
         0.19840E+00
         0.20427E+00
         0.21151E+00
         0.22479E+00
         0.21460E+00
         0.25041E+00
         0.22484E+00
         0.25673E+00
         0.25992E+00
         0.26331E+00
         0.26483E+00
         0.29571E+00
         0.29471E+00
         0.28535E+00
         0.28662E+00
         0.30054E+00
         0.27376E+00
         0.27011E+00
         0.27495E+00
         0.26467E+00
         0.24637E+00
         0.24324E+00
         0.26077E+00
         0.28570E+00
         0.26695E+00
         0.23881E+00
         0.24442E+00
         0.25486E+00
         0.25930E+00
         0.24389E+00
         0.22438E+00
         0.15640E+00
         0.14544E+00
         0.12156E+00
         0.13205E+00
         0.12600E+00
         0.11099E+00
         0.15966E+00
         0.16176E+00
         0.15283E+00
         0.17035E+00
         0.16615E+00
         0.17013E+00
         0.15581E+00
         0.16714E+00
         0.16853E+00
         0.14592E+00
         0.15775E+00
         0.14682E+00
         0.15749E+00
         0.16338E+00
         0.15157E+00
         0.14895E+00
         0.15443E+00
         0.14626E+00
         0.17095E+00
         0.13940E+00
         0.16902E+00
         0.16510E+00
         0.16043E+00
         0.16407E+00
         0.12082E+00
         0.12973E+00
         0.11441E+00
         0.11697E+00
         0.14850E+00
         0.14514E+00
         0.14444E+00
         0.16034E+00
         0.15590E+00
         0.16130E+00
         0.16747E+00
         0.16062E+00
         0.14974E+00
         0.14956E+00
         0.14696E+00
         0.15679E+00
         0.13974E+00
         0.12473E+00
         0.11687E+00
         0.12596E+00
         0.13021E+00
         0.11425E+00
         0.18528E+00
         0.16962E+00
         0.18362E+00
         0.18211E+00
         0.18052E+00
         0.18768E+00
         0.20924E+00
         0.21180E+00
         0.22050E+00
         0.21166E+00
         0.20994E+00
         0.20773E+00
         0.19262E+00
         0.17659E+00
         0.17492E+00
         0.17880E+00
         0.18980E+00
         0.19245E+00
         0.19998E+00
         0.19336E+00
         0.17396E+00
         0.16248E+00
         0.16021E+00
         0.15822E+00
         0.15695E+00
         0.15755E+00
         0.27363E+00
         0.22549E+00
         0.20914E+00
         0.23366E+00
         0.16975E+00
         0.16638E+00
         0.22264E+00
         0.26331E+00
         0.30829E+00
         0.27768E+00
         0.21058E+00
         0.18115E+00
         0.18477E+00
         0.22552E+00
         0.18690E+00
         0.27557E+00
         0.28707E+00
         0.28128E+00
         0.23725E+00
         0.23161E+00
         0.18773E+00
         0.19038E+00
         0.17485E+00
         0.22111E+00
         0.25787E+00
         0.22215E+00
         0.22960E+00
         0.22405E+00
         0.21430E+00
         0.22183E+00
         0.22810E+00
         0.19668E+00
         0.23300E+00
         0.20566E+00
         0.16826E+00
         0.17647E+00
         0.18235E+00
         0.19081E+00
         0.19216E+00
         0.19602E+00
         0.20018E+00
         0.19778E+00
         0.18966E+00
         0.17279E+00
         0.17091E+00
         0.16454E+00
         0.16445E+00
         0.16510E+00
         0.17392E+00
         0.17290E+00
         0.16882E+00
         0.16988E+00
         0.16392E+00
         0.16923E+00
         0.16184E+00
         0.17975E+00
         0.19098E+00
         0.18819E+00
         0.19633E+00
         0.20066E+00
         0.20802E+00
         0.20668E+00
         0.21103E+00
         0.19481E+00
         0.18871E+00
         0.18395E+00
         0.17826E+00
         0.17088E+00
         0.17200E+00
         0.16702E+00
         0.16678E+00
         0.16775E+00
         0.16351E+00
         0.16528E+00
         0.16384E+00
         0.16792E+00
         0.16788E+00
         0.16898E+00
         0.12082E+00
         0.11094E+00
         0.92809E-01
         0.10484E+00
         0.88149E-01
         0.83507E-01
         0.11949E+00
         0.11507E+00
         0.11071E+00
         0.11830E+00
         0.12476E+00
         0.13324E+00
         0.12344E+00
         0.12182E+00
         0.12579E+00
         0.10284E+00
         0.10931E+00
         0.11047E+00
         0.11140E+00
         0.11962E+00
         0.11310E+00
         0.11126E+00
         0.11863E+00
         0.10496E+00
         0.12537E+00
         0.10023E+00
         0.12162E+00
         0.12648E+00
         0.12558E+00
         0.12883E+00
         0.81718E-01
         0.94182E-01
         0.81324E-01
         0.87162E-01
         0.10058E+00
         0.10286E+00
         0.10933E+00
         0.11285E+00
         0.11220E+00
         0.11209E+00
         0.11295E+00
         0.11588E+00
         0.11206E+00
         0.11802E+00
         0.10790E+00
         0.10697E+00
         0.97251E-01
         0.86984E-01
         0.78528E-01
         0.83872E-01
         0.88730E-01
         0.82454E-01
         0.12561E+00
         0.10846E+00
         0.11728E+00
         0.10970E+00
         0.11540E+00
         0.12628E+00
         0.13158E+00
         0.12627E+00
         0.13342E+00
         0.13854E+00
         0.14087E+00
         0.13663E+00
         0.12151E+00
         0.11520E+00
         0.11000E+00
         0.11308E+00
         0.11050E+00
         0.11448E+00
         0.13113E+00
         0.11224E+00
         0.94385E-01
         0.87376E-01
         0.99425E-01
         0.10573E+00
         0.97024E-01
         0.95306E-01
         0.24496E+00
         0.20415E+00
         0.18350E+00
         0.21231E+00
         0.14293E+00
         0.14521E+00
         0.20225E+00
         0.23317E+00
         0.26735E+00
         0.24101E+00
         0.18508E+00
         0.14700E+00
         0.15423E+00
         0.19502E+00
         0.14967E+00
         0.23652E+00
         0.24648E+00
         0.24715E+00
         0.20735E+00
         0.20131E+00
         0.15567E+00
         0.15370E+00
         0.14619E+00
         0.19443E+00
         0.22392E+00
         0.19575E+00
         0.19454E+00
         0.19125E+00
         0.18234E+00
         0.19021E+00
         0.20046E+00
         0.17306E+00
         0.20615E+00
         0.18392E+00
         0.13636E+00
         0.14711E+00
         0.15637E+00
         0.15476E+00
         0.15966E+00
         0.16352E+00
         0.15993E+00
         0.15868E+00
         0.15320E+00
         0.14234E+00
         0.14029E+00
         0.13434E+00
         0.14050E+00
         0.14474E+00
         0.15170E+00
         0.14798E+00
         0.14153E+00
         0.14587E+00
         0.14301E+00
         0.14103E+00
         0.14035E+00
         0.14566E+00
         0.14712E+00
         0.14625E+00
         0.15374E+00
         0.14512E+00
         0.16012E+00
         0.15430E+00
         0.16134E+00
         0.14399E+00
         0.14421E+00
         0.13655E+00
         0.13714E+00
         0.13215E+00
         0.14228E+00
         0.13296E+00
         0.13483E+00
         0.13466E+00
         0.13167E+00
         0.13554E+00
         0.13964E+00
         0.13941E+00
         0.13715E+00
         0.13146E+00
         0.11530E+00
         0.10205E+00
         0.84475E-01
         0.99509E-01
         0.77884E-01
         0.72972E-01
         0.10412E+00
         0.10259E+00
         0.11355E+00
         0.10942E+00
         0.10597E+00
         0.11528E+00
         0.11068E+00
         0.10421E+00
         0.10727E+00
         0.96236E-01
         0.10113E+00
         0.11192E+00
         0.90857E-01
         0.99657E-01
         0.90513E-01
         0.91861E-01
         0.10006E+00
         0.87250E-01
         0.11054E+00
         0.90219E-01
         0.10295E+00
         0.10838E+00
         0.11071E+00
         0.11151E+00
         0.80062E-01
         0.85842E-01
         0.76395E-01
         0.74015E-01
         0.87292E-01
         0.90569E-01
         0.98998E-01
         0.97542E-01
         0.95472E-01
         0.94980E-01
         0.91087E-01
         0.97769E-01
         0.95807E-01
         0.10574E+00
         0.95427E-01
         0.90655E-01
         0.87500E-01
         0.81038E-01
         0.69312E-01
         0.68109E-01
         0.71025E-01
         0.69673E-01
         0.10761E+00
         0.92069E-01
         0.98311E-01
         0.92581E-01
         0.97594E-01
         0.99268E-01
         0.98454E-01
         0.10020E+00
         0.96799E-01
         0.10640E+00
         0.12009E+00
         0.10144E+00
         0.86097E-01
         0.89875E-01
         0.83034E-01
         0.83068E-01
         0.82964E-01
         0.93884E-01
         0.10405E+00
         0.91659E-01
         0.80339E-01
         0.77667E-01
         0.87122E-01
         0.96425E-01
         0.82727E-01
         0.83117E-01
         0.19999E+00
         0.17616E+00
         0.15869E+00
         0.17716E+00
         0.12346E+00
         0.13042E+00
         0.17947E+00
         0.19969E+00
         0.19772E+00
         0.19370E+00
         0.16311E+00
         0.12100E+00
         0.12649E+00
         0.17145E+00
         0.12260E+00
         0.19463E+00
         0.18707E+00
         0.19070E+00
         0.17606E+00
         0.16726E+00
         0.13342E+00
         0.13045E+00
         0.12674E+00
         0.17318E+00
         0.18126E+00
         0.17344E+00
         0.16860E+00
         0.16198E+00
         0.14780E+00
         0.15886E+00
         0.17180E+00
         0.14734E+00
         0.17306E+00
         0.15642E+00
         0.10997E+00
         0.11855E+00
         0.12711E+00
         0.12552E+00
         0.12555E+00
         0.12492E+00
         0.11845E+00
         0.12277E+00
         0.12618E+00
         0.11930E+00
         0.11244E+00
         0.10562E+00
         0.11190E+00
         0.12212E+00
         0.13152E+00
         0.12578E+00
         0.11920E+00
         0.12792E+00
         0.11386E+00
         0.11203E+00
         0.11212E+00
         0.11110E+00
         0.10784E+00
         0.11852E+00
         0.13119E+00
         0.11054E+00
         0.11111E+00
         0.11471E+00
         0.11707E+00
         0.10927E+00
         0.10704E+00
         0.10414E+00
         0.11291E+00
         0.11332E+00
         0.12213E+00
         0.11460E+00
         0.10513E+00
         0.10929E+00
         0.10428E+00
         0.10841E+00
         0.11700E+00
         0.11229E+00
         0.10748E+00
         0.10169E+00
         0.11692E+00
         0.93343E-01
         0.79914E-01
         0.10131E+00
         0.75078E-01
         0.68698E-01
         0.10081E+00
         0.10814E+00
         0.12386E+00
         0.11581E+00
         0.10862E+00
         0.12125E+00
         0.10734E+00
         0.10678E+00
         0.11467E+00
         0.10499E+00
         0.10807E+00
         0.12142E+00
         0.90071E-01
         0.94683E-01
         0.90212E-01
         0.87300E-01
         0.10148E+00
         0.87683E-01
         0.11143E+00
         0.90798E-01
         0.10106E+00
         0.10419E+00
         0.10379E+00
         0.10536E+00
         0.83706E-01
         0.85072E-01
         0.85717E-01
         0.79511E-01
         0.86568E-01
         0.88960E-01
         0.91481E-01
         0.96733E-01
         0.90294E-01
         0.91560E-01
         0.87893E-01
         0.93522E-01
         0.89606E-01
         0.10563E+00
         0.93207E-01
         0.86844E-01
         0.85427E-01
         0.82963E-01
         0.74304E-01
         0.72763E-01
         0.70920E-01
         0.67430E-01
         0.10180E+00
         0.81519E-01
         0.90042E-01
         0.75560E-01
         0.79782E-01
         0.86813E-01
         0.81743E-01
         0.86627E-01
         0.77962E-01
         0.84229E-01
         0.99801E-01
         0.79552E-01
         0.68602E-01
         0.73856E-01
         0.68592E-01
         0.73816E-01
         0.69402E-01
         0.85922E-01
         0.10579E+00
         0.85907E-01
         0.73139E-01
         0.72496E-01
         0.79410E-01
         0.93892E-01
         0.77096E-01
         0.72219E-01
         0.16902E+00
         0.16297E+00
         0.14824E+00
         0.14166E+00
         0.11600E+00
         0.11500E+00
         0.17236E+00
         0.18350E+00
         0.15865E+00
         0.15512E+00
         0.15790E+00
         0.12100E+00
         0.12334E+00
         0.16450E+00
         0.12246E+00
         0.16931E+00
         0.14281E+00
         0.15419E+00
         0.15500E+00
         0.13665E+00
         0.12553E+00
         0.11993E+00
         0.12218E+00
         0.16509E+00
         0.14231E+00
         0.16546E+00
         0.15198E+00
         0.14370E+00
         0.13741E+00
         0.13649E+00
         0.14978E+00
         0.13845E+00
         0.14322E+00
         0.13206E+00
         0.10438E+00
         0.11612E+00
         0.12348E+00
         0.12233E+00
         0.12042E+00
         0.11869E+00
         0.11395E+00
         0.11717E+00
         0.11934E+00
         0.11441E+00
         0.11018E+00
         0.10127E+00
         0.10276E+00
         0.10280E+00
         0.11241E+00
         0.11369E+00
         0.10968E+00
         0.11581E+00
         0.91421E-01
         0.95384E-01
         0.97182E-01
         0.11161E+00
         0.11219E+00
         0.12607E+00
         0.14278E+00
         0.10008E+00
         0.91750E-01
         0.94977E-01
         0.90964E-01
         0.96485E-01
         0.94831E-01
         0.92536E-01
         0.11254E+00
         0.11120E+00
         0.12304E+00
         0.11477E+00
         0.97483E-01
         0.10180E+00
         0.96477E-01
         0.95275E-01
         0.97795E-01
         0.88187E-01
         0.86821E-01
         0.89084E-01
         0.13566E+00
         0.11886E+00
         0.97879E-01
         0.11528E+00
         0.86522E-01
         0.85668E-01
         0.12035E+00
         0.12043E+00
         0.14590E+00
         0.13259E+00
         0.12646E+00
         0.13817E+00
         0.12973E+00
         0.12116E+00
         0.13133E+00
         0.12402E+00
         0.12566E+00
         0.13206E+00
         0.11594E+00
         0.11515E+00
         0.11486E+00
         0.10686E+00
         0.12203E+00
         0.11214E+00
         0.12948E+00
         0.11314E+00
         0.12001E+00
         0.12445E+00
         0.12431E+00
         0.12529E+00
         0.95827E-01
         0.10124E+00
         0.96196E-01
         0.97921E-01
         0.96762E-01
         0.10590E+00
         0.11343E+00
         0.11342E+00
         0.10409E+00
         0.10464E+00
         0.96584E-01
         0.10718E+00
         0.10572E+00
         0.12287E+00
         0.10692E+00
         0.98824E-01
         0.99641E-01
         0.98345E-01
         0.93283E-01
         0.98488E-01
         0.97433E-01
         0.90862E-01
         0.10634E+00
         0.79227E-01
         0.97570E-01
         0.82924E-01
         0.85251E-01
         0.86192E-01
         0.76801E-01
         0.83845E-01
         0.63587E-01
         0.79456E-01
         0.10267E+00
         0.69329E-01
         0.64800E-01
         0.78503E-01
         0.69542E-01
         0.75756E-01
         0.67882E-01
         0.84257E-01
         0.11332E+00
         0.94524E-01
         0.80492E-01
         0.83069E-01
         0.96937E-01
         0.11945E+00
         0.94188E-01
         0.74648E-01
         0.13047E+00
         0.15708E+00
         0.14688E+00
         0.12533E+00
         0.11437E+00
         0.11460E+00
         0.16377E+00
         0.14275E+00
         0.10021E+00
         0.10893E+00
         0.15447E+00
         0.13076E+00
         0.14019E+00
         0.14324E+00
         0.12200E+00
         0.12735E+00
         0.90618E-01
         0.11492E+00
         0.12937E+00
         0.10502E+00
         0.12071E+00
         0.11598E+00
         0.12531E+00
         0.15530E+00
         0.99121E-01
         0.15635E+00
         0.12942E+00
         0.12741E+00
         0.13344E+00
         0.10814E+00
         0.13929E+00
         0.14403E+00
         0.12848E+00
         0.12944E+00
         0.10811E+00
         0.12757E+00
         0.13919E+00
         0.12620E+00
         0.13930E+00
         0.14982E+00
         0.15446E+00
         0.13972E+00
         0.12360E+00
         0.12312E+00
         0.12262E+00
         0.11087E+00
         0.11262E+00
         0.10567E+00
         0.10558E+00
         0.10486E+00
         0.10427E+00
         0.11975E+00
         0.85160E-01
         0.89654E-01
         0.10668E+00
         0.14192E+00
         0.14585E+00
         0.14660E+00
         0.15959E+00
         0.11962E+00
         0.13536E+00
         0.15372E+00
         0.14465E+00
         0.14765E+00
         0.12279E+00
         0.96798E-01
         0.11829E+00
         0.12096E+00
         0.14308E+00
         0.11982E+00
         0.90571E-01
         0.10092E+00
         0.10548E+00
         0.97298E-01
         0.81698E-01
         0.71022E-01
         0.86755E-01
         0.93196E-01
         0.23066E+00
         0.21403E+00
         0.20447E+00
         0.22679E+00
         0.19369E+00
         0.19063E+00
         0.18598E+00
         0.17135E+00
         0.21895E+00
         0.17241E+00
         0.16834E+00
         0.18111E+00
         0.19744E+00
         0.15868E+00
         0.16568E+00
         0.18187E+00
         0.15716E+00
         0.24788E+00
         0.15713E+00
         0.15815E+00
         0.16395E+00
         0.15119E+00
         0.18107E+00
         0.15756E+00
         0.16515E+00
         0.16661E+00
         0.16268E+00
         0.16717E+00
         0.15951E+00
         0.16389E+00
         0.17709E+00
         0.16871E+00
         0.18054E+00
         0.17809E+00
         0.19547E+00
         0.20332E+00
         0.20817E+00
         0.15552E+00
         0.15559E+00
         0.14576E+00
         0.12878E+00
         0.15268E+00
         0.15466E+00
         0.19045E+00
         0.17701E+00
         0.17138E+00
         0.18232E+00
         0.18986E+00
         0.18487E+00
         0.18336E+00
         0.18151E+00
         0.17989E+00
         0.19793E+00
         0.19223E+00
         0.18781E+00
         0.19784E+00
         0.20248E+00
         0.17505E+00
         0.13639E+00
         0.13621E+00
         0.14266E+00
         0.12899E+00
         0.13371E+00
         0.12446E+00
         0.13255E+00
         0.15543E+00
         0.15709E+00
         0.16340E+00
         0.16695E+00
         0.16725E+00
         0.17558E+00
         0.16924E+00
         0.16977E+00
         0.19124E+00
         0.19568E+00
         0.19798E+00
         0.18278E+00
         0.19288E+00
         0.11704E+00
         0.15878E+00
         0.17956E+00
         0.13395E+00
         0.17710E+00
         0.20410E+00
         0.15707E+00
         0.12523E+00
         0.87567E-01
         0.12863E+00
         0.16915E+00
         0.18849E+00
         0.19858E+00
         0.16820E+00
         0.19827E+00
         0.10467E+00
         0.10819E+00
         0.81188E-01
         0.14510E+00
         0.14154E+00
         0.20066E+00
         0.20327E+00
         0.19519E+00
         0.18126E+00
         0.12519E+00
         0.18072E+00
         0.18132E+00
         0.15436E+00
         0.14626E+00
         0.13913E+00
         0.18246E+00
         0.17583E+00
         0.19029E+00
         0.19116E+00
         0.12884E+00
         0.13679E+00
         0.17518E+00
         0.21627E+00
         0.19795E+00
         0.17132E+00
         0.17478E+00
         0.20116E+00
         0.21117E+00
         0.17980E+00
         0.15053E+00
         0.12317E+00
         0.13954E+00
         0.17941E+00
         0.21787E+00
         0.20528E+00
         0.18355E+00
         0.20018E+00
         0.17511E+00
         0.21090E+00
         0.18432E+00
         0.18850E+00
         0.18372E+00
         0.17609E+00
         0.18656E+00
         0.15050E+00
         0.15421E+00
         0.20008E+00
         0.22422E+00
         0.18119E+00
         0.14714E+00
         0.14320E+00
         0.15760E+00
         0.16188E+00
         0.17745E+00
         0.17775E+00
         0.15522E+00
         0.17870E+00
         0.18875E+00
         0.20089E+00
         0.20369E+00
         0.20282E+00
         0.22700E+00
         0.23326E+00
         0.51857E+00
         0.50354E+00
         0.40964E+00
         0.38382E+00
         0.48471E+00
         0.46999E+00
         0.69307E+00
         0.76763E+00
         0.59661E+00
         0.87081E+00
         0.77145E+00
         0.69712E+00
         0.57839E+00
         0.79737E+00
         0.69556E+00
         0.58646E+00
         0.83276E+00
         0.28639E+00
         0.79833E+00
         0.90149E+00
         0.75401E+00
         0.77218E+00
         0.62250E+00
         0.67946E+00
         0.97290E+00
         0.55518E+00
         0.86827E+00
         0.90896E+00
         0.83221E+00
         0.94443E+00
         0.41783E+00
         0.45280E+00
         0.39721E+00
         0.50657E+00
         0.57035E+00
         0.48738E+00
         0.44742E+00
         0.69100E+00
         0.71778E+00
         0.71323E+00
         0.61520E+00
         0.63233E+00
         0.70656E+00
         0.47543E+00
         0.45561E+00
         0.55975E+00
         0.49996E+00
         0.47320E+00
         0.51571E+00
         0.58329E+00
         0.59630E+00
         0.55923E+00
         0.71538E+00
         0.68068E+00
         0.64873E+00
         0.55779E+00
         0.56768E+00
         0.64452E+00
         0.63635E+00
         0.80147E+00
         0.79716E+00
         0.72786E+00
         0.65172E+00
         0.63150E+00
         0.72678E+00
         0.73112E+00
         0.67192E+00
         0.57389E+00
         0.54730E+00
         0.60867E+00
         0.75023E+00
         0.73784E+00
         0.74994E+00
         0.72017E+00
         0.78147E+00
         0.76304E+00
         0.68157E+00
         0.65726E+00
  
SCALARS                            dam  double 1
LOOKUP_TABLE default
         0.00000E+00
         0.00000E+00
         0.00000E+00
         0.00000E+00
         0.00000E+00
         0.00000E+00
         0.00000E+00
         0.00000E+00
         0.00000E+00
         0.00000E+00
         0.00000E+00
         0.00000E+00
         0.00000E+00
         0.00000E+00
         0.00000E+00
         0.00000E+00
         0.00000E+00
         0.00000E+00
         0.00000E+00
         0.00000E+00
         0.00000E+00
         0.00000E+00
         0.00000E+00
         0.00000E+00
         0.00000E+00
         0.00000E+00
         0.00000E+00
         0.00000E+00
         0.00000E+00
         0.00000E+00
         0.00000E+00
         0.00000E+00
         0.00000E+00
         0.00000E+00
         0.00000E+00
         0.00000E+00
         0.00000E+00
         0.00000E+00
         0.00000E+00
         0.00000E+00
         0.00000E+00
         0.00000E+00
         0.00000E+00
         0.00000E+00
         0.00000E+00
         0.00000E+00
         0.00000E+00
         0.00000E+00
         0.00000E+00
         0.00000E+00
         0.00000E+00
         0.00000E+00
         0.00000E+00
         0.00000E+00
         0.00000E+00
         0.00000E+00
         0.00000E+00
         0.00000E+00
         0.00000E+00
         0.00000E+00
         0.00000E+00
         0.00000E+00
         0.00000E+00
         0.00000E+00
         0.00000E+00
         0.00000E+00
         0.00000E+00
         0.00000E+00
         0.00000E+00
         0.00000E+00
         0.00000E+00
         0.00000E+00
         0.00000E+00
         0.00000E+00
         0.00000E+00
         0.00000E+00
         0.00000E+00
         0.00000E+00
         0.00000E+00
         0.00000E+00
         0.00000E+00
         0.00000E+00
         0.00000E+00
         0.00000E+00
         0.00000E+00
         0.00000E+00
         0.00000E+00
         0.00000E+00
         0.00000E+00
         0.00000E+00
         0.00000E+00
         0.00000E+00
         0.00000E+00
         0.00000E+00
         0.00000E+00
         0.00000E+00
         0.00000E+00
         0.00000E+00
         0.00000E+00
         0.00000E+00
         0.00000E+00
         0.00000E+00
         0.00000E+00
         0.00000E+00
         0.00000E+00
         0.00000E+00
         0.00000E+00
         0.00000E+00
         0.00000E+00
         0.00000E+00
         0.00000E+00
         0.00000E+00
         0.00000E+00
         0.00000E+00
         0.00000E+00
         0.00000E+00
         0.00000E+00
         0.00000E+00
         0.00000E+00
         0.00000E+00
         0.00000E+00
         0.00000E+00
         0.00000E+00
         0.00000E+00
         0.00000E+00
         0.00000E+00
         0.00000E+00
         0.00000E+00
         0.00000E+00
         0.00000E+00
         0.00000E+00
         0.00000E+00
         0.00000E+00
         0.00000E+00
         0.00000E+00
         0.00000E+00
         0.00000E+00
         0.00000E+00
         0.00000E+00
         0.00000E+00
         0.00000E+00
         0.00000E+00
         0.00000E+00
         0.00000E+00
         0.00000E+00
         0.00000E+00
         0.00000E+00
         0.00000E+00
         0.00000E+00
         0.00000E+00
         0.00000E+00
         0.00000E+00
         0.00000E+00
         0.00000E+00
         0.00000E+00
         0.00000E+00
         0.00000E+00
         0.00000E+00
         0.00000E+00
         0.00000E+00
         0.00000E+00
         0.00000E+00
         0.00000E+00
         0.00000E+00
         0.00000E+00
         0.00000E+00
         0.00000E+00
         0.00000E+00
         0.00000E+00
         0.00000E+00
         0.00000E+00
         0.00000E+00
         0.00000E+00
         0.00000E+00
         0.00000E+00
         0.00000E+00
         0.00000E+00
         0.00000E+00
         0.00000E+00
         0.00000E+00
         0.00000E+00
         0.00000E+00
         0.00000E+00
         0.00000E+00
         0.00000E+00
         0.00000E+00
         0.00000E+00
         0.00000E+00
         0.00000E+00
         0.00000E+00
         0.00000E+00
         0.00000E+00
         0.00000E+00
         0.00000E+00
         0.00000E+00
         0.00000E+00
         0.00000E+00
         0.00000E+00
         0.00000E+00
         0.00000E+00
         0.00000E+00
         0.00000E+00
         0.00000E+00
         0.00000E+00
         0.00000E+00
         0.00000E+00
         0.00000E+00
         0.00000E+00
         0.00000E+00
         0.00000E+00
         0.00000E+00
         0.00000E+00
         0.00000E+00
         0.00000E+00
         0.00000E+00
         0.00000E+00
         0.00000E+00
         0.00000E+00
         0.00000E+00
         0.00000E+00
         0.00000E+00
         0.00000E+00
         0.00000E+00
         0.00000E+00
         0.00000E+00
         0.00000E+00
         0.00000E+00
         0.00000E+00
         0.00000E+00
         0.00000E+00
         0.00000E+00
         0.00000E+00
         0.00000E+00
         0.00000E+00
         0.00000E+00
         0.00000E+00
         0.00000E+00
         0.00000E+00
         0.00000E+00
         0.00000E+00
         0.00000E+00
         0.00000E+00
         0.00000E+00
         0.00000E+00
         0.00000E+00
         0.00000E+00
         0.00000E+00
         0.00000E+00
         0.00000E+00
         0.00000E+00
         0.00000E+00
         0.00000E+00
         0.00000E+00
         0.00000E+00
         0.00000E+00
         0.00000E+00
         0.00000E+00
         0.00000E+00
         0.00000E+00
         0.00000E+00
         0.00000E+00
         0.00000E+00
         0.00000E+00
         0.00000E+00
         0.00000E+00
         0.00000E+00
         0.00000E+00
         0.00000E+00
         0.00000E+00
         0.00000E+00
         0.00000E+00
         0.00000E+00
         0.00000E+00
         0.00000E+00
         0.00000E+00
         0.00000E+00
         0.00000E+00
         0.00000E+00
         0.00000E+00
         0.00000E+00
         0.00000E+00
         0.00000E+00
         0.00000E+00
         0.00000E+00
         0.00000E+00
         0.00000E+00
         0.00000E+00
         0.00000E+00
         0.00000E+00
         0.00000E+00
         0.00000E+00
         0.00000E+00
         0.00000E+00
         0.00000E+00
         0.00000E+00
         0.00000E+00
         0.00000E+00
         0.00000E+00
         0.00000E+00
         0.00000E+00
         0.00000E+00
         0.00000E+00
         0.00000E+00
         0.00000E+00
         0.00000E+00
         0.00000E+00
         0.00000E+00
         0.00000E+00
         0.00000E+00
         0.00000E+00
         0.00000E+00
         0.00000E+00
         0.00000E+00
         0.00000E+00
         0.00000E+00
         0.00000E+00
         0.00000E+00
         0.00000E+00
         0.00000E+00
         0.00000E+00
         0.00000E+00
         0.00000E+00
         0.00000E+00
         0.00000E+00
         0.00000E+00
         0.00000E+00
         0.00000E+00
         0.00000E+00
         0.00000E+00
         0.00000E+00
         0.00000E+00
         0.00000E+00
         0.00000E+00
         0.00000E+00
         0.00000E+00
         0.00000E+00
         0.00000E+00
         0.00000E+00
         0.00000E+00
         0.00000E+00
         0.00000E+00
         0.00000E+00
         0.00000E+00
         0.00000E+00
         0.00000E+00
         0.00000E+00
         0.00000E+00
         0.00000E+00
         0.00000E+00
         0.00000E+00
         0.00000E+00
         0.00000E+00
         0.00000E+00
         0.00000E+00
         0.00000E+00
         0.00000E+00
         0.00000E+00
         0.00000E+00
         0.00000E+00
         0.00000E+00
         0.00000E+00
         0.00000E+00
         0.00000E+00
         0.00000E+00
         0.00000E+00
         0.00000E+00
         0.00000E+00
         0.00000E+00
         0.00000E+00
         0.00000E+00
         0.00000E+00
         0.00000E+00
         0.00000E+00
         0.00000E+00
         0.00000E+00
         0.00000E+00
         0.00000E+00
         0.00000E+00
         0.00000E+00
         0.00000E+00
         0.00000E+00
         0.00000E+00
         0.00000E+00
         0.00000E+00
         0.00000E+00
         0.00000E+00
         0.00000E+00
         0.00000E+00
         0.00000E+00
         0.00000E+00
         0.00000E+00
         0.00000E+00
         0.00000E+00
         0.00000E+00
         0.00000E+00
         0.00000E+00
         0.00000E+00
         0.00000E+00
         0.00000E+00
         0.00000E+00
         0.00000E+00
         0.00000E+00
         0.00000E+00
         0.00000E+00
         0.00000E+00
         0.00000E+00
         0.00000E+00
         0.00000E+00
         0.00000E+00
         0.00000E+00
         0.00000E+00
         0.00000E+00
         0.00000E+00
         0.00000E+00
         0.00000E+00
         0.00000E+00
         0.00000E+00
         0.00000E+00
         0.00000E+00
         0.00000E+00
         0.00000E+00
         0.00000E+00
         0.00000E+00
         0.00000E+00
         0.00000E+00
         0.00000E+00
         0.00000E+00
         0.00000E+00
         0.00000E+00
         0.00000E+00
         0.00000E+00
         0.00000E+00
         0.00000E+00
         0.00000E+00
         0.00000E+00
         0.00000E+00
         0.00000E+00
         0.00000E+00
         0.00000E+00
         0.00000E+00
         0.00000E+00
         0.00000E+00
         0.00000E+00
         0.00000E+00
         0.00000E+00
         0.00000E+00
         0.00000E+00
         0.00000E+00
         0.00000E+00
         0.00000E+00
         0.00000E+00
         0.00000E+00
         0.00000E+00
         0.00000E+00
         0.00000E+00
         0.00000E+00
         0.00000E+00
         0.00000E+00
         0.00000E+00
         0.00000E+00
         0.00000E+00
         0.00000E+00
         0.00000E+00
         0.00000E+00
         0.00000E+00
         0.00000E+00
         0.00000E+00
         0.00000E+00
         0.00000E+00
         0.00000E+00
         0.00000E+00
         0.00000E+00
         0.00000E+00
         0.00000E+00
         0.00000E+00
         0.00000E+00
         0.00000E+00
         0.00000E+00
         0.00000E+00
         0.00000E+00
         0.00000E+00
         0.00000E+00
         0.00000E+00
         0.00000E+00
         0.00000E+00
         0.00000E+00
         0.00000E+00
         0.00000E+00
         0.00000E+00
         0.00000E+00
         0.00000E+00
         0.00000E+00
         0.00000E+00
         0.00000E+00
         0.00000E+00
         0.00000E+00
         0.00000E+00
         0.00000E+00
         0.00000E+00
         0.00000E+00
         0.00000E+00
         0.00000E+00
         0.00000E+00
         0.00000E+00
         0.00000E+00
         0.00000E+00
         0.00000E+00
         0.00000E+00
         0.00000E+00
         0.00000E+00
         0.00000E+00
         0.00000E+00
         0.00000E+00
         0.00000E+00
         0.00000E+00
         0.00000E+00
         0.00000E+00
         0.00000E+00
         0.00000E+00
         0.00000E+00
         0.00000E+00
         0.00000E+00
         0.00000E+00
         0.00000E+00
         0.00000E+00
         0.00000E+00
         0.00000E+00
         0.00000E+00
         0.00000E+00
         0.00000E+00
         0.00000E+00
         0.00000E+00
         0.00000E+00
         0.00000E+00
         0.00000E+00
         0.00000E+00
         0.00000E+00
         0.00000E+00
         0.00000E+00
         0.00000E+00
         0.00000E+00
         0.00000E+00
         0.00000E+00
         0.00000E+00
         0.00000E+00
         0.00000E+00
         0.00000E+00
         0.00000E+00
         0.00000E+00
         0.00000E+00
         0.00000E+00
         0.00000E+00
         0.00000E+00
         0.00000E+00
         0.00000E+00
         0.00000E+00
         0.00000E+00
         0.00000E+00
         0.00000E+00
         0.00000E+00
         0.00000E+00
         0.00000E+00
         0.00000E+00
         0.00000E+00
         0.00000E+00
         0.00000E+00
         0.00000E+00
         0.00000E+00
         0.00000E+00
         0.00000E+00
         0.00000E+00
         0.00000E+00
         0.00000E+00
         0.00000E+00
         0.00000E+00
         0.00000E+00
         0.00000E+00
         0.00000E+00
         0.00000E+00
         0.00000E+00
         0.00000E+00
         0.00000E+00
         0.00000E+00
         0.00000E+00
         0.00000E+00
         0.00000E+00
         0.00000E+00
         0.00000E+00
         0.00000E+00
         0.00000E+00
         0.00000E+00
         0.00000E+00
         0.00000E+00
         0.00000E+00
         0.00000E+00
         0.00000E+00
         0.00000E+00
         0.00000E+00
         0.00000E+00
         0.00000E+00
         0.00000E+00
         0.00000E+00
         0.00000E+00
         0.00000E+00
         0.00000E+00
         0.00000E+00
         0.00000E+00
         0.00000E+00
         0.00000E+00
         0.00000E+00
         0.00000E+00
         0.00000E+00
         0.00000E+00
         0.00000E+00
         0.00000E+00
         0.00000E+00
         0.00000E+00
         0.00000E+00
         0.00000E+00
         0.00000E+00
         0.00000E+00
         0.00000E+00
         0.00000E+00
         0.00000E+00
         0.00000E+00
         0.00000E+00
         0.00000E+00
         0.00000E+00
         0.00000E+00
         0.00000E+00
         0.00000E+00
         0.00000E+00
         0.00000E+00
         0.00000E+00
         0.00000E+00
         0.00000E+00
         0.00000E+00
         0.00000E+00
         0.00000E+00
         0.00000E+00
         0.00000E+00
         0.00000E+00
         0.00000E+00
         0.00000E+00
         0.00000E+00
         0.00000E+00
         0.00000E+00
         0.00000E+00
         0.00000E+00
         0.00000E+00
         0.00000E+00
         0.00000E+00
         0.00000E+00
         0.00000E+00
         0.00000E+00
         0.00000E+00
         0.00000E+00
         0.00000E+00
         0.00000E+00
         0.00000E+00
         0.00000E+00
         0.00000E+00
         0.00000E+00
         0.00000E+00
         0.00000E+00
         0.00000E+00
         0.00000E+00
         0.00000E+00
         0.00000E+00
         0.00000E+00
         0.00000E+00
         0.00000E+00
         0.00000E+00
         0.00000E+00
         0.00000E+00
         0.00000E+00
         0.00000E+00
         0.00000E+00
         0.00000E+00
         0.00000E+00
         0.00000E+00
         0.00000E+00
         0.00000E+00
         0.00000E+00
         0.00000E+00
         0.00000E+00
         0.00000E+00
         0.00000E+00
         0.00000E+00
         0.00000E+00
         0.00000E+00
         0.00000E+00
         0.00000E+00
         0.00000E+00
         0.00000E+00
         0.00000E+00
         0.00000E+00
         0.00000E+00
         0.00000E+00
         0.00000E+00
         0.00000E+00
         0.00000E+00
         0.00000E+00
         0.00000E+00
         0.00000E+00
         0.00000E+00
         0.00000E+00
         0.00000E+00
         0.00000E+00
         0.00000E+00
         0.00000E+00
         0.00000E+00
         0.00000E+00
         0.00000E+00
         0.00000E+00
         0.00000E+00
         0.00000E+00
         0.00000E+00
         0.00000E+00
         0.00000E+00
         0.00000E+00
         0.00000E+00
         0.00000E+00
         0.00000E+00
         0.00000E+00
         0.00000E+00
         0.00000E+00
         0.00000E+00
         0.00000E+00
         0.00000E+00
         0.00000E+00
         0.00000E+00
         0.00000E+00
         0.00000E+00
         0.00000E+00
         0.00000E+00
         0.00000E+00
         0.00000E+00
         0.00000E+00
         0.00000E+00
         0.00000E+00
         0.00000E+00
         0.00000E+00
         0.00000E+00
         0.00000E+00
         0.00000E+00
         0.00000E+00
         0.00000E+00
         0.00000E+00
         0.00000E+00
         0.00000E+00
         0.00000E+00
         0.00000E+00
         0.00000E+00
         0.00000E+00
         0.00000E+00
         0.00000E+00
         0.00000E+00
         0.00000E+00
         0.00000E+00
         0.00000E+00
         0.00000E+00
         0.00000E+00
         0.00000E+00
         0.00000E+00
         0.00000E+00
         0.00000E+00
         0.00000E+00
         0.00000E+00
         0.00000E+00
         0.00000E+00
         0.00000E+00
         0.00000E+00
         0.00000E+00
         0.00000E+00
         0.00000E+00
         0.00000E+00
         0.00000E+00
         0.00000E+00
         0.00000E+00
         0.00000E+00
         0.00000E+00
         0.00000E+00
         0.00000E+00
         0.00000E+00
         0.00000E+00
         0.00000E+00
         0.00000E+00
         0.00000E+00
         0.00000E+00
         0.00000E+00
         0.00000E+00
         0.00000E+00
         0.00000E+00
         0.00000E+00
         0.00000E+00
         0.00000E+00
         0.00000E+00
         0.00000E+00
         0.00000E+00
         0.00000E+00
         0.00000E+00
         0.00000E+00
         0.00000E+00
         0.00000E+00
         0.00000E+00
         0.00000E+00
         0.00000E+00
         0.00000E+00
         0.00000E+00
         0.00000E+00
         0.00000E+00
         0.00000E+00
         0.00000E+00
         0.00000E+00
         0.00000E+00
         0.00000E+00
         0.00000E+00
         0.00000E+00
         0.00000E+00
         0.00000E+00
         0.00000E+00
         0.00000E+00
         0.00000E+00
         0.00000E+00
         0.00000E+00
         0.00000E+00
         0.00000E+00
         0.00000E+00
         0.00000E+00
         0.00000E+00
         0.00000E+00
         0.00000E+00
         0.00000E+00
         0.00000E+00
         0.00000E+00
         0.00000E+00
         0.00000E+00
         0.00000E+00
         0.00000E+00
         0.00000E+00
         0.00000E+00
         0.00000E+00
         0.00000E+00
         0.00000E+00
         0.00000E+00
         0.00000E+00
         0.00000E+00
         0.00000E+00
         0.00000E+00
         0.00000E+00
         0.00000E+00
         0.00000E+00
         0.00000E+00
         0.00000E+00
         0.00000E+00
         0.00000E+00
         0.00000E+00
         0.00000E+00
         0.00000E+00
         0.00000E+00
         0.00000E+00
         0.00000E+00
         0.00000E+00
         0.00000E+00
         0.00000E+00
         0.00000E+00
         0.00000E+00
         0.00000E+00
         0.00000E+00
         0.00000E+00
         0.00000E+00
         0.00000E+00
         0.00000E+00
         0.00000E+00
         0.00000E+00
         0.00000E+00
         0.00000E+00
         0.00000E+00
         0.00000E+00
         0.00000E+00
         0.00000E+00
         0.00000E+00
         0.00000E+00
         0.00000E+00
         0.00000E+00
         0.00000E+00
         0.00000E+00
         0.00000E+00
         0.00000E+00
         0.00000E+00
         0.00000E+00
         0.00000E+00
         0.00000E+00
         0.00000E+00
         0.00000E+00
         0.00000E+00
         0.00000E+00
         0.00000E+00
         0.00000E+00
         0.00000E+00
         0.00000E+00
         0.00000E+00
         0.00000E+00
         0.00000E+00
         0.00000E+00
         0.00000E+00
         0.00000E+00
         0.00000E+00
         0.00000E+00
         0.00000E+00
         0.00000E+00
         0.00000E+00
         0.00000E+00
         0.00000E+00
         0.00000E+00
         0.00000E+00
         0.00000E+00
         0.00000E+00
         0.00000E+00
         0.00000E+00
         0.00000E+00
         0.00000E+00
         0.00000E+00
         0.00000E+00
         0.00000E+00
         0.00000E+00
         0.00000E+00
         0.00000E+00
         0.00000E+00
         0.00000E+00
         0.00000E+00
         0.00000E+00
         0.00000E+00
         0.00000E+00
         0.00000E+00
         0.00000E+00
         0.00000E+00
         0.00000E+00
         0.00000E+00
         0.00000E+00
         0.00000E+00
         0.00000E+00
         0.00000E+00
         0.00000E+00
         0.00000E+00
         0.00000E+00
         0.00000E+00
         0.00000E+00
         0.00000E+00
         0.00000E+00
         0.00000E+00
         0.00000E+00
         0.00000E+00
         0.00000E+00
         0.00000E+00
         0.00000E+00
         0.00000E+00
         0.00000E+00
         0.00000E+00
         0.00000E+00
         0.00000E+00
         0.00000E+00
         0.00000E+00
         0.00000E+00
         0.00000E+00
         0.00000E+00
         0.00000E+00
         0.00000E+00
         0.00000E+00
         0.00000E+00
         0.00000E+00
         0.00000E+00
         0.00000E+00
         0.00000E+00
         0.00000E+00
         0.00000E+00
         0.00000E+00
         0.00000E+00
         0.00000E+00
         0.00000E+00
         0.00000E+00
         0.00000E+00
         0.00000E+00
         0.00000E+00
         0.00000E+00
         0.00000E+00
         0.00000E+00
         0.00000E+00
         0.00000E+00
         0.00000E+00
         0.00000E+00
         0.00000E+00
         0.00000E+00
         0.00000E+00
         0.00000E+00
         0.00000E+00
         0.00000E+00
         0.00000E+00
         0.00000E+00
         0.00000E+00
         0.00000E+00
         0.00000E+00
         0.00000E+00
         0.00000E+00
         0.00000E+00
         0.00000E+00
         0.00000E+00
         0.00000E+00
         0.00000E+00
         0.00000E+00
         0.00000E+00
         0.00000E+00
         0.00000E+00
         0.00000E+00
         0.00000E+00
         0.00000E+00
         0.00000E+00
         0.00000E+00
         0.00000E+00
         0.00000E+00
         0.00000E+00
         0.00000E+00
         0.00000E+00
         0.00000E+00
         0.00000E+00
         0.00000E+00
         0.00000E+00
         0.00000E+00
         0.00000E+00
         0.00000E+00
         0.00000E+00
         0.00000E+00
         0.00000E+00
         0.00000E+00
         0.00000E+00
         0.00000E+00
         0.00000E+00
         0.00000E+00
         0.00000E+00
         0.00000E+00
         0.00000E+00
         0.00000E+00
         0.00000E+00
         0.00000E+00
         0.00000E+00
         0.00000E+00
         0.00000E+00
         0.00000E+00
         0.00000E+00
         0.00000E+00
         0.00000E+00
         0.00000E+00
         0.00000E+00
         0.00000E+00
         0.00000E+00
         0.00000E+00
         0.00000E+00
         0.00000E+00
         0.00000E+00
         0.00000E+00
         0.00000E+00
         0.00000E+00
         0.00000E+00
         0.00000E+00
         0.00000E+00
         0.00000E+00
         0.00000E+00
         0.00000E+00
         0.00000E+00
         0.00000E+00
         0.00000E+00
         0.00000E+00
         0.00000E+00
         0.00000E+00
         0.00000E+00
         0.00000E+00
         0.00000E+00
         0.00000E+00
         0.00000E+00
         0.00000E+00
         0.00000E+00
         0.00000E+00
         0.00000E+00
         0.00000E+00
         0.00000E+00
         0.00000E+00
         0.00000E+00
         0.00000E+00
         0.00000E+00
         0.00000E+00
         0.00000E+00
         0.00000E+00
         0.00000E+00
         0.00000E+00
         0.00000E+00
         0.00000E+00
         0.00000E+00
         0.00000E+00
         0.00000E+00
         0.00000E+00
         0.00000E+00
         0.00000E+00
         0.00000E+00
         0.00000E+00
         0.00000E+00
         0.00000E+00
         0.00000E+00
         0.00000E+00
         0.00000E+00
         0.00000E+00
         0.00000E+00
         0.00000E+00
         0.00000E+00
         0.00000E+00
         0.00000E+00
         0.00000E+00
         0.00000E+00
         0.00000E+00
         0.00000E+00
         0.00000E+00
         0.00000E+00
         0.00000E+00
         0.00000E+00
         0.00000E+00
         0.00000E+00
         0.00000E+00
         0.00000E+00
         0.00000E+00
         0.00000E+00
         0.00000E+00
         0.00000E+00
         0.00000E+00
         0.00000E+00
         0.00000E+00
         0.00000E+00
         0.00000E+00
         0.00000E+00
         0.00000E+00
         0.00000E+00
         0.00000E+00
         0.00000E+00
         0.00000E+00
         0.00000E+00
         0.00000E+00
         0.00000E+00
         0.00000E+00
         0.00000E+00
         0.00000E+00
         0.00000E+00
         0.00000E+00
         0.00000E+00
         0.00000E+00
         0.00000E+00
         0.00000E+00
         0.00000E+00
         0.00000E+00
         0.00000E+00
         0.00000E+00
         0.00000E+00
         0.00000E+00
         0.00000E+00
         0.00000E+00
         0.00000E+00
         0.00000E+00
         0.00000E+00
         0.00000E+00
         0.00000E+00
         0.00000E+00
         0.00000E+00
         0.00000E+00
         0.00000E+00
         0.00000E+00
         0.00000E+00
         0.00000E+00
         0.00000E+00
         0.00000E+00
         0.00000E+00
         0.00000E+00
         0.00000E+00
         0.00000E+00
         0.00000E+00
         0.00000E+00
         0.00000E+00
         0.00000E+00
         0.00000E+00
         0.00000E+00
         0.00000E+00
         0.00000E+00
         0.00000E+00
         0.00000E+00
         0.00000E+00
         0.00000E+00
         0.00000E+00
         0.00000E+00
         0.00000E+00
         0.00000E+00
         0.00000E+00
         0.00000E+00
         0.00000E+00
         0.00000E+00
         0.00000E+00
         0.00000E+00
         0.00000E+00
         0.00000E+00
         0.00000E+00
         0.00000E+00
         0.00000E+00
         0.00000E+00
         0.00000E+00
         0.00000E+00
         0.00000E+00
         0.00000E+00
         0.00000E+00
         0.00000E+00
         0.00000E+00
         0.00000E+00
         0.00000E+00
         0.00000E+00
         0.00000E+00
         0.00000E+00
         0.00000E+00
         0.00000E+00
         0.00000E+00
         0.00000E+00
         0.00000E+00
         0.00000E+00
         0.00000E+00
         0.00000E+00
         0.00000E+00
         0.00000E+00
         0.00000E+00
         0.00000E+00
         0.00000E+00
         0.00000E+00
         0.00000E+00
         0.00000E+00
         0.00000E+00
         0.00000E+00
         0.00000E+00
         0.00000E+00
         0.00000E+00
         0.00000E+00
         0.00000E+00
         0.00000E+00
         0.00000E+00
         0.00000E+00
         0.00000E+00
         0.00000E+00
         0.00000E+00
         0.00000E+00
         0.00000E+00
         0.00000E+00
         0.00000E+00
         0.00000E+00
         0.00000E+00
         0.00000E+00
         0.00000E+00
         0.00000E+00
         0.00000E+00
         0.00000E+00
         0.00000E+00
         0.00000E+00
         0.00000E+00
         0.00000E+00
         0.00000E+00
         0.00000E+00
         0.00000E+00
         0.00000E+00
         0.00000E+00
         0.00000E+00
         0.00000E+00
         0.00000E+00
         0.00000E+00
         0.00000E+00
         0.00000E+00
         0.00000E+00
         0.00000E+00
         0.00000E+00
         0.00000E+00
         0.00000E+00
         0.00000E+00
         0.00000E+00
         0.00000E+00
         0.00000E+00
         0.00000E+00
         0.00000E+00
         0.00000E+00
         0.00000E+00
         0.00000E+00
         0.00000E+00
         0.00000E+00
         0.00000E+00
         0.00000E+00
         0.00000E+00
         0.00000E+00
         0.00000E+00
         0.00000E+00
         0.00000E+00
         0.00000E+00
         0.00000E+00
         0.00000E+00
         0.00000E+00
         0.00000E+00
         0.00000E+00
         0.00000E+00
         0.00000E+00
         0.00000E+00
         0.00000E+00
         0.00000E+00
         0.00000E+00
         0.00000E+00
         0.00000E+00
         0.00000E+00
         0.00000E+00
         0.00000E+00
         0.00000E+00
         0.00000E+00
         0.00000E+00
         0.00000E+00
         0.00000E+00
         0.00000E+00
         0.00000E+00
         0.00000E+00
         0.00000E+00
         0.00000E+00
         0.00000E+00
         0.00000E+00
         0.00000E+00
         0.00000E+00
         0.00000E+00
         0.00000E+00
         0.00000E+00
         0.00000E+00
         0.00000E+00
         0.00000E+00
         0.00000E+00
         0.00000E+00
         0.00000E+00
         0.00000E+00
         0.00000E+00
         0.00000E+00
         0.00000E+00
         0.00000E+00
         0.00000E+00
         0.00000E+00
         0.00000E+00
         0.00000E+00
         0.00000E+00
         0.00000E+00
         0.00000E+00
         0.00000E+00
         0.00000E+00
         0.00000E+00
         0.00000E+00
         0.00000E+00
         0.00000E+00
         0.00000E+00
         0.00000E+00
         0.00000E+00
         0.00000E+00
         0.00000E+00
         0.00000E+00
         0.00000E+00
         0.00000E+00
         0.00000E+00
         0.00000E+00
         0.00000E+00
         0.00000E+00
         0.00000E+00
         0.00000E+00
         0.00000E+00
         0.00000E+00
         0.00000E+00
         0.00000E+00
         0.00000E+00
         0.00000E+00
         0.00000E+00
         0.00000E+00
         0.00000E+00
         0.00000E+00
         0.00000E+00
         0.00000E+00
         0.00000E+00
         0.00000E+00
         0.00000E+00
         0.00000E+00
         0.00000E+00
         0.00000E+00
         0.00000E+00
         0.00000E+00
         0.00000E+00
         0.00000E+00
         0.00000E+00
         0.00000E+00
         0.00000E+00
         0.00000E+00
         0.00000E+00
         0.00000E+00
         0.00000E+00
         0.00000E+00
         0.00000E+00
         0.00000E+00
         0.00000E+00
         0.00000E+00
         0.00000E+00
         0.00000E+00
         0.00000E+00
         0.00000E+00
         0.00000E+00
         0.00000E+00
         0.00000E+00
         0.00000E+00
         0.00000E+00
         0.00000E+00
         0.00000E+00
         0.00000E+00
         0.00000E+00
         0.00000E+00
         0.00000E+00
         0.00000E+00
         0.00000E+00
         0.00000E+00
         0.00000E+00
         0.00000E+00
         0.00000E+00
         0.00000E+00
         0.00000E+00
         0.00000E+00
         0.00000E+00
         0.00000E+00
         0.00000E+00
         0.00000E+00
         0.00000E+00
         0.00000E+00
         0.00000E+00
         0.00000E+00
         0.00000E+00
         0.00000E+00
         0.00000E+00
         0.00000E+00
         0.00000E+00
         0.00000E+00
         0.00000E+00
         0.00000E+00
         0.00000E+00
         0.00000E+00
         0.00000E+00
         0.00000E+00
         0.00000E+00
         0.00000E+00
         0.00000E+00
         0.00000E+00
         0.00000E+00
         0.00000E+00
         0.00000E+00
         0.00000E+00
         0.00000E+00
         0.00000E+00
         0.00000E+00
         0.00000E+00
         0.00000E+00
         0.00000E+00
         0.00000E+00
         0.00000E+00
         0.00000E+00
         0.00000E+00
         0.00000E+00
         0.00000E+00
         0.00000E+00
         0.00000E+00
         0.00000E+00
         0.00000E+00
         0.00000E+00
         0.00000E+00
         0.00000E+00
         0.00000E+00
         0.00000E+00
         0.00000E+00
         0.00000E+00
         0.00000E+00
         0.00000E+00
         0.00000E+00
         0.00000E+00
         0.00000E+00
         0.00000E+00
         0.00000E+00
         0.00000E+00
         0.00000E+00
         0.00000E+00
         0.00000E+00
         0.00000E+00
         0.00000E+00
         0.00000E+00
         0.00000E+00
         0.00000E+00
         0.00000E+00
         0.00000E+00
         0.00000E+00
         0.00000E+00
         0.00000E+00
         0.00000E+00
         0.00000E+00
         0.00000E+00
         0.00000E+00
         0.00000E+00
         0.00000E+00
         0.00000E+00
         0.00000E+00
         0.00000E+00
         0.00000E+00
         0.00000E+00
         0.00000E+00
         0.00000E+00
         0.00000E+00
         0.00000E+00
         0.00000E+00
         0.00000E+00
         0.00000E+00
         0.00000E+00
         0.00000E+00
         0.00000E+00
         0.00000E+00
         0.00000E+00
         0.00000E+00
         0.00000E+00
         0.00000E+00
         0.00000E+00
         0.00000E+00
         0.00000E+00
         0.00000E+00
         0.00000E+00
         0.00000E+00
         0.00000E+00
         0.00000E+00
         0.00000E+00
         0.00000E+00
         0.00000E+00
         0.00000E+00
         0.00000E+00
         0.00000E+00
         0.00000E+00
         0.00000E+00
         0.00000E+00
         0.00000E+00
         0.00000E+00
         0.00000E+00
         0.00000E+00
         0.00000E+00
         0.00000E+00
         0.00000E+00
         0.00000E+00
         0.00000E+00
         0.00000E+00
         0.00000E+00
         0.00000E+00
         0.00000E+00
         0.00000E+00
         0.00000E+00
         0.00000E+00
         0.00000E+00
         0.00000E+00
         0.00000E+00
         0.00000E+00
         0.00000E+00
         0.00000E+00
         0.00000E+00
         0.00000E+00
         0.00000E+00
         0.00000E+00
         0.00000E+00
         0.00000E+00
         0.00000E+00
         0.00000E+00
         0.00000E+00
         0.00000E+00
         0.00000E+00
         0.00000E+00
         0.00000E+00
         0.00000E+00
         0.00000E+00
         0.00000E+00
         0.00000E+00
         0.00000E+00
         0.00000E+00
         0.00000E+00
         0.00000E+00
         0.00000E+00
         0.00000E+00
         0.00000E+00
         0.00000E+00
         0.00000E+00
         0.00000E+00
         0.00000E+00
         0.00000E+00
         0.00000E+00
         0.00000E+00
         0.00000E+00
         0.00000E+00
         0.00000E+00
         0.00000E+00
         0.00000E+00
         0.00000E+00
         0.00000E+00
         0.00000E+00
         0.00000E+00
         0.00000E+00
         0.00000E+00
         0.00000E+00
         0.00000E+00
         0.00000E+00
         0.00000E+00
         0.00000E+00
         0.00000E+00
         0.00000E+00
         0.00000E+00
         0.00000E+00
         0.00000E+00
         0.00000E+00
         0.00000E+00
         0.00000E+00
         0.00000E+00
         0.00000E+00
         0.00000E+00
         0.00000E+00
         0.00000E+00
         0.00000E+00
         0.00000E+00
         0.00000E+00
         0.00000E+00
         0.00000E+00
         0.00000E+00
         0.00000E+00
         0.00000E+00
         0.00000E+00
         0.00000E+00
         0.00000E+00
         0.00000E+00
         0.00000E+00
         0.00000E+00
         0.00000E+00
         0.00000E+00
         0.00000E+00
         0.00000E+00
         0.00000E+00
         0.00000E+00
         0.00000E+00
         0.00000E+00
         0.00000E+00
         0.00000E+00
         0.00000E+00
         0.00000E+00
         0.00000E+00
         0.00000E+00
         0.00000E+00
         0.00000E+00
         0.00000E+00
         0.00000E+00
         0.00000E+00
         0.00000E+00
         0.00000E+00
         0.00000E+00
         0.00000E+00
         0.00000E+00
         0.00000E+00
         0.00000E+00
         0.00000E+00
         0.00000E+00
         0.00000E+00
         0.00000E+00
         0.00000E+00
         0.00000E+00
         0.00000E+00
         0.00000E+00
         0.00000E+00
         0.00000E+00
         0.00000E+00
         0.00000E+00
         0.00000E+00
         0.00000E+00
         0.00000E+00
         0.00000E+00
         0.00000E+00
         0.00000E+00
         0.00000E+00
         0.00000E+00
         0.00000E+00
         0.00000E+00
         0.00000E+00
         0.00000E+00
         0.00000E+00
         0.00000E+00
         0.00000E+00
         0.00000E+00
         0.00000E+00
         0.00000E+00
         0.00000E+00
         0.00000E+00
         0.00000E+00
         0.00000E+00
         0.00000E+00
         0.00000E+00
         0.00000E+00
         0.00000E+00
         0.00000E+00
         0.00000E+00
         0.00000E+00
         0.00000E+00
         0.00000E+00
         0.00000E+00
         0.00000E+00
         0.00000E+00
         0.00000E+00
         0.00000E+00
         0.00000E+00
         0.00000E+00
         0.00000E+00
         0.00000E+00
         0.00000E+00
         0.00000E+00
         0.00000E+00
         0.00000E+00
         0.00000E+00
         0.00000E+00
         0.00000E+00
         0.00000E+00
         0.00000E+00
         0.00000E+00
         0.00000E+00
         0.00000E+00
         0.00000E+00
         0.00000E+00
         0.00000E+00
         0.00000E+00
         0.00000E+00
         0.00000E+00
         0.00000E+00
         0.00000E+00
         0.00000E+00
         0.00000E+00
         0.00000E+00
         0.00000E+00
         0.00000E+00
         0.00000E+00
         0.00000E+00
         0.00000E+00
         0.00000E+00
         0.00000E+00
         0.00000E+00
         0.00000E+00
         0.00000E+00
         0.00000E+00
         0.00000E+00
         0.00000E+00
         0.00000E+00
         0.00000E+00
         0.00000E+00
         0.00000E+00
         0.00000E+00
         0.00000E+00
         0.00000E+00
         0.00000E+00
         0.00000E+00
         0.00000E+00
         0.00000E+00
         0.00000E+00
         0.00000E+00
         0.00000E+00
         0.00000E+00
         0.00000E+00
         0.00000E+00
         0.00000E+00
         0.00000E+00
         0.00000E+00
         0.00000E+00
         0.00000E+00
         0.00000E+00
         0.00000E+00
         0.00000E+00
         0.00000E+00
         0.00000E+00
         0.00000E+00
         0.00000E+00
         0.00000E+00
         0.00000E+00
         0.00000E+00
         0.00000E+00
         0.00000E+00
         0.00000E+00
         0.00000E+00
         0.00000E+00
         0.00000E+00
         0.00000E+00
         0.00000E+00
         0.00000E+00
         0.00000E+00
         0.00000E+00
         0.00000E+00
         0.00000E+00
         0.00000E+00
         0.00000E+00
         0.00000E+00
         0.00000E+00
         0.00000E+00
         0.00000E+00
         0.00000E+00
         0.00000E+00
         0.00000E+00
         0.00000E+00
         0.00000E+00
         0.00000E+00
         0.00000E+00
         0.00000E+00
         0.00000E+00
         0.00000E+00
         0.00000E+00
         0.00000E+00
         0.00000E+00
         0.00000E+00
         0.00000E+00
         0.00000E+00
         0.00000E+00
         0.00000E+00
         0.00000E+00
         0.00000E+00
         0.00000E+00
         0.00000E+00
         0.00000E+00
         0.00000E+00
         0.00000E+00
         0.00000E+00
         0.00000E+00
         0.00000E+00
         0.00000E+00
         0.00000E+00
         0.00000E+00
         0.00000E+00
         0.00000E+00
         0.00000E+00
         0.00000E+00
         0.00000E+00
         0.00000E+00
         0.00000E+00
         0.00000E+00
         0.00000E+00
         0.00000E+00
         0.00000E+00
         0.00000E+00
         0.00000E+00
         0.00000E+00
         0.00000E+00
         0.00000E+00
         0.00000E+00
         0.00000E+00
         0.00000E+00
         0.00000E+00
         0.00000E+00
         0.00000E+00
         0.00000E+00
         0.00000E+00
         0.00000E+00
         0.00000E+00
         0.00000E+00
         0.00000E+00
         0.00000E+00
         0.00000E+00
         0.00000E+00
         0.00000E+00
         0.00000E+00
         0.00000E+00
         0.00000E+00
         0.00000E+00
         0.00000E+00
         0.00000E+00
         0.00000E+00
         0.00000E+00
         0.00000E+00
         0.00000E+00
         0.00000E+00
         0.00000E+00
         0.00000E+00
         0.00000E+00
         0.00000E+00
         0.00000E+00
         0.00000E+00
         0.00000E+00
         0.00000E+00
         0.00000E+00
         0.00000E+00
         0.00000E+00
         0.00000E+00
         0.00000E+00
         0.00000E+00
         0.00000E+00
         0.00000E+00
         0.00000E+00
         0.00000E+00
         0.00000E+00
         0.00000E+00
         0.00000E+00
         0.00000E+00
         0.00000E+00
         0.00000E+00
         0.00000E+00
         0.00000E+00
         0.00000E+00
         0.00000E+00
         0.00000E+00
         0.00000E+00
         0.00000E+00
         0.00000E+00
         0.00000E+00
         0.00000E+00
         0.00000E+00
         0.00000E+00
         0.00000E+00
         0.00000E+00
         0.00000E+00
         0.00000E+00
         0.00000E+00
         0.00000E+00
         0.00000E+00
         0.00000E+00
         0.00000E+00
         0.00000E+00
         0.00000E+00
         0.00000E+00
         0.00000E+00
         0.00000E+00
         0.00000E+00
         0.00000E+00
         0.00000E+00
         0.00000E+00
         0.00000E+00
         0.00000E+00
         0.00000E+00
         0.00000E+00
         0.00000E+00
         0.00000E+00
         0.00000E+00
         0.00000E+00
         0.00000E+00
         0.00000E+00
         0.00000E+00
         0.00000E+00
         0.00000E+00
         0.00000E+00
         0.00000E+00
         0.00000E+00
         0.00000E+00
  
SCALARS           initial_coordinate_x  double 1
LOOKUP_TABLE default
         0.10378E-02
         0.17452E-02
         0.23177E-02
         0.16698E-02
         0.10379E-02
         0.17453E-02
         0.23178E-02
         0.16700E-02
         0.30377E-02
         0.27791E-02
         0.30377E-02
         0.27788E-02
         0.12850E-02
         0.65139E-03
         0.12851E-02
         0.65164E-03
         0.12757E-03
        -0.12822E-03
         0.12783E-03
        -0.12804E-03
         0.94500E-03
         0.11327E-02
         0.17490E-02
         0.94533E-03
         0.11330E-02
         0.17494E-02
         0.40588E-03
         0.39779E-03
         0.40594E-03
         0.39781E-03
        -0.76303E-03
        -0.86604E-03
         0.46119E-03
        -0.76268E-03
        -0.86593E-03
         0.46164E-03
        -0.18300E-02
        -0.18440E-02
        -0.18297E-02
        -0.18441E-02
        -0.27238E-02
        -0.28028E-02
        -0.27238E-02
        -0.28031E-02
        -0.25365E-02
        -0.19287E-02
        -0.25363E-02
        -0.19283E-02
        -0.99363E-03
        -0.99377E-03
        -0.14380E-02
        -0.14377E-02
        -0.31574E-03
        -0.31594E-03
        -0.11068E-02
        -0.11071E-02
        -0.18845E-02
        -0.18713E-02
        -0.18846E-02
        -0.18714E-02
        -0.15871E-03
        -0.94089E-03
        -0.15844E-03
        -0.94029E-03
         0.78856E-03
         0.78922E-03
         0.17211E-02
         0.17211E-02
         0.32050E-02
         0.28046E-02
         0.32047E-02
         0.28047E-02
         0.23059E-02
         0.23060E-02
        -0.40614E-03
        -0.40627E-03
        -0.12092E-02
        -0.12092E-02
        -0.19448E-02
        -0.19448E-02
        -0.25029E-02
        -0.26371E-02
        -0.25029E-02
        -0.26372E-02
        -0.27671E-02
        -0.27674E-02
        -0.21123E-02
        -0.21122E-02
        -0.16087E-02
        -0.16087E-02
        -0.11939E-02
        -0.58641E-03
        -0.11937E-02
        -0.58606E-03
         0.20912E-03
         0.20952E-03
         0.10586E-02
         0.10589E-02
         0.18413E-02
         0.18413E-02
         0.24544E-02
         0.26022E-02
         0.24543E-02
         0.26021E-02
         0.37964E-02
         0.39100E-02
         0.37964E-02
         0.39100E-02
         0.34621E-02
         0.34621E-02
         0.29267E-02
         0.29267E-02
         0.22211E-02
         0.22211E-02
         0.13865E-02
         0.13865E-02
         0.47130E-03
         0.47130E-03
        -0.47130E-03
        -0.47130E-03
        -0.13865E-02
        -0.13865E-02
        -0.22211E-02
        -0.22211E-02
        -0.29267E-02
        -0.29267E-02
        -0.34621E-02
        -0.34621E-02
        -0.37964E-02
        -0.37964E-02
        -0.39100E-02
        -0.39100E-02
        -0.37964E-02
        -0.37964E-02
        -0.34621E-02
        -0.34621E-02
        -0.29267E-02
        -0.29267E-02
        -0.22211E-02
        -0.22211E-02
        -0.13865E-02
        -0.13865E-02
        -0.47130E-03
        -0.47130E-03
         0.47130E-03
         0.47130E-03
         0.13865E-02
         0.13865E-02
         0.22211E-02
         0.22211E-02
         0.29267E-02
         0.29267E-02
         0.34621E-02
         0.34621E-02
         0.37964E-02
         0.37964E-02
         0.10376E-02
         0.17450E-02
         0.23175E-02
         0.16696E-02
         0.30377E-02
         0.27795E-02
         0.12849E-02
         0.65115E-03
         0.12731E-03
        -0.12841E-03
         0.94467E-03
         0.11323E-02
         0.17487E-02
         0.40583E-03
         0.39777E-03
        -0.76338E-03
        -0.86615E-03
         0.46074E-03
        -0.18303E-02
        -0.18439E-02
        -0.27238E-02
        -0.28025E-02
        -0.25366E-02
        -0.19292E-02
        -0.99349E-03
        -0.14384E-02
        -0.31554E-03
        -0.11064E-02
        -0.18845E-02
        -0.18712E-02
        -0.15899E-03
        -0.94149E-03
         0.78790E-03
         0.17210E-02
         0.32053E-02
         0.28046E-02
         0.23058E-02
        -0.40600E-03
        -0.12092E-02
        -0.19447E-02
        -0.25028E-02
        -0.26370E-02
        -0.27668E-02
        -0.21125E-02
        -0.16088E-02
        -0.11940E-02
        -0.58676E-03
         0.20871E-03
         0.10583E-02
         0.18413E-02
         0.24545E-02
         0.26022E-02
         0.37964E-02
         0.39100E-02
         0.34621E-02
         0.29267E-02
         0.22211E-02
         0.13865E-02
         0.47130E-03
        -0.47130E-03
        -0.13865E-02
        -0.22211E-02
        -0.29267E-02
        -0.34621E-02
        -0.37964E-02
        -0.39100E-02
        -0.37964E-02
        -0.34621E-02
        -0.29267E-02
        -0.22211E-02
        -0.13865E-02
        -0.47130E-03
         0.47130E-03
         0.13865E-02
         0.22211E-02
         0.29267E-02
         0.34621E-02
         0.37964E-02
         0.10375E-02
         0.17448E-02
         0.23174E-02
         0.16694E-02
         0.30377E-02
         0.27798E-02
         0.12848E-02
         0.65090E-03
         0.12705E-03
        -0.12859E-03
         0.94434E-03
         0.11320E-02
         0.17483E-02
         0.40577E-03
         0.39776E-03
        -0.76374E-03
        -0.86626E-03
         0.46029E-03
        -0.18306E-02
        -0.18438E-02
        -0.27238E-02
        -0.28022E-02
        -0.25368E-02
        -0.19296E-02
        -0.99334E-03
        -0.14387E-02
        -0.31534E-03
        -0.11061E-02
        -0.18844E-02
        -0.18710E-02
        -0.15926E-03
        -0.94209E-03
         0.78724E-03
         0.17210E-02
         0.32056E-02
         0.28046E-02
         0.23057E-02
        -0.40586E-03
        -0.12092E-02
        -0.19447E-02
        -0.25028E-02
        -0.26369E-02
        -0.27665E-02
        -0.21126E-02
        -0.16088E-02
        -0.11941E-02
        -0.58711E-03
         0.20830E-03
         0.10580E-02
         0.18414E-02
         0.24546E-02
         0.26023E-02
         0.37964E-02
         0.39100E-02
         0.34621E-02
         0.29267E-02
         0.22211E-02
         0.13865E-02
         0.47130E-03
        -0.47130E-03
        -0.13865E-02
        -0.22211E-02
        -0.29267E-02
        -0.34621E-02
        -0.37964E-02
        -0.39100E-02
        -0.37964E-02
        -0.34621E-02
        -0.29267E-02
        -0.22211E-02
        -0.13865E-02
        -0.47130E-03
         0.47130E-03
         0.13865E-02
         0.22211E-02
         0.29267E-02
         0.34621E-02
         0.37964E-02
         0.10374E-02
         0.17446E-02
         0.23173E-02
         0.16692E-02
         0.30376E-02
         0.27801E-02
         0.12847E-02
         0.65065E-03
         0.12678E-03
        -0.12878E-03
         0.94401E-03
         0.11316E-02
         0.17479E-02
         0.40572E-03
         0.39774E-03
        -0.76409E-03
        -0.86637E-03
         0.45985E-03
        -0.18309E-02
        -0.18437E-02
        -0.27237E-02
        -0.28020E-02
        -0.25369E-02
        -0.19300E-02
        -0.99320E-03
        -0.14391E-02
        -0.31514E-03
        -0.11057E-02
        -0.18844E-02
        -0.18709E-02
        -0.15954E-03
        -0.94269E-03
         0.78658E-03
         0.17209E-02
         0.32060E-02
         0.28046E-02
         0.23056E-02
        -0.40572E-03
        -0.12092E-02
        -0.19446E-02
        -0.25028E-02
        -0.26368E-02
        -0.27662E-02
        -0.21128E-02
        -0.16088E-02
        -0.11942E-02
        -0.58746E-03
         0.20790E-03
         0.10577E-02
         0.18414E-02
         0.24548E-02
         0.26024E-02
         0.37964E-02
         0.39100E-02
         0.34621E-02
         0.29267E-02
         0.22211E-02
         0.13865E-02
         0.47130E-03
        -0.47130E-03
        -0.13865E-02
        -0.22211E-02
        -0.29267E-02
        -0.34621E-02
        -0.37964E-02
        -0.39100E-02
        -0.37964E-02
        -0.34621E-02
        -0.29267E-02
        -0.22211E-02
        -0.13865E-02
        -0.47130E-03
         0.47130E-03
         0.13865E-02
         0.22211E-02
         0.29267E-02
         0.34621E-02
         0.37964E-02
         0.10373E-02
         0.17445E-02
         0.23172E-02
         0.16689E-02
         0.30376E-02
         0.27805E-02
         0.12846E-02
         0.65041E-03
         0.12652E-03
        -0.12896E-03
         0.94367E-03
         0.11313E-02
         0.17475E-02
         0.40566E-03
         0.39772E-03
        -0.76444E-03
        -0.86648E-03
         0.45940E-03
        -0.18312E-02
        -0.18436E-02
        -0.27237E-02
        -0.28017E-02
        -0.25371E-02
        -0.19305E-02
        -0.99305E-03
        -0.14394E-02
        -0.31494E-03
        -0.11054E-02
        -0.18843E-02
        -0.18708E-02
        -0.15981E-03
        -0.94328E-03
         0.78592E-03
         0.17209E-02
         0.32063E-02
         0.28045E-02
         0.23055E-02
        -0.40558E-03
        -0.12092E-02
        -0.19446E-02
        -0.25027E-02
        -0.26367E-02
        -0.27658E-02
        -0.21129E-02
        -0.16089E-02
        -0.11943E-02
        -0.58781E-03
         0.20749E-03
         0.10574E-02
         0.18415E-02
         0.24549E-02
         0.26025E-02
         0.37964E-02
         0.39100E-02
         0.34621E-02
         0.29267E-02
         0.22211E-02
         0.13865E-02
         0.47130E-03
        -0.47130E-03
        -0.13865E-02
        -0.22211E-02
        -0.29267E-02
        -0.34621E-02
        -0.37964E-02
        -0.39100E-02
        -0.37964E-02
        -0.34621E-02
        -0.29267E-02
        -0.22211E-02
        -0.13865E-02
        -0.47130E-03
         0.47130E-03
         0.13865E-02
         0.22211E-02
         0.29267E-02
         0.34621E-02
         0.37964E-02
         0.10372E-02
         0.17443E-02
         0.23171E-02
         0.16687E-02
         0.30376E-02
         0.27808E-02
         0.12845E-02
         0.65016E-03
         0.12626E-03
        -0.12915E-03
         0.94334E-03
         0.11310E-02
         0.17471E-02
         0.40561E-03
         0.39770E-03
        -0.76480E-03
        -0.86659E-03
         0.45895E-03
        -0.18315E-02
        -0.18435E-02
        -0.27237E-02
        -0.28014E-02
        -0.25372E-02
        -0.19309E-02
        -0.99291E-03
        -0.14398E-02
        -0.31474E-03
        -0.11051E-02
        -0.18843E-02
        -0.18706E-02
        -0.16009E-03
        -0.94388E-03
         0.78526E-03
         0.17208E-02
         0.32066E-02
         0.28045E-02
         0.23053E-02
        -0.40545E-03
        -0.12092E-02
        -0.19446E-02
        -0.25027E-02
        -0.26366E-02
        -0.27655E-02
        -0.21130E-02
        -0.16089E-02
        -0.11944E-02
        -0.58816E-03
         0.20709E-03
         0.10571E-02
         0.18415E-02
         0.24550E-02
         0.26025E-02
         0.37964E-02
         0.39100E-02
         0.34621E-02
         0.29267E-02
         0.22211E-02
         0.13865E-02
         0.47130E-03
        -0.47130E-03
        -0.13865E-02
        -0.22211E-02
        -0.29267E-02
        -0.34621E-02
        -0.37964E-02
        -0.39100E-02
        -0.37964E-02
        -0.34621E-02
        -0.29267E-02
        -0.22211E-02
        -0.13865E-02
        -0.47130E-03
         0.47130E-03
         0.13865E-02
         0.22211E-02
         0.29267E-02
         0.34621E-02
         0.37964E-02
         0.10371E-02
         0.17441E-02
         0.23169E-02
         0.16685E-02
         0.30376E-02
         0.27812E-02
         0.12844E-02
         0.64992E-03
         0.12600E-03
        -0.12933E-03
         0.94301E-03
         0.11306E-02
         0.17467E-02
         0.40556E-03
         0.39769E-03
        -0.76515E-03
        -0.86670E-03
         0.45850E-03
        -0.18318E-02
        -0.18434E-02
        -0.27236E-02
        -0.28011E-02
        -0.25374E-02
        -0.19313E-02
        -0.99277E-03
        -0.14401E-02
        -0.31454E-03
        -0.11047E-02
        -0.18842E-02
        -0.18705E-02
        -0.16036E-03
        -0.94448E-03
         0.78460E-03
         0.17208E-02
         0.32070E-02
         0.28045E-02
         0.23052E-02
        -0.40531E-03
        -0.12092E-02
        -0.19445E-02
        -0.25027E-02
        -0.26366E-02
        -0.27652E-02
        -0.21132E-02
        -0.16090E-02
        -0.11946E-02
        -0.58851E-03
         0.20668E-03
         0.10567E-02
         0.18416E-02
         0.24551E-02
         0.26026E-02
         0.37964E-02
         0.39100E-02
         0.34621E-02
         0.29267E-02
         0.22211E-02
         0.13865E-02
         0.47130E-03
        -0.47130E-03
        -0.13865E-02
        -0.22211E-02
        -0.29267E-02
        -0.34621E-02
        -0.37964E-02
        -0.39100E-02
        -0.37964E-02
        -0.34621E-02
        -0.29267E-02
        -0.22211E-02
        -0.13865E-02
        -0.47130E-03
         0.47130E-03
         0.13865E-02
         0.22211E-02
         0.29267E-02
         0.34621E-02
         0.37964E-02
         0.10370E-02
         0.17439E-02
         0.23168E-02
         0.16683E-02
         0.30375E-02
         0.27815E-02
         0.12843E-02
         0.64967E-03
         0.12573E-03
        -0.12952E-03
         0.94268E-03
         0.11303E-02
         0.17463E-02
         0.40550E-03
         0.39767E-03
        -0.76551E-03
        -0.86680E-03
         0.45806E-03
        -0.18321E-02
        -0.18433E-02
        -0.27236E-02
        -0.28009E-02
        -0.25375E-02
        -0.19317E-02
        -0.99262E-03
        -0.14405E-02
        -0.31434E-03
        -0.11044E-02
        -0.18842E-02
        -0.18704E-02
        -0.16064E-03
        -0.94508E-03
         0.78394E-03
         0.17208E-02
         0.32073E-02
         0.28045E-02
         0.23051E-02
        -0.40517E-03
        -0.12092E-02
        -0.19445E-02
        -0.25026E-02
        -0.26365E-02
        -0.27649E-02
        -0.21133E-02
        -0.16090E-02
        -0.11947E-02
        -0.58886E-03
         0.20627E-03
         0.10564E-02
         0.18416E-02
         0.24553E-02
         0.26027E-02
         0.37964E-02
         0.39100E-02
         0.34621E-02
         0.29267E-02
         0.22211E-02
         0.13865E-02
         0.47130E-03
        -0.47130E-03
        -0.13865E-02
        -0.22211E-02
        -0.29267E-02
        -0.34621E-02
        -0.37964E-02
        -0.39100E-02
        -0.37964E-02
        -0.34621E-02
        -0.29267E-02
        -0.22211E-02
        -0.13865E-02
        -0.47130E-03
         0.47130E-03
         0.13865E-02
         0.22211E-02
         0.29267E-02
         0.34621E-02
         0.37964E-02
         0.10368E-02
         0.17438E-02
         0.23167E-02
         0.16681E-02
         0.30375E-02
         0.27819E-02
         0.12842E-02
         0.64943E-03
         0.12547E-03
        -0.12970E-03
         0.94235E-03
         0.11300E-02
         0.17459E-02
         0.40545E-03
         0.39766E-03
        -0.76586E-03
        -0.86691E-03
         0.45761E-03
        -0.18324E-02
        -0.18432E-02
        -0.27236E-02
        -0.28006E-02
        -0.25377E-02
        -0.19322E-02
        -0.99248E-03
        -0.14408E-02
        -0.31414E-03
        -0.11040E-02
        -0.18841E-02
        -0.18703E-02
        -0.16091E-03
        -0.94568E-03
         0.78328E-03
         0.17207E-02
         0.32076E-02
         0.28044E-02
         0.23050E-02
        -0.40503E-03
        -0.12092E-02
        -0.19445E-02
        -0.25026E-02
        -0.26364E-02
        -0.27646E-02
        -0.21134E-02
        -0.16091E-02
        -0.11948E-02
        -0.58921E-03
         0.20587E-03
         0.10561E-02
         0.18416E-02
         0.24554E-02
         0.26027E-02
         0.37964E-02
         0.39100E-02
         0.34621E-02
         0.29267E-02
         0.22211E-02
         0.13865E-02
         0.47130E-03
        -0.47130E-03
        -0.13865E-02
        -0.22211E-02
        -0.29267E-02
        -0.34621E-02
        -0.37964E-02
        -0.39100E-02
        -0.37964E-02
        -0.34621E-02
        -0.29267E-02
        -0.22211E-02
        -0.13865E-02
        -0.47130E-03
         0.47130E-03
         0.13865E-02
         0.22211E-02
         0.29267E-02
         0.34621E-02
         0.37964E-02
         0.10367E-02
         0.17436E-02
         0.23166E-02
         0.16679E-02
         0.30375E-02
         0.27822E-02
         0.12841E-02
         0.64918E-03
         0.12521E-03
        -0.12989E-03
         0.94202E-03
         0.11296E-02
         0.17455E-02
         0.40539E-03
         0.39764E-03
        -0.76621E-03
        -0.86702E-03
         0.45716E-03
        -0.18326E-02
        -0.18431E-02
        -0.27235E-02
        -0.28003E-02
        -0.25379E-02
        -0.19326E-02
        -0.99233E-03
        -0.14412E-02
        -0.31394E-03
        -0.11037E-02
        -0.18841E-02
        -0.18701E-02
        -0.16119E-03
        -0.94628E-03
         0.78262E-03
         0.17207E-02
         0.32079E-02
         0.28044E-02
         0.23049E-02
        -0.40490E-03
        -0.12093E-02
        -0.19444E-02
        -0.25026E-02
        -0.26363E-02
        -0.27643E-02
        -0.21136E-02
        -0.16091E-02
        -0.11949E-02
        -0.58956E-03
         0.20546E-03
         0.10558E-02
         0.18417E-02
         0.24555E-02
         0.26028E-02
         0.37964E-02
         0.39100E-02
         0.34621E-02
         0.29267E-02
         0.22211E-02
         0.13865E-02
         0.47130E-03
        -0.47130E-03
        -0.13865E-02
        -0.22211E-02
        -0.29267E-02
        -0.34621E-02
        -0.37964E-02
        -0.39100E-02
        -0.37964E-02
        -0.34621E-02
        -0.29267E-02
        -0.22211E-02
        -0.13865E-02
        -0.47130E-03
         0.47130E-03
         0.13865E-02
         0.22211E-02
         0.29267E-02
         0.34621E-02
         0.37964E-02
         0.10366E-02
         0.17434E-02
         0.23164E-02
         0.16677E-02
         0.30375E-02
         0.27825E-02
         0.12840E-02
         0.64894E-03
         0.12495E-03
        -0.13007E-03
         0.94169E-03
         0.11293E-02
         0.17451E-02
         0.40534E-03
         0.39762E-03
        -0.76657E-03
        -0.86713E-03
         0.45671E-03
        -0.18329E-02
        -0.18430E-02
        -0.27235E-02
        -0.28001E-02
        -0.25380E-02
        -0.19330E-02
        -0.99219E-03
        -0.14415E-02
        -0.31374E-03
        -0.11033E-02
        -0.18840E-02
        -0.18700E-02
        -0.16146E-03
        -0.94687E-03
         0.78195E-03
         0.17207E-02
         0.32083E-02
         0.28044E-02
         0.23048E-02
        -0.40476E-03
        -0.12093E-02
        -0.19444E-02
        -0.25026E-02
        -0.26362E-02
        -0.27640E-02
        -0.21137E-02
        -0.16091E-02
        -0.11950E-02
        -0.58991E-03
         0.20505E-03
         0.10555E-02
         0.18417E-02
         0.24556E-02
         0.26029E-02
         0.37964E-02
         0.39100E-02
         0.34621E-02
         0.29267E-02
         0.22211E-02
         0.13865E-02
         0.47130E-03
        -0.47130E-03
        -0.13865E-02
        -0.22211E-02
        -0.29267E-02
        -0.34621E-02
        -0.37964E-02
        -0.39100E-02
        -0.37964E-02
        -0.34621E-02
        -0.29267E-02
        -0.22211E-02
        -0.13865E-02
        -0.47130E-03
         0.47130E-03
         0.13865E-02
         0.22211E-02
         0.29267E-02
         0.34621E-02
         0.37964E-02
         0.10365E-02
         0.17432E-02
         0.23163E-02
         0.16675E-02
         0.30374E-02
         0.27829E-02
         0.12839E-02
         0.64869E-03
         0.12468E-03
        -0.13026E-03
         0.94135E-03
         0.11289E-02
         0.17447E-02
         0.40528E-03
         0.39760E-03
        -0.76692E-03
        -0.86724E-03
         0.45626E-03
        -0.18332E-02
        -0.18430E-02
        -0.27235E-02
        -0.27998E-02
        -0.25382E-02
        -0.19334E-02
        -0.99205E-03
        -0.14419E-02
        -0.31354E-03
        -0.11030E-02
        -0.18840E-02
        -0.18699E-02
        -0.16174E-03
        -0.94747E-03
         0.78129E-03
         0.17206E-02
         0.32086E-02
         0.28044E-02
         0.23047E-02
        -0.40462E-03
        -0.12093E-02
        -0.19444E-02
        -0.25025E-02
        -0.26361E-02
        -0.27637E-02
        -0.21139E-02
        -0.16092E-02
        -0.11951E-02
        -0.59025E-03
         0.20465E-03
         0.10552E-02
         0.18418E-02
         0.24558E-02
         0.26030E-02
         0.37964E-02
         0.39100E-02
         0.34621E-02
         0.29267E-02
         0.22211E-02
         0.13865E-02
         0.47130E-03
        -0.47130E-03
        -0.13865E-02
        -0.22211E-02
        -0.29267E-02
        -0.34621E-02
        -0.37964E-02
        -0.39100E-02
        -0.37964E-02
        -0.34621E-02
        -0.29267E-02
        -0.22211E-02
        -0.13865E-02
        -0.47130E-03
         0.47130E-03
         0.13865E-02
         0.22211E-02
         0.29267E-02
         0.34621E-02
         0.37964E-02
         0.10364E-02
         0.17430E-02
         0.23162E-02
         0.16672E-02
         0.30374E-02
         0.27832E-02
         0.12838E-02
         0.64845E-03
         0.12442E-03
        -0.13044E-03
         0.94102E-03
         0.11286E-02
         0.17443E-02
         0.40523E-03
         0.39759E-03
        -0.76727E-03
        -0.86735E-03
         0.45582E-03
        -0.18335E-02
        -0.18429E-02
        -0.27235E-02
        -0.27995E-02
        -0.25383E-02
        -0.19339E-02
        -0.99190E-03
        -0.14422E-02
        -0.31334E-03
        -0.11026E-02
        -0.18839E-02
        -0.18697E-02
        -0.16201E-03
        -0.94807E-03
         0.78063E-03
         0.17206E-02
         0.32089E-02
         0.28043E-02
         0.23046E-02
        -0.40448E-03
        -0.12093E-02
        -0.19443E-02
        -0.25025E-02
        -0.26360E-02
        -0.27633E-02
        -0.21140E-02
        -0.16092E-02
        -0.11953E-02
        -0.59060E-03
         0.20424E-03
         0.10549E-02
         0.18418E-02
         0.24559E-02
         0.26030E-02
         0.37964E-02
         0.39100E-02
         0.34621E-02
         0.29267E-02
         0.22211E-02
         0.13865E-02
         0.47130E-03
        -0.47130E-03
        -0.13865E-02
        -0.22211E-02
        -0.29267E-02
        -0.34621E-02
        -0.37964E-02
        -0.39100E-02
        -0.37964E-02
        -0.34621E-02
        -0.29267E-02
        -0.22211E-02
        -0.13865E-02
        -0.47130E-03
         0.47130E-03
         0.13865E-02
         0.22211E-02
         0.29267E-02
         0.34621E-02
         0.37964E-02
         0.10363E-02
         0.17429E-02
         0.23161E-02
         0.16670E-02
         0.30374E-02
         0.27836E-02
         0.12837E-02
         0.64820E-03
         0.12416E-03
        -0.13063E-03
         0.94069E-03
         0.11282E-02
         0.17439E-02
         0.40518E-03
         0.39757E-03
        -0.76763E-03
        -0.86746E-03
         0.45537E-03
        -0.18338E-02
        -0.18428E-02
        -0.27234E-02
        -0.27992E-02
        -0.25385E-02
        -0.19343E-02
        -0.99176E-03
        -0.14425E-02
        -0.31314E-03
        -0.11023E-02
        -0.18839E-02
        -0.18696E-02
        -0.16229E-03
        -0.94867E-03
         0.77997E-03
         0.17205E-02
         0.32092E-02
         0.28043E-02
         0.23044E-02
        -0.40434E-03
        -0.12093E-02
        -0.19443E-02
        -0.25025E-02
        -0.26359E-02
        -0.27630E-02
        -0.21141E-02
        -0.16093E-02
        -0.11954E-02
        -0.59095E-03
         0.20384E-03
         0.10546E-02
         0.18419E-02
         0.24560E-02
         0.26031E-02
         0.37964E-02
         0.39100E-02
         0.34621E-02
         0.29267E-02
         0.22211E-02
         0.13865E-02
         0.47130E-03
        -0.47130E-03
        -0.13865E-02
        -0.22211E-02
        -0.29267E-02
        -0.34621E-02
        -0.37964E-02
        -0.39100E-02
        -0.37964E-02
        -0.34621E-02
        -0.29267E-02
        -0.22211E-02
        -0.13865E-02
        -0.47130E-03
         0.47130E-03
         0.13865E-02
         0.22211E-02
         0.29267E-02
         0.34621E-02
         0.37964E-02
         0.10362E-02
         0.17427E-02
         0.23160E-02
         0.16668E-02
         0.30373E-02
         0.27839E-02
         0.12836E-02
         0.64796E-03
         0.12390E-03
        -0.13082E-03
         0.94036E-03
         0.11279E-02
         0.17435E-02
         0.40512E-03
         0.39755E-03
        -0.76798E-03
        -0.86756E-03
         0.45492E-03
        -0.18341E-02
        -0.18427E-02
        -0.27234E-02
        -0.27990E-02
        -0.25386E-02
        -0.19347E-02
        -0.99161E-03
        -0.14429E-02
        -0.31294E-03
        -0.11019E-02
        -0.18838E-02
        -0.18695E-02
        -0.16256E-03
        -0.94927E-03
         0.77931E-03
         0.17205E-02
         0.32096E-02
         0.28043E-02
         0.23043E-02
        -0.40420E-03
        -0.12093E-02
        -0.19443E-02
        -0.25024E-02
        -0.26358E-02
        -0.27627E-02
        -0.21143E-02
        -0.16093E-02
        -0.11955E-02
        -0.59130E-03
         0.20343E-03
         0.10543E-02
         0.18419E-02
         0.24561E-02
         0.26032E-02
         0.37964E-02
         0.39100E-02
         0.34621E-02
         0.29267E-02
         0.22211E-02
         0.13865E-02
         0.47130E-03
        -0.47130E-03
        -0.13865E-02
        -0.22211E-02
        -0.29267E-02
        -0.34621E-02
        -0.37964E-02
        -0.39100E-02
        -0.37964E-02
        -0.34621E-02
        -0.29267E-02
        -0.22211E-02
        -0.13865E-02
        -0.47130E-03
         0.47130E-03
         0.13865E-02
         0.22211E-02
         0.29267E-02
         0.34621E-02
         0.37964E-02
         0.10360E-02
         0.17425E-02
         0.23158E-02
         0.16666E-02
         0.30373E-02
         0.27842E-02
         0.12835E-02
         0.64771E-03
         0.12363E-03
        -0.13100E-03
         0.94003E-03
         0.11276E-02
         0.17432E-02
         0.40507E-03
         0.39754E-03
        -0.76834E-03
        -0.86767E-03
         0.45447E-03
        -0.18344E-02
        -0.18426E-02
        -0.27234E-02
        -0.27987E-02
        -0.25388E-02
        -0.19352E-02
        -0.99147E-03
        -0.14433E-02
        -0.31274E-03
        -0.11016E-02
        -0.18838E-02
        -0.18694E-02
        -0.16284E-03
        -0.94986E-03
         0.77865E-03
         0.17205E-02
         0.32099E-02
         0.28042E-02
         0.23042E-02
        -0.40407E-03
        -0.12093E-02
        -0.19442E-02
        -0.25024E-02
        -0.26358E-02
        -0.27624E-02
        -0.21144E-02
        -0.16094E-02
        -0.11956E-02
        -0.59165E-03
         0.20302E-03
         0.10540E-02
         0.18419E-02
         0.24563E-02
         0.26033E-02
         0.37964E-02
         0.39100E-02
         0.34621E-02
         0.29267E-02
         0.22211E-02
         0.13865E-02
         0.47130E-03
        -0.47130E-03
        -0.13865E-02
        -0.22211E-02
        -0.29267E-02
        -0.34621E-02
        -0.37964E-02
        -0.39100E-02
        -0.37964E-02
        -0.34621E-02
        -0.29267E-02
        -0.22211E-02
        -0.13865E-02
        -0.47130E-03
         0.47130E-03
         0.13865E-02
         0.22211E-02
         0.29267E-02
         0.34621E-02
         0.37964E-02
         0.10359E-02
         0.17423E-02
         0.23157E-02
         0.16664E-02
         0.30373E-02
         0.27846E-02
         0.12834E-02
         0.64747E-03
         0.12337E-03
        -0.13118E-03
         0.93970E-03
         0.11272E-02
         0.17428E-02
         0.40501E-03
         0.39752E-03
        -0.76869E-03
        -0.86778E-03
         0.45402E-03
        -0.18347E-02
        -0.18425E-02
        -0.27234E-02
        -0.27984E-02
        -0.25389E-02
        -0.19356E-02
        -0.99133E-03
        -0.14436E-02
        -0.31254E-03
        -0.11013E-02
        -0.18837E-02
        -0.18692E-02
        -0.16311E-03
        -0.95046E-03
         0.77799E-03
         0.17204E-02
         0.32102E-02
         0.28042E-02
         0.23041E-02
        -0.40393E-03
        -0.12093E-02
        -0.19442E-02
        -0.25024E-02
        -0.26357E-02
        -0.27621E-02
        -0.21146E-02
        -0.16094E-02
        -0.11957E-02
        -0.59200E-03
         0.20262E-03
         0.10536E-02
         0.18420E-02
         0.24564E-02
         0.26033E-02
         0.37964E-02
         0.39100E-02
         0.34621E-02
         0.29267E-02
         0.22211E-02
         0.13865E-02
         0.47130E-03
        -0.47130E-03
        -0.13865E-02
        -0.22211E-02
        -0.29267E-02
        -0.34621E-02
        -0.37964E-02
        -0.39100E-02
        -0.37964E-02
        -0.34621E-02
        -0.29267E-02
        -0.22211E-02
        -0.13865E-02
        -0.47130E-03
         0.47130E-03
         0.13865E-02
         0.22211E-02
         0.29267E-02
         0.34621E-02
         0.37964E-02
         0.10358E-02
         0.17422E-02
         0.23156E-02
         0.16662E-02
         0.30373E-02
         0.27849E-02
         0.12833E-02
         0.64722E-03
         0.12311E-03
        -0.13137E-03
         0.93937E-03
         0.11269E-02
         0.17424E-02
         0.40496E-03
         0.39750E-03
        -0.76904E-03
        -0.86789E-03
         0.45358E-03
        -0.18350E-02
        -0.18424E-02
        -0.27233E-02
        -0.27981E-02
        -0.25391E-02
        -0.19360E-02
        -0.99118E-03
        -0.14440E-02
        -0.31234E-03
        -0.11009E-02
        -0.18836E-02
        -0.18691E-02
        -0.16339E-03
        -0.95106E-03
         0.77733E-03
         0.17204E-02
         0.32105E-02
         0.28042E-02
         0.23040E-02
        -0.40379E-03
        -0.12093E-02
        -0.19441E-02
        -0.25023E-02
        -0.26356E-02
        -0.27618E-02
        -0.21147E-02
        -0.16094E-02
        -0.11958E-02
        -0.59235E-03
         0.20221E-03
         0.10533E-02
         0.18420E-02
         0.24565E-02
         0.26034E-02
         0.37964E-02
         0.39100E-02
         0.34621E-02
         0.29267E-02
         0.22211E-02
         0.13865E-02
         0.47130E-03
        -0.47130E-03
        -0.13865E-02
        -0.22211E-02
        -0.29267E-02
        -0.34621E-02
        -0.37964E-02
        -0.39100E-02
        -0.37964E-02
        -0.34621E-02
        -0.29267E-02
        -0.22211E-02
        -0.13865E-02
        -0.47130E-03
         0.47130E-03
         0.13865E-02
         0.22211E-02
         0.29267E-02
         0.34621E-02
         0.37964E-02
         0.10357E-02
         0.17420E-02
         0.23155E-02
         0.16660E-02
         0.30372E-02
         0.27853E-02
         0.12832E-02
         0.64698E-03
         0.12285E-03
        -0.13155E-03
         0.93903E-03
         0.11266E-02
         0.17420E-02
         0.40490E-03
         0.39749E-03
        -0.76940E-03
        -0.86800E-03
         0.45313E-03
        -0.18353E-02
        -0.18423E-02
        -0.27233E-02
        -0.27979E-02
        -0.25393E-02
        -0.19365E-02
        -0.99104E-03
        -0.14443E-02
        -0.31214E-03
        -0.11006E-02
        -0.18836E-02
        -0.18690E-02
        -0.16366E-03
        -0.95166E-03
         0.77667E-03
         0.17203E-02
         0.32109E-02
         0.28042E-02
         0.23039E-02
        -0.40365E-03
        -0.12093E-02
        -0.19441E-02
        -0.25023E-02
        -0.26355E-02
        -0.27615E-02
        -0.21148E-02
        -0.16095E-02
        -0.11960E-02
        -0.59270E-03
         0.20180E-03
         0.10530E-02
         0.18421E-02
         0.24566E-02
         0.26035E-02
         0.37964E-02
         0.39100E-02
         0.34621E-02
         0.29267E-02
         0.22211E-02
         0.13865E-02
         0.47130E-03
        -0.47130E-03
        -0.13865E-02
        -0.22211E-02
        -0.29267E-02
        -0.34621E-02
        -0.37964E-02
        -0.39100E-02
        -0.37964E-02
        -0.34621E-02
        -0.29267E-02
        -0.22211E-02
        -0.13865E-02
        -0.47130E-03
         0.47130E-03
         0.13865E-02
         0.22211E-02
         0.29267E-02
         0.34621E-02
         0.37964E-02
         0.10356E-02
         0.17418E-02
         0.23153E-02
         0.16657E-02
         0.30372E-02
         0.27856E-02
         0.12830E-02
         0.64673E-03
         0.12259E-03
        -0.13174E-03
         0.93870E-03
         0.11262E-02
         0.17416E-02
         0.40485E-03
         0.39747E-03
        -0.76975E-03
        -0.86811E-03
         0.45268E-03
        -0.18356E-02
        -0.18422E-02
        -0.27233E-02
        -0.27976E-02
        -0.25394E-02
        -0.19369E-02
        -0.99090E-03
        -0.14446E-02
        -0.31194E-03
        -0.11002E-02
        -0.18835E-02
        -0.18689E-02
        -0.16394E-03
        -0.95226E-03
         0.77601E-03
         0.17203E-02
         0.32112E-02
         0.28042E-02
         0.23038E-02
        -0.40352E-03
        -0.12093E-02
        -0.19441E-02
        -0.25023E-02
        -0.26354E-02
        -0.27612E-02
        -0.21150E-02
        -0.16095E-02
        -0.11961E-02
        -0.59305E-03
         0.20140E-03
         0.10527E-02
         0.18421E-02
         0.24568E-02
         0.26036E-02
         0.37964E-02
         0.39100E-02
         0.34621E-02
         0.29267E-02
         0.22211E-02
         0.13865E-02
         0.47130E-03
        -0.47130E-03
        -0.13865E-02
        -0.22211E-02
        -0.29267E-02
        -0.34621E-02
        -0.37964E-02
        -0.39100E-02
        -0.37964E-02
        -0.34621E-02
        -0.29267E-02
        -0.22211E-02
        -0.13865E-02
        -0.47130E-03
         0.47130E-03
         0.13865E-02
         0.22211E-02
         0.29267E-02
         0.34621E-02
         0.37964E-02
         0.10355E-02
         0.17416E-02
         0.23152E-02
         0.16655E-02
         0.30372E-02
         0.27860E-02
         0.12829E-02
         0.64649E-03
         0.12232E-03
        -0.13193E-03
         0.93837E-03
         0.11259E-02
         0.17412E-02
         0.40480E-03
         0.39745E-03
        -0.77011E-03
        -0.86822E-03
         0.45223E-03
        -0.18359E-02
        -0.18421E-02
        -0.27232E-02
        -0.27973E-02
        -0.25396E-02
        -0.19373E-02
        -0.99075E-03
        -0.14450E-02
        -0.31173E-03
        -0.10999E-02
        -0.18835E-02
        -0.18687E-02
        -0.16421E-03
        -0.95285E-03
         0.77535E-03
         0.17202E-02
         0.32115E-02
         0.28041E-02
         0.23037E-02
        -0.40338E-03
        -0.12093E-02
        -0.19440E-02
        -0.25023E-02
        -0.26353E-02
        -0.27609E-02
        -0.21151E-02
        -0.16096E-02
        -0.11962E-02
        -0.59340E-03
         0.20099E-03
         0.10524E-02
         0.18422E-02
         0.24569E-02
         0.26036E-02
         0.37964E-02
         0.39100E-02
         0.34621E-02
         0.29267E-02
         0.22211E-02
         0.13865E-02
         0.47130E-03
        -0.47130E-03
        -0.13865E-02
        -0.22211E-02
        -0.29267E-02
        -0.34621E-02
        -0.37964E-02
        -0.39100E-02
        -0.37964E-02
        -0.34621E-02
        -0.29267E-02
        -0.22211E-02
        -0.13865E-02
        -0.47130E-03
         0.47130E-03
         0.13865E-02
         0.22211E-02
         0.29267E-02
         0.34621E-02
         0.37964E-02
         0.10354E-02
         0.17414E-02
         0.23151E-02
         0.16653E-02
         0.30372E-02
         0.27863E-02
         0.12829E-02
         0.64624E-03
         0.12206E-03
        -0.13211E-03
         0.93804E-03
         0.11255E-02
         0.17408E-02
         0.40474E-03
         0.39744E-03
        -0.77046E-03
        -0.86832E-03
         0.45179E-03
        -0.18362E-02
        -0.18420E-02
        -0.27232E-02
        -0.27970E-02
        -0.25397E-02
        -0.19377E-02
        -0.99061E-03
        -0.14453E-02
        -0.31153E-03
        -0.10995E-02
        -0.18834E-02
        -0.18686E-02
        -0.16449E-03
        -0.95345E-03
         0.77469E-03
         0.17202E-02
         0.32119E-02
         0.28041E-02
         0.23036E-02
        -0.40324E-03
        -0.12093E-02
        -0.19440E-02
        -0.25022E-02
        -0.26352E-02
        -0.27606E-02
        -0.21152E-02
        -0.16096E-02
        -0.11963E-02
        -0.59375E-03
         0.20059E-03
         0.10521E-02
         0.18422E-02
         0.24570E-02
         0.26037E-02
         0.37964E-02
         0.39100E-02
         0.34621E-02
         0.29267E-02
         0.22211E-02
         0.13865E-02
         0.47130E-03
        -0.47130E-03
        -0.13865E-02
        -0.22211E-02
        -0.29267E-02
        -0.34621E-02
        -0.37964E-02
        -0.39100E-02
        -0.37964E-02
        -0.34621E-02
        -0.29267E-02
        -0.22211E-02
        -0.13865E-02
        -0.47130E-03
         0.47130E-03
         0.13865E-02
         0.22211E-02
         0.29267E-02
         0.34621E-02
         0.37964E-02
         0.10352E-02
         0.17413E-02
         0.23150E-02
         0.16651E-02
         0.30371E-02
         0.27866E-02
         0.12827E-02
         0.64600E-03
         0.12180E-03
        -0.13230E-03
         0.93771E-03
         0.11252E-02
         0.17404E-02
         0.40469E-03
         0.39742E-03
        -0.77081E-03
        -0.86843E-03
         0.45134E-03
        -0.18365E-02
        -0.18419E-02
        -0.27232E-02
        -0.27968E-02
        -0.25399E-02
        -0.19382E-02
        -0.99046E-03
        -0.14457E-02
        -0.31133E-03
        -0.10992E-02
        -0.18834E-02
        -0.18685E-02
        -0.16476E-03
        -0.95405E-03
         0.77402E-03
         0.17202E-02
         0.32122E-02
         0.28041E-02
         0.23034E-02
        -0.40310E-03
        -0.12093E-02
        -0.19440E-02
        -0.25022E-02
        -0.26351E-02
        -0.27602E-02
        -0.21154E-02
        -0.16097E-02
        -0.11964E-02
        -0.59409E-03
         0.20018E-03
         0.10518E-02
         0.18422E-02
         0.24571E-02
         0.26038E-02
         0.37964E-02
         0.39100E-02
         0.34621E-02
         0.29267E-02
         0.22211E-02
         0.13865E-02
         0.47130E-03
        -0.47130E-03
        -0.13865E-02
        -0.22211E-02
        -0.29267E-02
        -0.34621E-02
        -0.37964E-02
        -0.39100E-02
        -0.37964E-02
        -0.34621E-02
        -0.29267E-02
        -0.22211E-02
        -0.13865E-02
        -0.47130E-03
         0.47130E-03
         0.13865E-02
         0.22211E-02
         0.29267E-02
         0.34621E-02
         0.37964E-02
         0.10351E-02
         0.17411E-02
         0.23149E-02
         0.16649E-02
         0.30371E-02
         0.27870E-02
         0.12826E-02
         0.64575E-03
         0.12154E-03
        -0.13248E-03
         0.93738E-03
         0.11249E-02
         0.17400E-02
         0.40463E-03
         0.39740E-03
        -0.77117E-03
        -0.86854E-03
         0.45089E-03
        -0.18368E-02
        -0.18418E-02
        -0.27232E-02
        -0.27965E-02
        -0.25400E-02
        -0.19386E-02
        -0.99032E-03
        -0.14460E-02
        -0.31113E-03
        -0.10988E-02
        -0.18833E-02
        -0.18683E-02
        -0.16504E-03
        -0.95465E-03
         0.77336E-03
         0.17201E-02
         0.32125E-02
         0.28041E-02
         0.23033E-02
        -0.40296E-03
        -0.12093E-02
        -0.19439E-02
        -0.25022E-02
        -0.26350E-02
        -0.27599E-02
        -0.21155E-02
        -0.16097E-02
        -0.11965E-02
        -0.59444E-03
         0.19977E-03
         0.10515E-02
         0.18423E-02
         0.24573E-02
         0.26039E-02
         0.37964E-02
         0.39100E-02
         0.34621E-02
         0.29267E-02
         0.22211E-02
         0.13865E-02
         0.47130E-03
        -0.47130E-03
        -0.13865E-02
        -0.22211E-02
        -0.29267E-02
        -0.34621E-02
        -0.37964E-02
        -0.39100E-02
        -0.37964E-02
        -0.34621E-02
        -0.29267E-02
        -0.22211E-02
        -0.13865E-02
        -0.47130E-03
         0.47130E-03
         0.13865E-02
         0.22211E-02
         0.29267E-02
         0.34621E-02
         0.37964E-02
  
SCALARS           initial_coordinate_y  double 1
LOOKUP_TABLE default
         0.67292E-03
         0.12308E-02
         0.59151E-03
        -0.33775E-03
         0.67237E-03
         0.12301E-02
         0.59098E-03
        -0.33851E-03
         0.14882E-03
        -0.67643E-03
         0.14846E-03
        -0.67692E-03
         0.18412E-02
         0.14576E-02
         0.18410E-02
         0.14566E-02
         0.29933E-03
         0.11672E-02
         0.29819E-03
         0.11655E-02
         0.22748E-02
         0.28286E-02
         0.24238E-02
         0.22746E-02
         0.28291E-02
         0.24236E-02
         0.21685E-02
         0.29366E-02
         0.21684E-02
         0.29369E-02
        -0.10033E-02
         0.78969E-04
        -0.70318E-03
        -0.10032E-02
         0.78160E-04
        -0.70391E-03
        -0.71196E-03
         0.82749E-04
        -0.71210E-03
         0.82626E-04
        -0.77865E-03
         0.40713E-04
        -0.77882E-03
         0.40439E-04
        -0.15195E-02
        -0.13230E-02
        -0.15195E-02
        -0.13231E-02
         0.98847E-03
         0.98712E-03
        -0.17325E-02
        -0.17325E-02
         0.20220E-02
         0.20217E-02
         0.18615E-02
         0.18616E-02
         0.17175E-02
         0.90940E-03
         0.17175E-02
         0.90916E-03
        -0.19800E-02
        -0.23489E-02
        -0.19800E-02
        -0.23489E-02
        -0.17074E-02
        -0.17074E-02
        -0.14894E-02
        -0.14892E-02
         0.76036E-03
         0.12477E-02
         0.75936E-03
         0.12473E-02
         0.18665E-02
         0.18664E-02
         0.29038E-02
         0.29049E-02
         0.27207E-02
         0.27212E-02
         0.24642E-02
         0.24645E-02
         0.22359E-02
         0.16503E-02
         0.22359E-02
         0.16503E-02
         0.87493E-03
         0.87466E-03
        -0.21373E-02
        -0.21373E-02
        -0.26931E-02
        -0.26931E-02
        -0.31291E-02
        -0.30382E-02
        -0.31291E-02
        -0.30382E-02
        -0.28748E-02
        -0.28748E-02
        -0.26423E-02
        -0.26420E-02
        -0.23707E-02
        -0.23705E-02
        -0.21445E-02
        -0.15105E-02
        -0.21439E-02
        -0.15106E-02
         0.93572E-03
         0.00000E+00
         0.93572E-03
         0.00000E+00
         0.18171E-02
         0.18171E-02
         0.25928E-02
         0.25928E-02
         0.32179E-02
         0.32179E-02
         0.36559E-02
         0.36559E-02
         0.38815E-02
         0.38815E-02
         0.38815E-02
         0.38815E-02
         0.36559E-02
         0.36559E-02
         0.32179E-02
         0.32179E-02
         0.25928E-02
         0.25928E-02
         0.18171E-02
         0.18171E-02
         0.93572E-03
         0.93572E-03
         0.22152E-17
        -0.47884E-18
        -0.93572E-03
        -0.93572E-03
        -0.18171E-02
        -0.18171E-02
        -0.25928E-02
        -0.25928E-02
        -0.32179E-02
        -0.32179E-02
        -0.36559E-02
        -0.36559E-02
        -0.38815E-02
        -0.38815E-02
        -0.38815E-02
        -0.38815E-02
        -0.36559E-02
        -0.36559E-02
        -0.32179E-02
        -0.32179E-02
        -0.25928E-02
        -0.25928E-02
        -0.18171E-02
        -0.18171E-02
        -0.93572E-03
        -0.93572E-03
         0.67348E-03
         0.12314E-02
         0.59203E-03
        -0.33700E-03
         0.14918E-03
        -0.67594E-03
         0.18414E-02
         0.14586E-02
         0.30048E-03
         0.11690E-02
         0.22749E-02
         0.28282E-02
         0.24239E-02
         0.21685E-02
         0.29364E-02
        -0.10035E-02
         0.79778E-04
        -0.70245E-03
        -0.71182E-03
         0.82873E-04
        -0.77848E-03
         0.40986E-04
        -0.15194E-02
        -0.13228E-02
         0.98983E-03
        -0.17324E-02
         0.20223E-02
         0.18614E-02
         0.17175E-02
         0.90964E-03
        -0.19800E-02
        -0.23489E-02
        -0.17074E-02
        -0.14896E-02
         0.76137E-03
         0.12481E-02
         0.18665E-02
         0.29027E-02
         0.27202E-02
         0.24640E-02
         0.22359E-02
         0.16503E-02
         0.87519E-03
        -0.21373E-02
        -0.26932E-02
        -0.31291E-02
        -0.30382E-02
        -0.28748E-02
        -0.26426E-02
        -0.23709E-02
        -0.21450E-02
        -0.15104E-02
         0.93572E-03
         0.00000E+00
         0.18171E-02
         0.25928E-02
         0.32179E-02
         0.36559E-02
         0.38815E-02
         0.38815E-02
         0.36559E-02
         0.32179E-02
         0.25928E-02
         0.18171E-02
         0.93572E-03
        -0.47884E-18
        -0.93572E-03
        -0.18171E-02
        -0.25928E-02
        -0.32179E-02
        -0.36559E-02
        -0.38815E-02
        -0.38815E-02
        -0.36559E-02
        -0.32179E-02
        -0.25928E-02
        -0.18171E-02
        -0.93572E-03
         0.67403E-03
         0.12321E-02
         0.59255E-03
        -0.33624E-03
         0.14955E-03
        -0.67544E-03
         0.18415E-02
         0.14596E-02
         0.30163E-03
         0.11707E-02
         0.22750E-02
         0.28277E-02
         0.24241E-02
         0.21685E-02
         0.29361E-02
        -0.10036E-02
         0.80588E-04
        -0.70173E-03
        -0.71168E-03
         0.82996E-04
        -0.77831E-03
         0.41259E-04
        -0.15194E-02
        -0.13227E-02
         0.99119E-03
        -0.17324E-02
         0.20226E-02
         0.18613E-02
         0.17175E-02
         0.90988E-03
        -0.19801E-02
        -0.23490E-02
        -0.17074E-02
        -0.14899E-02
         0.76237E-03
         0.12485E-02
         0.18666E-02
         0.29017E-02
         0.27198E-02
         0.24638E-02
         0.22359E-02
         0.16503E-02
         0.87545E-03
        -0.21374E-02
        -0.26932E-02
        -0.31291E-02
        -0.30382E-02
        -0.28748E-02
        -0.26428E-02
        -0.23711E-02
        -0.21456E-02
        -0.15103E-02
         0.93572E-03
         0.00000E+00
         0.18171E-02
         0.25928E-02
         0.32179E-02
         0.36559E-02
         0.38815E-02
         0.38815E-02
         0.36559E-02
         0.32179E-02
         0.25928E-02
         0.18171E-02
         0.93572E-03
         0.39516E-17
        -0.93572E-03
        -0.18171E-02
        -0.25928E-02
        -0.32179E-02
        -0.36559E-02
        -0.38815E-02
        -0.38815E-02
        -0.36559E-02
        -0.32179E-02
        -0.25928E-02
        -0.18171E-02
        -0.93572E-03
         0.67459E-03
         0.12328E-02
         0.59308E-03
        -0.33549E-03
         0.14991E-03
        -0.67495E-03
         0.18417E-02
         0.14606E-02
         0.30278E-03
         0.11725E-02
         0.22752E-02
         0.28273E-02
         0.24242E-02
         0.21686E-02
         0.29359E-02
        -0.10038E-02
         0.81397E-04
        -0.70100E-03
        -0.71154E-03
         0.83120E-04
        -0.77814E-03
         0.41533E-04
        -0.15193E-02
        -0.13227E-02
         0.99254E-03
        -0.17324E-02
         0.20228E-02
         0.18611E-02
         0.17175E-02
         0.91012E-03
        -0.19801E-02
        -0.23490E-02
        -0.17074E-02
        -0.14901E-02
         0.76338E-03
         0.12490E-02
         0.18666E-02
         0.29006E-02
         0.27193E-02
         0.24636E-02
         0.22359E-02
         0.16503E-02
         0.87571E-03
        -0.21374E-02
        -0.26932E-02
        -0.31291E-02
        -0.30382E-02
        -0.28748E-02
        -0.26431E-02
        -0.23713E-02
        -0.21461E-02
        -0.15102E-02
         0.93572E-03
         0.00000E+00
         0.18171E-02
         0.25928E-02
         0.32179E-02
         0.36559E-02
         0.38815E-02
         0.38815E-02
         0.36559E-02
         0.32179E-02
         0.25928E-02
         0.18171E-02
         0.93572E-03
        -0.47884E-18
        -0.93572E-03
        -0.18171E-02
        -0.25928E-02
        -0.32179E-02
        -0.36559E-02
        -0.38815E-02
        -0.38815E-02
        -0.36559E-02
        -0.32179E-02
        -0.25928E-02
        -0.18171E-02
        -0.93572E-03
         0.67514E-03
         0.12334E-02
         0.59360E-03
        -0.33474E-03
         0.15027E-03
        -0.67446E-03
         0.18419E-02
         0.14616E-02
         0.30393E-03
         0.11742E-02
         0.22753E-02
         0.28269E-02
         0.24244E-02
         0.21686E-02
         0.29356E-02
        -0.10039E-02
         0.82206E-04
        -0.70028E-03
        -0.71140E-03
         0.83243E-04
        -0.77797E-03
         0.41806E-04
        -0.15193E-02
        -0.13226E-02
         0.99390E-03
        -0.17323E-02
         0.20231E-02
         0.18610E-02
         0.17175E-02
         0.91036E-03
        -0.19801E-02
        -0.23490E-02
        -0.17074E-02
        -0.14904E-02
         0.76439E-03
         0.12494E-02
         0.18666E-02
         0.28995E-02
         0.27188E-02
         0.24633E-02
         0.22359E-02
         0.16503E-02
         0.87597E-03
        -0.21374E-02
        -0.26932E-02
        -0.31291E-02
        -0.30382E-02
        -0.28748E-02
        -0.26434E-02
        -0.23715E-02
        -0.21467E-02
        -0.15101E-02
         0.93572E-03
         0.00000E+00
         0.18171E-02
         0.25928E-02
         0.32179E-02
         0.36559E-02
         0.38815E-02
         0.38815E-02
         0.36559E-02
         0.32179E-02
         0.25928E-02
         0.18171E-02
         0.93572E-03
        -0.47884E-18
        -0.93572E-03
        -0.18171E-02
        -0.25928E-02
        -0.32179E-02
        -0.36559E-02
        -0.38815E-02
        -0.38815E-02
        -0.36559E-02
        -0.32179E-02
        -0.25928E-02
        -0.18171E-02
        -0.93572E-03
         0.67570E-03
         0.12341E-02
         0.59412E-03
        -0.33398E-03
         0.15064E-03
        -0.67396E-03
         0.18421E-02
         0.14626E-02
         0.30507E-03
         0.11760E-02
         0.22754E-02
         0.28264E-02
         0.24245E-02
         0.21686E-02
         0.29353E-02
        -0.10040E-02
         0.83015E-04
        -0.69955E-03
        -0.71126E-03
         0.83367E-04
        -0.77780E-03
         0.42080E-04
        -0.15192E-02
        -0.13224E-02
         0.99526E-03
        -0.17323E-02
         0.20234E-02
         0.18609E-02
         0.17175E-02
         0.91060E-03
        -0.19801E-02
        -0.23490E-02
        -0.17074E-02
        -0.14906E-02
         0.76539E-03
         0.12498E-02
         0.18667E-02
         0.28984E-02
         0.27184E-02
         0.24631E-02
         0.22359E-02
         0.16503E-02
         0.87623E-03
        -0.21374E-02
        -0.26932E-02
        -0.31291E-02
        -0.30382E-02
        -0.28748E-02
        -0.26436E-02
        -0.23717E-02
        -0.21472E-02
        -0.15100E-02
         0.93572E-03
         0.00000E+00
         0.18171E-02
         0.25928E-02
         0.32179E-02
         0.36559E-02
         0.38815E-02
         0.38815E-02
         0.36559E-02
         0.32179E-02
         0.25928E-02
         0.18171E-02
         0.93572E-03
        -0.47884E-18
        -0.93572E-03
        -0.18171E-02
        -0.25928E-02
        -0.32179E-02
        -0.36559E-02
        -0.38815E-02
        -0.38815E-02
        -0.36559E-02
        -0.32179E-02
        -0.25928E-02
        -0.18171E-02
        -0.93572E-03
         0.67625E-03
         0.12348E-02
         0.59465E-03
        -0.33323E-03
         0.15100E-03
        -0.67347E-03
         0.18423E-02
         0.14636E-02
         0.30622E-03
         0.11777E-02
         0.22755E-02
         0.28260E-02
         0.24247E-02
         0.21687E-02
         0.29351E-02
        -0.10042E-02
         0.83825E-04
        -0.69882E-03
        -0.71112E-03
         0.83490E-04
        -0.77763E-03
         0.42353E-04
        -0.15192E-02
        -0.13223E-02
         0.99661E-03
        -0.17322E-02
         0.20237E-02
         0.18607E-02
         0.17175E-02
         0.91084E-03
        -0.19801E-02
        -0.23491E-02
        -0.17074E-02
        -0.14909E-02
         0.76640E-03
         0.12503E-02
         0.18667E-02
         0.28974E-02
         0.27179E-02
         0.24629E-02
         0.22359E-02
         0.16503E-02
         0.87650E-03
        -0.21374E-02
        -0.26933E-02
        -0.31291E-02
        -0.30382E-02
        -0.28749E-02
        -0.26439E-02
        -0.23719E-02
        -0.21478E-02
        -0.15099E-02
         0.93572E-03
         0.00000E+00
         0.18171E-02
         0.25928E-02
         0.32179E-02
         0.36559E-02
         0.38815E-02
         0.38815E-02
         0.36559E-02
         0.32179E-02
         0.25928E-02
         0.18171E-02
         0.93572E-03
        -0.47884E-18
        -0.93572E-03
        -0.18171E-02
        -0.25928E-02
        -0.32179E-02
        -0.36559E-02
        -0.38815E-02
        -0.38815E-02
        -0.36559E-02
        -0.32179E-02
        -0.25928E-02
        -0.18171E-02
        -0.93572E-03
         0.67680E-03
         0.12354E-02
         0.59517E-03
        -0.33247E-03
         0.15136E-03
        -0.67298E-03
         0.18425E-02
         0.14646E-02
         0.30737E-03
         0.11795E-02
         0.22757E-02
         0.28255E-02
         0.24248E-02
         0.21687E-02
         0.29348E-02
        -0.10043E-02
         0.84634E-04
        -0.69810E-03
        -0.71098E-03
         0.83614E-04
        -0.77746E-03
         0.42626E-04
        -0.15191E-02
        -0.13223E-02
         0.99797E-03
        -0.17322E-02
         0.20240E-02
         0.18606E-02
         0.17175E-02
         0.91108E-03
        -0.19802E-02
        -0.23491E-02
        -0.17074E-02
        -0.14911E-02
         0.76740E-03
         0.12507E-02
         0.18668E-02
         0.28963E-02
         0.27174E-02
         0.24627E-02
         0.22358E-02
         0.16503E-02
         0.87676E-03
        -0.21374E-02
        -0.26933E-02
        -0.31291E-02
        -0.30382E-02
        -0.28749E-02
        -0.26442E-02
        -0.23721E-02
        -0.21483E-02
        -0.15097E-02
         0.93572E-03
         0.00000E+00
         0.18171E-02
         0.25928E-02
         0.32179E-02
         0.36559E-02
         0.38815E-02
         0.38815E-02
         0.36559E-02
         0.32179E-02
         0.25928E-02
         0.18171E-02
         0.93572E-03
        -0.47884E-18
        -0.93572E-03
        -0.18171E-02
        -0.25928E-02
        -0.32179E-02
        -0.36559E-02
        -0.38815E-02
        -0.38815E-02
        -0.36559E-02
        -0.32179E-02
        -0.25928E-02
        -0.18171E-02
        -0.93572E-03
         0.67736E-03
         0.12361E-02
         0.59570E-03
        -0.33172E-03
         0.15173E-03
        -0.67248E-03
         0.18427E-02
         0.14656E-02
         0.30852E-03
         0.11812E-02
         0.22758E-02
         0.28251E-02
         0.24249E-02
         0.21688E-02
         0.29345E-02
        -0.10044E-02
         0.85443E-04
        -0.69737E-03
        -0.71084E-03
         0.83737E-04
        -0.77729E-03
         0.42899E-04
        -0.15191E-02
        -0.13222E-02
         0.99932E-03
        -0.17322E-02
         0.20243E-02
         0.18605E-02
         0.17175E-02
         0.91132E-03
        -0.19802E-02
        -0.23491E-02
        -0.17074E-02
        -0.14914E-02
         0.76841E-03
         0.12511E-02
         0.18668E-02
         0.28952E-02
         0.27170E-02
         0.24624E-02
         0.22358E-02
         0.16503E-02
         0.87702E-03
        -0.21374E-02
        -0.26933E-02
        -0.31291E-02
        -0.30382E-02
        -0.28749E-02
        -0.26444E-02
        -0.23723E-02
        -0.21489E-02
        -0.15096E-02
         0.93572E-03
         0.00000E+00
         0.18171E-02
         0.25928E-02
         0.32179E-02
         0.36559E-02
         0.38815E-02
         0.38815E-02
         0.36559E-02
         0.32179E-02
         0.25928E-02
         0.18171E-02
         0.93572E-03
        -0.47884E-18
        -0.93572E-03
        -0.18171E-02
        -0.25928E-02
        -0.32179E-02
        -0.36559E-02
        -0.38815E-02
        -0.38815E-02
        -0.36559E-02
        -0.32179E-02
        -0.25928E-02
        -0.18171E-02
        -0.93572E-03
         0.67791E-03
         0.12368E-02
         0.59622E-03
        -0.33096E-03
         0.15209E-03
        -0.67199E-03
         0.18429E-02
         0.14666E-02
         0.30967E-03
         0.11830E-02
         0.22759E-02
         0.28247E-02
         0.24251E-02
         0.21688E-02
         0.29343E-02
        -0.10046E-02
         0.86253E-04
        -0.69665E-03
        -0.71070E-03
         0.83861E-04
        -0.77712E-03
         0.43173E-04
        -0.15190E-02
        -0.13220E-02
         0.10007E-02
        -0.17321E-02
         0.20245E-02
         0.18603E-02
         0.17175E-02
         0.91156E-03
        -0.19802E-02
        -0.23491E-02
        -0.17074E-02
        -0.14916E-02
         0.76941E-03
         0.12515E-02
         0.18668E-02
         0.28942E-02
         0.27165E-02
         0.24622E-02
         0.22358E-02
         0.16503E-02
         0.87728E-03
        -0.21374E-02
        -0.26933E-02
        -0.31291E-02
        -0.30382E-02
        -0.28749E-02
        -0.26447E-02
        -0.23725E-02
        -0.21494E-02
        -0.15095E-02
         0.93572E-03
         0.00000E+00
         0.18171E-02
         0.25928E-02
         0.32179E-02
         0.36559E-02
         0.38815E-02
         0.38815E-02
         0.36559E-02
         0.32179E-02
         0.25928E-02
         0.18171E-02
         0.93572E-03
        -0.47884E-18
        -0.93572E-03
        -0.18171E-02
        -0.25928E-02
        -0.32179E-02
        -0.36559E-02
        -0.38815E-02
        -0.38815E-02
        -0.36559E-02
        -0.32179E-02
        -0.25928E-02
        -0.18171E-02
        -0.93572E-03
         0.67847E-03
         0.12374E-02
         0.59674E-03
        -0.33021E-03
         0.15245E-03
        -0.67150E-03
         0.18430E-02
         0.14676E-02
         0.31081E-03
         0.11847E-02
         0.22761E-02
         0.28242E-02
         0.24252E-02
         0.21688E-02
         0.29340E-02
        -0.10047E-02
         0.87062E-04
        -0.69592E-03
        -0.71056E-03
         0.83985E-04
        -0.77695E-03
         0.43446E-04
        -0.15190E-02
        -0.13219E-02
         0.10020E-02
        -0.17321E-02
         0.20248E-02
         0.18602E-02
         0.17175E-02
         0.91180E-03
        -0.19803E-02
        -0.23491E-02
        -0.17073E-02
        -0.14919E-02
         0.77042E-03
         0.12520E-02
         0.18669E-02
         0.28931E-02
         0.27160E-02
         0.24620E-02
         0.22358E-02
         0.16503E-02
         0.87754E-03
        -0.21374E-02
        -0.26933E-02
        -0.31291E-02
        -0.30382E-02
        -0.28749E-02
        -0.26450E-02
        -0.23727E-02
        -0.21500E-02
        -0.15094E-02
         0.93572E-03
         0.00000E+00
         0.18171E-02
         0.25928E-02
         0.32179E-02
         0.36559E-02
         0.38815E-02
         0.38815E-02
         0.36559E-02
         0.32179E-02
         0.25928E-02
         0.18171E-02
         0.93572E-03
         0.39516E-17
        -0.93572E-03
        -0.18171E-02
        -0.25928E-02
        -0.32179E-02
        -0.36559E-02
        -0.38815E-02
        -0.38815E-02
        -0.36559E-02
        -0.32179E-02
        -0.25928E-02
        -0.18171E-02
        -0.93572E-03
         0.67902E-03
         0.12381E-02
         0.59727E-03
        -0.32945E-03
         0.15282E-03
        -0.67100E-03
         0.18432E-02
         0.14686E-02
         0.31196E-03
         0.11865E-02
         0.22762E-02
         0.28238E-02
         0.24254E-02
         0.21688E-02
         0.29337E-02
        -0.10049E-02
         0.87871E-04
        -0.69519E-03
        -0.71042E-03
         0.84108E-04
        -0.77678E-03
         0.43720E-04
        -0.15189E-02
        -0.13219E-02
         0.10034E-02
        -0.17320E-02
         0.20251E-02
         0.18601E-02
         0.17175E-02
         0.91204E-03
        -0.19803E-02
        -0.23492E-02
        -0.17073E-02
        -0.14921E-02
         0.77142E-03
         0.12524E-02
         0.18669E-02
         0.28920E-02
         0.27155E-02
         0.24618E-02
         0.22358E-02
         0.16503E-02
         0.87781E-03
        -0.21374E-02
        -0.26934E-02
        -0.31291E-02
        -0.30382E-02
        -0.28749E-02
        -0.26452E-02
        -0.23729E-02
        -0.21505E-02
        -0.15093E-02
         0.93572E-03
         0.00000E+00
         0.18171E-02
         0.25928E-02
         0.32179E-02
         0.36559E-02
         0.38815E-02
         0.38815E-02
         0.36559E-02
         0.32179E-02
         0.25928E-02
         0.18171E-02
         0.93572E-03
        -0.47884E-18
        -0.93572E-03
        -0.18171E-02
        -0.25928E-02
        -0.32179E-02
        -0.36559E-02
        -0.38815E-02
        -0.38815E-02
        -0.36559E-02
        -0.32179E-02
        -0.25928E-02
        -0.18171E-02
        -0.93572E-03
         0.67958E-03
         0.12387E-02
         0.59779E-03
        -0.32870E-03
         0.15318E-03
        -0.67051E-03
         0.18434E-02
         0.14696E-02
         0.31311E-03
         0.11882E-02
         0.22763E-02
         0.28233E-02
         0.24255E-02
         0.21689E-02
         0.29335E-02
        -0.10050E-02
         0.88681E-04
        -0.69447E-03
        -0.71028E-03
         0.84232E-04
        -0.77661E-03
         0.43993E-04
        -0.15189E-02
        -0.13218E-02
         0.10048E-02
        -0.17320E-02
         0.20254E-02
         0.18599E-02
         0.17175E-02
         0.91228E-03
        -0.19803E-02
        -0.23492E-02
        -0.17073E-02
        -0.14923E-02
         0.77243E-03
         0.12528E-02
         0.18670E-02
         0.28910E-02
         0.27151E-02
         0.24615E-02
         0.22358E-02
         0.16503E-02
         0.87807E-03
        -0.21374E-02
        -0.26934E-02
        -0.31291E-02
        -0.30382E-02
        -0.28749E-02
        -0.26455E-02
        -0.23732E-02
        -0.21511E-02
        -0.15092E-02
         0.93572E-03
         0.00000E+00
         0.18171E-02
         0.25928E-02
         0.32179E-02
         0.36559E-02
         0.38815E-02
         0.38815E-02
         0.36559E-02
         0.32179E-02
         0.25928E-02
         0.18171E-02
         0.93572E-03
         0.22152E-17
        -0.93572E-03
        -0.18171E-02
        -0.25928E-02
        -0.32179E-02
        -0.36559E-02
        -0.38815E-02
        -0.38815E-02
        -0.36559E-02
        -0.32179E-02
        -0.25928E-02
        -0.18171E-02
        -0.93572E-03
         0.68013E-03
         0.12394E-02
         0.59831E-03
        -0.32794E-03
         0.15354E-03
        -0.67002E-03
         0.18436E-02
         0.14706E-02
         0.31426E-03
         0.11900E-02
         0.22765E-02
         0.28229E-02
         0.24257E-02
         0.21689E-02
         0.29332E-02
        -0.10051E-02
         0.89490E-04
        -0.69374E-03
        -0.71013E-03
         0.84355E-04
        -0.77644E-03
         0.44266E-04
        -0.15188E-02
        -0.13216E-02
         0.10061E-02
        -0.17320E-02
         0.20257E-02
         0.18598E-02
         0.17175E-02
         0.91252E-03
        -0.19803E-02
        -0.23492E-02
        -0.17073E-02
        -0.14926E-02
         0.77343E-03
         0.12533E-02
         0.18670E-02
         0.28899E-02
         0.27146E-02
         0.24613E-02
         0.22358E-02
         0.16503E-02
         0.87833E-03
        -0.21374E-02
        -0.26934E-02
        -0.31291E-02
        -0.30382E-02
        -0.28750E-02
        -0.26458E-02
        -0.23734E-02
        -0.21516E-02
        -0.15091E-02
         0.93572E-03
         0.00000E+00
         0.18171E-02
         0.25928E-02
         0.32179E-02
         0.36559E-02
         0.38815E-02
         0.38815E-02
         0.36559E-02
         0.32179E-02
         0.25928E-02
         0.18171E-02
         0.93572E-03
        -0.47884E-18
        -0.93572E-03
        -0.18171E-02
        -0.25928E-02
        -0.32179E-02
        -0.36559E-02
        -0.38815E-02
        -0.38815E-02
        -0.36559E-02
        -0.32179E-02
        -0.25928E-02
        -0.18171E-02
        -0.93572E-03
         0.68068E-03
         0.12401E-02
         0.59884E-03
        -0.32719E-03
         0.15391E-03
        -0.66953E-03
         0.18438E-02
         0.14716E-02
         0.31541E-03
         0.11917E-02
         0.22766E-02
         0.28225E-02
         0.24258E-02
         0.21690E-02
         0.29330E-02
        -0.10053E-02
         0.90299E-04
        -0.69302E-03
        -0.70999E-03
         0.84479E-04
        -0.77627E-03
         0.44540E-04
        -0.15188E-02
        -0.13215E-02
         0.10075E-02
        -0.17319E-02
         0.20260E-02
         0.18597E-02
         0.17175E-02
         0.91276E-03
        -0.19804E-02
        -0.23493E-02
        -0.17073E-02
        -0.14928E-02
         0.77444E-03
         0.12537E-02
         0.18670E-02
         0.28888E-02
         0.27141E-02
         0.24611E-02
         0.22358E-02
         0.16503E-02
         0.87859E-03
        -0.21374E-02
        -0.26934E-02
        -0.31291E-02
        -0.30382E-02
        -0.28750E-02
        -0.26460E-02
        -0.23736E-02
        -0.21521E-02
        -0.15090E-02
         0.93572E-03
         0.00000E+00
         0.18171E-02
         0.25928E-02
         0.32179E-02
         0.36559E-02
         0.38815E-02
         0.38815E-02
         0.36559E-02
         0.32179E-02
         0.25928E-02
         0.18171E-02
         0.93572E-03
         0.22152E-17
        -0.93572E-03
        -0.18171E-02
        -0.25928E-02
        -0.32179E-02
        -0.36559E-02
        -0.38815E-02
        -0.38815E-02
        -0.36559E-02
        -0.32179E-02
        -0.25928E-02
        -0.18171E-02
        -0.93572E-03
         0.68124E-03
         0.12407E-02
         0.59936E-03
        -0.32643E-03
         0.15427E-03
        -0.66903E-03
         0.18440E-02
         0.14727E-02
         0.31656E-03
         0.11935E-02
         0.22767E-02
         0.28220E-02
         0.24260E-02
         0.21690E-02
         0.29327E-02
        -0.10054E-02
         0.91108E-04
        -0.69229E-03
        -0.70985E-03
         0.84602E-04
        -0.77610E-03
         0.44813E-04
        -0.15187E-02
        -0.13215E-02
         0.10088E-02
        -0.17319E-02
         0.20262E-02
         0.18595E-02
         0.17175E-02
         0.91300E-03
        -0.19804E-02
        -0.23493E-02
        -0.17073E-02
        -0.14931E-02
         0.77544E-03
         0.12541E-02
         0.18671E-02
         0.28877E-02
         0.27137E-02
         0.24609E-02
         0.22358E-02
         0.16503E-02
         0.87885E-03
        -0.21374E-02
        -0.26934E-02
        -0.31291E-02
        -0.30382E-02
        -0.28750E-02
        -0.26463E-02
        -0.23738E-02
        -0.21527E-02
        -0.15088E-02
         0.93572E-03
         0.00000E+00
         0.18171E-02
         0.25928E-02
         0.32179E-02
         0.36559E-02
         0.38815E-02
         0.38815E-02
         0.36559E-02
         0.32179E-02
         0.25928E-02
         0.18171E-02
         0.93572E-03
        -0.47884E-18
        -0.93572E-03
        -0.18171E-02
        -0.25928E-02
        -0.32179E-02
        -0.36559E-02
        -0.38815E-02
        -0.38815E-02
        -0.36559E-02
        -0.32179E-02
        -0.25928E-02
        -0.18171E-02
        -0.93572E-03
         0.68179E-03
         0.12414E-02
         0.59988E-03
        -0.32568E-03
         0.15463E-03
        -0.66854E-03
         0.18442E-02
         0.14736E-02
         0.31770E-03
         0.11952E-02
         0.22768E-02
         0.28216E-02
         0.24261E-02
         0.21690E-02
         0.29324E-02
        -0.10056E-02
         0.91918E-04
        -0.69156E-03
        -0.70971E-03
         0.84726E-04
        -0.77593E-03
         0.45086E-04
        -0.15187E-02
        -0.13213E-02
         0.10102E-02
        -0.17318E-02
         0.20265E-02
         0.18594E-02
         0.17175E-02
         0.91324E-03
        -0.19804E-02
        -0.23493E-02
        -0.17073E-02
        -0.14933E-02
         0.77645E-03
         0.12545E-02
         0.18671E-02
         0.28867E-02
         0.27132E-02
         0.24606E-02
         0.22358E-02
         0.16503E-02
         0.87912E-03
        -0.21374E-02
        -0.26935E-02
        -0.31291E-02
        -0.30381E-02
        -0.28750E-02
        -0.26466E-02
        -0.23740E-02
        -0.21533E-02
        -0.15087E-02
         0.93572E-03
         0.00000E+00
         0.18171E-02
         0.25928E-02
         0.32179E-02
         0.36559E-02
         0.38815E-02
         0.38815E-02
         0.36559E-02
         0.32179E-02
         0.25928E-02
         0.18171E-02
         0.93572E-03
        -0.47884E-18
        -0.93572E-03
        -0.18171E-02
        -0.25928E-02
        -0.32179E-02
        -0.36559E-02
        -0.38815E-02
        -0.38815E-02
        -0.36559E-02
        -0.32179E-02
        -0.25928E-02
        -0.18171E-02
        -0.93572E-03
         0.68235E-03
         0.12421E-02
         0.60041E-03
        -0.32493E-03
         0.15500E-03
        -0.66805E-03
         0.18444E-02
         0.14747E-02
         0.31885E-03
         0.11970E-02
         0.22770E-02
         0.28211E-02
         0.24262E-02
         0.21691E-02
         0.29322E-02
        -0.10057E-02
         0.92727E-04
        -0.69084E-03
        -0.70957E-03
         0.84849E-04
        -0.77576E-03
         0.45359E-04
        -0.15186E-02
        -0.13212E-02
         0.10115E-02
        -0.17318E-02
         0.20268E-02
         0.18593E-02
         0.17175E-02
         0.91347E-03
        -0.19804E-02
        -0.23493E-02
        -0.17073E-02
        -0.14936E-02
         0.77745E-03
         0.12550E-02
         0.18671E-02
         0.28856E-02
         0.27127E-02
         0.24604E-02
         0.22358E-02
         0.16503E-02
         0.87938E-03
        -0.21374E-02
        -0.26935E-02
        -0.31291E-02
        -0.30381E-02
        -0.28750E-02
        -0.26468E-02
        -0.23742E-02
        -0.21538E-02
        -0.15086E-02
         0.93572E-03
         0.00000E+00
         0.18171E-02
         0.25928E-02
         0.32179E-02
         0.36559E-02
         0.38815E-02
         0.38815E-02
         0.36559E-02
         0.32179E-02
         0.25928E-02
         0.18171E-02
         0.93572E-03
        -0.47884E-18
        -0.93572E-03
        -0.18171E-02
        -0.25928E-02
        -0.32179E-02
        -0.36559E-02
        -0.38815E-02
        -0.38815E-02
        -0.36559E-02
        -0.32179E-02
        -0.25928E-02
        -0.18171E-02
        -0.93572E-03
         0.68290E-03
         0.12427E-02
         0.60093E-03
        -0.32417E-03
         0.15536E-03
        -0.66755E-03
         0.18445E-02
         0.14757E-02
         0.32000E-03
         0.11987E-02
         0.22771E-02
         0.28207E-02
         0.24264E-02
         0.21691E-02
         0.29319E-02
        -0.10058E-02
         0.93536E-04
        -0.69011E-03
        -0.70943E-03
         0.84973E-04
        -0.77559E-03
         0.45633E-04
        -0.15186E-02
        -0.13212E-02
         0.10129E-02
        -0.17318E-02
         0.20271E-02
         0.18592E-02
         0.17175E-02
         0.91371E-03
        -0.19805E-02
        -0.23493E-02
        -0.17073E-02
        -0.14938E-02
         0.77846E-03
         0.12554E-02
         0.18672E-02
         0.28845E-02
         0.27122E-02
         0.24602E-02
         0.22358E-02
         0.16502E-02
         0.87964E-03
        -0.21374E-02
        -0.26935E-02
        -0.31291E-02
        -0.30381E-02
        -0.28750E-02
        -0.26471E-02
        -0.23744E-02
        -0.21543E-02
        -0.15085E-02
         0.93572E-03
         0.00000E+00
         0.18171E-02
         0.25928E-02
         0.32179E-02
         0.36559E-02
         0.38815E-02
         0.38815E-02
         0.36559E-02
         0.32179E-02
         0.25928E-02
         0.18171E-02
         0.93572E-03
        -0.47884E-18
        -0.93572E-03
        -0.18171E-02
        -0.25928E-02
        -0.32179E-02
        -0.36559E-02
        -0.38815E-02
        -0.38815E-02
        -0.36559E-02
        -0.32179E-02
        -0.25928E-02
        -0.18171E-02
        -0.93572E-03
         0.68346E-03
         0.12434E-02
         0.60145E-03
        -0.32342E-03
         0.15572E-03
        -0.66706E-03
         0.18447E-02
         0.14767E-02
         0.32115E-03
         0.12005E-02
         0.22772E-02
         0.28203E-02
         0.24265E-02
         0.21691E-02
         0.29316E-02
        -0.10060E-02
         0.94345E-04
        -0.68939E-03
        -0.70929E-03
         0.85096E-04
        -0.77542E-03
         0.45906E-04
        -0.15185E-02
        -0.13211E-02
         0.10142E-02
        -0.17317E-02
         0.20274E-02
         0.18590E-02
         0.17175E-02
         0.91395E-03
        -0.19805E-02
        -0.23494E-02
        -0.17073E-02
        -0.14941E-02
         0.77946E-03
         0.12558E-02
         0.18672E-02
         0.28835E-02
         0.27118E-02
         0.24600E-02
         0.22358E-02
         0.16502E-02
         0.87990E-03
        -0.21374E-02
        -0.26935E-02
        -0.31291E-02
        -0.30381E-02
        -0.28750E-02
        -0.26474E-02
        -0.23746E-02
        -0.21549E-02
        -0.15084E-02
         0.93572E-03
         0.00000E+00
         0.18171E-02
         0.25928E-02
         0.32179E-02
         0.36559E-02
         0.38815E-02
         0.38815E-02
         0.36559E-02
         0.32179E-02
         0.25928E-02
         0.18171E-02
         0.93572E-03
         0.22152E-17
        -0.93572E-03
        -0.18171E-02
        -0.25928E-02
        -0.32179E-02
        -0.36559E-02
        -0.38815E-02
        -0.38815E-02
        -0.36559E-02
        -0.32179E-02
        -0.25928E-02
        -0.18171E-02
        -0.93572E-03
         0.68401E-03
         0.12440E-02
         0.60198E-03
        -0.32266E-03
         0.15609E-03
        -0.66657E-03
         0.18449E-02
         0.14777E-02
         0.32230E-03
         0.12022E-02
         0.22774E-02
         0.28198E-02
         0.24267E-02
         0.21692E-02
         0.29314E-02
        -0.10061E-02
         0.95155E-04
        -0.68866E-03
        -0.70915E-03
         0.85220E-04
        -0.77525E-03
         0.46180E-04
        -0.15185E-02
        -0.13210E-02
         0.10156E-02
        -0.17317E-02
         0.20277E-02
         0.18589E-02
         0.17175E-02
         0.91419E-03
        -0.19805E-02
        -0.23494E-02
        -0.17073E-02
        -0.14943E-02
         0.78047E-03
         0.12563E-02
         0.18672E-02
         0.28824E-02
         0.27113E-02
         0.24597E-02
         0.22358E-02
         0.16502E-02
         0.88016E-03
        -0.21374E-02
        -0.26935E-02
        -0.31291E-02
        -0.30381E-02
        -0.28751E-02
        -0.26476E-02
        -0.23748E-02
        -0.21554E-02
        -0.15083E-02
         0.93572E-03
         0.00000E+00
         0.18171E-02
         0.25928E-02
         0.32179E-02
         0.36559E-02
         0.38815E-02
         0.38815E-02
         0.36559E-02
         0.32179E-02
         0.25928E-02
         0.18171E-02
         0.93572E-03
        -0.47884E-18
        -0.93572E-03
        -0.18171E-02
        -0.25928E-02
        -0.32179E-02
        -0.36559E-02
        -0.38815E-02
        -0.38815E-02
        -0.36559E-02
        -0.32179E-02
        -0.25928E-02
        -0.18171E-02
        -0.93572E-03
         0.68457E-03
         0.12447E-02
         0.60250E-03
        -0.32191E-03
         0.15645E-03
        -0.66607E-03
         0.18451E-02
         0.14787E-02
         0.32345E-03
         0.12040E-02
         0.22775E-02
         0.28194E-02
         0.24268E-02
         0.21692E-02
         0.29311E-02
        -0.10062E-02
         0.95964E-04
        -0.68793E-03
        -0.70901E-03
         0.85343E-04
        -0.77507E-03
         0.46453E-04
        -0.15184E-02
        -0.13209E-02
         0.10169E-02
        -0.17316E-02
         0.20280E-02
         0.18588E-02
         0.17175E-02
         0.91443E-03
        -0.19806E-02
        -0.23494E-02
        -0.17073E-02
        -0.14945E-02
         0.78148E-03
         0.12567E-02
         0.18673E-02
         0.28813E-02
         0.27108E-02
         0.24595E-02
         0.22358E-02
         0.16502E-02
         0.88043E-03
        -0.21374E-02
        -0.26936E-02
        -0.31291E-02
        -0.30381E-02
        -0.28751E-02
        -0.26479E-02
        -0.23750E-02
        -0.21560E-02
        -0.15082E-02
         0.93572E-03
         0.00000E+00
         0.18171E-02
         0.25928E-02
         0.32179E-02
         0.36559E-02
         0.38815E-02
         0.38815E-02
         0.36559E-02
         0.32179E-02
         0.25928E-02
         0.18171E-02
         0.93572E-03
        -0.47884E-18
        -0.93572E-03
        -0.18171E-02
        -0.25928E-02
        -0.32179E-02
        -0.36559E-02
        -0.38815E-02
        -0.38815E-02
        -0.36559E-02
        -0.32179E-02
        -0.25928E-02
        -0.18171E-02
        -0.93572E-03
         0.68512E-03
         0.12454E-02
         0.60302E-03
        -0.32115E-03
         0.15681E-03
        -0.66558E-03
         0.18453E-02
         0.14797E-02
         0.32459E-03
         0.12058E-02
         0.22776E-02
         0.28189E-02
         0.24270E-02
         0.21693E-02
         0.29308E-02
        -0.10064E-02
         0.96773E-04
        -0.68721E-03
        -0.70887E-03
         0.85467E-04
        -0.77490E-03
         0.46726E-04
        -0.15184E-02
        -0.13208E-02
         0.10183E-02
        -0.17316E-02
         0.20283E-02
         0.18586E-02
         0.17175E-02
         0.91467E-03
        -0.19806E-02
        -0.23494E-02
        -0.17073E-02
        -0.14948E-02
         0.78248E-03
         0.12571E-02
         0.18673E-02
         0.28802E-02
         0.27103E-02
         0.24593E-02
         0.22358E-02
         0.16502E-02
         0.88069E-03
        -0.21374E-02
        -0.26936E-02
        -0.31291E-02
        -0.30381E-02
        -0.28751E-02
        -0.26482E-02
        -0.23752E-02
        -0.21565E-02
        -0.15081E-02
         0.93572E-03
         0.00000E+00
         0.18171E-02
         0.25928E-02
         0.32179E-02
         0.36559E-02
         0.38815E-02
         0.38815E-02
         0.36559E-02
         0.32179E-02
         0.25928E-02
         0.18171E-02
         0.93572E-03
        -0.47884E-18
        -0.93572E-03
        -0.18171E-02
        -0.25928E-02
        -0.32179E-02
        -0.36559E-02
        -0.38815E-02
        -0.38815E-02
        -0.36559E-02
        -0.32179E-02
        -0.25928E-02
        -0.18171E-02
        -0.93572E-03
         0.68567E-03
         0.12460E-02
         0.60355E-03
        -0.32040E-03
         0.15718E-03
        -0.66509E-03
         0.18455E-02
         0.14807E-02
         0.32574E-03
         0.12075E-02
         0.22777E-02
         0.28185E-02
         0.24271E-02
         0.21693E-02
         0.29306E-02
        -0.10065E-02
         0.97583E-04
        -0.68648E-03
        -0.70873E-03
         0.85591E-04
        -0.77474E-03
         0.47000E-04
        -0.15183E-02
        -0.13207E-02
         0.10197E-02
        -0.17316E-02
         0.20285E-02
         0.18585E-02
         0.17175E-02
         0.91491E-03
        -0.19806E-02
        -0.23495E-02
        -0.17073E-02
        -0.14950E-02
         0.78348E-03
         0.12576E-02
         0.18674E-02
         0.28792E-02
         0.27099E-02
         0.24591E-02
         0.22358E-02
         0.16502E-02
         0.88095E-03
        -0.21374E-02
        -0.26936E-02
        -0.31290E-02
        -0.30381E-02
        -0.28751E-02
        -0.26484E-02
        -0.23754E-02
        -0.21571E-02
        -0.15080E-02
         0.93572E-03
         0.00000E+00
         0.18171E-02
         0.25928E-02
         0.32179E-02
         0.36559E-02
         0.38815E-02
         0.38815E-02
         0.36559E-02
         0.32179E-02
         0.25928E-02
         0.18171E-02
         0.93572E-03
         0.47884E-18
        -0.93572E-03
        -0.18171E-02
        -0.25928E-02
        -0.32179E-02
        -0.36559E-02
        -0.38815E-02
        -0.38815E-02
        -0.36559E-02
        -0.32179E-02
        -0.25928E-02
        -0.18171E-02
        -0.93572E-03
  
SCALARS           initial_coordinate_z  double 1
LOOKUP_TABLE default
        -0.10771E-01
        -0.10771E-01
        -0.10771E-01
        -0.10771E-01
        -0.11750E-01
        -0.11750E-01
        -0.11750E-01
        -0.11750E-01
        -0.10771E-01
        -0.10771E-01
        -0.11750E-01
        -0.11750E-01
        -0.10771E-01
        -0.10771E-01
        -0.11750E-01
        -0.11750E-01
        -0.10771E-01
        -0.10771E-01
        -0.11750E-01
        -0.11750E-01
        -0.10771E-01
        -0.10771E-01
        -0.10771E-01
        -0.11750E-01
        -0.11750E-01
        -0.11750E-01
        -0.10771E-01
        -0.10771E-01
        -0.11750E-01
        -0.11750E-01
        -0.10771E-01
        -0.10771E-01
        -0.10771E-01
        -0.11750E-01
        -0.11750E-01
        -0.11750E-01
        -0.10771E-01
        -0.10771E-01
        -0.11750E-01
        -0.11750E-01
        -0.10771E-01
        -0.10771E-01
        -0.11750E-01
        -0.11750E-01
        -0.10771E-01
        -0.10771E-01
        -0.11750E-01
        -0.11750E-01
        -0.10771E-01
        -0.11750E-01
        -0.10771E-01
        -0.11750E-01
        -0.10771E-01
        -0.11750E-01
        -0.10771E-01
        -0.11750E-01
        -0.10771E-01
        -0.10771E-01
        -0.11750E-01
        -0.11750E-01
        -0.10771E-01
        -0.10771E-01
        -0.11750E-01
        -0.11750E-01
        -0.10771E-01
        -0.11750E-01
        -0.10771E-01
        -0.11750E-01
        -0.10771E-01
        -0.10771E-01
        -0.11750E-01
        -0.11750E-01
        -0.10771E-01
        -0.11750E-01
        -0.10771E-01
        -0.11750E-01
        -0.10771E-01
        -0.11750E-01
        -0.10771E-01
        -0.11750E-01
        -0.10771E-01
        -0.10771E-01
        -0.11750E-01
        -0.11750E-01
        -0.10771E-01
        -0.11750E-01
        -0.10771E-01
        -0.11750E-01
        -0.10771E-01
        -0.11750E-01
        -0.10771E-01
        -0.10771E-01
        -0.11750E-01
        -0.11750E-01
        -0.10771E-01
        -0.11750E-01
        -0.10771E-01
        -0.11750E-01
        -0.10771E-01
        -0.11750E-01
        -0.10771E-01
        -0.10771E-01
        -0.11750E-01
        -0.11750E-01
        -0.10771E-01
        -0.10771E-01
        -0.11750E-01
        -0.11750E-01
        -0.10771E-01
        -0.11750E-01
        -0.10771E-01
        -0.11750E-01
        -0.10771E-01
        -0.11750E-01
        -0.10771E-01
        -0.11750E-01
        -0.10771E-01
        -0.11750E-01
        -0.10771E-01
        -0.11750E-01
        -0.10771E-01
        -0.11750E-01
        -0.10771E-01
        -0.11750E-01
        -0.10771E-01
        -0.11750E-01
        -0.10771E-01
        -0.11750E-01
        -0.10771E-01
        -0.11750E-01
        -0.10771E-01
        -0.11750E-01
        -0.10771E-01
        -0.11750E-01
        -0.10771E-01
        -0.11750E-01
        -0.10771E-01
        -0.11750E-01
        -0.10771E-01
        -0.11750E-01
        -0.10771E-01
        -0.11750E-01
        -0.10771E-01
        -0.11750E-01
        -0.10771E-01
        -0.11750E-01
        -0.10771E-01
        -0.11750E-01
        -0.10771E-01
        -0.11750E-01
        -0.10771E-01
        -0.11750E-01
        -0.10771E-01
        -0.11750E-01
        -0.10771E-01
        -0.11750E-01
        -0.97917E-02
        -0.97917E-02
        -0.97917E-02
        -0.97917E-02
        -0.97917E-02
        -0.97917E-02
        -0.97917E-02
        -0.97917E-02
        -0.97917E-02
        -0.97917E-02
        -0.97917E-02
        -0.97917E-02
        -0.97917E-02
        -0.97917E-02
        -0.97917E-02
        -0.97917E-02
        -0.97917E-02
        -0.97917E-02
        -0.97917E-02
        -0.97917E-02
        -0.97917E-02
        -0.97917E-02
        -0.97917E-02
        -0.97917E-02
        -0.97917E-02
        -0.97917E-02
        -0.97917E-02
        -0.97917E-02
        -0.97917E-02
        -0.97917E-02
        -0.97917E-02
        -0.97917E-02
        -0.97917E-02
        -0.97917E-02
        -0.97917E-02
        -0.97917E-02
        -0.97917E-02
        -0.97917E-02
        -0.97917E-02
        -0.97917E-02
        -0.97917E-02
        -0.97917E-02
        -0.97917E-02
        -0.97917E-02
        -0.97917E-02
        -0.97917E-02
        -0.97917E-02
        -0.97917E-02
        -0.97917E-02
        -0.97917E-02
        -0.97917E-02
        -0.97917E-02
        -0.97917E-02
        -0.97917E-02
        -0.97917E-02
        -0.97917E-02
        -0.97917E-02
        -0.97917E-02
        -0.97917E-02
        -0.97917E-02
        -0.97917E-02
        -0.97917E-02
        -0.97917E-02
        -0.97917E-02
        -0.97917E-02
        -0.97917E-02
        -0.97917E-02
        -0.97917E-02
        -0.97917E-02
        -0.97917E-02
        -0.97917E-02
        -0.97917E-02
        -0.97917E-02
        -0.97917E-02
        -0.97917E-02
        -0.97917E-02
        -0.97917E-02
        -0.97917E-02
        -0.88125E-02
        -0.88125E-02
        -0.88125E-02
        -0.88125E-02
        -0.88125E-02
        -0.88125E-02
        -0.88125E-02
        -0.88125E-02
        -0.88125E-02
        -0.88125E-02
        -0.88125E-02
        -0.88125E-02
        -0.88125E-02
        -0.88125E-02
        -0.88125E-02
        -0.88125E-02
        -0.88125E-02
        -0.88125E-02
        -0.88125E-02
        -0.88125E-02
        -0.88125E-02
        -0.88125E-02
        -0.88125E-02
        -0.88125E-02
        -0.88125E-02
        -0.88125E-02
        -0.88125E-02
        -0.88125E-02
        -0.88125E-02
        -0.88125E-02
        -0.88125E-02
        -0.88125E-02
        -0.88125E-02
        -0.88125E-02
        -0.88125E-02
        -0.88125E-02
        -0.88125E-02
        -0.88125E-02
        -0.88125E-02
        -0.88125E-02
        -0.88125E-02
        -0.88125E-02
        -0.88125E-02
        -0.88125E-02
        -0.88125E-02
        -0.88125E-02
        -0.88125E-02
        -0.88125E-02
        -0.88125E-02
        -0.88125E-02
        -0.88125E-02
        -0.88125E-02
        -0.88125E-02
        -0.88125E-02
        -0.88125E-02
        -0.88125E-02
        -0.88125E-02
        -0.88125E-02
        -0.88125E-02
        -0.88125E-02
        -0.88125E-02
        -0.88125E-02
        -0.88125E-02
        -0.88125E-02
        -0.88125E-02
        -0.88125E-02
        -0.88125E-02
        -0.88125E-02
        -0.88125E-02
        -0.88125E-02
        -0.88125E-02
        -0.88125E-02
        -0.88125E-02
        -0.88125E-02
        -0.88125E-02
        -0.88125E-02
        -0.88125E-02
        -0.88125E-02
        -0.78333E-02
        -0.78333E-02
        -0.78333E-02
        -0.78333E-02
        -0.78333E-02
        -0.78333E-02
        -0.78333E-02
        -0.78333E-02
        -0.78333E-02
        -0.78333E-02
        -0.78333E-02
        -0.78333E-02
        -0.78333E-02
        -0.78333E-02
        -0.78333E-02
        -0.78333E-02
        -0.78333E-02
        -0.78333E-02
        -0.78333E-02
        -0.78333E-02
        -0.78333E-02
        -0.78333E-02
        -0.78333E-02
        -0.78333E-02
        -0.78333E-02
        -0.78333E-02
        -0.78333E-02
        -0.78333E-02
        -0.78333E-02
        -0.78333E-02
        -0.78333E-02
        -0.78333E-02
        -0.78333E-02
        -0.78333E-02
        -0.78333E-02
        -0.78333E-02
        -0.78333E-02
        -0.78333E-02
        -0.78333E-02
        -0.78333E-02
        -0.78333E-02
        -0.78333E-02
        -0.78333E-02
        -0.78333E-02
        -0.78333E-02
        -0.78333E-02
        -0.78333E-02
        -0.78333E-02
        -0.78333E-02
        -0.78333E-02
        -0.78333E-02
        -0.78333E-02
        -0.78333E-02
        -0.78333E-02
        -0.78333E-02
        -0.78333E-02
        -0.78333E-02
        -0.78333E-02
        -0.78333E-02
        -0.78333E-02
        -0.78333E-02
        -0.78333E-02
        -0.78333E-02
        -0.78333E-02
        -0.78333E-02
        -0.78333E-02
        -0.78333E-02
        -0.78333E-02
        -0.78333E-02
        -0.78333E-02
        -0.78333E-02
        -0.78333E-02
        -0.78333E-02
        -0.78333E-02
        -0.78333E-02
        -0.78333E-02
        -0.78333E-02
        -0.78333E-02
        -0.68542E-02
        -0.68542E-02
        -0.68542E-02
        -0.68542E-02
        -0.68542E-02
        -0.68542E-02
        -0.68542E-02
        -0.68542E-02
        -0.68542E-02
        -0.68542E-02
        -0.68542E-02
        -0.68542E-02
        -0.68542E-02
        -0.68542E-02
        -0.68542E-02
        -0.68542E-02
        -0.68542E-02
        -0.68542E-02
        -0.68542E-02
        -0.68542E-02
        -0.68542E-02
        -0.68542E-02
        -0.68542E-02
        -0.68542E-02
        -0.68542E-02
        -0.68542E-02
        -0.68542E-02
        -0.68542E-02
        -0.68542E-02
        -0.68542E-02
        -0.68542E-02
        -0.68542E-02
        -0.68542E-02
        -0.68542E-02
        -0.68542E-02
        -0.68542E-02
        -0.68542E-02
        -0.68542E-02
        -0.68542E-02
        -0.68542E-02
        -0.68542E-02
        -0.68542E-02
        -0.68542E-02
        -0.68542E-02
        -0.68542E-02
        -0.68542E-02
        -0.68542E-02
        -0.68542E-02
        -0.68542E-02
        -0.68542E-02
        -0.68542E-02
        -0.68542E-02
        -0.68542E-02
        -0.68542E-02
        -0.68542E-02
        -0.68542E-02
        -0.68542E-02
        -0.68542E-02
        -0.68542E-02
        -0.68542E-02
        -0.68542E-02
        -0.68542E-02
        -0.68542E-02
        -0.68542E-02
        -0.68542E-02
        -0.68542E-02
        -0.68542E-02
        -0.68542E-02
        -0.68542E-02
        -0.68542E-02
        -0.68542E-02
        -0.68542E-02
        -0.68542E-02
        -0.68542E-02
        -0.68542E-02
        -0.68542E-02
        -0.68542E-02
        -0.68542E-02
        -0.58750E-02
        -0.58750E-02
        -0.58750E-02
        -0.58750E-02
        -0.58750E-02
        -0.58750E-02
        -0.58750E-02
        -0.58750E-02
        -0.58750E-02
        -0.58750E-02
        -0.58750E-02
        -0.58750E-02
        -0.58750E-02
        -0.58750E-02
        -0.58750E-02
        -0.58750E-02
        -0.58750E-02
        -0.58750E-02
        -0.58750E-02
        -0.58750E-02
        -0.58750E-02
        -0.58750E-02
        -0.58750E-02
        -0.58750E-02
        -0.58750E-02
        -0.58750E-02
        -0.58750E-02
        -0.58750E-02
        -0.58750E-02
        -0.58750E-02
        -0.58750E-02
        -0.58750E-02
        -0.58750E-02
        -0.58750E-02
        -0.58750E-02
        -0.58750E-02
        -0.58750E-02
        -0.58750E-02
        -0.58750E-02
        -0.58750E-02
        -0.58750E-02
        -0.58750E-02
        -0.58750E-02
        -0.58750E-02
        -0.58750E-02
        -0.58750E-02
        -0.58750E-02
        -0.58750E-02
        -0.58750E-02
        -0.58750E-02
        -0.58750E-02
        -0.58750E-02
        -0.58750E-02
        -0.58750E-02
        -0.58750E-02
        -0.58750E-02
        -0.58750E-02
        -0.58750E-02
        -0.58750E-02
        -0.58750E-02
        -0.58750E-02
        -0.58750E-02
        -0.58750E-02
        -0.58750E-02
        -0.58750E-02
        -0.58750E-02
        -0.58750E-02
        -0.58750E-02
        -0.58750E-02
        -0.58750E-02
        -0.58750E-02
        -0.58750E-02
        -0.58750E-02
        -0.58750E-02
        -0.58750E-02
        -0.58750E-02
        -0.58750E-02
        -0.58750E-02
        -0.48958E-02
        -0.48958E-02
        -0.48958E-02
        -0.48958E-02
        -0.48958E-02
        -0.48958E-02
        -0.48958E-02
        -0.48958E-02
        -0.48958E-02
        -0.48958E-02
        -0.48958E-02
        -0.48958E-02
        -0.48958E-02
        -0.48958E-02
        -0.48958E-02
        -0.48958E-02
        -0.48958E-02
        -0.48958E-02
        -0.48958E-02
        -0.48958E-02
        -0.48958E-02
        -0.48958E-02
        -0.48958E-02
        -0.48958E-02
        -0.48958E-02
        -0.48958E-02
        -0.48958E-02
        -0.48958E-02
        -0.48958E-02
        -0.48958E-02
        -0.48958E-02
        -0.48958E-02
        -0.48958E-02
        -0.48958E-02
        -0.48958E-02
        -0.48958E-02
        -0.48958E-02
        -0.48958E-02
        -0.48958E-02
        -0.48958E-02
        -0.48958E-02
        -0.48958E-02
        -0.48958E-02
        -0.48958E-02
        -0.48958E-02
        -0.48958E-02
        -0.48958E-02
        -0.48958E-02
        -0.48958E-02
        -0.48958E-02
        -0.48958E-02
        -0.48958E-02
        -0.48958E-02
        -0.48958E-02
        -0.48958E-02
        -0.48958E-02
        -0.48958E-02
        -0.48958E-02
        -0.48958E-02
        -0.48958E-02
        -0.48958E-02
        -0.48958E-02
        -0.48958E-02
        -0.48958E-02
        -0.48958E-02
        -0.48958E-02
        -0.48958E-02
        -0.48958E-02
        -0.48958E-02
        -0.48958E-02
        -0.48958E-02
        -0.48958E-02
        -0.48958E-02
        -0.48958E-02
        -0.48958E-02
        -0.48958E-02
        -0.48958E-02
        -0.48958E-02
        -0.39167E-02
        -0.39167E-02
        -0.39167E-02
        -0.39167E-02
        -0.39167E-02
        -0.39167E-02
        -0.39167E-02
        -0.39167E-02
        -0.39167E-02
        -0.39167E-02
        -0.39167E-02
        -0.39167E-02
        -0.39167E-02
        -0.39167E-02
        -0.39167E-02
        -0.39167E-02
        -0.39167E-02
        -0.39167E-02
        -0.39167E-02
        -0.39167E-02
        -0.39167E-02
        -0.39167E-02
        -0.39167E-02
        -0.39167E-02
        -0.39167E-02
        -0.39167E-02
        -0.39167E-02
        -0.39167E-02
        -0.39167E-02
        -0.39167E-02
        -0.39167E-02
        -0.39167E-02
        -0.39167E-02
        -0.39167E-02
        -0.39167E-02
        -0.39167E-02
        -0.39167E-02
        -0.39167E-02
        -0.39167E-02
        -0.39167E-02
        -0.39167E-02
        -0.39167E-02
        -0.39167E-02
        -0.39167E-02
        -0.39167E-02
        -0.39167E-02
        -0.39167E-02
        -0.39167E-02
        -0.39167E-02
        -0.39167E-02
        -0.39167E-02
        -0.39167E-02
        -0.39167E-02
        -0.39167E-02
        -0.39167E-02
        -0.39167E-02
        -0.39167E-02
        -0.39167E-02
        -0.39167E-02
        -0.39167E-02
        -0.39167E-02
        -0.39167E-02
        -0.39167E-02
        -0.39167E-02
        -0.39167E-02
        -0.39167E-02
        -0.39167E-02
        -0.39167E-02
        -0.39167E-02
        -0.39167E-02
        -0.39167E-02
        -0.39167E-02
        -0.39167E-02
        -0.39167E-02
        -0.39167E-02
        -0.39167E-02
        -0.39167E-02
        -0.39167E-02
        -0.29375E-02
        -0.29375E-02
        -0.29375E-02
        -0.29375E-02
        -0.29375E-02
        -0.29375E-02
        -0.29375E-02
        -0.29375E-02
        -0.29375E-02
        -0.29375E-02
        -0.29375E-02
        -0.29375E-02
        -0.29375E-02
        -0.29375E-02
        -0.29375E-02
        -0.29375E-02
        -0.29375E-02
        -0.29375E-02
        -0.29375E-02
        -0.29375E-02
        -0.29375E-02
        -0.29375E-02
        -0.29375E-02
        -0.29375E-02
        -0.29375E-02
        -0.29375E-02
        -0.29375E-02
        -0.29375E-02
        -0.29375E-02
        -0.29375E-02
        -0.29375E-02
        -0.29375E-02
        -0.29375E-02
        -0.29375E-02
        -0.29375E-02
        -0.29375E-02
        -0.29375E-02
        -0.29375E-02
        -0.29375E-02
        -0.29375E-02
        -0.29375E-02
        -0.29375E-02
        -0.29375E-02
        -0.29375E-02
        -0.29375E-02
        -0.29375E-02
        -0.29375E-02
        -0.29375E-02
        -0.29375E-02
        -0.29375E-02
        -0.29375E-02
        -0.29375E-02
        -0.29375E-02
        -0.29375E-02
        -0.29375E-02
        -0.29375E-02
        -0.29375E-02
        -0.29375E-02
        -0.29375E-02
        -0.29375E-02
        -0.29375E-02
        -0.29375E-02
        -0.29375E-02
        -0.29375E-02
        -0.29375E-02
        -0.29375E-02
        -0.29375E-02
        -0.29375E-02
        -0.29375E-02
        -0.29375E-02
        -0.29375E-02
        -0.29375E-02
        -0.29375E-02
        -0.29375E-02
        -0.29375E-02
        -0.29375E-02
        -0.29375E-02
        -0.29375E-02
        -0.19583E-02
        -0.19583E-02
        -0.19583E-02
        -0.19583E-02
        -0.19583E-02
        -0.19583E-02
        -0.19583E-02
        -0.19583E-02
        -0.19583E-02
        -0.19583E-02
        -0.19583E-02
        -0.19583E-02
        -0.19583E-02
        -0.19583E-02
        -0.19583E-02
        -0.19583E-02
        -0.19583E-02
        -0.19583E-02
        -0.19583E-02
        -0.19583E-02
        -0.19583E-02
        -0.19583E-02
        -0.19583E-02
        -0.19583E-02
        -0.19583E-02
        -0.19583E-02
        -0.19583E-02
        -0.19583E-02
        -0.19583E-02
        -0.19583E-02
        -0.19583E-02
        -0.19583E-02
        -0.19583E-02
        -0.19583E-02
        -0.19583E-02
        -0.19583E-02
        -0.19583E-02
        -0.19583E-02
        -0.19583E-02
        -0.19583E-02
        -0.19583E-02
        -0.19583E-02
        -0.19583E-02
        -0.19583E-02
        -0.19583E-02
        -0.19583E-02
        -0.19583E-02
        -0.19583E-02
        -0.19583E-02
        -0.19583E-02
        -0.19583E-02
        -0.19583E-02
        -0.19583E-02
        -0.19583E-02
        -0.19583E-02
        -0.19583E-02
        -0.19583E-02
        -0.19583E-02
        -0.19583E-02
        -0.19583E-02
        -0.19583E-02
        -0.19583E-02
        -0.19583E-02
        -0.19583E-02
        -0.19583E-02
        -0.19583E-02
        -0.19583E-02
        -0.19583E-02
        -0.19583E-02
        -0.19583E-02
        -0.19583E-02
        -0.19583E-02
        -0.19583E-02
        -0.19583E-02
        -0.19583E-02
        -0.19583E-02
        -0.19583E-02
        -0.19583E-02
        -0.97917E-03
        -0.97917E-03
        -0.97917E-03
        -0.97917E-03
        -0.97917E-03
        -0.97917E-03
        -0.97917E-03
        -0.97917E-03
        -0.97917E-03
        -0.97917E-03
        -0.97917E-03
        -0.97917E-03
        -0.97917E-03
        -0.97917E-03
        -0.97917E-03
        -0.97917E-03
        -0.97917E-03
        -0.97917E-03
        -0.97917E-03
        -0.97917E-03
        -0.97917E-03
        -0.97917E-03
        -0.97917E-03
        -0.97917E-03
        -0.97917E-03
        -0.97917E-03
        -0.97917E-03
        -0.97917E-03
        -0.97917E-03
        -0.97917E-03
        -0.97917E-03
        -0.97917E-03
        -0.97917E-03
        -0.97917E-03
        -0.97917E-03
        -0.97917E-03
        -0.97917E-03
        -0.97917E-03
        -0.97917E-03
        -0.97917E-03
        -0.97917E-03
        -0.97917E-03
        -0.97917E-03
        -0.97917E-03
        -0.97917E-03
        -0.97917E-03
        -0.97917E-03
        -0.97917E-03
        -0.97917E-03
        -0.97917E-03
        -0.97917E-03
        -0.97917E-03
        -0.97917E-03
        -0.97917E-03
        -0.97917E-03
        -0.97917E-03
        -0.97917E-03
        -0.97917E-03
        -0.97917E-03
        -0.97917E-03
        -0.97917E-03
        -0.97917E-03
        -0.97917E-03
        -0.97917E-03
        -0.97917E-03
        -0.97917E-03
        -0.97917E-03
        -0.97917E-03
        -0.97917E-03
        -0.97917E-03
        -0.97917E-03
        -0.97917E-03
        -0.97917E-03
        -0.97917E-03
        -0.97917E-03
        -0.97917E-03
        -0.97917E-03
        -0.97917E-03
         0.38917E-18
         0.44621E-18
         0.34485E-18
         0.23671E-18
         0.26613E-18
         0.16162E-18
         0.53980E-18
         0.50579E-18
         0.36337E-18
         0.48798E-18
         0.60712E-18
         0.67611E-18
         0.60634E-18
         0.60658E-18
         0.70997E-18
         0.20892E-18
         0.35894E-18
         0.21887E-18
         0.27638E-18
         0.38382E-18
         0.29058E-18
         0.40326E-18
         0.18564E-18
         0.19650E-18
         0.48570E-18
         0.12837E-18
         0.60589E-18
         0.60416E-18
         0.60524E-18
         0.49621E-18
         0.61582E-19
         0.32255E-19
         0.73874E-19
         0.78478E-19
         0.34514E-18
         0.42054E-18
         0.51644E-18
         0.72521E-18
         0.72233E-18
         0.70722E-18
         0.69126E-18
         0.61573E-18
         0.51484E-18
         0.91170E-19
         0.30347E-20
        -0.66516E-19
        -0.69988E-19
        -0.68643E-19
        -0.59779E-19
        -0.43507E-19
        -0.29471E-19
         0.53205E-19
         0.86819E-18
         0.00000E+00
         0.86819E-18
         0.86819E-18
         0.00000E+00
         0.00000E+00
         0.00000E+00
         0.17364E-17
         0.17364E-17
         0.17364E-17
         0.43410E-18
         0.43410E-18
         0.43410E-18
         0.00000E+00
         0.00000E+00
         0.00000E+00
         0.00000E+00
         0.00000E+00
         0.21705E-18
        -0.21705E-18
         0.00000E+00
         0.00000E+00
         0.00000E+00
        -0.32557E-18
         0.54262E-19
        -0.40697E-18
         0.97917E-03
         0.97917E-03
         0.97917E-03
         0.97917E-03
         0.97917E-03
         0.97917E-03
         0.97917E-03
         0.97917E-03
         0.97917E-03
         0.97917E-03
         0.97917E-03
         0.97917E-03
         0.97917E-03
         0.97917E-03
         0.97917E-03
         0.97917E-03
         0.97917E-03
         0.97917E-03
         0.97917E-03
         0.97917E-03
         0.97917E-03
         0.97917E-03
         0.97917E-03
         0.97917E-03
         0.97917E-03
         0.97917E-03
         0.97917E-03
         0.97917E-03
         0.97917E-03
         0.97917E-03
         0.97917E-03
         0.97917E-03
         0.97917E-03
         0.97917E-03
         0.97917E-03
         0.97917E-03
         0.97917E-03
         0.97917E-03
         0.97917E-03
         0.97917E-03
         0.97917E-03
         0.97917E-03
         0.97917E-03
         0.97917E-03
         0.97917E-03
         0.97917E-03
         0.97917E-03
         0.97917E-03
         0.97917E-03
         0.97917E-03
         0.97917E-03
         0.97917E-03
         0.97917E-03
         0.97917E-03
         0.97917E-03
         0.97917E-03
         0.97917E-03
         0.97917E-03
         0.97917E-03
         0.97917E-03
         0.97917E-03
         0.97917E-03
         0.97917E-03
         0.97917E-03
         0.97917E-03
         0.97917E-03
         0.97917E-03
         0.97917E-03
         0.97917E-03
         0.97917E-03
         0.97917E-03
         0.97917E-03
         0.97917E-03
         0.97917E-03
         0.97917E-03
         0.97917E-03
         0.97917E-03
         0.97917E-03
         0.19583E-02
         0.19583E-02
         0.19583E-02
         0.19583E-02
         0.19583E-02
         0.19583E-02
         0.19583E-02
         0.19583E-02
         0.19583E-02
         0.19583E-02
         0.19583E-02
         0.19583E-02
         0.19583E-02
         0.19583E-02
         0.19583E-02
         0.19583E-02
         0.19583E-02
         0.19583E-02
         0.19583E-02
         0.19583E-02
         0.19583E-02
         0.19583E-02
         0.19583E-02
         0.19583E-02
         0.19583E-02
         0.19583E-02
         0.19583E-02
         0.19583E-02
         0.19583E-02
         0.19583E-02
         0.19583E-02
         0.19583E-02
         0.19583E-02
         0.19583E-02
         0.19583E-02
         0.19583E-02
         0.19583E-02
         0.19583E-02
         0.19583E-02
         0.19583E-02
         0.19583E-02
         0.19583E-02
         0.19583E-02
         0.19583E-02
         0.19583E-02
         0.19583E-02
         0.19583E-02
         0.19583E-02
         0.19583E-02
         0.19583E-02
         0.19583E-02
         0.19583E-02
         0.19583E-02
         0.19583E-02
         0.19583E-02
         0.19583E-02
         0.19583E-02
         0.19583E-02
         0.19583E-02
         0.19583E-02
         0.19583E-02
         0.19583E-02
         0.19583E-02
         0.19583E-02
         0.19583E-02
         0.19583E-02
         0.19583E-02
         0.19583E-02
         0.19583E-02
         0.19583E-02
         0.19583E-02
         0.19583E-02
         0.19583E-02
         0.19583E-02
         0.19583E-02
         0.19583E-02
         0.19583E-02
         0.19583E-02
         0.29375E-02
         0.29375E-02
         0.29375E-02
         0.29375E-02
         0.29375E-02
         0.29375E-02
         0.29375E-02
         0.29375E-02
         0.29375E-02
         0.29375E-02
         0.29375E-02
         0.29375E-02
         0.29375E-02
         0.29375E-02
         0.29375E-02
         0.29375E-02
         0.29375E-02
         0.29375E-02
         0.29375E-02
         0.29375E-02
         0.29375E-02
         0.29375E-02
         0.29375E-02
         0.29375E-02
         0.29375E-02
         0.29375E-02
         0.29375E-02
         0.29375E-02
         0.29375E-02
         0.29375E-02
         0.29375E-02
         0.29375E-02
         0.29375E-02
         0.29375E-02
         0.29375E-02
         0.29375E-02
         0.29375E-02
         0.29375E-02
         0.29375E-02
         0.29375E-02
         0.29375E-02
         0.29375E-02
         0.29375E-02
         0.29375E-02
         0.29375E-02
         0.29375E-02
         0.29375E-02
         0.29375E-02
         0.29375E-02
         0.29375E-02
         0.29375E-02
         0.29375E-02
         0.29375E-02
         0.29375E-02
         0.29375E-02
         0.29375E-02
         0.29375E-02
         0.29375E-02
         0.29375E-02
         0.29375E-02
         0.29375E-02
         0.29375E-02
         0.29375E-02
         0.29375E-02
         0.29375E-02
         0.29375E-02
         0.29375E-02
         0.29375E-02
         0.29375E-02
         0.29375E-02
         0.29375E-02
         0.29375E-02
         0.29375E-02
         0.29375E-02
         0.29375E-02
         0.29375E-02
         0.29375E-02
         0.29375E-02
         0.39167E-02
         0.39167E-02
         0.39167E-02
         0.39167E-02
         0.39167E-02
         0.39167E-02
         0.39167E-02
         0.39167E-02
         0.39167E-02
         0.39167E-02
         0.39167E-02
         0.39167E-02
         0.39167E-02
         0.39167E-02
         0.39167E-02
         0.39167E-02
         0.39167E-02
         0.39167E-02
         0.39167E-02
         0.39167E-02
         0.39167E-02
         0.39167E-02
         0.39167E-02
         0.39167E-02
         0.39167E-02
         0.39167E-02
         0.39167E-02
         0.39167E-02
         0.39167E-02
         0.39167E-02
         0.39167E-02
         0.39167E-02
         0.39167E-02
         0.39167E-02
         0.39167E-02
         0.39167E-02
         0.39167E-02
         0.39167E-02
         0.39167E-02
         0.39167E-02
         0.39167E-02
         0.39167E-02
         0.39167E-02
         0.39167E-02
         0.39167E-02
         0.39167E-02
         0.39167E-02
         0.39167E-02
         0.39167E-02
         0.39167E-02
         0.39167E-02
         0.39167E-02
         0.39167E-02
         0.39167E-02
         0.39167E-02
         0.39167E-02
         0.39167E-02
         0.39167E-02
         0.39167E-02
         0.39167E-02
         0.39167E-02
         0.39167E-02
         0.39167E-02
         0.39167E-02
         0.39167E-02
         0.39167E-02
         0.39167E-02
         0.39167E-02
         0.39167E-02
         0.39167E-02
         0.39167E-02
         0.39167E-02
         0.39167E-02
         0.39167E-02
         0.39167E-02
         0.39167E-02
         0.39167E-02
         0.39167E-02
         0.48958E-02
         0.48958E-02
         0.48958E-02
         0.48958E-02
         0.48958E-02
         0.48958E-02
         0.48958E-02
         0.48958E-02
         0.48958E-02
         0.48958E-02
         0.48958E-02
         0.48958E-02
         0.48958E-02
         0.48958E-02
         0.48958E-02
         0.48958E-02
         0.48958E-02
         0.48958E-02
         0.48958E-02
         0.48958E-02
         0.48958E-02
         0.48958E-02
         0.48958E-02
         0.48958E-02
         0.48958E-02
         0.48958E-02
         0.48958E-02
         0.48958E-02
         0.48958E-02
         0.48958E-02
         0.48958E-02
         0.48958E-02
         0.48958E-02
         0.48958E-02
         0.48958E-02
         0.48958E-02
         0.48958E-02
         0.48958E-02
         0.48958E-02
         0.48958E-02
         0.48958E-02
         0.48958E-02
         0.48958E-02
         0.48958E-02
         0.48958E-02
         0.48958E-02
         0.48958E-02
         0.48958E-02
         0.48958E-02
         0.48958E-02
         0.48958E-02
         0.48958E-02
         0.48958E-02
         0.48958E-02
         0.48958E-02
         0.48958E-02
         0.48958E-02
         0.48958E-02
         0.48958E-02
         0.48958E-02
         0.48958E-02
         0.48958E-02
         0.48958E-02
         0.48958E-02
         0.48958E-02
         0.48958E-02
         0.48958E-02
         0.48958E-02
         0.48958E-02
         0.48958E-02
         0.48958E-02
         0.48958E-02
         0.48958E-02
         0.48958E-02
         0.48958E-02
         0.48958E-02
         0.48958E-02
         0.48958E-02
         0.58750E-02
         0.58750E-02
         0.58750E-02
         0.58750E-02
         0.58750E-02
         0.58750E-02
         0.58750E-02
         0.58750E-02
         0.58750E-02
         0.58750E-02
         0.58750E-02
         0.58750E-02
         0.58750E-02
         0.58750E-02
         0.58750E-02
         0.58750E-02
         0.58750E-02
         0.58750E-02
         0.58750E-02
         0.58750E-02
         0.58750E-02
         0.58750E-02
         0.58750E-02
         0.58750E-02
         0.58750E-02
         0.58750E-02
         0.58750E-02
         0.58750E-02
         0.58750E-02
         0.58750E-02
         0.58750E-02
         0.58750E-02
         0.58750E-02
         0.58750E-02
         0.58750E-02
         0.58750E-02
         0.58750E-02
         0.58750E-02
         0.58750E-02
         0.58750E-02
         0.58750E-02
         0.58750E-02
         0.58750E-02
         0.58750E-02
         0.58750E-02
         0.58750E-02
         0.58750E-02
         0.58750E-02
         0.58750E-02
         0.58750E-02
         0.58750E-02
         0.58750E-02
         0.58750E-02
         0.58750E-02
         0.58750E-02
         0.58750E-02
         0.58750E-02
         0.58750E-02
         0.58750E-02
         0.58750E-02
         0.58750E-02
         0.58750E-02
         0.58750E-02
         0.58750E-02
         0.58750E-02
         0.58750E-02
         0.58750E-02
         0.58750E-02
         0.58750E-02
         0.58750E-02
         0.58750E-02
         0.58750E-02
         0.58750E-02
         0.58750E-02
         0.58750E-02
         0.58750E-02
         0.58750E-02
         0.58750E-02
         0.68542E-02
         0.68542E-02
         0.68542E-02
         0.68542E-02
         0.68542E-02
         0.68542E-02
         0.68542E-02
         0.68542E-02
         0.68542E-02
         0.68542E-02
         0.68542E-02
         0.68542E-02
         0.68542E-02
         0.68542E-02
         0.68542E-02
         0.68542E-02
         0.68542E-02
         0.68542E-02
         0.68542E-02
         0.68542E-02
         0.68542E-02
         0.68542E-02
         0.68542E-02
         0.68542E-02
         0.68542E-02
         0.68542E-02
         0.68542E-02
         0.68542E-02
         0.68542E-02
         0.68542E-02
         0.68542E-02
         0.68542E-02
         0.68542E-02
         0.68542E-02
         0.68542E-02
         0.68542E-02
         0.68542E-02
         0.68542E-02
         0.68542E-02
         0.68542E-02
         0.68542E-02
         0.68542E-02
         0.68542E-02
         0.68542E-02
         0.68542E-02
         0.68542E-02
         0.68542E-02
         0.68542E-02
         0.68542E-02
         0.68542E-02
         0.68542E-02
         0.68542E-02
         0.68542E-02
         0.68542E-02
         0.68542E-02
         0.68542E-02
         0.68542E-02
         0.68542E-02
         0.68542E-02
         0.68542E-02
         0.68542E-02
         0.68542E-02
         0.68542E-02
         0.68542E-02
         0.68542E-02
         0.68542E-02
         0.68542E-02
         0.68542E-02
         0.68542E-02
         0.68542E-02
         0.68542E-02
         0.68542E-02
         0.68542E-02
         0.68542E-02
         0.68542E-02
         0.68542E-02
         0.68542E-02
         0.68542E-02
         0.78333E-02
         0.78333E-02
         0.78333E-02
         0.78333E-02
         0.78333E-02
         0.78333E-02
         0.78333E-02
         0.78333E-02
         0.78333E-02
         0.78333E-02
         0.78333E-02
         0.78333E-02
         0.78333E-02
         0.78333E-02
         0.78333E-02
         0.78333E-02
         0.78333E-02
         0.78333E-02
         0.78333E-02
         0.78333E-02
         0.78333E-02
         0.78333E-02
         0.78333E-02
         0.78333E-02
         0.78333E-02
         0.78333E-02
         0.78333E-02
         0.78333E-02
         0.78333E-02
         0.78333E-02
         0.78333E-02
         0.78333E-02
         0.78333E-02
         0.78333E-02
         0.78333E-02
         0.78333E-02
         0.78333E-02
         0.78333E-02
         0.78333E-02
         0.78333E-02
         0.78333E-02
         0.78333E-02
         0.78333E-02
         0.78333E-02
         0.78333E-02
         0.78333E-02
         0.78333E-02
         0.78333E-02
         0.78333E-02
         0.78333E-02
         0.78333E-02
         0.78333E-02
         0.78333E-02
         0.78333E-02
         0.78333E-02
         0.78333E-02
         0.78333E-02
         0.78333E-02
         0.78333E-02
         0.78333E-02
         0.78333E-02
         0.78333E-02
         0.78333E-02
         0.78333E-02
         0.78333E-02
         0.78333E-02
         0.78333E-02
         0.78333E-02
         0.78333E-02
         0.78333E-02
         0.78333E-02
         0.78333E-02
         0.78333E-02
         0.78333E-02
         0.78333E-02
         0.78333E-02
         0.78333E-02
         0.78333E-02
         0.88125E-02
         0.88125E-02
         0.88125E-02
         0.88125E-02
         0.88125E-02
         0.88125E-02
         0.88125E-02
         0.88125E-02
         0.88125E-02
         0.88125E-02
         0.88125E-02
         0.88125E-02
         0.88125E-02
         0.88125E-02
         0.88125E-02
         0.88125E-02
         0.88125E-02
         0.88125E-02
         0.88125E-02
         0.88125E-02
         0.88125E-02
         0.88125E-02
         0.88125E-02
         0.88125E-02
         0.88125E-02
         0.88125E-02
         0.88125E-02
         0.88125E-02
         0.88125E-02
         0.88125E-02
         0.88125E-02
         0.88125E-02
         0.88125E-02
         0.88125E-02
         0.88125E-02
         0.88125E-02
         0.88125E-02
         0.88125E-02
         0.88125E-02
         0.88125E-02
         0.88125E-02
         0.88125E-02
         0.88125E-02
         0.88125E-02
         0.88125E-02
         0.88125E-02
         0.88125E-02
         0.88125E-02
         0.88125E-02
         0.88125E-02
         0.88125E-02
         0.88125E-02
         0.88125E-02
         0.88125E-02
         0.88125E-02
         0.88125E-02
         0.88125E-02
         0.88125E-02
         0.88125E-02
         0.88125E-02
         0.88125E-02
         0.88125E-02
         0.88125E-02
         0.88125E-02
         0.88125E-02
         0.88125E-02
         0.88125E-02
         0.88125E-02
         0.88125E-02
         0.88125E-02
         0.88125E-02
         0.88125E-02
         0.88125E-02
         0.88125E-02
         0.88125E-02
         0.88125E-02
         0.88125E-02
         0.88125E-02
         0.97917E-02
         0.97917E-02
         0.97917E-02
         0.97917E-02
         0.97917E-02
         0.97917E-02
         0.97917E-02
         0.97917E-02
         0.97917E-02
         0.97917E-02
         0.97917E-02
         0.97917E-02
         0.97917E-02
         0.97917E-02
         0.97917E-02
         0.97917E-02
         0.97917E-02
         0.97917E-02
         0.97917E-02
         0.97917E-02
         0.97917E-02
         0.97917E-02
         0.97917E-02
         0.97917E-02
         0.97917E-02
         0.97917E-02
         0.97917E-02
         0.97917E-02
         0.97917E-02
         0.97917E-02
         0.97917E-02
         0.97917E-02
         0.97917E-02
         0.97917E-02
         0.97917E-02
         0.97917E-02
         0.97917E-02
         0.97917E-02
         0.97917E-02
         0.97917E-02
         0.97917E-02
         0.97917E-02
         0.97917E-02
         0.97917E-02
         0.97917E-02
         0.97917E-02
         0.97917E-02
         0.97917E-02
         0.97917E-02
         0.97917E-02
         0.97917E-02
         0.97917E-02
         0.97917E-02
         0.97917E-02
         0.97917E-02
         0.97917E-02
         0.97917E-02
         0.97917E-02
         0.97917E-02
         0.97917E-02
         0.97917E-02
         0.97917E-02
         0.97917E-02
         0.97917E-02
         0.97917E-02
         0.97917E-02
         0.97917E-02
         0.97917E-02
         0.97917E-02
         0.97917E-02
         0.97917E-02
         0.97917E-02
         0.97917E-02
         0.97917E-02
         0.97917E-02
         0.97917E-02
         0.97917E-02
         0.97917E-02
         0.10771E-01
         0.10771E-01
         0.10771E-01
         0.10771E-01
         0.10771E-01
         0.10771E-01
         0.10771E-01
         0.10771E-01
         0.10771E-01
         0.10771E-01
         0.10771E-01
         0.10771E-01
         0.10771E-01
         0.10771E-01
         0.10771E-01
         0.10771E-01
         0.10771E-01
         0.10771E-01
         0.10771E-01
         0.10771E-01
         0.10771E-01
         0.10771E-01
         0.10771E-01
         0.10771E-01
         0.10771E-01
         0.10771E-01
         0.10771E-01
         0.10771E-01
         0.10771E-01
         0.10771E-01
         0.10771E-01
         0.10771E-01
         0.10771E-01
         0.10771E-01
         0.10771E-01
         0.10771E-01
         0.10771E-01
         0.10771E-01
         0.10771E-01
         0.10771E-01
         0.10771E-01
         0.10771E-01
         0.10771E-01
         0.10771E-01
         0.10771E-01
         0.10771E-01
         0.10771E-01
         0.10771E-01
         0.10771E-01
         0.10771E-01
         0.10771E-01
         0.10771E-01
         0.10771E-01
         0.10771E-01
         0.10771E-01
         0.10771E-01
         0.10771E-01
         0.10771E-01
         0.10771E-01
         0.10771E-01
         0.10771E-01
         0.10771E-01
         0.10771E-01
         0.10771E-01
         0.10771E-01
         0.10771E-01
         0.10771E-01
         0.10771E-01
         0.10771E-01
         0.10771E-01
         0.10771E-01
         0.10771E-01
         0.10771E-01
         0.10771E-01
         0.10771E-01
         0.10771E-01
         0.10771E-01
         0.10771E-01
         0.11750E-01
         0.11750E-01
         0.11750E-01
         0.11750E-01
         0.11750E-01
         0.11750E-01
         0.11750E-01
         0.11750E-01
         0.11750E-01
         0.11750E-01
         0.11750E-01
         0.11750E-01
         0.11750E-01
         0.11750E-01
         0.11750E-01
         0.11750E-01
         0.11750E-01
         0.11750E-01
         0.11750E-01
         0.11750E-01
         0.11750E-01
         0.11750E-01
         0.11750E-01
         0.11750E-01
         0.11750E-01
         0.11750E-01
         0.11750E-01
         0.11750E-01
         0.11750E-01
         0.11750E-01
         0.11750E-01
         0.11750E-01
         0.11750E-01
         0.11750E-01
         0.11750E-01
         0.11750E-01
         0.11750E-01
         0.11750E-01
         0.11750E-01
         0.11750E-01
         0.11750E-01
         0.11750E-01
         0.11750E-01
         0.11750E-01
         0.11750E-01
         0.11750E-01
         0.11750E-01
         0.11750E-01
         0.11750E-01
         0.11750E-01
         0.11750E-01
         0.11750E-01
         0.11750E-01
         0.11750E-01
         0.11750E-01
         0.11750E-01
         0.11750E-01
         0.11750E-01
         0.11750E-01
         0.11750E-01
         0.11750E-01
         0.11750E-01
         0.11750E-01
         0.11750E-01
         0.11750E-01
         0.11750E-01
         0.11750E-01
         0.11750E-01
         0.11750E-01
         0.11750E-01
         0.11750E-01
         0.11750E-01
         0.11750E-01
         0.11750E-01
         0.11750E-01
         0.11750E-01
         0.11750E-01
         0.11750E-01
  
SCALARS                init_velocity_x  double 1
LOOKUP_TABLE default
         0.00000E+00
         0.00000E+00
         0.00000E+00
         0.00000E+00
         0.00000E+00
         0.00000E+00
         0.00000E+00
         0.00000E+00
         0.00000E+00
         0.00000E+00
         0.00000E+00
         0.00000E+00
         0.00000E+00
         0.00000E+00
         0.00000E+00
         0.00000E+00
         0.00000E+00
         0.00000E+00
         0.00000E+00
         0.00000E+00
         0.00000E+00
         0.00000E+00
         0.00000E+00
         0.00000E+00
         0.00000E+00
         0.00000E+00
         0.00000E+00
         0.00000E+00
         0.00000E+00
         0.00000E+00
         0.00000E+00
         0.00000E+00
         0.00000E+00
         0.00000E+00
         0.00000E+00
         0.00000E+00
         0.00000E+00
         0.00000E+00
         0.00000E+00
         0.00000E+00
         0.00000E+00
         0.00000E+00
         0.00000E+00
         0.00000E+00
         0.00000E+00
         0.00000E+00
         0.00000E+00
         0.00000E+00
         0.00000E+00
         0.00000E+00
         0.00000E+00
         0.00000E+00
         0.00000E+00
         0.00000E+00
         0.00000E+00
         0.00000E+00
         0.00000E+00
         0.00000E+00
         0.00000E+00
         0.00000E+00
         0.00000E+00
         0.00000E+00
         0.00000E+00
         0.00000E+00
         0.00000E+00
         0.00000E+00
         0.00000E+00
         0.00000E+00
         0.00000E+00
         0.00000E+00
         0.00000E+00
         0.00000E+00
         0.00000E+00
         0.00000E+00
         0.00000E+00
         0.00000E+00
         0.00000E+00
         0.00000E+00
         0.00000E+00
         0.00000E+00
         0.00000E+00
         0.00000E+00
         0.00000E+00
         0.00000E+00
         0.00000E+00
         0.00000E+00
         0.00000E+00
         0.00000E+00
         0.00000E+00
         0.00000E+00
         0.00000E+00
         0.00000E+00
         0.00000E+00
         0.00000E+00
         0.00000E+00
         0.00000E+00
         0.00000E+00
         0.00000E+00
         0.00000E+00
         0.00000E+00
         0.00000E+00
         0.00000E+00
         0.00000E+00
         0.00000E+00
         0.00000E+00
         0.00000E+00
         0.00000E+00
         0.00000E+00
         0.00000E+00
         0.00000E+00
         0.00000E+00
         0.00000E+00
         0.00000E+00
         0.00000E+00
         0.00000E+00
         0.00000E+00
         0.00000E+00
         0.00000E+00
         0.00000E+00
         0.00000E+00
         0.00000E+00
         0.00000E+00
         0.00000E+00
         0.00000E+00
         0.00000E+00
         0.00000E+00
         0.00000E+00
         0.00000E+00
         0.00000E+00
         0.00000E+00
         0.00000E+00
         0.00000E+00
         0.00000E+00
         0.00000E+00
         0.00000E+00
         0.00000E+00
         0.00000E+00
         0.00000E+00
         0.00000E+00
         0.00000E+00
         0.00000E+00
         0.00000E+00
         0.00000E+00
         0.00000E+00
         0.00000E+00
         0.00000E+00
         0.00000E+00
         0.00000E+00
         0.00000E+00
         0.00000E+00
         0.00000E+00
         0.00000E+00
         0.00000E+00
         0.00000E+00
         0.00000E+00
         0.00000E+00
         0.00000E+00
         0.00000E+00
         0.00000E+00
         0.00000E+00
         0.00000E+00
         0.00000E+00
         0.00000E+00
         0.00000E+00
         0.00000E+00
         0.00000E+00
         0.00000E+00
         0.00000E+00
         0.00000E+00
         0.00000E+00
         0.00000E+00
         0.00000E+00
         0.00000E+00
         0.00000E+00
         0.00000E+00
         0.00000E+00
         0.00000E+00
         0.00000E+00
         0.00000E+00
         0.00000E+00
         0.00000E+00
         0.00000E+00
         0.00000E+00
         0.00000E+00
         0.00000E+00
         0.00000E+00
         0.00000E+00
         0.00000E+00
         0.00000E+00
         0.00000E+00
         0.00000E+00
         0.00000E+00
         0.00000E+00
         0.00000E+00
         0.00000E+00
         0.00000E+00
         0.00000E+00
         0.00000E+00
         0.00000E+00
         0.00000E+00
         0.00000E+00
         0.00000E+00
         0.00000E+00
         0.00000E+00
         0.00000E+00
         0.00000E+00
         0.00000E+00
         0.00000E+00
         0.00000E+00
         0.00000E+00
         0.00000E+00
         0.00000E+00
         0.00000E+00
         0.00000E+00
         0.00000E+00
         0.00000E+00
         0.00000E+00
         0.00000E+00
         0.00000E+00
         0.00000E+00
         0.00000E+00
         0.00000E+00
         0.00000E+00
         0.00000E+00
         0.00000E+00
         0.00000E+00
         0.00000E+00
         0.00000E+00
         0.00000E+00
         0.00000E+00
         0.00000E+00
         0.00000E+00
         0.00000E+00
         0.00000E+00
         0.00000E+00
         0.00000E+00
         0.00000E+00
         0.00000E+00
         0.00000E+00
         0.00000E+00
         0.00000E+00
         0.00000E+00
         0.00000E+00
         0.00000E+00
         0.00000E+00
         0.00000E+00
         0.00000E+00
         0.00000E+00
         0.00000E+00
         0.00000E+00
         0.00000E+00
         0.00000E+00
         0.00000E+00
         0.00000E+00
         0.00000E+00
         0.00000E+00
         0.00000E+00
         0.00000E+00
         0.00000E+00
         0.00000E+00
         0.00000E+00
         0.00000E+00
         0.00000E+00
         0.00000E+00
         0.00000E+00
         0.00000E+00
         0.00000E+00
         0.00000E+00
         0.00000E+00
         0.00000E+00
         0.00000E+00
         0.00000E+00
         0.00000E+00
         0.00000E+00
         0.00000E+00
         0.00000E+00
         0.00000E+00
         0.00000E+00
         0.00000E+00
         0.00000E+00
         0.00000E+00
         0.00000E+00
         0.00000E+00
         0.00000E+00
         0.00000E+00
         0.00000E+00
         0.00000E+00
         0.00000E+00
         0.00000E+00
         0.00000E+00
         0.00000E+00
         0.00000E+00
         0.00000E+00
         0.00000E+00
         0.00000E+00
         0.00000E+00
         0.00000E+00
         0.00000E+00
         0.00000E+00
         0.00000E+00
         0.00000E+00
         0.00000E+00
         0.00000E+00
         0.00000E+00
         0.00000E+00
         0.00000E+00
         0.00000E+00
         0.00000E+00
         0.00000E+00
         0.00000E+00
         0.00000E+00
         0.00000E+00
         0.00000E+00
         0.00000E+00
         0.00000E+00
         0.00000E+00
         0.00000E+00
         0.00000E+00
         0.00000E+00
         0.00000E+00
         0.00000E+00
         0.00000E+00
         0.00000E+00
         0.00000E+00
         0.00000E+00
         0.00000E+00
         0.00000E+00
         0.00000E+00
         0.00000E+00
         0.00000E+00
         0.00000E+00
         0.00000E+00
         0.00000E+00
         0.00000E+00
         0.00000E+00
         0.00000E+00
         0.00000E+00
         0.00000E+00
         0.00000E+00
         0.00000E+00
         0.00000E+00
         0.00000E+00
         0.00000E+00
         0.00000E+00
         0.00000E+00
         0.00000E+00
         0.00000E+00
         0.00000E+00
         0.00000E+00
         0.00000E+00
         0.00000E+00
         0.00000E+00
         0.00000E+00
         0.00000E+00
         0.00000E+00
         0.00000E+00
         0.00000E+00
         0.00000E+00
         0.00000E+00
         0.00000E+00
         0.00000E+00
         0.00000E+00
         0.00000E+00
         0.00000E+00
         0.00000E+00
         0.00000E+00
         0.00000E+00
         0.00000E+00
         0.00000E+00
         0.00000E+00
         0.00000E+00
         0.00000E+00
         0.00000E+00
         0.00000E+00
         0.00000E+00
         0.00000E+00
         0.00000E+00
         0.00000E+00
         0.00000E+00
         0.00000E+00
         0.00000E+00
         0.00000E+00
         0.00000E+00
         0.00000E+00
         0.00000E+00
         0.00000E+00
         0.00000E+00
         0.00000E+00
         0.00000E+00
         0.00000E+00
         0.00000E+00
         0.00000E+00
         0.00000E+00
         0.00000E+00
         0.00000E+00
         0.00000E+00
         0.00000E+00
         0.00000E+00
         0.00000E+00
         0.00000E+00
         0.00000E+00
         0.00000E+00
         0.00000E+00
         0.00000E+00
         0.00000E+00
         0.00000E+00
         0.00000E+00
         0.00000E+00
         0.00000E+00
         0.00000E+00
         0.00000E+00
         0.00000E+00
         0.00000E+00
         0.00000E+00
         0.00000E+00
         0.00000E+00
         0.00000E+00
         0.00000E+00
         0.00000E+00
         0.00000E+00
         0.00000E+00
         0.00000E+00
         0.00000E+00
         0.00000E+00
         0.00000E+00
         0.00000E+00
         0.00000E+00
         0.00000E+00
         0.00000E+00
         0.00000E+00
         0.00000E+00
         0.00000E+00
         0.00000E+00
         0.00000E+00
         0.00000E+00
         0.00000E+00
         0.00000E+00
         0.00000E+00
         0.00000E+00
         0.00000E+00
         0.00000E+00
         0.00000E+00
         0.00000E+00
         0.00000E+00
         0.00000E+00
         0.00000E+00
         0.00000E+00
         0.00000E+00
         0.00000E+00
         0.00000E+00
         0.00000E+00
         0.00000E+00
         0.00000E+00
         0.00000E+00
         0.00000E+00
         0.00000E+00
         0.00000E+00
         0.00000E+00
         0.00000E+00
         0.00000E+00
         0.00000E+00
         0.00000E+00
         0.00000E+00
         0.00000E+00
         0.00000E+00
         0.00000E+00
         0.00000E+00
         0.00000E+00
         0.00000E+00
         0.00000E+00
         0.00000E+00
         0.00000E+00
         0.00000E+00
         0.00000E+00
         0.00000E+00
         0.00000E+00
         0.00000E+00
         0.00000E+00
         0.00000E+00
         0.00000E+00
         0.00000E+00
         0.00000E+00
         0.00000E+00
         0.00000E+00
         0.00000E+00
         0.00000E+00
         0.00000E+00
         0.00000E+00
         0.00000E+00
         0.00000E+00
         0.00000E+00
         0.00000E+00
         0.00000E+00
         0.00000E+00
         0.00000E+00
         0.00000E+00
         0.00000E+00
         0.00000E+00
         0.00000E+00
         0.00000E+00
         0.00000E+00
         0.00000E+00
         0.00000E+00
         0.00000E+00
         0.00000E+00
         0.00000E+00
         0.00000E+00
         0.00000E+00
         0.00000E+00
         0.00000E+00
         0.00000E+00
         0.00000E+00
         0.00000E+00
         0.00000E+00
         0.00000E+00
         0.00000E+00
         0.00000E+00
         0.00000E+00
         0.00000E+00
         0.00000E+00
         0.00000E+00
         0.00000E+00
         0.00000E+00
         0.00000E+00
         0.00000E+00
         0.00000E+00
         0.00000E+00
         0.00000E+00
         0.00000E+00
         0.00000E+00
         0.00000E+00
         0.00000E+00
         0.00000E+00
         0.00000E+00
         0.00000E+00
         0.00000E+00
         0.00000E+00
         0.00000E+00
         0.00000E+00
         0.00000E+00
         0.00000E+00
         0.00000E+00
         0.00000E+00
         0.00000E+00
         0.00000E+00
         0.00000E+00
         0.00000E+00
         0.00000E+00
         0.00000E+00
         0.00000E+00
         0.00000E+00
         0.00000E+00
         0.00000E+00
         0.00000E+00
         0.00000E+00
         0.00000E+00
         0.00000E+00
         0.00000E+00
         0.00000E+00
         0.00000E+00
         0.00000E+00
         0.00000E+00
         0.00000E+00
         0.00000E+00
         0.00000E+00
         0.00000E+00
         0.00000E+00
         0.00000E+00
         0.00000E+00
         0.00000E+00
         0.00000E+00
         0.00000E+00
         0.00000E+00
         0.00000E+00
         0.00000E+00
         0.00000E+00
         0.00000E+00
         0.00000E+00
         0.00000E+00
         0.00000E+00
         0.00000E+00
         0.00000E+00
         0.00000E+00
         0.00000E+00
         0.00000E+00
         0.00000E+00
         0.00000E+00
         0.00000E+00
         0.00000E+00
         0.00000E+00
         0.00000E+00
         0.00000E+00
         0.00000E+00
         0.00000E+00
         0.00000E+00
         0.00000E+00
         0.00000E+00
         0.00000E+00
         0.00000E+00
         0.00000E+00
         0.00000E+00
         0.00000E+00
         0.00000E+00
         0.00000E+00
         0.00000E+00
         0.00000E+00
         0.00000E+00
         0.00000E+00
         0.00000E+00
         0.00000E+00
         0.00000E+00
         0.00000E+00
         0.00000E+00
         0.00000E+00
         0.00000E+00
         0.00000E+00
         0.00000E+00
         0.00000E+00
         0.00000E+00
         0.00000E+00
         0.00000E+00
         0.00000E+00
         0.00000E+00
         0.00000E+00
         0.00000E+00
         0.00000E+00
         0.00000E+00
         0.00000E+00
         0.00000E+00
         0.00000E+00
         0.00000E+00
         0.00000E+00
         0.00000E+00
         0.00000E+00
         0.00000E+00
         0.00000E+00
         0.00000E+00
         0.00000E+00
         0.00000E+00
         0.00000E+00
         0.00000E+00
         0.00000E+00
         0.00000E+00
         0.00000E+00
         0.00000E+00
         0.00000E+00
         0.00000E+00
         0.00000E+00
         0.00000E+00
         0.00000E+00
         0.00000E+00
         0.00000E+00
         0.00000E+00
         0.00000E+00
         0.00000E+00
         0.00000E+00
         0.00000E+00
         0.00000E+00
         0.00000E+00
         0.00000E+00
         0.00000E+00
         0.00000E+00
         0.00000E+00
         0.00000E+00
         0.00000E+00
         0.00000E+00
         0.00000E+00
         0.00000E+00
         0.00000E+00
         0.00000E+00
         0.00000E+00
         0.00000E+00
         0.00000E+00
         0.00000E+00
         0.00000E+00
         0.00000E+00
         0.00000E+00
         0.00000E+00
         0.00000E+00
         0.00000E+00
         0.00000E+00
         0.00000E+00
         0.00000E+00
         0.00000E+00
         0.00000E+00
         0.00000E+00
         0.00000E+00
         0.00000E+00
         0.00000E+00
         0.00000E+00
         0.00000E+00
         0.00000E+00
         0.00000E+00
         0.00000E+00
         0.00000E+00
         0.00000E+00
         0.00000E+00
         0.00000E+00
         0.00000E+00
         0.00000E+00
         0.00000E+00
         0.00000E+00
         0.00000E+00
         0.00000E+00
         0.00000E+00
         0.00000E+00
         0.00000E+00
         0.00000E+00
         0.00000E+00
         0.00000E+00
         0.00000E+00
         0.00000E+00
         0.00000E+00
         0.00000E+00
         0.00000E+00
         0.00000E+00
         0.00000E+00
         0.00000E+00
         0.00000E+00
         0.00000E+00
         0.00000E+00
         0.00000E+00
         0.00000E+00
         0.00000E+00
         0.00000E+00
         0.00000E+00
         0.00000E+00
         0.00000E+00
         0.00000E+00
         0.00000E+00
         0.00000E+00
         0.00000E+00
         0.00000E+00
         0.00000E+00
         0.00000E+00
         0.00000E+00
         0.00000E+00
         0.00000E+00
         0.00000E+00
         0.00000E+00
         0.00000E+00
         0.00000E+00
         0.00000E+00
         0.00000E+00
         0.00000E+00
         0.00000E+00
         0.00000E+00
         0.00000E+00
         0.00000E+00
         0.00000E+00
         0.00000E+00
         0.00000E+00
         0.00000E+00
         0.00000E+00
         0.00000E+00
         0.00000E+00
         0.00000E+00
         0.00000E+00
         0.00000E+00
         0.00000E+00
         0.00000E+00
         0.00000E+00
         0.00000E+00
         0.00000E+00
         0.00000E+00
         0.00000E+00
         0.00000E+00
         0.00000E+00
         0.00000E+00
         0.00000E+00
         0.00000E+00
         0.00000E+00
         0.00000E+00
         0.00000E+00
         0.00000E+00
         0.00000E+00
         0.00000E+00
         0.00000E+00
         0.00000E+00
         0.00000E+00
         0.00000E+00
         0.00000E+00
         0.00000E+00
         0.00000E+00
         0.00000E+00
         0.00000E+00
         0.00000E+00
         0.00000E+00
         0.00000E+00
         0.00000E+00
         0.00000E+00
         0.00000E+00
         0.00000E+00
         0.00000E+00
         0.00000E+00
         0.00000E+00
         0.00000E+00
         0.00000E+00
         0.00000E+00
         0.00000E+00
         0.00000E+00
         0.00000E+00
         0.00000E+00
         0.00000E+00
         0.00000E+00
         0.00000E+00
         0.00000E+00
         0.00000E+00
         0.00000E+00
         0.00000E+00
         0.00000E+00
         0.00000E+00
         0.00000E+00
         0.00000E+00
         0.00000E+00
         0.00000E+00
         0.00000E+00
         0.00000E+00
         0.00000E+00
         0.00000E+00
         0.00000E+00
         0.00000E+00
         0.00000E+00
         0.00000E+00
         0.00000E+00
         0.00000E+00
         0.00000E+00
         0.00000E+00
         0.00000E+00
         0.00000E+00
         0.00000E+00
         0.00000E+00
         0.00000E+00
         0.00000E+00
         0.00000E+00
         0.00000E+00
         0.00000E+00
         0.00000E+00
         0.00000E+00
         0.00000E+00
         0.00000E+00
         0.00000E+00
         0.00000E+00
         0.00000E+00
         0.00000E+00
         0.00000E+00
         0.00000E+00
         0.00000E+00
         0.00000E+00
         0.00000E+00
         0.00000E+00
         0.00000E+00
         0.00000E+00
         0.00000E+00
         0.00000E+00
         0.00000E+00
         0.00000E+00
         0.00000E+00
         0.00000E+00
         0.00000E+00
         0.00000E+00
         0.00000E+00
         0.00000E+00
         0.00000E+00
         0.00000E+00
         0.00000E+00
         0.00000E+00
         0.00000E+00
         0.00000E+00
         0.00000E+00
         0.00000E+00
         0.00000E+00
         0.00000E+00
         0.00000E+00
         0.00000E+00
         0.00000E+00
         0.00000E+00
         0.00000E+00
         0.00000E+00
         0.00000E+00
         0.00000E+00
         0.00000E+00
         0.00000E+00
         0.00000E+00
         0.00000E+00
         0.00000E+00
         0.00000E+00
         0.00000E+00
         0.00000E+00
         0.00000E+00
         0.00000E+00
         0.00000E+00
         0.00000E+00
         0.00000E+00
         0.00000E+00
         0.00000E+00
         0.00000E+00
         0.00000E+00
         0.00000E+00
         0.00000E+00
         0.00000E+00
         0.00000E+00
         0.00000E+00
         0.00000E+00
         0.00000E+00
         0.00000E+00
         0.00000E+00
         0.00000E+00
         0.00000E+00
         0.00000E+00
         0.00000E+00
         0.00000E+00
         0.00000E+00
         0.00000E+00
         0.00000E+00
         0.00000E+00
         0.00000E+00
         0.00000E+00
         0.00000E+00
         0.00000E+00
         0.00000E+00
         0.00000E+00
         0.00000E+00
         0.00000E+00
         0.00000E+00
         0.00000E+00
         0.00000E+00
         0.00000E+00
         0.00000E+00
         0.00000E+00
         0.00000E+00
         0.00000E+00
         0.00000E+00
         0.00000E+00
         0.00000E+00
         0.00000E+00
         0.00000E+00
         0.00000E+00
         0.00000E+00
         0.00000E+00
         0.00000E+00
         0.00000E+00
         0.00000E+00
         0.00000E+00
         0.00000E+00
         0.00000E+00
         0.00000E+00
         0.00000E+00
         0.00000E+00
         0.00000E+00
         0.00000E+00
         0.00000E+00
         0.00000E+00
         0.00000E+00
         0.00000E+00
         0.00000E+00
         0.00000E+00
         0.00000E+00
         0.00000E+00
         0.00000E+00
         0.00000E+00
         0.00000E+00
         0.00000E+00
         0.00000E+00
         0.00000E+00
         0.00000E+00
         0.00000E+00
         0.00000E+00
         0.00000E+00
         0.00000E+00
         0.00000E+00
         0.00000E+00
         0.00000E+00
         0.00000E+00
         0.00000E+00
         0.00000E+00
         0.00000E+00
         0.00000E+00
         0.00000E+00
         0.00000E+00
         0.00000E+00
         0.00000E+00
         0.00000E+00
         0.00000E+00
         0.00000E+00
         0.00000E+00
         0.00000E+00
         0.00000E+00
         0.00000E+00
         0.00000E+00
         0.00000E+00
         0.00000E+00
         0.00000E+00
         0.00000E+00
         0.00000E+00
         0.00000E+00
         0.00000E+00
         0.00000E+00
         0.00000E+00
         0.00000E+00
         0.00000E+00
         0.00000E+00
         0.00000E+00
         0.00000E+00
         0.00000E+00
         0.00000E+00
         0.00000E+00
         0.00000E+00
         0.00000E+00
         0.00000E+00
         0.00000E+00
         0.00000E+00
         0.00000E+00
         0.00000E+00
         0.00000E+00
         0.00000E+00
         0.00000E+00
         0.00000E+00
         0.00000E+00
         0.00000E+00
         0.00000E+00
         0.00000E+00
         0.00000E+00
         0.00000E+00
         0.00000E+00
         0.00000E+00
         0.00000E+00
         0.00000E+00
         0.00000E+00
         0.00000E+00
         0.00000E+00
         0.00000E+00
         0.00000E+00
         0.00000E+00
         0.00000E+00
         0.00000E+00
         0.00000E+00
         0.00000E+00
         0.00000E+00
         0.00000E+00
         0.00000E+00
         0.00000E+00
         0.00000E+00
         0.00000E+00
         0.00000E+00
         0.00000E+00
         0.00000E+00
         0.00000E+00
         0.00000E+00
         0.00000E+00
         0.00000E+00
         0.00000E+00
         0.00000E+00
         0.00000E+00
         0.00000E+00
         0.00000E+00
         0.00000E+00
         0.00000E+00
         0.00000E+00
         0.00000E+00
         0.00000E+00
         0.00000E+00
         0.00000E+00
         0.00000E+00
         0.00000E+00
         0.00000E+00
         0.00000E+00
         0.00000E+00
         0.00000E+00
         0.00000E+00
         0.00000E+00
         0.00000E+00
         0.00000E+00
         0.00000E+00
         0.00000E+00
         0.00000E+00
         0.00000E+00
         0.00000E+00
         0.00000E+00
         0.00000E+00
         0.00000E+00
         0.00000E+00
         0.00000E+00
         0.00000E+00
         0.00000E+00
         0.00000E+00
         0.00000E+00
         0.00000E+00
         0.00000E+00
         0.00000E+00
         0.00000E+00
         0.00000E+00
         0.00000E+00
         0.00000E+00
         0.00000E+00
         0.00000E+00
         0.00000E+00
         0.00000E+00
         0.00000E+00
         0.00000E+00
         0.00000E+00
         0.00000E+00
         0.00000E+00
         0.00000E+00
         0.00000E+00
         0.00000E+00
         0.00000E+00
         0.00000E+00
         0.00000E+00
         0.00000E+00
         0.00000E+00
         0.00000E+00
         0.00000E+00
         0.00000E+00
         0.00000E+00
         0.00000E+00
         0.00000E+00
         0.00000E+00
         0.00000E+00
         0.00000E+00
         0.00000E+00
         0.00000E+00
         0.00000E+00
         0.00000E+00
         0.00000E+00
         0.00000E+00
         0.00000E+00
         0.00000E+00
         0.00000E+00
         0.00000E+00
         0.00000E+00
         0.00000E+00
         0.00000E+00
         0.00000E+00
         0.00000E+00
         0.00000E+00
         0.00000E+00
         0.00000E+00
         0.00000E+00
         0.00000E+00
         0.00000E+00
         0.00000E+00
         0.00000E+00
         0.00000E+00
         0.00000E+00
         0.00000E+00
         0.00000E+00
         0.00000E+00
         0.00000E+00
         0.00000E+00
         0.00000E+00
         0.00000E+00
         0.00000E+00
         0.00000E+00
         0.00000E+00
         0.00000E+00
         0.00000E+00
         0.00000E+00
         0.00000E+00
         0.00000E+00
         0.00000E+00
         0.00000E+00
         0.00000E+00
         0.00000E+00
         0.00000E+00
         0.00000E+00
         0.00000E+00
         0.00000E+00
         0.00000E+00
         0.00000E+00
         0.00000E+00
         0.00000E+00
         0.00000E+00
         0.00000E+00
         0.00000E+00
         0.00000E+00
         0.00000E+00
         0.00000E+00
         0.00000E+00
         0.00000E+00
         0.00000E+00
         0.00000E+00
         0.00000E+00
         0.00000E+00
         0.00000E+00
         0.00000E+00
         0.00000E+00
         0.00000E+00
         0.00000E+00
         0.00000E+00
         0.00000E+00
         0.00000E+00
         0.00000E+00
         0.00000E+00
         0.00000E+00
         0.00000E+00
         0.00000E+00
         0.00000E+00
         0.00000E+00
         0.00000E+00
         0.00000E+00
         0.00000E+00
         0.00000E+00
         0.00000E+00
         0.00000E+00
         0.00000E+00
         0.00000E+00
         0.00000E+00
         0.00000E+00
         0.00000E+00
         0.00000E+00
         0.00000E+00
         0.00000E+00
         0.00000E+00
         0.00000E+00
         0.00000E+00
         0.00000E+00
         0.00000E+00
         0.00000E+00
         0.00000E+00
         0.00000E+00
         0.00000E+00
         0.00000E+00
         0.00000E+00
         0.00000E+00
         0.00000E+00
         0.00000E+00
         0.00000E+00
         0.00000E+00
         0.00000E+00
         0.00000E+00
         0.00000E+00
         0.00000E+00
         0.00000E+00
         0.00000E+00
         0.00000E+00
         0.00000E+00
         0.00000E+00
         0.00000E+00
         0.00000E+00
         0.00000E+00
         0.00000E+00
         0.00000E+00
         0.00000E+00
         0.00000E+00
         0.00000E+00
         0.00000E+00
         0.00000E+00
         0.00000E+00
         0.00000E+00
         0.00000E+00
         0.00000E+00
         0.00000E+00
         0.00000E+00
         0.00000E+00
         0.00000E+00
         0.00000E+00
         0.00000E+00
         0.00000E+00
         0.00000E+00
         0.00000E+00
         0.00000E+00
         0.00000E+00
         0.00000E+00
         0.00000E+00
         0.00000E+00
         0.00000E+00
         0.00000E+00
         0.00000E+00
         0.00000E+00
         0.00000E+00
         0.00000E+00
         0.00000E+00
         0.00000E+00
         0.00000E+00
         0.00000E+00
         0.00000E+00
         0.00000E+00
         0.00000E+00
         0.00000E+00
         0.00000E+00
         0.00000E+00
         0.00000E+00
         0.00000E+00
         0.00000E+00
         0.00000E+00
         0.00000E+00
         0.00000E+00
         0.00000E+00
         0.00000E+00
         0.00000E+00
         0.00000E+00
         0.00000E+00
         0.00000E+00
         0.00000E+00
         0.00000E+00
         0.00000E+00
         0.00000E+00
         0.00000E+00
         0.00000E+00
         0.00000E+00
         0.00000E+00
         0.00000E+00
         0.00000E+00
         0.00000E+00
         0.00000E+00
         0.00000E+00
         0.00000E+00
         0.00000E+00
         0.00000E+00
         0.00000E+00
         0.00000E+00
         0.00000E+00
         0.00000E+00
         0.00000E+00
         0.00000E+00
         0.00000E+00
         0.00000E+00
         0.00000E+00
         0.00000E+00
         0.00000E+00
         0.00000E+00
         0.00000E+00
         0.00000E+00
         0.00000E+00
         0.00000E+00
         0.00000E+00
         0.00000E+00
         0.00000E+00
         0.00000E+00
         0.00000E+00
         0.00000E+00
         0.00000E+00
         0.00000E+00
         0.00000E+00
         0.00000E+00
         0.00000E+00
         0.00000E+00
         0.00000E+00
         0.00000E+00
         0.00000E+00
         0.00000E+00
         0.00000E+00
         0.00000E+00
         0.00000E+00
         0.00000E+00
         0.00000E+00
         0.00000E+00
         0.00000E+00
         0.00000E+00
         0.00000E+00
         0.00000E+00
         0.00000E+00
         0.00000E+00
         0.00000E+00
         0.00000E+00
         0.00000E+00
         0.00000E+00
         0.00000E+00
         0.00000E+00
         0.00000E+00
         0.00000E+00
         0.00000E+00
         0.00000E+00
         0.00000E+00
         0.00000E+00
         0.00000E+00
         0.00000E+00
         0.00000E+00
         0.00000E+00
         0.00000E+00
         0.00000E+00
         0.00000E+00
         0.00000E+00
         0.00000E+00
         0.00000E+00
         0.00000E+00
         0.00000E+00
         0.00000E+00
         0.00000E+00
         0.00000E+00
         0.00000E+00
         0.00000E+00
         0.00000E+00
         0.00000E+00
         0.00000E+00
         0.00000E+00
         0.00000E+00
         0.00000E+00
         0.00000E+00
         0.00000E+00
         0.00000E+00
         0.00000E+00
         0.00000E+00
         0.00000E+00
         0.00000E+00
         0.00000E+00
         0.00000E+00
         0.00000E+00
         0.00000E+00
         0.00000E+00
         0.00000E+00
         0.00000E+00
         0.00000E+00
         0.00000E+00
         0.00000E+00
         0.00000E+00
         0.00000E+00
         0.00000E+00
         0.00000E+00
         0.00000E+00
         0.00000E+00
         0.00000E+00
         0.00000E+00
         0.00000E+00
         0.00000E+00
         0.00000E+00
         0.00000E+00
         0.00000E+00
         0.00000E+00
         0.00000E+00
         0.00000E+00
         0.00000E+00
         0.00000E+00
         0.00000E+00
         0.00000E+00
         0.00000E+00
         0.00000E+00
         0.00000E+00
         0.00000E+00
         0.00000E+00
         0.00000E+00
         0.00000E+00
         0.00000E+00
         0.00000E+00
         0.00000E+00
         0.00000E+00
         0.00000E+00
         0.00000E+00
         0.00000E+00
         0.00000E+00
         0.00000E+00
         0.00000E+00
         0.00000E+00
         0.00000E+00
         0.00000E+00
         0.00000E+00
         0.00000E+00
         0.00000E+00
         0.00000E+00
         0.00000E+00
         0.00000E+00
         0.00000E+00
         0.00000E+00
         0.00000E+00
         0.00000E+00
         0.00000E+00
         0.00000E+00
         0.00000E+00
         0.00000E+00
         0.00000E+00
         0.00000E+00
         0.00000E+00
         0.00000E+00
         0.00000E+00
         0.00000E+00
         0.00000E+00
         0.00000E+00
         0.00000E+00
         0.00000E+00
         0.00000E+00
         0.00000E+00
         0.00000E+00
         0.00000E+00
         0.00000E+00
         0.00000E+00
         0.00000E+00
         0.00000E+00
         0.00000E+00
         0.00000E+00
         0.00000E+00
         0.00000E+00
         0.00000E+00
         0.00000E+00
         0.00000E+00
         0.00000E+00
         0.00000E+00
         0.00000E+00
         0.00000E+00
         0.00000E+00
         0.00000E+00
         0.00000E+00
         0.00000E+00
         0.00000E+00
         0.00000E+00
         0.00000E+00
         0.00000E+00
         0.00000E+00
         0.00000E+00
         0.00000E+00
         0.00000E+00
         0.00000E+00
         0.00000E+00
         0.00000E+00
         0.00000E+00
         0.00000E+00
         0.00000E+00
         0.00000E+00
         0.00000E+00
         0.00000E+00
         0.00000E+00
         0.00000E+00
         0.00000E+00
         0.00000E+00
         0.00000E+00
         0.00000E+00
         0.00000E+00
         0.00000E+00
         0.00000E+00
         0.00000E+00
         0.00000E+00
         0.00000E+00
         0.00000E+00
         0.00000E+00
         0.00000E+00
         0.00000E+00
         0.00000E+00
         0.00000E+00
         0.00000E+00
         0.00000E+00
         0.00000E+00
         0.00000E+00
         0.00000E+00
         0.00000E+00
         0.00000E+00
         0.00000E+00
         0.00000E+00
         0.00000E+00
         0.00000E+00
         0.00000E+00
         0.00000E+00
         0.00000E+00
         0.00000E+00
         0.00000E+00
         0.00000E+00
         0.00000E+00
         0.00000E+00
         0.00000E+00
         0.00000E+00
         0.00000E+00
         0.00000E+00
         0.00000E+00
         0.00000E+00
         0.00000E+00
         0.00000E+00
         0.00000E+00
         0.00000E+00
         0.00000E+00
         0.00000E+00
         0.00000E+00
         0.00000E+00
         0.00000E+00
         0.00000E+00
         0.00000E+00
         0.00000E+00
         0.00000E+00
         0.00000E+00
         0.00000E+00
         0.00000E+00
         0.00000E+00
         0.00000E+00
         0.00000E+00
         0.00000E+00
         0.00000E+00
         0.00000E+00
         0.00000E+00
         0.00000E+00
         0.00000E+00
         0.00000E+00
         0.00000E+00
         0.00000E+00
         0.00000E+00
         0.00000E+00
         0.00000E+00
         0.00000E+00
         0.00000E+00
         0.00000E+00
         0.00000E+00
         0.00000E+00
         0.00000E+00
         0.00000E+00
         0.00000E+00
         0.00000E+00
         0.00000E+00
         0.00000E+00
         0.00000E+00
         0.00000E+00
         0.00000E+00
         0.00000E+00
         0.00000E+00
         0.00000E+00
         0.00000E+00
         0.00000E+00
         0.00000E+00
         0.00000E+00
         0.00000E+00
         0.00000E+00
         0.00000E+00
         0.00000E+00
         0.00000E+00
         0.00000E+00
         0.00000E+00
         0.00000E+00
         0.00000E+00
         0.00000E+00
         0.00000E+00
         0.00000E+00
         0.00000E+00
         0.00000E+00
         0.00000E+00
         0.00000E+00
         0.00000E+00
         0.00000E+00
         0.00000E+00
         0.00000E+00
         0.00000E+00
         0.00000E+00
         0.00000E+00
         0.00000E+00
         0.00000E+00
         0.00000E+00
         0.00000E+00
         0.00000E+00
         0.00000E+00
         0.00000E+00
         0.00000E+00
         0.00000E+00
         0.00000E+00
         0.00000E+00
         0.00000E+00
         0.00000E+00
         0.00000E+00
         0.00000E+00
         0.00000E+00
         0.00000E+00
         0.00000E+00
         0.00000E+00
         0.00000E+00
         0.00000E+00
         0.00000E+00
         0.00000E+00
         0.00000E+00
         0.00000E+00
         0.00000E+00
         0.00000E+00
         0.00000E+00
         0.00000E+00
         0.00000E+00
         0.00000E+00
         0.00000E+00
         0.00000E+00
         0.00000E+00
         0.00000E+00
         0.00000E+00
         0.00000E+00
         0.00000E+00
         0.00000E+00
         0.00000E+00
         0.00000E+00
         0.00000E+00
         0.00000E+00
         0.00000E+00
         0.00000E+00
         0.00000E+00
         0.00000E+00
         0.00000E+00
         0.00000E+00
         0.00000E+00
         0.00000E+00
         0.00000E+00
         0.00000E+00
         0.00000E+00
         0.00000E+00
         0.00000E+00
         0.00000E+00
         0.00000E+00
         0.00000E+00
         0.00000E+00
         0.00000E+00
         0.00000E+00
         0.00000E+00
         0.00000E+00
         0.00000E+00
         0.00000E+00
         0.00000E+00
         0.00000E+00
         0.00000E+00
         0.00000E+00
         0.00000E+00
         0.00000E+00
         0.00000E+00
         0.00000E+00
         0.00000E+00
         0.00000E+00
         0.00000E+00
         0.00000E+00
         0.00000E+00
         0.00000E+00
         0.00000E+00
         0.00000E+00
         0.00000E+00
         0.00000E+00
         0.00000E+00
         0.00000E+00
         0.00000E+00
         0.00000E+00
         0.00000E+00
         0.00000E+00
         0.00000E+00
         0.00000E+00
         0.00000E+00
         0.00000E+00
         0.00000E+00
         0.00000E+00
         0.00000E+00
         0.00000E+00
         0.00000E+00
         0.00000E+00
         0.00000E+00
         0.00000E+00
         0.00000E+00
         0.00000E+00
         0.00000E+00
         0.00000E+00
         0.00000E+00
         0.00000E+00
         0.00000E+00
         0.00000E+00
         0.00000E+00
         0.00000E+00
         0.00000E+00
         0.00000E+00
         0.00000E+00
         0.00000E+00
         0.00000E+00
         0.00000E+00
         0.00000E+00
         0.00000E+00
         0.00000E+00
         0.00000E+00
         0.00000E+00
         0.00000E+00
         0.00000E+00
         0.00000E+00
         0.00000E+00
         0.00000E+00
         0.00000E+00
         0.00000E+00
         0.00000E+00
         0.00000E+00
         0.00000E+00
         0.00000E+00
         0.00000E+00
         0.00000E+00
         0.00000E+00
         0.00000E+00
         0.00000E+00
         0.00000E+00
         0.00000E+00
         0.00000E+00
         0.00000E+00
         0.00000E+00
         0.00000E+00
         0.00000E+00
         0.00000E+00
         0.00000E+00
         0.00000E+00
         0.00000E+00
         0.00000E+00
         0.00000E+00
         0.00000E+00
         0.00000E+00
         0.00000E+00
         0.00000E+00
         0.00000E+00
         0.00000E+00
         0.00000E+00
         0.00000E+00
         0.00000E+00
         0.00000E+00
         0.00000E+00
         0.00000E+00
         0.00000E+00
         0.00000E+00
         0.00000E+00
         0.00000E+00
         0.00000E+00
         0.00000E+00
         0.00000E+00
         0.00000E+00
         0.00000E+00
         0.00000E+00
         0.00000E+00
         0.00000E+00
         0.00000E+00
         0.00000E+00
         0.00000E+00
         0.00000E+00
         0.00000E+00
         0.00000E+00
         0.00000E+00
         0.00000E+00
         0.00000E+00
         0.00000E+00
         0.00000E+00
         0.00000E+00
         0.00000E+00
         0.00000E+00
         0.00000E+00
         0.00000E+00
         0.00000E+00
         0.00000E+00
         0.00000E+00
         0.00000E+00
         0.00000E+00
         0.00000E+00
         0.00000E+00
         0.00000E+00
         0.00000E+00
         0.00000E+00
         0.00000E+00
         0.00000E+00
         0.00000E+00
         0.00000E+00
         0.00000E+00
         0.00000E+00
         0.00000E+00
         0.00000E+00
         0.00000E+00
         0.00000E+00
         0.00000E+00
         0.00000E+00
         0.00000E+00
         0.00000E+00
         0.00000E+00
         0.00000E+00
         0.00000E+00
         0.00000E+00
         0.00000E+00
         0.00000E+00
         0.00000E+00
         0.00000E+00
         0.00000E+00
         0.00000E+00
         0.00000E+00
         0.00000E+00
         0.00000E+00
         0.00000E+00
         0.00000E+00
         0.00000E+00
         0.00000E+00
         0.00000E+00
         0.00000E+00
         0.00000E+00
         0.00000E+00
         0.00000E+00
         0.00000E+00
         0.00000E+00
         0.00000E+00
         0.00000E+00
         0.00000E+00
         0.00000E+00
         0.00000E+00
         0.00000E+00
         0.00000E+00
         0.00000E+00
         0.00000E+00
         0.00000E+00
         0.00000E+00
         0.00000E+00
         0.00000E+00
         0.00000E+00
         0.00000E+00
         0.00000E+00
         0.00000E+00
         0.00000E+00
         0.00000E+00
         0.00000E+00
         0.00000E+00
         0.00000E+00
         0.00000E+00
         0.00000E+00
         0.00000E+00
         0.00000E+00
         0.00000E+00
         0.00000E+00
         0.00000E+00
         0.00000E+00
         0.00000E+00
         0.00000E+00
         0.00000E+00
         0.00000E+00
         0.00000E+00
         0.00000E+00
         0.00000E+00
         0.00000E+00
         0.00000E+00
         0.00000E+00
         0.00000E+00
         0.00000E+00
         0.00000E+00
         0.00000E+00
         0.00000E+00
         0.00000E+00
         0.00000E+00
         0.00000E+00
         0.00000E+00
         0.00000E+00
         0.00000E+00
         0.00000E+00
         0.00000E+00
         0.00000E+00
         0.00000E+00
         0.00000E+00
         0.00000E+00
         0.00000E+00
         0.00000E+00
         0.00000E+00
         0.00000E+00
         0.00000E+00
         0.00000E+00
         0.00000E+00
         0.00000E+00
         0.00000E+00
         0.00000E+00
         0.00000E+00
         0.00000E+00
         0.00000E+00
         0.00000E+00
         0.00000E+00
         0.00000E+00
         0.00000E+00
         0.00000E+00
         0.00000E+00
         0.00000E+00
         0.00000E+00
         0.00000E+00
         0.00000E+00
         0.00000E+00
         0.00000E+00
  
SCALARS                init_velocity_y  double 1
LOOKUP_TABLE default
         0.00000E+00
         0.00000E+00
         0.00000E+00
         0.00000E+00
         0.00000E+00
         0.00000E+00
         0.00000E+00
         0.00000E+00
         0.00000E+00
         0.00000E+00
         0.00000E+00
         0.00000E+00
         0.00000E+00
         0.00000E+00
         0.00000E+00
         0.00000E+00
         0.00000E+00
         0.00000E+00
         0.00000E+00
         0.00000E+00
         0.00000E+00
         0.00000E+00
         0.00000E+00
         0.00000E+00
         0.00000E+00
         0.00000E+00
         0.00000E+00
         0.00000E+00
         0.00000E+00
         0.00000E+00
         0.00000E+00
         0.00000E+00
         0.00000E+00
         0.00000E+00
         0.00000E+00
         0.00000E+00
         0.00000E+00
         0.00000E+00
         0.00000E+00
         0.00000E+00
         0.00000E+00
         0.00000E+00
         0.00000E+00
         0.00000E+00
         0.00000E+00
         0.00000E+00
         0.00000E+00
         0.00000E+00
         0.00000E+00
         0.00000E+00
         0.00000E+00
         0.00000E+00
         0.00000E+00
         0.00000E+00
         0.00000E+00
         0.00000E+00
         0.00000E+00
         0.00000E+00
         0.00000E+00
         0.00000E+00
         0.00000E+00
         0.00000E+00
         0.00000E+00
         0.00000E+00
         0.00000E+00
         0.00000E+00
         0.00000E+00
         0.00000E+00
         0.00000E+00
         0.00000E+00
         0.00000E+00
         0.00000E+00
         0.00000E+00
         0.00000E+00
         0.00000E+00
         0.00000E+00
         0.00000E+00
         0.00000E+00
         0.00000E+00
         0.00000E+00
         0.00000E+00
         0.00000E+00
         0.00000E+00
         0.00000E+00
         0.00000E+00
         0.00000E+00
         0.00000E+00
         0.00000E+00
         0.00000E+00
         0.00000E+00
         0.00000E+00
         0.00000E+00
         0.00000E+00
         0.00000E+00
         0.00000E+00
         0.00000E+00
         0.00000E+00
         0.00000E+00
         0.00000E+00
         0.00000E+00
         0.00000E+00
         0.00000E+00
         0.00000E+00
         0.00000E+00
         0.00000E+00
         0.00000E+00
         0.00000E+00
         0.00000E+00
         0.00000E+00
         0.00000E+00
         0.00000E+00
         0.00000E+00
         0.00000E+00
         0.00000E+00
         0.00000E+00
         0.00000E+00
         0.00000E+00
         0.00000E+00
         0.00000E+00
         0.00000E+00
         0.00000E+00
         0.00000E+00
         0.00000E+00
         0.00000E+00
         0.00000E+00
         0.00000E+00
         0.00000E+00
         0.00000E+00
         0.00000E+00
         0.00000E+00
         0.00000E+00
         0.00000E+00
         0.00000E+00
         0.00000E+00
         0.00000E+00
         0.00000E+00
         0.00000E+00
         0.00000E+00
         0.00000E+00
         0.00000E+00
         0.00000E+00
         0.00000E+00
         0.00000E+00
         0.00000E+00
         0.00000E+00
         0.00000E+00
         0.00000E+00
         0.00000E+00
         0.00000E+00
         0.00000E+00
         0.00000E+00
         0.00000E+00
         0.00000E+00
         0.00000E+00
         0.00000E+00
         0.00000E+00
         0.00000E+00
         0.00000E+00
         0.00000E+00
         0.00000E+00
         0.00000E+00
         0.00000E+00
         0.00000E+00
         0.00000E+00
         0.00000E+00
         0.00000E+00
         0.00000E+00
         0.00000E+00
         0.00000E+00
         0.00000E+00
         0.00000E+00
         0.00000E+00
         0.00000E+00
         0.00000E+00
         0.00000E+00
         0.00000E+00
         0.00000E+00
         0.00000E+00
         0.00000E+00
         0.00000E+00
         0.00000E+00
         0.00000E+00
         0.00000E+00
         0.00000E+00
         0.00000E+00
         0.00000E+00
         0.00000E+00
         0.00000E+00
         0.00000E+00
         0.00000E+00
         0.00000E+00
         0.00000E+00
         0.00000E+00
         0.00000E+00
         0.00000E+00
         0.00000E+00
         0.00000E+00
         0.00000E+00
         0.00000E+00
         0.00000E+00
         0.00000E+00
         0.00000E+00
         0.00000E+00
         0.00000E+00
         0.00000E+00
         0.00000E+00
         0.00000E+00
         0.00000E+00
         0.00000E+00
         0.00000E+00
         0.00000E+00
         0.00000E+00
         0.00000E+00
         0.00000E+00
         0.00000E+00
         0.00000E+00
         0.00000E+00
         0.00000E+00
         0.00000E+00
         0.00000E+00
         0.00000E+00
         0.00000E+00
         0.00000E+00
         0.00000E+00
         0.00000E+00
         0.00000E+00
         0.00000E+00
         0.00000E+00
         0.00000E+00
         0.00000E+00
         0.00000E+00
         0.00000E+00
         0.00000E+00
         0.00000E+00
         0.00000E+00
         0.00000E+00
         0.00000E+00
         0.00000E+00
         0.00000E+00
         0.00000E+00
         0.00000E+00
         0.00000E+00
         0.00000E+00
         0.00000E+00
         0.00000E+00
         0.00000E+00
         0.00000E+00
         0.00000E+00
         0.00000E+00
         0.00000E+00
         0.00000E+00
         0.00000E+00
         0.00000E+00
         0.00000E+00
         0.00000E+00
         0.00000E+00
         0.00000E+00
         0.00000E+00
         0.00000E+00
         0.00000E+00
         0.00000E+00
         0.00000E+00
         0.00000E+00
         0.00000E+00
         0.00000E+00
         0.00000E+00
         0.00000E+00
         0.00000E+00
         0.00000E+00
         0.00000E+00
         0.00000E+00
         0.00000E+00
         0.00000E+00
         0.00000E+00
         0.00000E+00
         0.00000E+00
         0.00000E+00
         0.00000E+00
         0.00000E+00
         0.00000E+00
         0.00000E+00
         0.00000E+00
         0.00000E+00
         0.00000E+00
         0.00000E+00
         0.00000E+00
         0.00000E+00
         0.00000E+00
         0.00000E+00
         0.00000E+00
         0.00000E+00
         0.00000E+00
         0.00000E+00
         0.00000E+00
         0.00000E+00
         0.00000E+00
         0.00000E+00
         0.00000E+00
         0.00000E+00
         0.00000E+00
         0.00000E+00
         0.00000E+00
         0.00000E+00
         0.00000E+00
         0.00000E+00
         0.00000E+00
         0.00000E+00
         0.00000E+00
         0.00000E+00
         0.00000E+00
         0.00000E+00
         0.00000E+00
         0.00000E+00
         0.00000E+00
         0.00000E+00
         0.00000E+00
         0.00000E+00
         0.00000E+00
         0.00000E+00
         0.00000E+00
         0.00000E+00
         0.00000E+00
         0.00000E+00
         0.00000E+00
         0.00000E+00
         0.00000E+00
         0.00000E+00
         0.00000E+00
         0.00000E+00
         0.00000E+00
         0.00000E+00
         0.00000E+00
         0.00000E+00
         0.00000E+00
         0.00000E+00
         0.00000E+00
         0.00000E+00
         0.00000E+00
         0.00000E+00
         0.00000E+00
         0.00000E+00
         0.00000E+00
         0.00000E+00
         0.00000E+00
         0.00000E+00
         0.00000E+00
         0.00000E+00
         0.00000E+00
         0.00000E+00
         0.00000E+00
         0.00000E+00
         0.00000E+00
         0.00000E+00
         0.00000E+00
         0.00000E+00
         0.00000E+00
         0.00000E+00
         0.00000E+00
         0.00000E+00
         0.00000E+00
         0.00000E+00
         0.00000E+00
         0.00000E+00
         0.00000E+00
         0.00000E+00
         0.00000E+00
         0.00000E+00
         0.00000E+00
         0.00000E+00
         0.00000E+00
         0.00000E+00
         0.00000E+00
         0.00000E+00
         0.00000E+00
         0.00000E+00
         0.00000E+00
         0.00000E+00
         0.00000E+00
         0.00000E+00
         0.00000E+00
         0.00000E+00
         0.00000E+00
         0.00000E+00
         0.00000E+00
         0.00000E+00
         0.00000E+00
         0.00000E+00
         0.00000E+00
         0.00000E+00
         0.00000E+00
         0.00000E+00
         0.00000E+00
         0.00000E+00
         0.00000E+00
         0.00000E+00
         0.00000E+00
         0.00000E+00
         0.00000E+00
         0.00000E+00
         0.00000E+00
         0.00000E+00
         0.00000E+00
         0.00000E+00
         0.00000E+00
         0.00000E+00
         0.00000E+00
         0.00000E+00
         0.00000E+00
         0.00000E+00
         0.00000E+00
         0.00000E+00
         0.00000E+00
         0.00000E+00
         0.00000E+00
         0.00000E+00
         0.00000E+00
         0.00000E+00
         0.00000E+00
         0.00000E+00
         0.00000E+00
         0.00000E+00
         0.00000E+00
         0.00000E+00
         0.00000E+00
         0.00000E+00
         0.00000E+00
         0.00000E+00
         0.00000E+00
         0.00000E+00
         0.00000E+00
         0.00000E+00
         0.00000E+00
         0.00000E+00
         0.00000E+00
         0.00000E+00
         0.00000E+00
         0.00000E+00
         0.00000E+00
         0.00000E+00
         0.00000E+00
         0.00000E+00
         0.00000E+00
         0.00000E+00
         0.00000E+00
         0.00000E+00
         0.00000E+00
         0.00000E+00
         0.00000E+00
         0.00000E+00
         0.00000E+00
         0.00000E+00
         0.00000E+00
         0.00000E+00
         0.00000E+00
         0.00000E+00
         0.00000E+00
         0.00000E+00
         0.00000E+00
         0.00000E+00
         0.00000E+00
         0.00000E+00
         0.00000E+00
         0.00000E+00
         0.00000E+00
         0.00000E+00
         0.00000E+00
         0.00000E+00
         0.00000E+00
         0.00000E+00
         0.00000E+00
         0.00000E+00
         0.00000E+00
         0.00000E+00
         0.00000E+00
         0.00000E+00
         0.00000E+00
         0.00000E+00
         0.00000E+00
         0.00000E+00
         0.00000E+00
         0.00000E+00
         0.00000E+00
         0.00000E+00
         0.00000E+00
         0.00000E+00
         0.00000E+00
         0.00000E+00
         0.00000E+00
         0.00000E+00
         0.00000E+00
         0.00000E+00
         0.00000E+00
         0.00000E+00
         0.00000E+00
         0.00000E+00
         0.00000E+00
         0.00000E+00
         0.00000E+00
         0.00000E+00
         0.00000E+00
         0.00000E+00
         0.00000E+00
         0.00000E+00
         0.00000E+00
         0.00000E+00
         0.00000E+00
         0.00000E+00
         0.00000E+00
         0.00000E+00
         0.00000E+00
         0.00000E+00
         0.00000E+00
         0.00000E+00
         0.00000E+00
         0.00000E+00
         0.00000E+00
         0.00000E+00
         0.00000E+00
         0.00000E+00
         0.00000E+00
         0.00000E+00
         0.00000E+00
         0.00000E+00
         0.00000E+00
         0.00000E+00
         0.00000E+00
         0.00000E+00
         0.00000E+00
         0.00000E+00
         0.00000E+00
         0.00000E+00
         0.00000E+00
         0.00000E+00
         0.00000E+00
         0.00000E+00
         0.00000E+00
         0.00000E+00
         0.00000E+00
         0.00000E+00
         0.00000E+00
         0.00000E+00
         0.00000E+00
         0.00000E+00
         0.00000E+00
         0.00000E+00
         0.00000E+00
         0.00000E+00
         0.00000E+00
         0.00000E+00
         0.00000E+00
         0.00000E+00
         0.00000E+00
         0.00000E+00
         0.00000E+00
         0.00000E+00
         0.00000E+00
         0.00000E+00
         0.00000E+00
         0.00000E+00
         0.00000E+00
         0.00000E+00
         0.00000E+00
         0.00000E+00
         0.00000E+00
         0.00000E+00
         0.00000E+00
         0.00000E+00
         0.00000E+00
         0.00000E+00
         0.00000E+00
         0.00000E+00
         0.00000E+00
         0.00000E+00
         0.00000E+00
         0.00000E+00
         0.00000E+00
         0.00000E+00
         0.00000E+00
         0.00000E+00
         0.00000E+00
         0.00000E+00
         0.00000E+00
         0.00000E+00
         0.00000E+00
         0.00000E+00
         0.00000E+00
         0.00000E+00
         0.00000E+00
         0.00000E+00
         0.00000E+00
         0.00000E+00
         0.00000E+00
         0.00000E+00
         0.00000E+00
         0.00000E+00
         0.00000E+00
         0.00000E+00
         0.00000E+00
         0.00000E+00
         0.00000E+00
         0.00000E+00
         0.00000E+00
         0.00000E+00
         0.00000E+00
         0.00000E+00
         0.00000E+00
         0.00000E+00
         0.00000E+00
         0.00000E+00
         0.00000E+00
         0.00000E+00
         0.00000E+00
         0.00000E+00
         0.00000E+00
         0.00000E+00
         0.00000E+00
         0.00000E+00
         0.00000E+00
         0.00000E+00
         0.00000E+00
         0.00000E+00
         0.00000E+00
         0.00000E+00
         0.00000E+00
         0.00000E+00
         0.00000E+00
         0.00000E+00
         0.00000E+00
         0.00000E+00
         0.00000E+00
         0.00000E+00
         0.00000E+00
         0.00000E+00
         0.00000E+00
         0.00000E+00
         0.00000E+00
         0.00000E+00
         0.00000E+00
         0.00000E+00
         0.00000E+00
         0.00000E+00
         0.00000E+00
         0.00000E+00
         0.00000E+00
         0.00000E+00
         0.00000E+00
         0.00000E+00
         0.00000E+00
         0.00000E+00
         0.00000E+00
         0.00000E+00
         0.00000E+00
         0.00000E+00
         0.00000E+00
         0.00000E+00
         0.00000E+00
         0.00000E+00
         0.00000E+00
         0.00000E+00
         0.00000E+00
         0.00000E+00
         0.00000E+00
         0.00000E+00
         0.00000E+00
         0.00000E+00
         0.00000E+00
         0.00000E+00
         0.00000E+00
         0.00000E+00
         0.00000E+00
         0.00000E+00
         0.00000E+00
         0.00000E+00
         0.00000E+00
         0.00000E+00
         0.00000E+00
         0.00000E+00
         0.00000E+00
         0.00000E+00
         0.00000E+00
         0.00000E+00
         0.00000E+00
         0.00000E+00
         0.00000E+00
         0.00000E+00
         0.00000E+00
         0.00000E+00
         0.00000E+00
         0.00000E+00
         0.00000E+00
         0.00000E+00
         0.00000E+00
         0.00000E+00
         0.00000E+00
         0.00000E+00
         0.00000E+00
         0.00000E+00
         0.00000E+00
         0.00000E+00
         0.00000E+00
         0.00000E+00
         0.00000E+00
         0.00000E+00
         0.00000E+00
         0.00000E+00
         0.00000E+00
         0.00000E+00
         0.00000E+00
         0.00000E+00
         0.00000E+00
         0.00000E+00
         0.00000E+00
         0.00000E+00
         0.00000E+00
         0.00000E+00
         0.00000E+00
         0.00000E+00
         0.00000E+00
         0.00000E+00
         0.00000E+00
         0.00000E+00
         0.00000E+00
         0.00000E+00
         0.00000E+00
         0.00000E+00
         0.00000E+00
         0.00000E+00
         0.00000E+00
         0.00000E+00
         0.00000E+00
         0.00000E+00
         0.00000E+00
         0.00000E+00
         0.00000E+00
         0.00000E+00
         0.00000E+00
         0.00000E+00
         0.00000E+00
         0.00000E+00
         0.00000E+00
         0.00000E+00
         0.00000E+00
         0.00000E+00
         0.00000E+00
         0.00000E+00
         0.00000E+00
         0.00000E+00
         0.00000E+00
         0.00000E+00
         0.00000E+00
         0.00000E+00
         0.00000E+00
         0.00000E+00
         0.00000E+00
         0.00000E+00
         0.00000E+00
         0.00000E+00
         0.00000E+00
         0.00000E+00
         0.00000E+00
         0.00000E+00
         0.00000E+00
         0.00000E+00
         0.00000E+00
         0.00000E+00
         0.00000E+00
         0.00000E+00
         0.00000E+00
         0.00000E+00
         0.00000E+00
         0.00000E+00
         0.00000E+00
         0.00000E+00
         0.00000E+00
         0.00000E+00
         0.00000E+00
         0.00000E+00
         0.00000E+00
         0.00000E+00
         0.00000E+00
         0.00000E+00
         0.00000E+00
         0.00000E+00
         0.00000E+00
         0.00000E+00
         0.00000E+00
         0.00000E+00
         0.00000E+00
         0.00000E+00
         0.00000E+00
         0.00000E+00
         0.00000E+00
         0.00000E+00
         0.00000E+00
         0.00000E+00
         0.00000E+00
         0.00000E+00
         0.00000E+00
         0.00000E+00
         0.00000E+00
         0.00000E+00
         0.00000E+00
         0.00000E+00
         0.00000E+00
         0.00000E+00
         0.00000E+00
         0.00000E+00
         0.00000E+00
         0.00000E+00
         0.00000E+00
         0.00000E+00
         0.00000E+00
         0.00000E+00
         0.00000E+00
         0.00000E+00
         0.00000E+00
         0.00000E+00
         0.00000E+00
         0.00000E+00
         0.00000E+00
         0.00000E+00
         0.00000E+00
         0.00000E+00
         0.00000E+00
         0.00000E+00
         0.00000E+00
         0.00000E+00
         0.00000E+00
         0.00000E+00
         0.00000E+00
         0.00000E+00
         0.00000E+00
         0.00000E+00
         0.00000E+00
         0.00000E+00
         0.00000E+00
         0.00000E+00
         0.00000E+00
         0.00000E+00
         0.00000E+00
         0.00000E+00
         0.00000E+00
         0.00000E+00
         0.00000E+00
         0.00000E+00
         0.00000E+00
         0.00000E+00
         0.00000E+00
         0.00000E+00
         0.00000E+00
         0.00000E+00
         0.00000E+00
         0.00000E+00
         0.00000E+00
         0.00000E+00
         0.00000E+00
         0.00000E+00
         0.00000E+00
         0.00000E+00
         0.00000E+00
         0.00000E+00
         0.00000E+00
         0.00000E+00
         0.00000E+00
         0.00000E+00
         0.00000E+00
         0.00000E+00
         0.00000E+00
         0.00000E+00
         0.00000E+00
         0.00000E+00
         0.00000E+00
         0.00000E+00
         0.00000E+00
         0.00000E+00
         0.00000E+00
         0.00000E+00
         0.00000E+00
         0.00000E+00
         0.00000E+00
         0.00000E+00
         0.00000E+00
         0.00000E+00
         0.00000E+00
         0.00000E+00
         0.00000E+00
         0.00000E+00
         0.00000E+00
         0.00000E+00
         0.00000E+00
         0.00000E+00
         0.00000E+00
         0.00000E+00
         0.00000E+00
         0.00000E+00
         0.00000E+00
         0.00000E+00
         0.00000E+00
         0.00000E+00
         0.00000E+00
         0.00000E+00
         0.00000E+00
         0.00000E+00
         0.00000E+00
         0.00000E+00
         0.00000E+00
         0.00000E+00
         0.00000E+00
         0.00000E+00
         0.00000E+00
         0.00000E+00
         0.00000E+00
         0.00000E+00
         0.00000E+00
         0.00000E+00
         0.00000E+00
         0.00000E+00
         0.00000E+00
         0.00000E+00
         0.00000E+00
         0.00000E+00
         0.00000E+00
         0.00000E+00
         0.00000E+00
         0.00000E+00
         0.00000E+00
         0.00000E+00
         0.00000E+00
         0.00000E+00
         0.00000E+00
         0.00000E+00
         0.00000E+00
         0.00000E+00
         0.00000E+00
         0.00000E+00
         0.00000E+00
         0.00000E+00
         0.00000E+00
         0.00000E+00
         0.00000E+00
         0.00000E+00
         0.00000E+00
         0.00000E+00
         0.00000E+00
         0.00000E+00
         0.00000E+00
         0.00000E+00
         0.00000E+00
         0.00000E+00
         0.00000E+00
         0.00000E+00
         0.00000E+00
         0.00000E+00
         0.00000E+00
         0.00000E+00
         0.00000E+00
         0.00000E+00
         0.00000E+00
         0.00000E+00
         0.00000E+00
         0.00000E+00
         0.00000E+00
         0.00000E+00
         0.00000E+00
         0.00000E+00
         0.00000E+00
         0.00000E+00
         0.00000E+00
         0.00000E+00
         0.00000E+00
         0.00000E+00
         0.00000E+00
         0.00000E+00
         0.00000E+00
         0.00000E+00
         0.00000E+00
         0.00000E+00
         0.00000E+00
         0.00000E+00
         0.00000E+00
         0.00000E+00
         0.00000E+00
         0.00000E+00
         0.00000E+00
         0.00000E+00
         0.00000E+00
         0.00000E+00
         0.00000E+00
         0.00000E+00
         0.00000E+00
         0.00000E+00
         0.00000E+00
         0.00000E+00
         0.00000E+00
         0.00000E+00
         0.00000E+00
         0.00000E+00
         0.00000E+00
         0.00000E+00
         0.00000E+00
         0.00000E+00
         0.00000E+00
         0.00000E+00
         0.00000E+00
         0.00000E+00
         0.00000E+00
         0.00000E+00
         0.00000E+00
         0.00000E+00
         0.00000E+00
         0.00000E+00
         0.00000E+00
         0.00000E+00
         0.00000E+00
         0.00000E+00
         0.00000E+00
         0.00000E+00
         0.00000E+00
         0.00000E+00
         0.00000E+00
         0.00000E+00
         0.00000E+00
         0.00000E+00
         0.00000E+00
         0.00000E+00
         0.00000E+00
         0.00000E+00
         0.00000E+00
         0.00000E+00
         0.00000E+00
         0.00000E+00
         0.00000E+00
         0.00000E+00
         0.00000E+00
         0.00000E+00
         0.00000E+00
         0.00000E+00
         0.00000E+00
         0.00000E+00
         0.00000E+00
         0.00000E+00
         0.00000E+00
         0.00000E+00
         0.00000E+00
         0.00000E+00
         0.00000E+00
         0.00000E+00
         0.00000E+00
         0.00000E+00
         0.00000E+00
         0.00000E+00
         0.00000E+00
         0.00000E+00
         0.00000E+00
         0.00000E+00
         0.00000E+00
         0.00000E+00
         0.00000E+00
         0.00000E+00
         0.00000E+00
         0.00000E+00
         0.00000E+00
         0.00000E+00
         0.00000E+00
         0.00000E+00
         0.00000E+00
         0.00000E+00
         0.00000E+00
         0.00000E+00
         0.00000E+00
         0.00000E+00
         0.00000E+00
         0.00000E+00
         0.00000E+00
         0.00000E+00
         0.00000E+00
         0.00000E+00
         0.00000E+00
         0.00000E+00
         0.00000E+00
         0.00000E+00
         0.00000E+00
         0.00000E+00
         0.00000E+00
         0.00000E+00
         0.00000E+00
         0.00000E+00
         0.00000E+00
         0.00000E+00
         0.00000E+00
         0.00000E+00
         0.00000E+00
         0.00000E+00
         0.00000E+00
         0.00000E+00
         0.00000E+00
         0.00000E+00
         0.00000E+00
         0.00000E+00
         0.00000E+00
         0.00000E+00
         0.00000E+00
         0.00000E+00
         0.00000E+00
         0.00000E+00
         0.00000E+00
         0.00000E+00
         0.00000E+00
         0.00000E+00
         0.00000E+00
         0.00000E+00
         0.00000E+00
         0.00000E+00
         0.00000E+00
         0.00000E+00
         0.00000E+00
         0.00000E+00
         0.00000E+00
         0.00000E+00
         0.00000E+00
         0.00000E+00
         0.00000E+00
         0.00000E+00
         0.00000E+00
         0.00000E+00
         0.00000E+00
         0.00000E+00
         0.00000E+00
         0.00000E+00
         0.00000E+00
         0.00000E+00
         0.00000E+00
         0.00000E+00
         0.00000E+00
         0.00000E+00
         0.00000E+00
         0.00000E+00
         0.00000E+00
         0.00000E+00
         0.00000E+00
         0.00000E+00
         0.00000E+00
         0.00000E+00
         0.00000E+00
         0.00000E+00
         0.00000E+00
         0.00000E+00
         0.00000E+00
         0.00000E+00
         0.00000E+00
         0.00000E+00
         0.00000E+00
         0.00000E+00
         0.00000E+00
         0.00000E+00
         0.00000E+00
         0.00000E+00
         0.00000E+00
         0.00000E+00
         0.00000E+00
         0.00000E+00
         0.00000E+00
         0.00000E+00
         0.00000E+00
         0.00000E+00
         0.00000E+00
         0.00000E+00
         0.00000E+00
         0.00000E+00
         0.00000E+00
         0.00000E+00
         0.00000E+00
         0.00000E+00
         0.00000E+00
         0.00000E+00
         0.00000E+00
         0.00000E+00
         0.00000E+00
         0.00000E+00
         0.00000E+00
         0.00000E+00
         0.00000E+00
         0.00000E+00
         0.00000E+00
         0.00000E+00
         0.00000E+00
         0.00000E+00
         0.00000E+00
         0.00000E+00
         0.00000E+00
         0.00000E+00
         0.00000E+00
         0.00000E+00
         0.00000E+00
         0.00000E+00
         0.00000E+00
         0.00000E+00
         0.00000E+00
         0.00000E+00
         0.00000E+00
         0.00000E+00
         0.00000E+00
         0.00000E+00
         0.00000E+00
         0.00000E+00
         0.00000E+00
         0.00000E+00
         0.00000E+00
         0.00000E+00
         0.00000E+00
         0.00000E+00
         0.00000E+00
         0.00000E+00
         0.00000E+00
         0.00000E+00
         0.00000E+00
         0.00000E+00
         0.00000E+00
         0.00000E+00
         0.00000E+00
         0.00000E+00
         0.00000E+00
         0.00000E+00
         0.00000E+00
         0.00000E+00
         0.00000E+00
         0.00000E+00
         0.00000E+00
         0.00000E+00
         0.00000E+00
         0.00000E+00
         0.00000E+00
         0.00000E+00
         0.00000E+00
         0.00000E+00
         0.00000E+00
         0.00000E+00
         0.00000E+00
         0.00000E+00
         0.00000E+00
         0.00000E+00
         0.00000E+00
         0.00000E+00
         0.00000E+00
         0.00000E+00
         0.00000E+00
         0.00000E+00
         0.00000E+00
         0.00000E+00
         0.00000E+00
         0.00000E+00
         0.00000E+00
         0.00000E+00
         0.00000E+00
         0.00000E+00
         0.00000E+00
         0.00000E+00
         0.00000E+00
         0.00000E+00
         0.00000E+00
         0.00000E+00
         0.00000E+00
         0.00000E+00
         0.00000E+00
         0.00000E+00
         0.00000E+00
         0.00000E+00
         0.00000E+00
         0.00000E+00
         0.00000E+00
         0.00000E+00
         0.00000E+00
         0.00000E+00
         0.00000E+00
         0.00000E+00
         0.00000E+00
         0.00000E+00
         0.00000E+00
         0.00000E+00
         0.00000E+00
         0.00000E+00
         0.00000E+00
         0.00000E+00
         0.00000E+00
         0.00000E+00
         0.00000E+00
         0.00000E+00
         0.00000E+00
         0.00000E+00
         0.00000E+00
         0.00000E+00
         0.00000E+00
         0.00000E+00
         0.00000E+00
         0.00000E+00
         0.00000E+00
         0.00000E+00
         0.00000E+00
         0.00000E+00
         0.00000E+00
         0.00000E+00
         0.00000E+00
         0.00000E+00
         0.00000E+00
         0.00000E+00
         0.00000E+00
         0.00000E+00
         0.00000E+00
         0.00000E+00
         0.00000E+00
         0.00000E+00
         0.00000E+00
         0.00000E+00
         0.00000E+00
         0.00000E+00
         0.00000E+00
         0.00000E+00
         0.00000E+00
         0.00000E+00
         0.00000E+00
         0.00000E+00
         0.00000E+00
         0.00000E+00
         0.00000E+00
         0.00000E+00
         0.00000E+00
         0.00000E+00
         0.00000E+00
         0.00000E+00
         0.00000E+00
         0.00000E+00
         0.00000E+00
         0.00000E+00
         0.00000E+00
         0.00000E+00
         0.00000E+00
         0.00000E+00
         0.00000E+00
         0.00000E+00
         0.00000E+00
         0.00000E+00
         0.00000E+00
         0.00000E+00
         0.00000E+00
         0.00000E+00
         0.00000E+00
         0.00000E+00
         0.00000E+00
         0.00000E+00
         0.00000E+00
         0.00000E+00
         0.00000E+00
         0.00000E+00
         0.00000E+00
         0.00000E+00
         0.00000E+00
         0.00000E+00
         0.00000E+00
         0.00000E+00
         0.00000E+00
         0.00000E+00
         0.00000E+00
         0.00000E+00
         0.00000E+00
         0.00000E+00
         0.00000E+00
         0.00000E+00
         0.00000E+00
         0.00000E+00
         0.00000E+00
         0.00000E+00
         0.00000E+00
         0.00000E+00
         0.00000E+00
         0.00000E+00
         0.00000E+00
         0.00000E+00
         0.00000E+00
         0.00000E+00
         0.00000E+00
         0.00000E+00
         0.00000E+00
         0.00000E+00
         0.00000E+00
         0.00000E+00
         0.00000E+00
         0.00000E+00
         0.00000E+00
         0.00000E+00
         0.00000E+00
         0.00000E+00
         0.00000E+00
         0.00000E+00
         0.00000E+00
         0.00000E+00
         0.00000E+00
         0.00000E+00
         0.00000E+00
         0.00000E+00
         0.00000E+00
         0.00000E+00
         0.00000E+00
         0.00000E+00
         0.00000E+00
         0.00000E+00
         0.00000E+00
         0.00000E+00
         0.00000E+00
         0.00000E+00
         0.00000E+00
         0.00000E+00
         0.00000E+00
         0.00000E+00
         0.00000E+00
         0.00000E+00
         0.00000E+00
         0.00000E+00
         0.00000E+00
         0.00000E+00
         0.00000E+00
         0.00000E+00
         0.00000E+00
         0.00000E+00
         0.00000E+00
         0.00000E+00
         0.00000E+00
         0.00000E+00
         0.00000E+00
         0.00000E+00
         0.00000E+00
         0.00000E+00
         0.00000E+00
         0.00000E+00
         0.00000E+00
         0.00000E+00
         0.00000E+00
         0.00000E+00
         0.00000E+00
         0.00000E+00
         0.00000E+00
         0.00000E+00
         0.00000E+00
         0.00000E+00
         0.00000E+00
         0.00000E+00
         0.00000E+00
         0.00000E+00
         0.00000E+00
         0.00000E+00
         0.00000E+00
         0.00000E+00
         0.00000E+00
         0.00000E+00
         0.00000E+00
         0.00000E+00
         0.00000E+00
         0.00000E+00
         0.00000E+00
         0.00000E+00
         0.00000E+00
         0.00000E+00
         0.00000E+00
         0.00000E+00
         0.00000E+00
         0.00000E+00
         0.00000E+00
         0.00000E+00
         0.00000E+00
         0.00000E+00
         0.00000E+00
         0.00000E+00
         0.00000E+00
         0.00000E+00
         0.00000E+00
         0.00000E+00
         0.00000E+00
         0.00000E+00
         0.00000E+00
         0.00000E+00
         0.00000E+00
         0.00000E+00
         0.00000E+00
         0.00000E+00
         0.00000E+00
         0.00000E+00
         0.00000E+00
         0.00000E+00
         0.00000E+00
         0.00000E+00
         0.00000E+00
         0.00000E+00
         0.00000E+00
         0.00000E+00
         0.00000E+00
         0.00000E+00
         0.00000E+00
         0.00000E+00
         0.00000E+00
         0.00000E+00
         0.00000E+00
         0.00000E+00
         0.00000E+00
         0.00000E+00
         0.00000E+00
         0.00000E+00
         0.00000E+00
         0.00000E+00
         0.00000E+00
         0.00000E+00
         0.00000E+00
         0.00000E+00
         0.00000E+00
         0.00000E+00
         0.00000E+00
         0.00000E+00
         0.00000E+00
         0.00000E+00
         0.00000E+00
         0.00000E+00
         0.00000E+00
         0.00000E+00
         0.00000E+00
         0.00000E+00
         0.00000E+00
         0.00000E+00
         0.00000E+00
         0.00000E+00
         0.00000E+00
         0.00000E+00
         0.00000E+00
         0.00000E+00
         0.00000E+00
         0.00000E+00
         0.00000E+00
         0.00000E+00
         0.00000E+00
         0.00000E+00
         0.00000E+00
         0.00000E+00
         0.00000E+00
         0.00000E+00
         0.00000E+00
         0.00000E+00
         0.00000E+00
         0.00000E+00
         0.00000E+00
         0.00000E+00
         0.00000E+00
         0.00000E+00
         0.00000E+00
         0.00000E+00
         0.00000E+00
         0.00000E+00
         0.00000E+00
         0.00000E+00
         0.00000E+00
         0.00000E+00
         0.00000E+00
         0.00000E+00
         0.00000E+00
         0.00000E+00
         0.00000E+00
         0.00000E+00
         0.00000E+00
         0.00000E+00
         0.00000E+00
         0.00000E+00
         0.00000E+00
         0.00000E+00
         0.00000E+00
         0.00000E+00
         0.00000E+00
         0.00000E+00
         0.00000E+00
         0.00000E+00
         0.00000E+00
         0.00000E+00
         0.00000E+00
         0.00000E+00
         0.00000E+00
         0.00000E+00
         0.00000E+00
         0.00000E+00
         0.00000E+00
         0.00000E+00
         0.00000E+00
         0.00000E+00
         0.00000E+00
         0.00000E+00
         0.00000E+00
         0.00000E+00
         0.00000E+00
         0.00000E+00
         0.00000E+00
         0.00000E+00
         0.00000E+00
         0.00000E+00
         0.00000E+00
         0.00000E+00
         0.00000E+00
         0.00000E+00
         0.00000E+00
         0.00000E+00
         0.00000E+00
         0.00000E+00
         0.00000E+00
         0.00000E+00
         0.00000E+00
         0.00000E+00
         0.00000E+00
         0.00000E+00
         0.00000E+00
         0.00000E+00
         0.00000E+00
         0.00000E+00
         0.00000E+00
         0.00000E+00
         0.00000E+00
         0.00000E+00
         0.00000E+00
         0.00000E+00
         0.00000E+00
         0.00000E+00
         0.00000E+00
         0.00000E+00
         0.00000E+00
         0.00000E+00
         0.00000E+00
         0.00000E+00
         0.00000E+00
         0.00000E+00
         0.00000E+00
         0.00000E+00
         0.00000E+00
         0.00000E+00
         0.00000E+00
         0.00000E+00
         0.00000E+00
         0.00000E+00
         0.00000E+00
         0.00000E+00
         0.00000E+00
         0.00000E+00
         0.00000E+00
         0.00000E+00
         0.00000E+00
         0.00000E+00
         0.00000E+00
         0.00000E+00
         0.00000E+00
         0.00000E+00
         0.00000E+00
         0.00000E+00
         0.00000E+00
         0.00000E+00
         0.00000E+00
         0.00000E+00
         0.00000E+00
         0.00000E+00
         0.00000E+00
         0.00000E+00
         0.00000E+00
         0.00000E+00
         0.00000E+00
         0.00000E+00
         0.00000E+00
         0.00000E+00
         0.00000E+00
         0.00000E+00
         0.00000E+00
         0.00000E+00
         0.00000E+00
         0.00000E+00
         0.00000E+00
         0.00000E+00
         0.00000E+00
         0.00000E+00
         0.00000E+00
         0.00000E+00
         0.00000E+00
         0.00000E+00
         0.00000E+00
         0.00000E+00
         0.00000E+00
         0.00000E+00
         0.00000E+00
         0.00000E+00
         0.00000E+00
         0.00000E+00
         0.00000E+00
         0.00000E+00
         0.00000E+00
         0.00000E+00
         0.00000E+00
         0.00000E+00
         0.00000E+00
         0.00000E+00
         0.00000E+00
         0.00000E+00
         0.00000E+00
         0.00000E+00
         0.00000E+00
         0.00000E+00
         0.00000E+00
         0.00000E+00
         0.00000E+00
         0.00000E+00
         0.00000E+00
         0.00000E+00
         0.00000E+00
         0.00000E+00
         0.00000E+00
         0.00000E+00
         0.00000E+00
         0.00000E+00
         0.00000E+00
         0.00000E+00
         0.00000E+00
         0.00000E+00
         0.00000E+00
         0.00000E+00
         0.00000E+00
         0.00000E+00
         0.00000E+00
         0.00000E+00
         0.00000E+00
         0.00000E+00
         0.00000E+00
         0.00000E+00
         0.00000E+00
         0.00000E+00
         0.00000E+00
         0.00000E+00
         0.00000E+00
         0.00000E+00
         0.00000E+00
         0.00000E+00
         0.00000E+00
         0.00000E+00
         0.00000E+00
         0.00000E+00
         0.00000E+00
         0.00000E+00
         0.00000E+00
         0.00000E+00
         0.00000E+00
         0.00000E+00
         0.00000E+00
         0.00000E+00
         0.00000E+00
         0.00000E+00
         0.00000E+00
         0.00000E+00
         0.00000E+00
         0.00000E+00
         0.00000E+00
         0.00000E+00
         0.00000E+00
         0.00000E+00
         0.00000E+00
         0.00000E+00
         0.00000E+00
         0.00000E+00
         0.00000E+00
         0.00000E+00
         0.00000E+00
         0.00000E+00
         0.00000E+00
         0.00000E+00
         0.00000E+00
         0.00000E+00
         0.00000E+00
         0.00000E+00
         0.00000E+00
         0.00000E+00
         0.00000E+00
         0.00000E+00
         0.00000E+00
         0.00000E+00
         0.00000E+00
         0.00000E+00
         0.00000E+00
         0.00000E+00
         0.00000E+00
         0.00000E+00
         0.00000E+00
         0.00000E+00
         0.00000E+00
         0.00000E+00
         0.00000E+00
         0.00000E+00
         0.00000E+00
         0.00000E+00
         0.00000E+00
         0.00000E+00
         0.00000E+00
         0.00000E+00
         0.00000E+00
         0.00000E+00
         0.00000E+00
         0.00000E+00
         0.00000E+00
         0.00000E+00
         0.00000E+00
         0.00000E+00
         0.00000E+00
         0.00000E+00
         0.00000E+00
         0.00000E+00
         0.00000E+00
         0.00000E+00
         0.00000E+00
         0.00000E+00
         0.00000E+00
         0.00000E+00
         0.00000E+00
         0.00000E+00
         0.00000E+00
         0.00000E+00
         0.00000E+00
         0.00000E+00
         0.00000E+00
         0.00000E+00
         0.00000E+00
         0.00000E+00
         0.00000E+00
         0.00000E+00
         0.00000E+00
         0.00000E+00
         0.00000E+00
         0.00000E+00
         0.00000E+00
         0.00000E+00
         0.00000E+00
         0.00000E+00
         0.00000E+00
         0.00000E+00
         0.00000E+00
         0.00000E+00
         0.00000E+00
         0.00000E+00
         0.00000E+00
         0.00000E+00
         0.00000E+00
         0.00000E+00
         0.00000E+00
         0.00000E+00
         0.00000E+00
         0.00000E+00
         0.00000E+00
         0.00000E+00
         0.00000E+00
         0.00000E+00
         0.00000E+00
         0.00000E+00
         0.00000E+00
         0.00000E+00
         0.00000E+00
         0.00000E+00
         0.00000E+00
         0.00000E+00
         0.00000E+00
         0.00000E+00
         0.00000E+00
         0.00000E+00
         0.00000E+00
         0.00000E+00
         0.00000E+00
         0.00000E+00
         0.00000E+00
         0.00000E+00
         0.00000E+00
         0.00000E+00
         0.00000E+00
         0.00000E+00
         0.00000E+00
         0.00000E+00
         0.00000E+00
         0.00000E+00
         0.00000E+00
         0.00000E+00
         0.00000E+00
         0.00000E+00
         0.00000E+00
         0.00000E+00
         0.00000E+00
         0.00000E+00
         0.00000E+00
         0.00000E+00
         0.00000E+00
         0.00000E+00
         0.00000E+00
         0.00000E+00
         0.00000E+00
         0.00000E+00
         0.00000E+00
         0.00000E+00
         0.00000E+00
         0.00000E+00
         0.00000E+00
         0.00000E+00
         0.00000E+00
         0.00000E+00
         0.00000E+00
         0.00000E+00
         0.00000E+00
         0.00000E+00
         0.00000E+00
         0.00000E+00
         0.00000E+00
         0.00000E+00
         0.00000E+00
         0.00000E+00
         0.00000E+00
         0.00000E+00
         0.00000E+00
         0.00000E+00
         0.00000E+00
         0.00000E+00
         0.00000E+00
         0.00000E+00
         0.00000E+00
         0.00000E+00
         0.00000E+00
         0.00000E+00
         0.00000E+00
         0.00000E+00
         0.00000E+00
         0.00000E+00
         0.00000E+00
         0.00000E+00
         0.00000E+00
         0.00000E+00
         0.00000E+00
         0.00000E+00
         0.00000E+00
         0.00000E+00
         0.00000E+00
         0.00000E+00
         0.00000E+00
         0.00000E+00
         0.00000E+00
         0.00000E+00
         0.00000E+00
         0.00000E+00
         0.00000E+00
         0.00000E+00
         0.00000E+00
         0.00000E+00
         0.00000E+00
  
SCALARS                init_velocity_z  double 1
LOOKUP_TABLE default
        -0.37300E+03
        -0.37300E+03
        -0.37300E+03
        -0.37300E+03
        -0.37300E+03
        -0.37300E+03
        -0.37300E+03
        -0.37300E+03
        -0.37300E+03
        -0.37300E+03
        -0.37300E+03
        -0.37300E+03
        -0.37300E+03
        -0.37300E+03
        -0.37300E+03
        -0.37300E+03
        -0.37300E+03
        -0.37300E+03
        -0.37300E+03
        -0.37300E+03
        -0.37300E+03
        -0.37300E+03
        -0.37300E+03
        -0.37300E+03
        -0.37300E+03
        -0.37300E+03
        -0.37300E+03
        -0.37300E+03
        -0.37300E+03
        -0.37300E+03
        -0.37300E+03
        -0.37300E+03
        -0.37300E+03
        -0.37300E+03
        -0.37300E+03
        -0.37300E+03
        -0.37300E+03
        -0.37300E+03
        -0.37300E+03
        -0.37300E+03
        -0.37300E+03
        -0.37300E+03
        -0.37300E+03
        -0.37300E+03
        -0.37300E+03
        -0.37300E+03
        -0.37300E+03
        -0.37300E+03
        -0.37300E+03
        -0.37300E+03
        -0.37300E+03
        -0.37300E+03
        -0.37300E+03
        -0.37300E+03
        -0.37300E+03
        -0.37300E+03
        -0.37300E+03
        -0.37300E+03
        -0.37300E+03
        -0.37300E+03
        -0.37300E+03
        -0.37300E+03
        -0.37300E+03
        -0.37300E+03
        -0.37300E+03
        -0.37300E+03
        -0.37300E+03
        -0.37300E+03
        -0.37300E+03
        -0.37300E+03
        -0.37300E+03
        -0.37300E+03
        -0.37300E+03
        -0.37300E+03
        -0.37300E+03
        -0.37300E+03
        -0.37300E+03
        -0.37300E+03
        -0.37300E+03
        -0.37300E+03
        -0.37300E+03
        -0.37300E+03
        -0.37300E+03
        -0.37300E+03
        -0.37300E+03
        -0.37300E+03
        -0.37300E+03
        -0.37300E+03
        -0.37300E+03
        -0.37300E+03
        -0.37300E+03
        -0.37300E+03
        -0.37300E+03
        -0.37300E+03
        -0.37300E+03
        -0.37300E+03
        -0.37300E+03
        -0.37300E+03
        -0.37300E+03
        -0.37300E+03
        -0.37300E+03
        -0.37300E+03
        -0.37300E+03
        -0.37300E+03
        -0.37300E+03
        -0.37300E+03
        -0.37300E+03
        -0.37300E+03
        -0.37300E+03
        -0.37300E+03
        -0.37300E+03
        -0.37300E+03
        -0.37300E+03
        -0.37300E+03
        -0.37300E+03
        -0.37300E+03
        -0.37300E+03
        -0.37300E+03
        -0.37300E+03
        -0.37300E+03
        -0.37300E+03
        -0.37300E+03
        -0.37300E+03
        -0.37300E+03
        -0.37300E+03
        -0.37300E+03
        -0.37300E+03
        -0.37300E+03
        -0.37300E+03
        -0.37300E+03
        -0.37300E+03
        -0.37300E+03
        -0.37300E+03
        -0.37300E+03
        -0.37300E+03
        -0.37300E+03
        -0.37300E+03
        -0.37300E+03
        -0.37300E+03
        -0.37300E+03
        -0.37300E+03
        -0.37300E+03
        -0.37300E+03
        -0.37300E+03
        -0.37300E+03
        -0.37300E+03
        -0.37300E+03
        -0.37300E+03
        -0.37300E+03
        -0.37300E+03
        -0.37300E+03
        -0.37300E+03
        -0.37300E+03
        -0.37300E+03
        -0.37300E+03
        -0.37300E+03
        -0.37300E+03
        -0.37300E+03
        -0.37300E+03
        -0.37300E+03
        -0.37300E+03
        -0.37300E+03
        -0.37300E+03
        -0.37300E+03
        -0.37300E+03
        -0.37300E+03
        -0.37300E+03
        -0.37300E+03
        -0.37300E+03
        -0.37300E+03
        -0.37300E+03
        -0.37300E+03
        -0.37300E+03
        -0.37300E+03
        -0.37300E+03
        -0.37300E+03
        -0.37300E+03
        -0.37300E+03
        -0.37300E+03
        -0.37300E+03
        -0.37300E+03
        -0.37300E+03
        -0.37300E+03
        -0.37300E+03
        -0.37300E+03
        -0.37300E+03
        -0.37300E+03
        -0.37300E+03
        -0.37300E+03
        -0.37300E+03
        -0.37300E+03
        -0.37300E+03
        -0.37300E+03
        -0.37300E+03
        -0.37300E+03
        -0.37300E+03
        -0.37300E+03
        -0.37300E+03
        -0.37300E+03
        -0.37300E+03
        -0.37300E+03
        -0.37300E+03
        -0.37300E+03
        -0.37300E+03
        -0.37300E+03
        -0.37300E+03
        -0.37300E+03
        -0.37300E+03
        -0.37300E+03
        -0.37300E+03
        -0.37300E+03
        -0.37300E+03
        -0.37300E+03
        -0.37300E+03
        -0.37300E+03
        -0.37300E+03
        -0.37300E+03
        -0.37300E+03
        -0.37300E+03
        -0.37300E+03
        -0.37300E+03
        -0.37300E+03
        -0.37300E+03
        -0.37300E+03
        -0.37300E+03
        -0.37300E+03
        -0.37300E+03
        -0.37300E+03
        -0.37300E+03
        -0.37300E+03
        -0.37300E+03
        -0.37300E+03
        -0.37300E+03
        -0.37300E+03
        -0.37300E+03
        -0.37300E+03
        -0.37300E+03
        -0.37300E+03
        -0.37300E+03
        -0.37300E+03
        -0.37300E+03
        -0.37300E+03
        -0.37300E+03
        -0.37300E+03
        -0.37300E+03
        -0.37300E+03
        -0.37300E+03
        -0.37300E+03
        -0.37300E+03
        -0.37300E+03
        -0.37300E+03
        -0.37300E+03
        -0.37300E+03
        -0.37300E+03
        -0.37300E+03
        -0.37300E+03
        -0.37300E+03
        -0.37300E+03
        -0.37300E+03
        -0.37300E+03
        -0.37300E+03
        -0.37300E+03
        -0.37300E+03
        -0.37300E+03
        -0.37300E+03
        -0.37300E+03
        -0.37300E+03
        -0.37300E+03
        -0.37300E+03
        -0.37300E+03
        -0.37300E+03
        -0.37300E+03
        -0.37300E+03
        -0.37300E+03
        -0.37300E+03
        -0.37300E+03
        -0.37300E+03
        -0.37300E+03
        -0.37300E+03
        -0.37300E+03
        -0.37300E+03
        -0.37300E+03
        -0.37300E+03
        -0.37300E+03
        -0.37300E+03
        -0.37300E+03
        -0.37300E+03
        -0.37300E+03
        -0.37300E+03
        -0.37300E+03
        -0.37300E+03
        -0.37300E+03
        -0.37300E+03
        -0.37300E+03
        -0.37300E+03
        -0.37300E+03
        -0.37300E+03
        -0.37300E+03
        -0.37300E+03
        -0.37300E+03
        -0.37300E+03
        -0.37300E+03
        -0.37300E+03
        -0.37300E+03
        -0.37300E+03
        -0.37300E+03
        -0.37300E+03
        -0.37300E+03
        -0.37300E+03
        -0.37300E+03
        -0.37300E+03
        -0.37300E+03
        -0.37300E+03
        -0.37300E+03
        -0.37300E+03
        -0.37300E+03
        -0.37300E+03
        -0.37300E+03
        -0.37300E+03
        -0.37300E+03
        -0.37300E+03
        -0.37300E+03
        -0.37300E+03
        -0.37300E+03
        -0.37300E+03
        -0.37300E+03
        -0.37300E+03
        -0.37300E+03
        -0.37300E+03
        -0.37300E+03
        -0.37300E+03
        -0.37300E+03
        -0.37300E+03
        -0.37300E+03
        -0.37300E+03
        -0.37300E+03
        -0.37300E+03
        -0.37300E+03
        -0.37300E+03
        -0.37300E+03
        -0.37300E+03
        -0.37300E+03
        -0.37300E+03
        -0.37300E+03
        -0.37300E+03
        -0.37300E+03
        -0.37300E+03
        -0.37300E+03
        -0.37300E+03
        -0.37300E+03
        -0.37300E+03
        -0.37300E+03
        -0.37300E+03
        -0.37300E+03
        -0.37300E+03
        -0.37300E+03
        -0.37300E+03
        -0.37300E+03
        -0.37300E+03
        -0.37300E+03
        -0.37300E+03
        -0.37300E+03
        -0.37300E+03
        -0.37300E+03
        -0.37300E+03
        -0.37300E+03
        -0.37300E+03
        -0.37300E+03
        -0.37300E+03
        -0.37300E+03
        -0.37300E+03
        -0.37300E+03
        -0.37300E+03
        -0.37300E+03
        -0.37300E+03
        -0.37300E+03
        -0.37300E+03
        -0.37300E+03
        -0.37300E+03
        -0.37300E+03
        -0.37300E+03
        -0.37300E+03
        -0.37300E+03
        -0.37300E+03
        -0.37300E+03
        -0.37300E+03
        -0.37300E+03
        -0.37300E+03
        -0.37300E+03
        -0.37300E+03
        -0.37300E+03
        -0.37300E+03
        -0.37300E+03
        -0.37300E+03
        -0.37300E+03
        -0.37300E+03
        -0.37300E+03
        -0.37300E+03
        -0.37300E+03
        -0.37300E+03
        -0.37300E+03
        -0.37300E+03
        -0.37300E+03
        -0.37300E+03
        -0.37300E+03
        -0.37300E+03
        -0.37300E+03
        -0.37300E+03
        -0.37300E+03
        -0.37300E+03
        -0.37300E+03
        -0.37300E+03
        -0.37300E+03
        -0.37300E+03
        -0.37300E+03
        -0.37300E+03
        -0.37300E+03
        -0.37300E+03
        -0.37300E+03
        -0.37300E+03
        -0.37300E+03
        -0.37300E+03
        -0.37300E+03
        -0.37300E+03
        -0.37300E+03
        -0.37300E+03
        -0.37300E+03
        -0.37300E+03
        -0.37300E+03
        -0.37300E+03
        -0.37300E+03
        -0.37300E+03
        -0.37300E+03
        -0.37300E+03
        -0.37300E+03
        -0.37300E+03
        -0.37300E+03
        -0.37300E+03
        -0.37300E+03
        -0.37300E+03
        -0.37300E+03
        -0.37300E+03
        -0.37300E+03
        -0.37300E+03
        -0.37300E+03
        -0.37300E+03
        -0.37300E+03
        -0.37300E+03
        -0.37300E+03
        -0.37300E+03
        -0.37300E+03
        -0.37300E+03
        -0.37300E+03
        -0.37300E+03
        -0.37300E+03
        -0.37300E+03
        -0.37300E+03
        -0.37300E+03
        -0.37300E+03
        -0.37300E+03
        -0.37300E+03
        -0.37300E+03
        -0.37300E+03
        -0.37300E+03
        -0.37300E+03
        -0.37300E+03
        -0.37300E+03
        -0.37300E+03
        -0.37300E+03
        -0.37300E+03
        -0.37300E+03
        -0.37300E+03
        -0.37300E+03
        -0.37300E+03
        -0.37300E+03
        -0.37300E+03
        -0.37300E+03
        -0.37300E+03
        -0.37300E+03
        -0.37300E+03
        -0.37300E+03
        -0.37300E+03
        -0.37300E+03
        -0.37300E+03
        -0.37300E+03
        -0.37300E+03
        -0.37300E+03
        -0.37300E+03
        -0.37300E+03
        -0.37300E+03
        -0.37300E+03
        -0.37300E+03
        -0.37300E+03
        -0.37300E+03
        -0.37300E+03
        -0.37300E+03
        -0.37300E+03
        -0.37300E+03
        -0.37300E+03
        -0.37300E+03
        -0.37300E+03
        -0.37300E+03
        -0.37300E+03
        -0.37300E+03
        -0.37300E+03
        -0.37300E+03
        -0.37300E+03
        -0.37300E+03
        -0.37300E+03
        -0.37300E+03
        -0.37300E+03
        -0.37300E+03
        -0.37300E+03
        -0.37300E+03
        -0.37300E+03
        -0.37300E+03
        -0.37300E+03
        -0.37300E+03
        -0.37300E+03
        -0.37300E+03
        -0.37300E+03
        -0.37300E+03
        -0.37300E+03
        -0.37300E+03
        -0.37300E+03
        -0.37300E+03
        -0.37300E+03
        -0.37300E+03
        -0.37300E+03
        -0.37300E+03
        -0.37300E+03
        -0.37300E+03
        -0.37300E+03
        -0.37300E+03
        -0.37300E+03
        -0.37300E+03
        -0.37300E+03
        -0.37300E+03
        -0.37300E+03
        -0.37300E+03
        -0.37300E+03
        -0.37300E+03
        -0.37300E+03
        -0.37300E+03
        -0.37300E+03
        -0.37300E+03
        -0.37300E+03
        -0.37300E+03
        -0.37300E+03
        -0.37300E+03
        -0.37300E+03
        -0.37300E+03
        -0.37300E+03
        -0.37300E+03
        -0.37300E+03
        -0.37300E+03
        -0.37300E+03
        -0.37300E+03
        -0.37300E+03
        -0.37300E+03
        -0.37300E+03
        -0.37300E+03
        -0.37300E+03
        -0.37300E+03
        -0.37300E+03
        -0.37300E+03
        -0.37300E+03
        -0.37300E+03
        -0.37300E+03
        -0.37300E+03
        -0.37300E+03
        -0.37300E+03
        -0.37300E+03
        -0.37300E+03
        -0.37300E+03
        -0.37300E+03
        -0.37300E+03
        -0.37300E+03
        -0.37300E+03
        -0.37300E+03
        -0.37300E+03
        -0.37300E+03
        -0.37300E+03
        -0.37300E+03
        -0.37300E+03
        -0.37300E+03
        -0.37300E+03
        -0.37300E+03
        -0.37300E+03
        -0.37300E+03
        -0.37300E+03
        -0.37300E+03
        -0.37300E+03
        -0.37300E+03
        -0.37300E+03
        -0.37300E+03
        -0.37300E+03
        -0.37300E+03
        -0.37300E+03
        -0.37300E+03
        -0.37300E+03
        -0.37300E+03
        -0.37300E+03
        -0.37300E+03
        -0.37300E+03
        -0.37300E+03
        -0.37300E+03
        -0.37300E+03
        -0.37300E+03
        -0.37300E+03
        -0.37300E+03
        -0.37300E+03
        -0.37300E+03
        -0.37300E+03
        -0.37300E+03
        -0.37300E+03
        -0.37300E+03
        -0.37300E+03
        -0.37300E+03
        -0.37300E+03
        -0.37300E+03
        -0.37300E+03
        -0.37300E+03
        -0.37300E+03
        -0.37300E+03
        -0.37300E+03
        -0.37300E+03
        -0.37300E+03
        -0.37300E+03
        -0.37300E+03
        -0.37300E+03
        -0.37300E+03
        -0.37300E+03
        -0.37300E+03
        -0.37300E+03
        -0.37300E+03
        -0.37300E+03
        -0.37300E+03
        -0.37300E+03
        -0.37300E+03
        -0.37300E+03
        -0.37300E+03
        -0.37300E+03
        -0.37300E+03
        -0.37300E+03
        -0.37300E+03
        -0.37300E+03
        -0.37300E+03
        -0.37300E+03
        -0.37300E+03
        -0.37300E+03
        -0.37300E+03
        -0.37300E+03
        -0.37300E+03
        -0.37300E+03
        -0.37300E+03
        -0.37300E+03
        -0.37300E+03
        -0.37300E+03
        -0.37300E+03
        -0.37300E+03
        -0.37300E+03
        -0.37300E+03
        -0.37300E+03
        -0.37300E+03
        -0.37300E+03
        -0.37300E+03
        -0.37300E+03
        -0.37300E+03
        -0.37300E+03
        -0.37300E+03
        -0.37300E+03
        -0.37300E+03
        -0.37300E+03
        -0.37300E+03
        -0.37300E+03
        -0.37300E+03
        -0.37300E+03
        -0.37300E+03
        -0.37300E+03
        -0.37300E+03
        -0.37300E+03
        -0.37300E+03
        -0.37300E+03
        -0.37300E+03
        -0.37300E+03
        -0.37300E+03
        -0.37300E+03
        -0.37300E+03
        -0.37300E+03
        -0.37300E+03
        -0.37300E+03
        -0.37300E+03
        -0.37300E+03
        -0.37300E+03
        -0.37300E+03
        -0.37300E+03
        -0.37300E+03
        -0.37300E+03
        -0.37300E+03
        -0.37300E+03
        -0.37300E+03
        -0.37300E+03
        -0.37300E+03
        -0.37300E+03
        -0.37300E+03
        -0.37300E+03
        -0.37300E+03
        -0.37300E+03
        -0.37300E+03
        -0.37300E+03
        -0.37300E+03
        -0.37300E+03
        -0.37300E+03
        -0.37300E+03
        -0.37300E+03
        -0.37300E+03
        -0.37300E+03
        -0.37300E+03
        -0.37300E+03
        -0.37300E+03
        -0.37300E+03
        -0.37300E+03
        -0.37300E+03
        -0.37300E+03
        -0.37300E+03
        -0.37300E+03
        -0.37300E+03
        -0.37300E+03
        -0.37300E+03
        -0.37300E+03
        -0.37300E+03
        -0.37300E+03
        -0.37300E+03
        -0.37300E+03
        -0.37300E+03
        -0.37300E+03
        -0.37300E+03
        -0.37300E+03
        -0.37300E+03
        -0.37300E+03
        -0.37300E+03
        -0.37300E+03
        -0.37300E+03
        -0.37300E+03
        -0.37300E+03
        -0.37300E+03
        -0.37300E+03
        -0.37300E+03
        -0.37300E+03
        -0.37300E+03
        -0.37300E+03
        -0.37300E+03
        -0.37300E+03
        -0.37300E+03
        -0.37300E+03
        -0.37300E+03
        -0.37300E+03
        -0.37300E+03
        -0.37300E+03
        -0.37300E+03
        -0.37300E+03
        -0.37300E+03
        -0.37300E+03
        -0.37300E+03
        -0.37300E+03
        -0.37300E+03
        -0.37300E+03
        -0.37300E+03
        -0.37300E+03
        -0.37300E+03
        -0.37300E+03
        -0.37300E+03
        -0.37300E+03
        -0.37300E+03
        -0.37300E+03
        -0.37300E+03
        -0.37300E+03
        -0.37300E+03
        -0.37300E+03
        -0.37300E+03
        -0.37300E+03
        -0.37300E+03
        -0.37300E+03
        -0.37300E+03
        -0.37300E+03
        -0.37300E+03
        -0.37300E+03
        -0.37300E+03
        -0.37300E+03
        -0.37300E+03
        -0.37300E+03
        -0.37300E+03
        -0.37300E+03
        -0.37300E+03
        -0.37300E+03
        -0.37300E+03
        -0.37300E+03
        -0.37300E+03
        -0.37300E+03
        -0.37300E+03
        -0.37300E+03
        -0.37300E+03
        -0.37300E+03
        -0.37300E+03
        -0.37300E+03
        -0.37300E+03
        -0.37300E+03
        -0.37300E+03
        -0.37300E+03
        -0.37300E+03
        -0.37300E+03
        -0.37300E+03
        -0.37300E+03
        -0.37300E+03
        -0.37300E+03
        -0.37300E+03
        -0.37300E+03
        -0.37300E+03
        -0.37300E+03
        -0.37300E+03
        -0.37300E+03
        -0.37300E+03
        -0.37300E+03
        -0.37300E+03
        -0.37300E+03
        -0.37300E+03
        -0.37300E+03
        -0.37300E+03
        -0.37300E+03
        -0.37300E+03
        -0.37300E+03
        -0.37300E+03
        -0.37300E+03
        -0.37300E+03
        -0.37300E+03
        -0.37300E+03
        -0.37300E+03
        -0.37300E+03
        -0.37300E+03
        -0.37300E+03
        -0.37300E+03
        -0.37300E+03
        -0.37300E+03
        -0.37300E+03
        -0.37300E+03
        -0.37300E+03
        -0.37300E+03
        -0.37300E+03
        -0.37300E+03
        -0.37300E+03
        -0.37300E+03
        -0.37300E+03
        -0.37300E+03
        -0.37300E+03
        -0.37300E+03
        -0.37300E+03
        -0.37300E+03
        -0.37300E+03
        -0.37300E+03
        -0.37300E+03
        -0.37300E+03
        -0.37300E+03
        -0.37300E+03
        -0.37300E+03
        -0.37300E+03
        -0.37300E+03
        -0.37300E+03
        -0.37300E+03
        -0.37300E+03
        -0.37300E+03
        -0.37300E+03
        -0.37300E+03
        -0.37300E+03
        -0.37300E+03
        -0.37300E+03
        -0.37300E+03
        -0.37300E+03
        -0.37300E+03
        -0.37300E+03
        -0.37300E+03
        -0.37300E+03
        -0.37300E+03
        -0.37300E+03
        -0.37300E+03
        -0.37300E+03
        -0.37300E+03
        -0.37300E+03
        -0.37300E+03
        -0.37300E+03
        -0.37300E+03
        -0.37300E+03
        -0.37300E+03
        -0.37300E+03
        -0.37300E+03
        -0.37300E+03
        -0.37300E+03
        -0.37300E+03
        -0.37300E+03
        -0.37300E+03
        -0.37300E+03
        -0.37300E+03
        -0.37300E+03
        -0.37300E+03
        -0.37300E+03
        -0.37300E+03
        -0.37300E+03
        -0.37300E+03
        -0.37300E+03
        -0.37300E+03
        -0.37300E+03
        -0.37300E+03
        -0.37300E+03
        -0.37300E+03
        -0.37300E+03
        -0.37300E+03
        -0.37300E+03
        -0.37300E+03
        -0.37300E+03
        -0.37300E+03
        -0.37300E+03
        -0.37300E+03
        -0.37300E+03
        -0.37300E+03
        -0.37300E+03
        -0.37300E+03
        -0.37300E+03
        -0.37300E+03
        -0.37300E+03
        -0.37300E+03
        -0.37300E+03
        -0.37300E+03
        -0.37300E+03
        -0.37300E+03
        -0.37300E+03
        -0.37300E+03
        -0.37300E+03
        -0.37300E+03
        -0.37300E+03
        -0.37300E+03
        -0.37300E+03
        -0.37300E+03
        -0.37300E+03
        -0.37300E+03
        -0.37300E+03
        -0.37300E+03
        -0.37300E+03
        -0.37300E+03
        -0.37300E+03
        -0.37300E+03
        -0.37300E+03
        -0.37300E+03
        -0.37300E+03
        -0.37300E+03
        -0.37300E+03
        -0.37300E+03
        -0.37300E+03
        -0.37300E+03
        -0.37300E+03
        -0.37300E+03
        -0.37300E+03
        -0.37300E+03
        -0.37300E+03
        -0.37300E+03
        -0.37300E+03
        -0.37300E+03
        -0.37300E+03
        -0.37300E+03
        -0.37300E+03
        -0.37300E+03
        -0.37300E+03
        -0.37300E+03
        -0.37300E+03
        -0.37300E+03
        -0.37300E+03
        -0.37300E+03
        -0.37300E+03
        -0.37300E+03
        -0.37300E+03
        -0.37300E+03
        -0.37300E+03
        -0.37300E+03
        -0.37300E+03
        -0.37300E+03
        -0.37300E+03
        -0.37300E+03
        -0.37300E+03
        -0.37300E+03
        -0.37300E+03
        -0.37300E+03
        -0.37300E+03
        -0.37300E+03
        -0.37300E+03
        -0.37300E+03
        -0.37300E+03
        -0.37300E+03
        -0.37300E+03
        -0.37300E+03
        -0.37300E+03
        -0.37300E+03
        -0.37300E+03
        -0.37300E+03
        -0.37300E+03
        -0.37300E+03
        -0.37300E+03
        -0.37300E+03
        -0.37300E+03
        -0.37300E+03
        -0.37300E+03
        -0.37300E+03
        -0.37300E+03
        -0.37300E+03
        -0.37300E+03
        -0.37300E+03
        -0.37300E+03
        -0.37300E+03
        -0.37300E+03
        -0.37300E+03
        -0.37300E+03
        -0.37300E+03
        -0.37300E+03
        -0.37300E+03
        -0.37300E+03
        -0.37300E+03
        -0.37300E+03
        -0.37300E+03
        -0.37300E+03
        -0.37300E+03
        -0.37300E+03
        -0.37300E+03
        -0.37300E+03
        -0.37300E+03
        -0.37300E+03
        -0.37300E+03
        -0.37300E+03
        -0.37300E+03
        -0.37300E+03
        -0.37300E+03
        -0.37300E+03
        -0.37300E+03
        -0.37300E+03
        -0.37300E+03
        -0.37300E+03
        -0.37300E+03
        -0.37300E+03
        -0.37300E+03
        -0.37300E+03
        -0.37300E+03
        -0.37300E+03
        -0.37300E+03
        -0.37300E+03
        -0.37300E+03
        -0.37300E+03
        -0.37300E+03
        -0.37300E+03
        -0.37300E+03
        -0.37300E+03
        -0.37300E+03
        -0.37300E+03
        -0.37300E+03
        -0.37300E+03
        -0.37300E+03
        -0.37300E+03
        -0.37300E+03
        -0.37300E+03
        -0.37300E+03
        -0.37300E+03
        -0.37300E+03
        -0.37300E+03
        -0.37300E+03
        -0.37300E+03
        -0.37300E+03
        -0.37300E+03
        -0.37300E+03
        -0.37300E+03
        -0.37300E+03
        -0.37300E+03
        -0.37300E+03
        -0.37300E+03
        -0.37300E+03
        -0.37300E+03
        -0.37300E+03
        -0.37300E+03
        -0.37300E+03
        -0.37300E+03
        -0.37300E+03
        -0.37300E+03
        -0.37300E+03
        -0.37300E+03
        -0.37300E+03
        -0.37300E+03
        -0.37300E+03
        -0.37300E+03
        -0.37300E+03
        -0.37300E+03
        -0.37300E+03
        -0.37300E+03
        -0.37300E+03
        -0.37300E+03
        -0.37300E+03
        -0.37300E+03
        -0.37300E+03
        -0.37300E+03
        -0.37300E+03
        -0.37300E+03
        -0.37300E+03
        -0.37300E+03
        -0.37300E+03
        -0.37300E+03
        -0.37300E+03
        -0.37300E+03
        -0.37300E+03
        -0.37300E+03
        -0.37300E+03
        -0.37300E+03
        -0.37300E+03
        -0.37300E+03
        -0.37300E+03
        -0.37300E+03
        -0.37300E+03
        -0.37300E+03
        -0.37300E+03
        -0.37300E+03
        -0.37300E+03
        -0.37300E+03
        -0.37300E+03
        -0.37300E+03
        -0.37300E+03
        -0.37300E+03
        -0.37300E+03
        -0.37300E+03
        -0.37300E+03
        -0.37300E+03
        -0.37300E+03
        -0.37300E+03
        -0.37300E+03
        -0.37300E+03
        -0.37300E+03
        -0.37300E+03
        -0.37300E+03
        -0.37300E+03
        -0.37300E+03
        -0.37300E+03
        -0.37300E+03
        -0.37300E+03
        -0.37300E+03
        -0.37300E+03
        -0.37300E+03
        -0.37300E+03
        -0.37300E+03
        -0.37300E+03
        -0.37300E+03
        -0.37300E+03
        -0.37300E+03
        -0.37300E+03
        -0.37300E+03
        -0.37300E+03
        -0.37300E+03
        -0.37300E+03
        -0.37300E+03
        -0.37300E+03
        -0.37300E+03
        -0.37300E+03
        -0.37300E+03
        -0.37300E+03
        -0.37300E+03
        -0.37300E+03
        -0.37300E+03
        -0.37300E+03
        -0.37300E+03
        -0.37300E+03
        -0.37300E+03
        -0.37300E+03
        -0.37300E+03
        -0.37300E+03
        -0.37300E+03
        -0.37300E+03
        -0.37300E+03
        -0.37300E+03
        -0.37300E+03
        -0.37300E+03
        -0.37300E+03
        -0.37300E+03
        -0.37300E+03
        -0.37300E+03
        -0.37300E+03
        -0.37300E+03
        -0.37300E+03
        -0.37300E+03
        -0.37300E+03
        -0.37300E+03
        -0.37300E+03
        -0.37300E+03
        -0.37300E+03
        -0.37300E+03
        -0.37300E+03
        -0.37300E+03
        -0.37300E+03
        -0.37300E+03
        -0.37300E+03
        -0.37300E+03
        -0.37300E+03
        -0.37300E+03
        -0.37300E+03
        -0.37300E+03
        -0.37300E+03
        -0.37300E+03
        -0.37300E+03
        -0.37300E+03
        -0.37300E+03
        -0.37300E+03
        -0.37300E+03
        -0.37300E+03
        -0.37300E+03
        -0.37300E+03
        -0.37300E+03
        -0.37300E+03
        -0.37300E+03
        -0.37300E+03
        -0.37300E+03
        -0.37300E+03
        -0.37300E+03
        -0.37300E+03
        -0.37300E+03
        -0.37300E+03
        -0.37300E+03
        -0.37300E+03
        -0.37300E+03
        -0.37300E+03
        -0.37300E+03
        -0.37300E+03
        -0.37300E+03
        -0.37300E+03
        -0.37300E+03
        -0.37300E+03
        -0.37300E+03
        -0.37300E+03
        -0.37300E+03
        -0.37300E+03
        -0.37300E+03
        -0.37300E+03
        -0.37300E+03
        -0.37300E+03
        -0.37300E+03
        -0.37300E+03
        -0.37300E+03
        -0.37300E+03
        -0.37300E+03
        -0.37300E+03
        -0.37300E+03
        -0.37300E+03
        -0.37300E+03
        -0.37300E+03
        -0.37300E+03
        -0.37300E+03
        -0.37300E+03
        -0.37300E+03
        -0.37300E+03
        -0.37300E+03
        -0.37300E+03
        -0.37300E+03
        -0.37300E+03
        -0.37300E+03
        -0.37300E+03
        -0.37300E+03
        -0.37300E+03
        -0.37300E+03
        -0.37300E+03
        -0.37300E+03
        -0.37300E+03
        -0.37300E+03
        -0.37300E+03
        -0.37300E+03
        -0.37300E+03
        -0.37300E+03
        -0.37300E+03
        -0.37300E+03
        -0.37300E+03
        -0.37300E+03
        -0.37300E+03
        -0.37300E+03
        -0.37300E+03
        -0.37300E+03
        -0.37300E+03
        -0.37300E+03
        -0.37300E+03
        -0.37300E+03
        -0.37300E+03
        -0.37300E+03
        -0.37300E+03
        -0.37300E+03
        -0.37300E+03
        -0.37300E+03
        -0.37300E+03
        -0.37300E+03
        -0.37300E+03
        -0.37300E+03
        -0.37300E+03
        -0.37300E+03
        -0.37300E+03
        -0.37300E+03
        -0.37300E+03
        -0.37300E+03
        -0.37300E+03
        -0.37300E+03
        -0.37300E+03
        -0.37300E+03
        -0.37300E+03
        -0.37300E+03
        -0.37300E+03
        -0.37300E+03
        -0.37300E+03
        -0.37300E+03
        -0.37300E+03
        -0.37300E+03
        -0.37300E+03
        -0.37300E+03
        -0.37300E+03
        -0.37300E+03
        -0.37300E+03
        -0.37300E+03
        -0.37300E+03
        -0.37300E+03
        -0.37300E+03
        -0.37300E+03
        -0.37300E+03
        -0.37300E+03
        -0.37300E+03
        -0.37300E+03
        -0.37300E+03
        -0.37300E+03
        -0.37300E+03
        -0.37300E+03
        -0.37300E+03
        -0.37300E+03
        -0.37300E+03
        -0.37300E+03
        -0.37300E+03
        -0.37300E+03
        -0.37300E+03
        -0.37300E+03
        -0.37300E+03
        -0.37300E+03
        -0.37300E+03
        -0.37300E+03
        -0.37300E+03
        -0.37300E+03
        -0.37300E+03
        -0.37300E+03
        -0.37300E+03
        -0.37300E+03
        -0.37300E+03
        -0.37300E+03
        -0.37300E+03
        -0.37300E+03
        -0.37300E+03
        -0.37300E+03
        -0.37300E+03
        -0.37300E+03
        -0.37300E+03
        -0.37300E+03
        -0.37300E+03
        -0.37300E+03
        -0.37300E+03
        -0.37300E+03
        -0.37300E+03
        -0.37300E+03
        -0.37300E+03
        -0.37300E+03
        -0.37300E+03
        -0.37300E+03
        -0.37300E+03
        -0.37300E+03
        -0.37300E+03
        -0.37300E+03
        -0.37300E+03
        -0.37300E+03
        -0.37300E+03
        -0.37300E+03
        -0.37300E+03
        -0.37300E+03
        -0.37300E+03
        -0.37300E+03
        -0.37300E+03
        -0.37300E+03
        -0.37300E+03
        -0.37300E+03
        -0.37300E+03
        -0.37300E+03
        -0.37300E+03
        -0.37300E+03
        -0.37300E+03
        -0.37300E+03
        -0.37300E+03
        -0.37300E+03
        -0.37300E+03
        -0.37300E+03
        -0.37300E+03
        -0.37300E+03
        -0.37300E+03
        -0.37300E+03
        -0.37300E+03
        -0.37300E+03
        -0.37300E+03
        -0.37300E+03
        -0.37300E+03
        -0.37300E+03
        -0.37300E+03
        -0.37300E+03
        -0.37300E+03
        -0.37300E+03
        -0.37300E+03
        -0.37300E+03
        -0.37300E+03
        -0.37300E+03
        -0.37300E+03
        -0.37300E+03
        -0.37300E+03
        -0.37300E+03
        -0.37300E+03
        -0.37300E+03
        -0.37300E+03
        -0.37300E+03
        -0.37300E+03
        -0.37300E+03
        -0.37300E+03
        -0.37300E+03
        -0.37300E+03
        -0.37300E+03
        -0.37300E+03
        -0.37300E+03
        -0.37300E+03
        -0.37300E+03
        -0.37300E+03
        -0.37300E+03
        -0.37300E+03
        -0.37300E+03
        -0.37300E+03
        -0.37300E+03
        -0.37300E+03
        -0.37300E+03
        -0.37300E+03
        -0.37300E+03
        -0.37300E+03
        -0.37300E+03
        -0.37300E+03
        -0.37300E+03
        -0.37300E+03
        -0.37300E+03
        -0.37300E+03
        -0.37300E+03
        -0.37300E+03
        -0.37300E+03
        -0.37300E+03
        -0.37300E+03
        -0.37300E+03
        -0.37300E+03
        -0.37300E+03
        -0.37300E+03
        -0.37300E+03
        -0.37300E+03
        -0.37300E+03
        -0.37300E+03
        -0.37300E+03
        -0.37300E+03
        -0.37300E+03
        -0.37300E+03
        -0.37300E+03
        -0.37300E+03
        -0.37300E+03
        -0.37300E+03
        -0.37300E+03
        -0.37300E+03
        -0.37300E+03
        -0.37300E+03
        -0.37300E+03
        -0.37300E+03
        -0.37300E+03
        -0.37300E+03
        -0.37300E+03
        -0.37300E+03
        -0.37300E+03
        -0.37300E+03
        -0.37300E+03
        -0.37300E+03
        -0.37300E+03
        -0.37300E+03
        -0.37300E+03
        -0.37300E+03
        -0.37300E+03
        -0.37300E+03
        -0.37300E+03
        -0.37300E+03
        -0.37300E+03
        -0.37300E+03
        -0.37300E+03
        -0.37300E+03
        -0.37300E+03
        -0.37300E+03
        -0.37300E+03
        -0.37300E+03
        -0.37300E+03
        -0.37300E+03
        -0.37300E+03
        -0.37300E+03
        -0.37300E+03
        -0.37300E+03
        -0.37300E+03
        -0.37300E+03
        -0.37300E+03
        -0.37300E+03
        -0.37300E+03
        -0.37300E+03
        -0.37300E+03
        -0.37300E+03
        -0.37300E+03
        -0.37300E+03
        -0.37300E+03
        -0.37300E+03
        -0.37300E+03
        -0.37300E+03
        -0.37300E+03
        -0.37300E+03
        -0.37300E+03
        -0.37300E+03
        -0.37300E+03
        -0.37300E+03
        -0.37300E+03
        -0.37300E+03
        -0.37300E+03
        -0.37300E+03
        -0.37300E+03
        -0.37300E+03
        -0.37300E+03
        -0.37300E+03
        -0.37300E+03
        -0.37300E+03
        -0.37300E+03
        -0.37300E+03
        -0.37300E+03
        -0.37300E+03
        -0.37300E+03
        -0.37300E+03
        -0.37300E+03
        -0.37300E+03
        -0.37300E+03
        -0.37300E+03
        -0.37300E+03
        -0.37300E+03
        -0.37300E+03
        -0.37300E+03
        -0.37300E+03
        -0.37300E+03
        -0.37300E+03
        -0.37300E+03
        -0.37300E+03
        -0.37300E+03
        -0.37300E+03
        -0.37300E+03
        -0.37300E+03
        -0.37300E+03
        -0.37300E+03
        -0.37300E+03
        -0.37300E+03
        -0.37300E+03
        -0.37300E+03
        -0.37300E+03
        -0.37300E+03
        -0.37300E+03
        -0.37300E+03
        -0.37300E+03
        -0.37300E+03
        -0.37300E+03
        -0.37300E+03
        -0.37300E+03
        -0.37300E+03
        -0.37300E+03
        -0.37300E+03
        -0.37300E+03
        -0.37300E+03
        -0.37300E+03
        -0.37300E+03
        -0.37300E+03
        -0.37300E+03
        -0.37300E+03
        -0.37300E+03
        -0.37300E+03
        -0.37300E+03
        -0.37300E+03
        -0.37300E+03
        -0.37300E+03
        -0.37300E+03
        -0.37300E+03
        -0.37300E+03
        -0.37300E+03
        -0.37300E+03
        -0.37300E+03
        -0.37300E+03
        -0.37300E+03
        -0.37300E+03
        -0.37300E+03
        -0.37300E+03
        -0.37300E+03
        -0.37300E+03
        -0.37300E+03
        -0.37300E+03
        -0.37300E+03
        -0.37300E+03
        -0.37300E+03
        -0.37300E+03
        -0.37300E+03
        -0.37300E+03
        -0.37300E+03
        -0.37300E+03
        -0.37300E+03
        -0.37300E+03
        -0.37300E+03
        -0.37300E+03
        -0.37300E+03
        -0.37300E+03
        -0.37300E+03
        -0.37300E+03
        -0.37300E+03
        -0.37300E+03
        -0.37300E+03
        -0.37300E+03
        -0.37300E+03
        -0.37300E+03
        -0.37300E+03
        -0.37300E+03
        -0.37300E+03
        -0.37300E+03
        -0.37300E+03
        -0.37300E+03
        -0.37300E+03
        -0.37300E+03
        -0.37300E+03
        -0.37300E+03
        -0.37300E+03
        -0.37300E+03
        -0.37300E+03
        -0.37300E+03
        -0.37300E+03
        -0.37300E+03
        -0.37300E+03
        -0.37300E+03
        -0.37300E+03
        -0.37300E+03
        -0.37300E+03
        -0.37300E+03
        -0.37300E+03
        -0.37300E+03
        -0.37300E+03
        -0.37300E+03
        -0.37300E+03
        -0.37300E+03
        -0.37300E+03
        -0.37300E+03
        -0.37300E+03
        -0.37300E+03
        -0.37300E+03
        -0.37300E+03
        -0.37300E+03
        -0.37300E+03
        -0.37300E+03
        -0.37300E+03
        -0.37300E+03
        -0.37300E+03
        -0.37300E+03
        -0.37300E+03
        -0.37300E+03
        -0.37300E+03
        -0.37300E+03
        -0.37300E+03
        -0.37300E+03
        -0.37300E+03
        -0.37300E+03
        -0.37300E+03
        -0.37300E+03
        -0.37300E+03
        -0.37300E+03
        -0.37300E+03
        -0.37300E+03
        -0.37300E+03
        -0.37300E+03
        -0.37300E+03
        -0.37300E+03
        -0.37300E+03
        -0.37300E+03
        -0.37300E+03
        -0.37300E+03
        -0.37300E+03
        -0.37300E+03
        -0.37300E+03
        -0.37300E+03
        -0.37300E+03
        -0.37300E+03
        -0.37300E+03
        -0.37300E+03
        -0.37300E+03
        -0.37300E+03
        -0.37300E+03
        -0.37300E+03
        -0.37300E+03
        -0.37300E+03
        -0.37300E+03
        -0.37300E+03
        -0.37300E+03
        -0.37300E+03
        -0.37300E+03
        -0.37300E+03
        -0.37300E+03
        -0.37300E+03
        -0.37300E+03
        -0.37300E+03
        -0.37300E+03
        -0.37300E+03
        -0.37300E+03
        -0.37300E+03
        -0.37300E+03
        -0.37300E+03
        -0.37300E+03
        -0.37300E+03
        -0.37300E+03
        -0.37300E+03
        -0.37300E+03
        -0.37300E+03
        -0.37300E+03
        -0.37300E+03
        -0.37300E+03
        -0.37300E+03
        -0.37300E+03
        -0.37300E+03
        -0.37300E+03
        -0.37300E+03
        -0.37300E+03
        -0.37300E+03
        -0.37300E+03
        -0.37300E+03
        -0.37300E+03
        -0.37300E+03
        -0.37300E+03
        -0.37300E+03
        -0.37300E+03
        -0.37300E+03
        -0.37300E+03
        -0.37300E+03
        -0.37300E+03
        -0.37300E+03
        -0.37300E+03
        -0.37300E+03
        -0.37300E+03
        -0.37300E+03
        -0.37300E+03
        -0.37300E+03
        -0.37300E+03
        -0.37300E+03
        -0.37300E+03
        -0.37300E+03
        -0.37300E+03
        -0.37300E+03
        -0.37300E+03
        -0.37300E+03
        -0.37300E+03
        -0.37300E+03
        -0.37300E+03
        -0.37300E+03
        -0.37300E+03
        -0.37300E+03
        -0.37300E+03
        -0.37300E+03
        -0.37300E+03
        -0.37300E+03
        -0.37300E+03
        -0.37300E+03
        -0.37300E+03
        -0.37300E+03
        -0.37300E+03
        -0.37300E+03
        -0.37300E+03
        -0.37300E+03
        -0.37300E+03
        -0.37300E+03
        -0.37300E+03
        -0.37300E+03
        -0.37300E+03
        -0.37300E+03
        -0.37300E+03
        -0.37300E+03
        -0.37300E+03
        -0.37300E+03
        -0.37300E+03
        -0.37300E+03
        -0.37300E+03
        -0.37300E+03
        -0.37300E+03
        -0.37300E+03
        -0.37300E+03
        -0.37300E+03
        -0.37300E+03
        -0.37300E+03
        -0.37300E+03
        -0.37300E+03
        -0.37300E+03
        -0.37300E+03
        -0.37300E+03
        -0.37300E+03
        -0.37300E+03
        -0.37300E+03
        -0.37300E+03
        -0.37300E+03
        -0.37300E+03
        -0.37300E+03
        -0.37300E+03
        -0.37300E+03
        -0.37300E+03
        -0.37300E+03
        -0.37300E+03
        -0.37300E+03
        -0.37300E+03
        -0.37300E+03
        -0.37300E+03
        -0.37300E+03
        -0.37300E+03
        -0.37300E+03
        -0.37300E+03
        -0.37300E+03
        -0.37300E+03
        -0.37300E+03
        -0.37300E+03
        -0.37300E+03
        -0.37300E+03
        -0.37300E+03
        -0.37300E+03
        -0.37300E+03
        -0.37300E+03
        -0.37300E+03
        -0.37300E+03
        -0.37300E+03
        -0.37300E+03
        -0.37300E+03
        -0.37300E+03
        -0.37300E+03
        -0.37300E+03
        -0.37300E+03
        -0.37300E+03
        -0.37300E+03
        -0.37300E+03
        -0.37300E+03
        -0.37300E+03
        -0.37300E+03
        -0.37300E+03
        -0.37300E+03
        -0.37300E+03
        -0.37300E+03
        -0.37300E+03
        -0.37300E+03
        -0.37300E+03
        -0.37300E+03
        -0.37300E+03
        -0.37300E+03
        -0.37300E+03
        -0.37300E+03
        -0.37300E+03
        -0.37300E+03
        -0.37300E+03
        -0.37300E+03
        -0.37300E+03
        -0.37300E+03
        -0.37300E+03
        -0.37300E+03
        -0.37300E+03
        -0.37300E+03
        -0.37300E+03
        -0.37300E+03
        -0.37300E+03
        -0.37300E+03
        -0.37300E+03
        -0.37300E+03
        -0.37300E+03
        -0.37300E+03
        -0.37300E+03
        -0.37300E+03
        -0.37300E+03
        -0.37300E+03
        -0.37300E+03
        -0.37300E+03
        -0.37300E+03
        -0.37300E+03
        -0.37300E+03
        -0.37300E+03
        -0.37300E+03
        -0.37300E+03
        -0.37300E+03
        -0.37300E+03
        -0.37300E+03
        -0.37300E+03
        -0.37300E+03
        -0.37300E+03
        -0.37300E+03
        -0.37300E+03
        -0.37300E+03
        -0.37300E+03
        -0.37300E+03
        -0.37300E+03
        -0.37300E+03
        -0.37300E+03
        -0.37300E+03
        -0.37300E+03
        -0.37300E+03
        -0.37300E+03
        -0.37300E+03
        -0.37300E+03
        -0.37300E+03
        -0.37300E+03
        -0.37300E+03
        -0.37300E+03
        -0.37300E+03
        -0.37300E+03
        -0.37300E+03
        -0.37300E+03
        -0.37300E+03
        -0.37300E+03
        -0.37300E+03
        -0.37300E+03
        -0.37300E+03
        -0.37300E+03
        -0.37300E+03
        -0.37300E+03
        -0.37300E+03
        -0.37300E+03
        -0.37300E+03
        -0.37300E+03
        -0.37300E+03
        -0.37300E+03
        -0.37300E+03
        -0.37300E+03
        -0.37300E+03
        -0.37300E+03
        -0.37300E+03
        -0.37300E+03
        -0.37300E+03
        -0.37300E+03
        -0.37300E+03
        -0.37300E+03
        -0.37300E+03
        -0.37300E+03
        -0.37300E+03
        -0.37300E+03
        -0.37300E+03
  
SCALARS              normalized_window  double 1
LOOKUP_TABLE default
         0.27500E+01
         0.27500E+01
         0.27500E+01
         0.27500E+01
         0.27500E+01
         0.27500E+01
         0.27500E+01
         0.27500E+01
         0.27500E+01
         0.27500E+01
         0.27500E+01
         0.27500E+01
         0.27500E+01
         0.27500E+01
         0.27500E+01
         0.27500E+01
         0.27500E+01
         0.27500E+01
         0.27500E+01
         0.27500E+01
         0.27500E+01
         0.27500E+01
         0.27500E+01
         0.27500E+01
         0.27500E+01
         0.27500E+01
         0.27500E+01
         0.27500E+01
         0.27500E+01
         0.27500E+01
         0.27500E+01
         0.27500E+01
         0.27500E+01
         0.27500E+01
         0.27500E+01
         0.27500E+01
         0.27500E+01
         0.27500E+01
         0.27500E+01
         0.27500E+01
         0.27500E+01
         0.27500E+01
         0.27500E+01
         0.27500E+01
         0.27500E+01
         0.27500E+01
         0.27500E+01
         0.27500E+01
         0.27500E+01
         0.27500E+01
         0.27500E+01
         0.27500E+01
         0.27500E+01
         0.27500E+01
         0.27500E+01
         0.27500E+01
         0.27500E+01
         0.27500E+01
         0.27500E+01
         0.27500E+01
         0.27500E+01
         0.27500E+01
         0.27500E+01
         0.27500E+01
         0.27500E+01
         0.27500E+01
         0.27500E+01
         0.27500E+01
         0.27500E+01
         0.27500E+01
         0.27500E+01
         0.27500E+01
         0.27500E+01
         0.27500E+01
         0.27500E+01
         0.27500E+01
         0.27500E+01
         0.27500E+01
         0.27500E+01
         0.27500E+01
         0.27500E+01
         0.27500E+01
         0.27500E+01
         0.27500E+01
         0.27500E+01
         0.27500E+01
         0.27500E+01
         0.27500E+01
         0.27500E+01
         0.27500E+01
         0.27500E+01
         0.27500E+01
         0.27500E+01
         0.27500E+01
         0.27500E+01
         0.27500E+01
         0.27500E+01
         0.27500E+01
         0.27500E+01
         0.27500E+01
         0.27500E+01
         0.27500E+01
         0.27500E+01
         0.27500E+01
         0.27500E+01
         0.27500E+01
         0.27500E+01
         0.27500E+01
         0.27500E+01
         0.27500E+01
         0.27500E+01
         0.27500E+01
         0.27500E+01
         0.27500E+01
         0.27500E+01
         0.27500E+01
         0.27500E+01
         0.27500E+01
         0.27500E+01
         0.27500E+01
         0.27500E+01
         0.27500E+01
         0.27500E+01
         0.27500E+01
         0.27500E+01
         0.27500E+01
         0.27500E+01
         0.27500E+01
         0.27500E+01
         0.27500E+01
         0.27500E+01
         0.27500E+01
         0.27500E+01
         0.27500E+01
         0.27500E+01
         0.27500E+01
         0.27500E+01
         0.27500E+01
         0.27500E+01
         0.27500E+01
         0.27500E+01
         0.27500E+01
         0.27500E+01
         0.27500E+01
         0.27500E+01
         0.27500E+01
         0.27500E+01
         0.27500E+01
         0.27500E+01
         0.27500E+01
         0.27500E+01
         0.27500E+01
         0.27500E+01
         0.27500E+01
         0.27500E+01
         0.27500E+01
         0.27500E+01
         0.27500E+01
         0.27500E+01
         0.27500E+01
         0.27500E+01
         0.27500E+01
         0.27500E+01
         0.27500E+01
         0.27500E+01
         0.27500E+01
         0.27500E+01
         0.27500E+01
         0.27500E+01
         0.27500E+01
         0.27500E+01
         0.27500E+01
         0.27500E+01
         0.27500E+01
         0.27500E+01
         0.27500E+01
         0.27500E+01
         0.27500E+01
         0.27500E+01
         0.27500E+01
         0.27500E+01
         0.27500E+01
         0.27500E+01
         0.27500E+01
         0.27500E+01
         0.27500E+01
         0.27500E+01
         0.27500E+01
         0.27500E+01
         0.27500E+01
         0.27500E+01
         0.27500E+01
         0.27500E+01
         0.27500E+01
         0.27500E+01
         0.27500E+01
         0.27500E+01
         0.27500E+01
         0.27500E+01
         0.27500E+01
         0.27500E+01
         0.27500E+01
         0.27500E+01
         0.27500E+01
         0.27500E+01
         0.27500E+01
         0.27500E+01
         0.27500E+01
         0.27500E+01
         0.27500E+01
         0.27500E+01
         0.27500E+01
         0.27500E+01
         0.27500E+01
         0.27500E+01
         0.27500E+01
         0.27500E+01
         0.27500E+01
         0.27500E+01
         0.27500E+01
         0.27500E+01
         0.27500E+01
         0.27500E+01
         0.27500E+01
         0.27500E+01
         0.27500E+01
         0.27500E+01
         0.27500E+01
         0.27500E+01
         0.27500E+01
         0.27500E+01
         0.27500E+01
         0.27500E+01
         0.27500E+01
         0.27500E+01
         0.27500E+01
         0.27500E+01
         0.27500E+01
         0.27500E+01
         0.27500E+01
         0.27500E+01
         0.27500E+01
         0.27500E+01
         0.27500E+01
         0.27500E+01
         0.27500E+01
         0.27500E+01
         0.27500E+01
         0.27500E+01
         0.27500E+01
         0.27500E+01
         0.27500E+01
         0.27500E+01
         0.27500E+01
         0.27500E+01
         0.27500E+01
         0.27500E+01
         0.27500E+01
         0.27500E+01
         0.27500E+01
         0.27500E+01
         0.27500E+01
         0.27500E+01
         0.27500E+01
         0.27500E+01
         0.27500E+01
         0.27500E+01
         0.27500E+01
         0.27500E+01
         0.27500E+01
         0.27500E+01
         0.27500E+01
         0.27500E+01
         0.27500E+01
         0.27500E+01
         0.27500E+01
         0.27500E+01
         0.27500E+01
         0.27500E+01
         0.27500E+01
         0.27500E+01
         0.27500E+01
         0.27500E+01
         0.27500E+01
         0.27500E+01
         0.27500E+01
         0.27500E+01
         0.27500E+01
         0.27500E+01
         0.27500E+01
         0.27500E+01
         0.27500E+01
         0.27500E+01
         0.27500E+01
         0.27500E+01
         0.27500E+01
         0.27500E+01
         0.27500E+01
         0.27500E+01
         0.27500E+01
         0.27500E+01
         0.27500E+01
         0.27500E+01
         0.27500E+01
         0.27500E+01
         0.27500E+01
         0.27500E+01
         0.27500E+01
         0.27500E+01
         0.27500E+01
         0.27500E+01
         0.27500E+01
         0.27500E+01
         0.27500E+01
         0.27500E+01
         0.27500E+01
         0.27500E+01
         0.27500E+01
         0.27500E+01
         0.27500E+01
         0.27500E+01
         0.27500E+01
         0.27500E+01
         0.27500E+01
         0.27500E+01
         0.27500E+01
         0.27500E+01
         0.27500E+01
         0.27500E+01
         0.27500E+01
         0.27500E+01
         0.27500E+01
         0.27500E+01
         0.27500E+01
         0.27500E+01
         0.27500E+01
         0.27500E+01
         0.27500E+01
         0.27500E+01
         0.27500E+01
         0.27500E+01
         0.27500E+01
         0.27500E+01
         0.27500E+01
         0.27500E+01
         0.27500E+01
         0.27500E+01
         0.27500E+01
         0.27500E+01
         0.27500E+01
         0.27500E+01
         0.27500E+01
         0.27500E+01
         0.27500E+01
         0.27500E+01
         0.27500E+01
         0.27500E+01
         0.27500E+01
         0.27500E+01
         0.27500E+01
         0.27500E+01
         0.27500E+01
         0.27500E+01
         0.27500E+01
         0.27500E+01
         0.27500E+01
         0.27500E+01
         0.27500E+01
         0.27500E+01
         0.27500E+01
         0.27500E+01
         0.27500E+01
         0.27500E+01
         0.27500E+01
         0.27500E+01
         0.27500E+01
         0.27500E+01
         0.27500E+01
         0.27500E+01
         0.27500E+01
         0.27500E+01
         0.27500E+01
         0.27500E+01
         0.27500E+01
         0.27500E+01
         0.27500E+01
         0.27500E+01
         0.27500E+01
         0.27500E+01
         0.27500E+01
         0.27500E+01
         0.27500E+01
         0.27500E+01
         0.27500E+01
         0.27500E+01
         0.27500E+01
         0.27500E+01
         0.27500E+01
         0.27500E+01
         0.27500E+01
         0.27500E+01
         0.27500E+01
         0.27500E+01
         0.27500E+01
         0.27500E+01
         0.27500E+01
         0.27500E+01
         0.27500E+01
         0.27500E+01
         0.27500E+01
         0.27500E+01
         0.27500E+01
         0.27500E+01
         0.27500E+01
         0.27500E+01
         0.27500E+01
         0.27500E+01
         0.27500E+01
         0.27500E+01
         0.27500E+01
         0.27500E+01
         0.27500E+01
         0.27500E+01
         0.27500E+01
         0.27500E+01
         0.27500E+01
         0.27500E+01
         0.27500E+01
         0.27500E+01
         0.27500E+01
         0.27500E+01
         0.27500E+01
         0.27500E+01
         0.27500E+01
         0.27500E+01
         0.27500E+01
         0.27500E+01
         0.27500E+01
         0.27500E+01
         0.27500E+01
         0.27500E+01
         0.27500E+01
         0.27500E+01
         0.27500E+01
         0.27500E+01
         0.27500E+01
         0.27500E+01
         0.27500E+01
         0.27500E+01
         0.27500E+01
         0.27500E+01
         0.27500E+01
         0.27500E+01
         0.27500E+01
         0.27500E+01
         0.27500E+01
         0.27500E+01
         0.27500E+01
         0.27500E+01
         0.27500E+01
         0.27500E+01
         0.27500E+01
         0.27500E+01
         0.27500E+01
         0.27500E+01
         0.27500E+01
         0.27500E+01
         0.27500E+01
         0.27500E+01
         0.27500E+01
         0.27500E+01
         0.27500E+01
         0.27500E+01
         0.27500E+01
         0.27500E+01
         0.27500E+01
         0.27500E+01
         0.27500E+01
         0.27500E+01
         0.27500E+01
         0.27500E+01
         0.27500E+01
         0.27500E+01
         0.27500E+01
         0.27500E+01
         0.27500E+01
         0.27500E+01
         0.27500E+01
         0.27500E+01
         0.27500E+01
         0.27500E+01
         0.27500E+01
         0.27500E+01
         0.27500E+01
         0.27500E+01
         0.27500E+01
         0.27500E+01
         0.27500E+01
         0.27500E+01
         0.27500E+01
         0.27500E+01
         0.27500E+01
         0.27500E+01
         0.27500E+01
         0.27500E+01
         0.27500E+01
         0.27500E+01
         0.27500E+01
         0.27500E+01
         0.27500E+01
         0.27500E+01
         0.27500E+01
         0.27500E+01
         0.27500E+01
         0.27500E+01
         0.27500E+01
         0.27500E+01
         0.27500E+01
         0.27500E+01
         0.27500E+01
         0.27500E+01
         0.27500E+01
         0.27500E+01
         0.27500E+01
         0.27500E+01
         0.27500E+01
         0.27500E+01
         0.27500E+01
         0.27500E+01
         0.27500E+01
         0.27500E+01
         0.27500E+01
         0.27500E+01
         0.27500E+01
         0.27500E+01
         0.27500E+01
         0.27500E+01
         0.27500E+01
         0.27500E+01
         0.27500E+01
         0.27500E+01
         0.27500E+01
         0.27500E+01
         0.27500E+01
         0.27500E+01
         0.27500E+01
         0.27500E+01
         0.27500E+01
         0.27500E+01
         0.27500E+01
         0.27500E+01
         0.27500E+01
         0.27500E+01
         0.27500E+01
         0.27500E+01
         0.27500E+01
         0.27500E+01
         0.27500E+01
         0.27500E+01
         0.27500E+01
         0.27500E+01
         0.27500E+01
         0.27500E+01
         0.27500E+01
         0.27500E+01
         0.27500E+01
         0.27500E+01
         0.27500E+01
         0.27500E+01
         0.27500E+01
         0.27500E+01
         0.27500E+01
         0.27500E+01
         0.27500E+01
         0.27500E+01
         0.27500E+01
         0.27500E+01
         0.27500E+01
         0.27500E+01
         0.27500E+01
         0.27500E+01
         0.27500E+01
         0.27500E+01
         0.27500E+01
         0.27500E+01
         0.27500E+01
         0.27500E+01
         0.27500E+01
         0.27500E+01
         0.27500E+01
         0.27500E+01
         0.27500E+01
         0.27500E+01
         0.27500E+01
         0.27500E+01
         0.27500E+01
         0.27500E+01
         0.27500E+01
         0.27500E+01
         0.27500E+01
         0.27500E+01
         0.27500E+01
         0.27500E+01
         0.27500E+01
         0.27500E+01
         0.27500E+01
         0.27500E+01
         0.27500E+01
         0.27500E+01
         0.27500E+01
         0.27500E+01
         0.27500E+01
         0.27500E+01
         0.27500E+01
         0.27500E+01
         0.27500E+01
         0.27500E+01
         0.27500E+01
         0.27500E+01
         0.27500E+01
         0.27500E+01
         0.27500E+01
         0.27500E+01
         0.27500E+01
         0.27500E+01
         0.27500E+01
         0.27500E+01
         0.27500E+01
         0.27500E+01
         0.27500E+01
         0.27500E+01
         0.27500E+01
         0.27500E+01
         0.27500E+01
         0.27500E+01
         0.27500E+01
         0.27500E+01
         0.27500E+01
         0.27500E+01
         0.27500E+01
         0.27500E+01
         0.27500E+01
         0.27500E+01
         0.27500E+01
         0.27500E+01
         0.27500E+01
         0.27500E+01
         0.27500E+01
         0.27500E+01
         0.27500E+01
         0.27500E+01
         0.27500E+01
         0.27500E+01
         0.27500E+01
         0.27500E+01
         0.27500E+01
         0.27500E+01
         0.27500E+01
         0.27500E+01
         0.27500E+01
         0.27500E+01
         0.27500E+01
         0.27500E+01
         0.27500E+01
         0.27500E+01
         0.27500E+01
         0.27500E+01
         0.27500E+01
         0.27500E+01
         0.27500E+01
         0.27500E+01
         0.27500E+01
         0.27500E+01
         0.27500E+01
         0.27500E+01
         0.27500E+01
         0.27500E+01
         0.27500E+01
         0.27500E+01
         0.27500E+01
         0.27500E+01
         0.27500E+01
         0.27500E+01
         0.27500E+01
         0.27500E+01
         0.27500E+01
         0.27500E+01
         0.27500E+01
         0.27500E+01
         0.27500E+01
         0.27500E+01
         0.27500E+01
         0.27500E+01
         0.27500E+01
         0.27500E+01
         0.27500E+01
         0.27500E+01
         0.27500E+01
         0.27500E+01
         0.27500E+01
         0.27500E+01
         0.27500E+01
         0.27500E+01
         0.27500E+01
         0.27500E+01
         0.27500E+01
         0.27500E+01
         0.27500E+01
         0.27500E+01
         0.27500E+01
         0.27500E+01
         0.27500E+01
         0.27500E+01
         0.27500E+01
         0.27500E+01
         0.27500E+01
         0.27500E+01
         0.27500E+01
         0.27500E+01
         0.27500E+01
         0.27500E+01
         0.27500E+01
         0.27500E+01
         0.27500E+01
         0.27500E+01
         0.27500E+01
         0.27500E+01
         0.27500E+01
         0.27500E+01
         0.27500E+01
         0.27500E+01
         0.27500E+01
         0.27500E+01
         0.27500E+01
         0.27500E+01
         0.27500E+01
         0.27500E+01
         0.27500E+01
         0.27500E+01
         0.27500E+01
         0.27500E+01
         0.27500E+01
         0.27500E+01
         0.27500E+01
         0.27500E+01
         0.27500E+01
         0.27500E+01
         0.27500E+01
         0.27500E+01
         0.27500E+01
         0.27500E+01
         0.27500E+01
         0.27500E+01
         0.27500E+01
         0.27500E+01
         0.27500E+01
         0.27500E+01
         0.27500E+01
         0.27500E+01
         0.27500E+01
         0.27500E+01
         0.27500E+01
         0.27500E+01
         0.27500E+01
         0.27500E+01
         0.27500E+01
         0.27500E+01
         0.27500E+01
         0.27500E+01
         0.27500E+01
         0.27500E+01
         0.27500E+01
         0.27500E+01
         0.27500E+01
         0.27500E+01
         0.27500E+01
         0.27500E+01
         0.27500E+01
         0.27500E+01
         0.27500E+01
         0.27500E+01
         0.27500E+01
         0.27500E+01
         0.27500E+01
         0.27500E+01
         0.27500E+01
         0.27500E+01
         0.27500E+01
         0.27500E+01
         0.27500E+01
         0.27500E+01
         0.27500E+01
         0.27500E+01
         0.27500E+01
         0.27500E+01
         0.27500E+01
         0.27500E+01
         0.27500E+01
         0.27500E+01
         0.27500E+01
         0.27500E+01
         0.27500E+01
         0.27500E+01
         0.27500E+01
         0.27500E+01
         0.27500E+01
         0.27500E+01
         0.27500E+01
         0.27500E+01
         0.27500E+01
         0.27500E+01
         0.27500E+01
         0.27500E+01
         0.27500E+01
         0.27500E+01
         0.27500E+01
         0.27500E+01
         0.27500E+01
         0.27500E+01
         0.27500E+01
         0.27500E+01
         0.27500E+01
         0.27500E+01
         0.27500E+01
         0.27500E+01
         0.27500E+01
         0.27500E+01
         0.27500E+01
         0.27500E+01
         0.27500E+01
         0.27500E+01
         0.27500E+01
         0.27500E+01
         0.27500E+01
         0.27500E+01
         0.27500E+01
         0.27500E+01
         0.27500E+01
         0.27500E+01
         0.27500E+01
         0.27500E+01
         0.27500E+01
         0.27500E+01
         0.27500E+01
         0.27500E+01
         0.27500E+01
         0.27500E+01
         0.27500E+01
         0.27500E+01
         0.27500E+01
         0.27500E+01
         0.27500E+01
         0.27500E+01
         0.27500E+01
         0.27500E+01
         0.27500E+01
         0.27500E+01
         0.27500E+01
         0.27500E+01
         0.27500E+01
         0.27500E+01
         0.27500E+01
         0.27500E+01
         0.27500E+01
         0.27500E+01
         0.27500E+01
         0.27500E+01
         0.27500E+01
         0.27500E+01
         0.27500E+01
         0.27500E+01
         0.27500E+01
         0.27500E+01
         0.27500E+01
         0.27500E+01
         0.27500E+01
         0.27500E+01
         0.27500E+01
         0.27500E+01
         0.27500E+01
         0.27500E+01
         0.27500E+01
         0.27500E+01
         0.27500E+01
         0.27500E+01
         0.27500E+01
         0.27500E+01
         0.27500E+01
         0.27500E+01
         0.27500E+01
         0.27500E+01
         0.27500E+01
         0.27500E+01
         0.27500E+01
         0.27500E+01
         0.27500E+01
         0.27500E+01
         0.27500E+01
         0.27500E+01
         0.27500E+01
         0.27500E+01
         0.27500E+01
         0.27500E+01
         0.27500E+01
         0.27500E+01
         0.27500E+01
         0.27500E+01
         0.27500E+01
         0.27500E+01
         0.27500E+01
         0.27500E+01
         0.27500E+01
         0.27500E+01
         0.27500E+01
         0.27500E+01
         0.27500E+01
         0.27500E+01
         0.27500E+01
         0.27500E+01
         0.27500E+01
         0.27500E+01
         0.27500E+01
         0.27500E+01
         0.27500E+01
         0.27500E+01
         0.27500E+01
         0.27500E+01
         0.27500E+01
         0.27500E+01
         0.27500E+01
         0.27500E+01
         0.27500E+01
         0.27500E+01
         0.27500E+01
         0.27500E+01
         0.27500E+01
         0.27500E+01
         0.27500E+01
         0.27500E+01
         0.27500E+01
         0.27500E+01
         0.27500E+01
         0.27500E+01
         0.27500E+01
         0.27500E+01
         0.27500E+01
         0.27500E+01
         0.27500E+01
         0.27500E+01
         0.27500E+01
         0.27500E+01
         0.27500E+01
         0.27500E+01
         0.27500E+01
         0.27500E+01
         0.27500E+01
         0.27500E+01
         0.27500E+01
         0.27500E+01
         0.27500E+01
         0.27500E+01
         0.27500E+01
         0.27500E+01
         0.27500E+01
         0.27500E+01
         0.27500E+01
         0.27500E+01
         0.27500E+01
         0.27500E+01
         0.27500E+01
         0.27500E+01
         0.27500E+01
         0.27500E+01
         0.27500E+01
         0.27500E+01
         0.27500E+01
         0.27500E+01
         0.27500E+01
         0.27500E+01
         0.27500E+01
         0.27500E+01
         0.27500E+01
         0.27500E+01
         0.27500E+01
         0.27500E+01
         0.27500E+01
         0.27500E+01
         0.27500E+01
         0.27500E+01
         0.27500E+01
         0.27500E+01
         0.27500E+01
         0.27500E+01
         0.27500E+01
         0.27500E+01
         0.27500E+01
         0.27500E+01
         0.27500E+01
         0.27500E+01
         0.27500E+01
         0.27500E+01
         0.27500E+01
         0.27500E+01
         0.27500E+01
         0.27500E+01
         0.27500E+01
         0.27500E+01
         0.27500E+01
         0.27500E+01
         0.27500E+01
         0.27500E+01
         0.27500E+01
         0.27500E+01
         0.27500E+01
         0.27500E+01
         0.27500E+01
         0.27500E+01
         0.27500E+01
         0.27500E+01
         0.27500E+01
         0.27500E+01
         0.27500E+01
         0.27500E+01
         0.27500E+01
         0.27500E+01
         0.27500E+01
         0.27500E+01
         0.27500E+01
         0.27500E+01
         0.27500E+01
         0.27500E+01
         0.27500E+01
         0.27500E+01
         0.27500E+01
         0.27500E+01
         0.27500E+01
         0.27500E+01
         0.27500E+01
         0.27500E+01
         0.27500E+01
         0.27500E+01
         0.27500E+01
         0.27500E+01
         0.27500E+01
         0.27500E+01
         0.27500E+01
         0.27500E+01
         0.27500E+01
         0.27500E+01
         0.27500E+01
         0.27500E+01
         0.27500E+01
         0.27500E+01
         0.27500E+01
         0.27500E+01
         0.27500E+01
         0.27500E+01
         0.27500E+01
         0.27500E+01
         0.27500E+01
         0.27500E+01
         0.27500E+01
         0.27500E+01
         0.27500E+01
         0.27500E+01
         0.27500E+01
         0.27500E+01
         0.27500E+01
         0.27500E+01
         0.27500E+01
         0.27500E+01
         0.27500E+01
         0.27500E+01
         0.27500E+01
         0.27500E+01
         0.27500E+01
         0.27500E+01
         0.27500E+01
         0.27500E+01
         0.27500E+01
         0.27500E+01
         0.27500E+01
         0.27500E+01
         0.27500E+01
         0.27500E+01
         0.27500E+01
         0.27500E+01
         0.27500E+01
         0.27500E+01
         0.27500E+01
         0.27500E+01
         0.27500E+01
         0.27500E+01
         0.27500E+01
         0.27500E+01
         0.27500E+01
         0.27500E+01
         0.27500E+01
         0.27500E+01
         0.27500E+01
         0.27500E+01
         0.27500E+01
         0.27500E+01
         0.27500E+01
         0.27500E+01
         0.27500E+01
         0.27500E+01
         0.27500E+01
         0.27500E+01
         0.27500E+01
         0.27500E+01
         0.27500E+01
         0.27500E+01
         0.27500E+01
         0.27500E+01
         0.27500E+01
         0.27500E+01
         0.27500E+01
         0.27500E+01
         0.27500E+01
         0.27500E+01
         0.27500E+01
         0.27500E+01
         0.27500E+01
         0.27500E+01
         0.27500E+01
         0.27500E+01
         0.27500E+01
         0.27500E+01
         0.27500E+01
         0.27500E+01
         0.27500E+01
         0.27500E+01
         0.27500E+01
         0.27500E+01
         0.27500E+01
         0.27500E+01
         0.27500E+01
         0.27500E+01
         0.27500E+01
         0.27500E+01
         0.27500E+01
         0.27500E+01
         0.27500E+01
         0.27500E+01
         0.27500E+01
         0.27500E+01
         0.27500E+01
         0.27500E+01
         0.27500E+01
         0.27500E+01
         0.27500E+01
         0.27500E+01
         0.27500E+01
         0.27500E+01
         0.27500E+01
         0.27500E+01
         0.27500E+01
         0.27500E+01
         0.27500E+01
         0.27500E+01
         0.27500E+01
         0.27500E+01
         0.27500E+01
         0.27500E+01
         0.27500E+01
         0.27500E+01
         0.27500E+01
         0.27500E+01
         0.27500E+01
         0.27500E+01
         0.27500E+01
         0.27500E+01
         0.27500E+01
         0.27500E+01
         0.27500E+01
         0.27500E+01
         0.27500E+01
         0.27500E+01
         0.27500E+01
         0.27500E+01
         0.27500E+01
         0.27500E+01
         0.27500E+01
         0.27500E+01
         0.27500E+01
         0.27500E+01
         0.27500E+01
         0.27500E+01
         0.27500E+01
         0.27500E+01
         0.27500E+01
         0.27500E+01
         0.27500E+01
         0.27500E+01
         0.27500E+01
         0.27500E+01
         0.27500E+01
         0.27500E+01
         0.27500E+01
         0.27500E+01
         0.27500E+01
         0.27500E+01
         0.27500E+01
         0.27500E+01
         0.27500E+01
         0.27500E+01
         0.27500E+01
         0.27500E+01
         0.27500E+01
         0.27500E+01
         0.27500E+01
         0.27500E+01
         0.27500E+01
         0.27500E+01
         0.27500E+01
         0.27500E+01
         0.27500E+01
         0.27500E+01
         0.27500E+01
         0.27500E+01
         0.27500E+01
         0.27500E+01
         0.27500E+01
         0.27500E+01
         0.27500E+01
         0.27500E+01
         0.27500E+01
         0.27500E+01
         0.27500E+01
         0.27500E+01
         0.27500E+01
         0.27500E+01
         0.27500E+01
         0.27500E+01
         0.27500E+01
         0.27500E+01
         0.27500E+01
         0.27500E+01
         0.27500E+01
         0.27500E+01
         0.27500E+01
         0.27500E+01
         0.27500E+01
         0.27500E+01
         0.27500E+01
         0.27500E+01
         0.27500E+01
         0.27500E+01
         0.27500E+01
         0.27500E+01
         0.27500E+01
         0.27500E+01
         0.27500E+01
         0.27500E+01
         0.27500E+01
         0.27500E+01
         0.27500E+01
         0.27500E+01
         0.27500E+01
         0.27500E+01
         0.27500E+01
         0.27500E+01
         0.27500E+01
         0.27500E+01
         0.27500E+01
         0.27500E+01
         0.27500E+01
         0.27500E+01
         0.27500E+01
         0.27500E+01
         0.27500E+01
         0.27500E+01
         0.27500E+01
         0.27500E+01
         0.27500E+01
         0.27500E+01
         0.27500E+01
         0.27500E+01
         0.27500E+01
         0.27500E+01
         0.27500E+01
         0.27500E+01
         0.27500E+01
         0.27500E+01
         0.27500E+01
         0.27500E+01
         0.27500E+01
         0.27500E+01
         0.27500E+01
         0.27500E+01
         0.27500E+01
         0.27500E+01
         0.27500E+01
         0.27500E+01
         0.27500E+01
         0.27500E+01
         0.27500E+01
         0.27500E+01
         0.27500E+01
         0.27500E+01
         0.27500E+01
         0.27500E+01
         0.27500E+01
         0.27500E+01
         0.27500E+01
         0.27500E+01
         0.27500E+01
         0.27500E+01
         0.27500E+01
         0.27500E+01
         0.27500E+01
         0.27500E+01
         0.27500E+01
         0.27500E+01
         0.27500E+01
         0.27500E+01
         0.27500E+01
         0.27500E+01
         0.27500E+01
         0.27500E+01
         0.27500E+01
         0.27500E+01
         0.27500E+01
         0.27500E+01
         0.27500E+01
         0.27500E+01
         0.27500E+01
         0.27500E+01
         0.27500E+01
         0.27500E+01
         0.27500E+01
         0.27500E+01
         0.27500E+01
         0.27500E+01
         0.27500E+01
         0.27500E+01
         0.27500E+01
         0.27500E+01
         0.27500E+01
         0.27500E+01
         0.27500E+01
         0.27500E+01
         0.27500E+01
         0.27500E+01
         0.27500E+01
         0.27500E+01
         0.27500E+01
         0.27500E+01
         0.27500E+01
         0.27500E+01
         0.27500E+01
         0.27500E+01
         0.27500E+01
         0.27500E+01
         0.27500E+01
         0.27500E+01
         0.27500E+01
         0.27500E+01
         0.27500E+01
         0.27500E+01
         0.27500E+01
         0.27500E+01
         0.27500E+01
         0.27500E+01
         0.27500E+01
         0.27500E+01
         0.27500E+01
         0.27500E+01
         0.27500E+01
         0.27500E+01
         0.27500E+01
         0.27500E+01
         0.27500E+01
         0.27500E+01
         0.27500E+01
         0.27500E+01
         0.27500E+01
         0.27500E+01
         0.27500E+01
         0.27500E+01
         0.27500E+01
         0.27500E+01
         0.27500E+01
         0.27500E+01
         0.27500E+01
         0.27500E+01
         0.27500E+01
         0.27500E+01
         0.27500E+01
         0.27500E+01
         0.27500E+01
         0.27500E+01
         0.27500E+01
         0.27500E+01
         0.27500E+01
         0.27500E+01
         0.27500E+01
         0.27500E+01
         0.27500E+01
         0.27500E+01
         0.27500E+01
         0.27500E+01
         0.27500E+01
         0.27500E+01
         0.27500E+01
         0.27500E+01
         0.27500E+01
         0.27500E+01
         0.27500E+01
         0.27500E+01
         0.27500E+01
         0.27500E+01
         0.27500E+01
         0.27500E+01
         0.27500E+01
         0.27500E+01
         0.27500E+01
         0.27500E+01
         0.27500E+01
         0.27500E+01
         0.27500E+01
         0.27500E+01
         0.27500E+01
         0.27500E+01
         0.27500E+01
         0.27500E+01
         0.27500E+01
         0.27500E+01
         0.27500E+01
         0.27500E+01
         0.27500E+01
         0.27500E+01
         0.27500E+01
         0.27500E+01
         0.27500E+01
         0.27500E+01
         0.27500E+01
         0.27500E+01
         0.27500E+01
         0.27500E+01
         0.27500E+01
         0.27500E+01
         0.27500E+01
         0.27500E+01
         0.27500E+01
         0.27500E+01
         0.27500E+01
         0.27500E+01
         0.27500E+01
         0.27500E+01
         0.27500E+01
         0.27500E+01
         0.27500E+01
         0.27500E+01
         0.27500E+01
         0.27500E+01
         0.27500E+01
         0.27500E+01
         0.27500E+01
         0.27500E+01
         0.27500E+01
         0.27500E+01
         0.27500E+01
         0.27500E+01
         0.27500E+01
         0.27500E+01
         0.27500E+01
         0.27500E+01
         0.27500E+01
         0.27500E+01
         0.27500E+01
         0.27500E+01
         0.27500E+01
         0.27500E+01
         0.27500E+01
         0.27500E+01
         0.27500E+01
         0.27500E+01
         0.27500E+01
         0.27500E+01
         0.27500E+01
         0.27500E+01
         0.27500E+01
         0.27500E+01
         0.27500E+01
         0.27500E+01
         0.27500E+01
         0.27500E+01
         0.27500E+01
         0.27500E+01
         0.27500E+01
         0.27500E+01
         0.27500E+01
         0.27500E+01
         0.27500E+01
         0.27500E+01
         0.27500E+01
         0.27500E+01
         0.27500E+01
         0.27500E+01
         0.27500E+01
         0.27500E+01
         0.27500E+01
         0.27500E+01
         0.27500E+01
         0.27500E+01
         0.27500E+01
         0.27500E+01
         0.27500E+01
         0.27500E+01
         0.27500E+01
         0.27500E+01
         0.27500E+01
         0.27500E+01
         0.27500E+01
         0.27500E+01
         0.27500E+01
         0.27500E+01
         0.27500E+01
         0.27500E+01
         0.27500E+01
         0.27500E+01
         0.27500E+01
         0.27500E+01
         0.27500E+01
         0.27500E+01
         0.27500E+01
         0.27500E+01
         0.27500E+01
         0.27500E+01
         0.27500E+01
         0.27500E+01
         0.27500E+01
         0.27500E+01
         0.27500E+01
         0.27500E+01
         0.27500E+01
         0.27500E+01
         0.27500E+01
         0.27500E+01
         0.27500E+01
         0.27500E+01
         0.27500E+01
         0.27500E+01
         0.27500E+01
         0.27500E+01
         0.27500E+01
         0.27500E+01
         0.27500E+01
         0.27500E+01
         0.27500E+01
         0.27500E+01
         0.27500E+01
         0.27500E+01
         0.27500E+01
         0.27500E+01
         0.27500E+01
         0.27500E+01
         0.27500E+01
         0.27500E+01
         0.27500E+01
         0.27500E+01
         0.27500E+01
         0.27500E+01
         0.27500E+01
         0.27500E+01
         0.27500E+01
         0.27500E+01
         0.27500E+01
         0.27500E+01
         0.27500E+01
         0.27500E+01
         0.27500E+01
         0.27500E+01
         0.27500E+01
         0.27500E+01
         0.27500E+01
         0.27500E+01
         0.27500E+01
         0.27500E+01
         0.27500E+01
         0.27500E+01
         0.27500E+01
         0.27500E+01
         0.27500E+01
         0.27500E+01
         0.27500E+01
         0.27500E+01
         0.27500E+01
         0.27500E+01
         0.27500E+01
         0.27500E+01
         0.27500E+01
         0.27500E+01
         0.27500E+01
         0.27500E+01
         0.27500E+01
         0.27500E+01
         0.27500E+01
         0.27500E+01
         0.27500E+01
         0.27500E+01
         0.27500E+01
         0.27500E+01
         0.27500E+01
         0.27500E+01
         0.27500E+01
         0.27500E+01
         0.27500E+01
         0.27500E+01
         0.27500E+01
         0.27500E+01
         0.27500E+01
         0.27500E+01
         0.27500E+01
         0.27500E+01
         0.27500E+01
         0.27500E+01
         0.27500E+01
         0.27500E+01
         0.27500E+01
         0.27500E+01
         0.27500E+01
         0.27500E+01
         0.27500E+01
         0.27500E+01
         0.27500E+01
         0.27500E+01
         0.27500E+01
         0.27500E+01
         0.27500E+01
         0.27500E+01
         0.27500E+01
         0.27500E+01
         0.27500E+01
         0.27500E+01
         0.27500E+01
         0.27500E+01
         0.27500E+01
         0.27500E+01
         0.27500E+01
         0.27500E+01
         0.27500E+01
         0.27500E+01
         0.27500E+01
         0.27500E+01
         0.27500E+01
         0.27500E+01
         0.27500E+01
         0.27500E+01
         0.27500E+01
         0.27500E+01
         0.27500E+01
         0.27500E+01
         0.27500E+01
         0.27500E+01
         0.27500E+01
         0.27500E+01
         0.27500E+01
         0.27500E+01
         0.27500E+01
         0.27500E+01
         0.27500E+01
         0.27500E+01
         0.27500E+01
         0.27500E+01
         0.27500E+01
         0.27500E+01
         0.27500E+01
         0.27500E+01
         0.27500E+01
         0.27500E+01
         0.27500E+01
         0.27500E+01
         0.27500E+01
         0.27500E+01
         0.27500E+01
         0.27500E+01
         0.27500E+01
         0.27500E+01
         0.27500E+01
         0.27500E+01
         0.27500E+01
         0.27500E+01
         0.27500E+01
         0.27500E+01
         0.27500E+01
         0.27500E+01
         0.27500E+01
         0.27500E+01
         0.27500E+01
         0.27500E+01
         0.27500E+01
         0.27500E+01
         0.27500E+01
         0.27500E+01
         0.27500E+01
         0.27500E+01
         0.27500E+01
         0.27500E+01
         0.27500E+01
         0.27500E+01
         0.27500E+01
         0.27500E+01
         0.27500E+01
         0.27500E+01
         0.27500E+01
         0.27500E+01
         0.27500E+01
         0.27500E+01
         0.27500E+01
         0.27500E+01
         0.27500E+01
         0.27500E+01
         0.27500E+01
         0.27500E+01
         0.27500E+01
         0.27500E+01
         0.27500E+01
         0.27500E+01
         0.27500E+01
         0.27500E+01
         0.27500E+01
         0.27500E+01
         0.27500E+01
         0.27500E+01
         0.27500E+01
         0.27500E+01
         0.27500E+01
         0.27500E+01
         0.27500E+01
         0.27500E+01
         0.27500E+01
         0.27500E+01
         0.27500E+01
         0.27500E+01
         0.27500E+01
         0.27500E+01
         0.27500E+01
         0.27500E+01
         0.27500E+01
         0.27500E+01
         0.27500E+01
         0.27500E+01
         0.27500E+01
         0.27500E+01
         0.27500E+01
         0.27500E+01
         0.27500E+01
         0.27500E+01
         0.27500E+01
         0.27500E+01
         0.27500E+01
         0.27500E+01
         0.27500E+01
         0.27500E+01
         0.27500E+01
         0.27500E+01
         0.27500E+01
         0.27500E+01
         0.27500E+01
         0.27500E+01
         0.27500E+01
         0.27500E+01
         0.27500E+01
         0.27500E+01
         0.27500E+01
         0.27500E+01
         0.27500E+01
         0.27500E+01
         0.27500E+01
         0.27500E+01
         0.27500E+01
         0.27500E+01
         0.27500E+01
         0.27500E+01
         0.27500E+01
         0.27500E+01
         0.27500E+01
         0.27500E+01
         0.27500E+01
         0.27500E+01
         0.27500E+01
         0.27500E+01
         0.27500E+01
         0.27500E+01
         0.27500E+01
         0.27500E+01
         0.27500E+01
         0.27500E+01
         0.27500E+01
         0.27500E+01
         0.27500E+01
         0.27500E+01
         0.27500E+01
         0.27500E+01
         0.27500E+01
         0.27500E+01
         0.27500E+01
         0.27500E+01
         0.27500E+01
         0.27500E+01
         0.27500E+01
         0.27500E+01
         0.27500E+01
         0.27500E+01
         0.27500E+01
         0.27500E+01
         0.27500E+01
         0.27500E+01
         0.27500E+01
         0.27500E+01
         0.27500E+01
         0.27500E+01
         0.27500E+01
         0.27500E+01
         0.27500E+01
         0.27500E+01
         0.27500E+01
         0.27500E+01
         0.27500E+01
         0.27500E+01
         0.27500E+01
         0.27500E+01
         0.27500E+01
         0.27500E+01
         0.27500E+01
         0.27500E+01
         0.27500E+01
         0.27500E+01
         0.27500E+01
         0.27500E+01
         0.27500E+01
         0.27500E+01
         0.27500E+01
         0.27500E+01
         0.27500E+01
         0.27500E+01
         0.27500E+01
         0.27500E+01
         0.27500E+01
         0.27500E+01
         0.27500E+01
         0.27500E+01
         0.27500E+01
         0.27500E+01
         0.27500E+01
         0.27500E+01
         0.27500E+01
         0.27500E+01
         0.27500E+01
         0.27500E+01
         0.27500E+01
         0.27500E+01
         0.27500E+01
         0.27500E+01
         0.27500E+01
         0.27500E+01
         0.27500E+01
         0.27500E+01
         0.27500E+01
         0.27500E+01
         0.27500E+01
         0.27500E+01
         0.27500E+01
         0.27500E+01
         0.27500E+01
         0.27500E+01
         0.27500E+01
         0.27500E+01
         0.27500E+01
         0.27500E+01
         0.27500E+01
         0.27500E+01
         0.27500E+01
         0.27500E+01
         0.27500E+01
         0.27500E+01
         0.27500E+01
         0.27500E+01
         0.27500E+01
         0.27500E+01
         0.27500E+01
         0.27500E+01
         0.27500E+01
         0.27500E+01
         0.27500E+01
         0.27500E+01
         0.27500E+01
         0.27500E+01
         0.27500E+01
         0.27500E+01
         0.27500E+01
         0.27500E+01
         0.27500E+01
         0.27500E+01
         0.27500E+01
         0.27500E+01
         0.27500E+01
         0.27500E+01
         0.27500E+01
         0.27500E+01
         0.27500E+01
         0.27500E+01
         0.27500E+01
         0.27500E+01
         0.27500E+01
         0.27500E+01
         0.27500E+01
         0.27500E+01
         0.27500E+01
         0.27500E+01
         0.27500E+01
         0.27500E+01
         0.27500E+01
         0.27500E+01
         0.27500E+01
         0.27500E+01
         0.27500E+01
         0.27500E+01
         0.27500E+01
         0.27500E+01
         0.27500E+01
         0.27500E+01
         0.27500E+01
         0.27500E+01
         0.27500E+01
         0.27500E+01
         0.27500E+01
         0.27500E+01
         0.27500E+01
         0.27500E+01
         0.27500E+01
         0.27500E+01
         0.27500E+01
         0.27500E+01
         0.27500E+01
         0.27500E+01
         0.27500E+01
         0.27500E+01
         0.27500E+01
         0.27500E+01
         0.27500E+01
         0.27500E+01
         0.27500E+01
         0.27500E+01
         0.27500E+01
         0.27500E+01
         0.27500E+01
  
SCALARS              physical_window_x  double 1
LOOKUP_TABLE default
         0.42419E-02
         0.35201E-02
         0.37624E-02
         0.42419E-02
         0.42417E-02
         0.35201E-02
         0.37618E-02
         0.42417E-02
         0.37624E-02
         0.37624E-02
         0.37618E-02
         0.37618E-02
         0.30086E-02
         0.32069E-02
         0.30084E-02
         0.32067E-02
         0.42419E-02
         0.32069E-02
         0.42417E-02
         0.32067E-02
         0.24180E-02
         0.29942E-02
         0.32396E-02
         0.24180E-02
         0.29933E-02
         0.32385E-02
         0.26608E-02
         0.27190E-02
         0.26608E-02
         0.27190E-02
         0.42687E-02
         0.36511E-02
         0.42687E-02
         0.42687E-02
         0.36511E-02
         0.42687E-02
         0.32069E-02
         0.29739E-02
         0.32066E-02
         0.29739E-02
         0.34652E-02
         0.32621E-02
         0.34652E-02
         0.32621E-02
         0.37123E-02
         0.32069E-02
         0.37123E-02
         0.32066E-02
         0.30844E-02
         0.30844E-02
         0.35191E-02
         0.35189E-02
         0.26925E-02
         0.26925E-02
         0.26925E-02
         0.26925E-02
         0.24643E-02
         0.27651E-02
         0.24643E-02
         0.27651E-02
         0.42687E-02
         0.35191E-02
         0.42687E-02
         0.35189E-02
         0.42687E-02
         0.42687E-02
         0.34658E-02
         0.34648E-02
         0.27274E-02
         0.31799E-02
         0.27273E-02
         0.31796E-02
         0.32396E-02
         0.32385E-02
         0.26964E-02
         0.26960E-02
         0.27828E-02
         0.27828E-02
         0.27828E-02
         0.27828E-02
         0.27004E-02
         0.31883E-02
         0.27003E-02
         0.31880E-02
         0.31883E-02
         0.31880E-02
         0.37123E-02
         0.37123E-02
         0.36245E-02
         0.36245E-02
         0.28253E-02
         0.31642E-02
         0.28253E-02
         0.31636E-02
         0.33485E-02
         0.33485E-02
         0.33485E-02
         0.33485E-02
         0.31978E-02
         0.31969E-02
         0.29849E-02
         0.32843E-02
         0.29849E-02
         0.32843E-02
         0.27274E-02
         0.31109E-02
         0.27273E-02
         0.31109E-02
         0.31799E-02
         0.31796E-02
         0.32396E-02
         0.32385E-02
         0.32396E-02
         0.32385E-02
         0.29942E-02
         0.29933E-02
         0.27190E-02
         0.27190E-02
         0.26964E-02
         0.26960E-02
         0.27828E-02
         0.27828E-02
         0.27828E-02
         0.27828E-02
         0.27004E-02
         0.27003E-02
         0.31883E-02
         0.31880E-02
         0.31883E-02
         0.31880E-02
         0.32621E-02
         0.32621E-02
         0.34652E-02
         0.34652E-02
         0.37123E-02
         0.37123E-02
         0.37123E-02
         0.37123E-02
         0.36245E-02
         0.36245E-02
         0.28253E-02
         0.28253E-02
         0.29097E-02
         0.29087E-02
         0.32389E-02
         0.32378E-02
         0.32389E-02
         0.32378E-02
         0.31978E-02
         0.31969E-02
         0.29849E-02
         0.29849E-02
         0.32843E-02
         0.32843E-02
         0.32843E-02
         0.32843E-02
         0.42420E-02
         0.35201E-02
         0.37629E-02
         0.42420E-02
         0.37629E-02
         0.37629E-02
         0.30087E-02
         0.32071E-02
         0.42420E-02
         0.32071E-02
         0.24178E-02
         0.29952E-02
         0.32407E-02
         0.26596E-02
         0.27191E-02
         0.42679E-02
         0.36502E-02
         0.42679E-02
         0.32071E-02
         0.29727E-02
         0.34648E-02
         0.32622E-02
         0.37119E-02
         0.32071E-02
         0.30833E-02
         0.35193E-02
         0.26910E-02
         0.26910E-02
         0.24638E-02
         0.27644E-02
         0.42679E-02
         0.35193E-02
         0.42679E-02
         0.34670E-02
         0.27274E-02
         0.31802E-02
         0.32407E-02
         0.26968E-02
         0.27828E-02
         0.27828E-02
         0.27005E-02
         0.31885E-02
         0.31885E-02
         0.37119E-02
         0.36244E-02
         0.28250E-02
         0.31647E-02
         0.33484E-02
         0.33484E-02
         0.31986E-02
         0.29848E-02
         0.32841E-02
         0.27274E-02
         0.31099E-02
         0.31802E-02
         0.32407E-02
         0.32407E-02
         0.29952E-02
         0.27191E-02
         0.26968E-02
         0.27828E-02
         0.27828E-02
         0.27005E-02
         0.31885E-02
         0.31885E-02
         0.32622E-02
         0.34648E-02
         0.37119E-02
         0.37119E-02
         0.36244E-02
         0.28250E-02
         0.29106E-02
         0.32401E-02
         0.32401E-02
         0.31986E-02
         0.29848E-02
         0.32841E-02
         0.32841E-02
         0.42421E-02
         0.35201E-02
         0.37634E-02
         0.42421E-02
         0.37634E-02
         0.37634E-02
         0.30089E-02
         0.32073E-02
         0.42421E-02
         0.32073E-02
         0.24177E-02
         0.29961E-02
         0.32418E-02
         0.26584E-02
         0.27191E-02
         0.42670E-02
         0.36493E-02
         0.42670E-02
         0.32073E-02
         0.29714E-02
         0.34644E-02
         0.32623E-02
         0.37115E-02
         0.32073E-02
         0.30822E-02
         0.35195E-02
         0.26896E-02
         0.26896E-02
         0.24633E-02
         0.27638E-02
         0.42670E-02
         0.35195E-02
         0.42670E-02
         0.34681E-02
         0.27275E-02
         0.31805E-02
         0.32418E-02
         0.26972E-02
         0.27828E-02
         0.27828E-02
         0.27006E-02
         0.31888E-02
         0.31888E-02
         0.37115E-02
         0.36243E-02
         0.28247E-02
         0.31652E-02
         0.33483E-02
         0.33483E-02
         0.31995E-02
         0.29847E-02
         0.32839E-02
         0.27275E-02
         0.31090E-02
         0.31805E-02
         0.32418E-02
         0.32418E-02
         0.29961E-02
         0.27191E-02
         0.26972E-02
         0.27828E-02
         0.27828E-02
         0.27006E-02
         0.31888E-02
         0.31888E-02
         0.32623E-02
         0.34644E-02
         0.37115E-02
         0.37115E-02
         0.36243E-02
         0.28247E-02
         0.29116E-02
         0.32412E-02
         0.32412E-02
         0.31995E-02
         0.29847E-02
         0.32839E-02
         0.32839E-02
         0.42423E-02
         0.35200E-02
         0.37639E-02
         0.42423E-02
         0.37639E-02
         0.37639E-02
         0.30091E-02
         0.32075E-02
         0.42423E-02
         0.32075E-02
         0.24176E-02
         0.29970E-02
         0.32428E-02
         0.26572E-02
         0.27192E-02
         0.42662E-02
         0.36483E-02
         0.42662E-02
         0.32075E-02
         0.29702E-02
         0.34639E-02
         0.32624E-02
         0.37111E-02
         0.32075E-02
         0.30811E-02
         0.35197E-02
         0.26881E-02
         0.26881E-02
         0.24628E-02
         0.27631E-02
         0.42662E-02
         0.35197E-02
         0.42662E-02
         0.34692E-02
         0.27276E-02
         0.31808E-02
         0.32428E-02
         0.26975E-02
         0.27828E-02
         0.27828E-02
         0.27007E-02
         0.31890E-02
         0.31890E-02
         0.37111E-02
         0.36242E-02
         0.28243E-02
         0.31658E-02
         0.33482E-02
         0.33482E-02
         0.32003E-02
         0.29846E-02
         0.32837E-02
         0.27276E-02
         0.31081E-02
         0.31808E-02
         0.32428E-02
         0.32428E-02
         0.29970E-02
         0.27192E-02
         0.26975E-02
         0.27828E-02
         0.27828E-02
         0.27007E-02
         0.31890E-02
         0.31890E-02
         0.32624E-02
         0.34639E-02
         0.37111E-02
         0.37111E-02
         0.36242E-02
         0.28243E-02
         0.29125E-02
         0.32423E-02
         0.32423E-02
         0.32003E-02
         0.29846E-02
         0.32837E-02
         0.32837E-02
         0.42424E-02
         0.35200E-02
         0.37644E-02
         0.42424E-02
         0.37644E-02
         0.37644E-02
         0.30093E-02
         0.32077E-02
         0.42424E-02
         0.32077E-02
         0.24174E-02
         0.29979E-02
         0.32439E-02
         0.26559E-02
         0.27192E-02
         0.42653E-02
         0.36474E-02
         0.42653E-02
         0.32077E-02
         0.29690E-02
         0.34635E-02
         0.32624E-02
         0.37108E-02
         0.32077E-02
         0.30799E-02
         0.35199E-02
         0.26867E-02
         0.26867E-02
         0.24623E-02
         0.27625E-02
         0.42653E-02
         0.35199E-02
         0.42653E-02
         0.34703E-02
         0.27276E-02
         0.31812E-02
         0.32439E-02
         0.26979E-02
         0.27828E-02
         0.27828E-02
         0.27008E-02
         0.31893E-02
         0.31893E-02
         0.37108E-02
         0.36241E-02
         0.28240E-02
         0.31663E-02
         0.33481E-02
         0.33481E-02
         0.32012E-02
         0.29844E-02
         0.32835E-02
         0.27276E-02
         0.31071E-02
         0.31812E-02
         0.32439E-02
         0.32439E-02
         0.29979E-02
         0.27192E-02
         0.26979E-02
         0.27828E-02
         0.27828E-02
         0.27008E-02
         0.31893E-02
         0.31893E-02
         0.32624E-02
         0.34635E-02
         0.37108E-02
         0.37108E-02
         0.36241E-02
         0.28240E-02
         0.29135E-02
         0.32434E-02
         0.32434E-02
         0.32012E-02
         0.29844E-02
         0.32835E-02
         0.32835E-02
         0.42425E-02
         0.35200E-02
         0.37649E-02
         0.42425E-02
         0.37649E-02
         0.37649E-02
         0.30095E-02
         0.32079E-02
         0.42425E-02
         0.32079E-02
         0.24173E-02
         0.29989E-02
         0.32450E-02
         0.26547E-02
         0.27193E-02
         0.42645E-02
         0.36465E-02
         0.42645E-02
         0.32079E-02
         0.29677E-02
         0.34631E-02
         0.32625E-02
         0.37104E-02
         0.32079E-02
         0.30788E-02
         0.35201E-02
         0.26852E-02
         0.26852E-02
         0.24618E-02
         0.27618E-02
         0.42645E-02
         0.35201E-02
         0.42645E-02
         0.34715E-02
         0.27277E-02
         0.31815E-02
         0.32450E-02
         0.26983E-02
         0.27828E-02
         0.27828E-02
         0.27009E-02
         0.31895E-02
         0.31895E-02
         0.37104E-02
         0.36239E-02
         0.28237E-02
         0.31668E-02
         0.33480E-02
         0.33480E-02
         0.32020E-02
         0.29843E-02
         0.32833E-02
         0.27277E-02
         0.31062E-02
         0.31815E-02
         0.32450E-02
         0.32450E-02
         0.29989E-02
         0.27193E-02
         0.26983E-02
         0.27828E-02
         0.27828E-02
         0.27009E-02
         0.31895E-02
         0.31895E-02
         0.32625E-02
         0.34631E-02
         0.37104E-02
         0.37104E-02
         0.36239E-02
         0.28237E-02
         0.29145E-02
         0.32445E-02
         0.32445E-02
         0.32020E-02
         0.29843E-02
         0.32833E-02
         0.32833E-02
         0.42427E-02
         0.35200E-02
         0.37654E-02
         0.42427E-02
         0.37654E-02
         0.37654E-02
         0.30097E-02
         0.32081E-02
         0.42427E-02
         0.32081E-02
         0.24171E-02
         0.29998E-02
         0.32461E-02
         0.26535E-02
         0.27193E-02
         0.42636E-02
         0.36455E-02
         0.42636E-02
         0.32081E-02
         0.29665E-02
         0.34626E-02
         0.32626E-02
         0.37100E-02
         0.32081E-02
         0.30777E-02
         0.35203E-02
         0.26838E-02
         0.26838E-02
         0.24613E-02
         0.27611E-02
         0.42636E-02
         0.35203E-02
         0.42636E-02
         0.34726E-02
         0.27278E-02
         0.31818E-02
         0.32461E-02
         0.26987E-02
         0.27827E-02
         0.27827E-02
         0.27010E-02
         0.31898E-02
         0.31898E-02
         0.37100E-02
         0.36238E-02
         0.28234E-02
         0.31673E-02
         0.33479E-02
         0.33479E-02
         0.32029E-02
         0.29842E-02
         0.32831E-02
         0.27278E-02
         0.31052E-02
         0.31818E-02
         0.32461E-02
         0.32461E-02
         0.29998E-02
         0.27193E-02
         0.26987E-02
         0.27827E-02
         0.27827E-02
         0.27010E-02
         0.31898E-02
         0.31898E-02
         0.32626E-02
         0.34626E-02
         0.37100E-02
         0.37100E-02
         0.36238E-02
         0.28234E-02
         0.29154E-02
         0.32457E-02
         0.32457E-02
         0.32029E-02
         0.29842E-02
         0.32831E-02
         0.32831E-02
         0.42428E-02
         0.35199E-02
         0.37660E-02
         0.42428E-02
         0.37660E-02
         0.37660E-02
         0.30099E-02
         0.32083E-02
         0.42428E-02
         0.32083E-02
         0.24170E-02
         0.30007E-02
         0.32471E-02
         0.26523E-02
         0.27194E-02
         0.42628E-02
         0.36446E-02
         0.42628E-02
         0.32083E-02
         0.29652E-02
         0.34622E-02
         0.32627E-02
         0.37096E-02
         0.32083E-02
         0.30766E-02
         0.35205E-02
         0.26823E-02
         0.26823E-02
         0.24608E-02
         0.27605E-02
         0.42628E-02
         0.35205E-02
         0.42628E-02
         0.34737E-02
         0.27279E-02
         0.31821E-02
         0.32471E-02
         0.26991E-02
         0.27827E-02
         0.27827E-02
         0.27011E-02
         0.31900E-02
         0.31900E-02
         0.37096E-02
         0.36237E-02
         0.28231E-02
         0.31679E-02
         0.33478E-02
         0.33478E-02
         0.32038E-02
         0.29841E-02
         0.32829E-02
         0.27279E-02
         0.31043E-02
         0.31821E-02
         0.32471E-02
         0.32471E-02
         0.30007E-02
         0.27194E-02
         0.26991E-02
         0.27827E-02
         0.27827E-02
         0.27011E-02
         0.31900E-02
         0.31900E-02
         0.32627E-02
         0.34622E-02
         0.37096E-02
         0.37096E-02
         0.36237E-02
         0.28231E-02
         0.29164E-02
         0.32468E-02
         0.32468E-02
         0.32038E-02
         0.29841E-02
         0.32829E-02
         0.32829E-02
         0.42429E-02
         0.35199E-02
         0.37665E-02
         0.42429E-02
         0.37665E-02
         0.37665E-02
         0.30101E-02
         0.32085E-02
         0.42429E-02
         0.32085E-02
         0.24168E-02
         0.30017E-02
         0.32482E-02
         0.26510E-02
         0.27194E-02
         0.42619E-02
         0.36437E-02
         0.42619E-02
         0.32085E-02
         0.29640E-02
         0.34618E-02
         0.32627E-02
         0.37092E-02
         0.32085E-02
         0.30755E-02
         0.35207E-02
         0.26808E-02
         0.26808E-02
         0.24603E-02
         0.27599E-02
         0.42619E-02
         0.35207E-02
         0.42619E-02
         0.34748E-02
         0.27279E-02
         0.31824E-02
         0.32482E-02
         0.26994E-02
         0.27827E-02
         0.27827E-02
         0.27012E-02
         0.31902E-02
         0.31902E-02
         0.37092E-02
         0.36236E-02
         0.28227E-02
         0.31684E-02
         0.33477E-02
         0.33477E-02
         0.32046E-02
         0.29840E-02
         0.32827E-02
         0.27279E-02
         0.31034E-02
         0.31824E-02
         0.32482E-02
         0.32482E-02
         0.30017E-02
         0.27194E-02
         0.26994E-02
         0.27827E-02
         0.27827E-02
         0.27012E-02
         0.31902E-02
         0.31902E-02
         0.32627E-02
         0.34618E-02
         0.37092E-02
         0.37092E-02
         0.36236E-02
         0.28227E-02
         0.29173E-02
         0.32479E-02
         0.32479E-02
         0.32046E-02
         0.29840E-02
         0.32827E-02
         0.32827E-02
         0.42431E-02
         0.35199E-02
         0.37670E-02
         0.42431E-02
         0.37670E-02
         0.37670E-02
         0.30102E-02
         0.32087E-02
         0.42431E-02
         0.32087E-02
         0.24167E-02
         0.30026E-02
         0.32493E-02
         0.26498E-02
         0.27194E-02
         0.42611E-02
         0.36427E-02
         0.42611E-02
         0.32087E-02
         0.29628E-02
         0.34613E-02
         0.32628E-02
         0.37089E-02
         0.32087E-02
         0.30744E-02
         0.35209E-02
         0.26794E-02
         0.26794E-02
         0.24598E-02
         0.27592E-02
         0.42611E-02
         0.35209E-02
         0.42611E-02
         0.34759E-02
         0.27280E-02
         0.31827E-02
         0.32493E-02
         0.26998E-02
         0.27827E-02
         0.27827E-02
         0.27013E-02
         0.31905E-02
         0.31905E-02
         0.37089E-02
         0.36235E-02
         0.28224E-02
         0.31689E-02
         0.33476E-02
         0.33476E-02
         0.32055E-02
         0.29839E-02
         0.32825E-02
         0.27280E-02
         0.31024E-02
         0.31827E-02
         0.32493E-02
         0.32493E-02
         0.30026E-02
         0.27194E-02
         0.26998E-02
         0.27827E-02
         0.27827E-02
         0.27013E-02
         0.31905E-02
         0.31905E-02
         0.32628E-02
         0.34613E-02
         0.37089E-02
         0.37089E-02
         0.36235E-02
         0.28224E-02
         0.29183E-02
         0.32490E-02
         0.32490E-02
         0.32055E-02
         0.29839E-02
         0.32825E-02
         0.32825E-02
         0.42432E-02
         0.35199E-02
         0.37675E-02
         0.42432E-02
         0.37675E-02
         0.37675E-02
         0.30104E-02
         0.32089E-02
         0.42432E-02
         0.32089E-02
         0.24166E-02
         0.30035E-02
         0.32504E-02
         0.26486E-02
         0.27195E-02
         0.42603E-02
         0.36418E-02
         0.42603E-02
         0.32089E-02
         0.29615E-02
         0.34609E-02
         0.32629E-02
         0.37085E-02
         0.32089E-02
         0.30732E-02
         0.35211E-02
         0.26779E-02
         0.26779E-02
         0.24593E-02
         0.27585E-02
         0.42603E-02
         0.35211E-02
         0.42603E-02
         0.34771E-02
         0.27281E-02
         0.31830E-02
         0.32504E-02
         0.27002E-02
         0.27827E-02
         0.27827E-02
         0.27014E-02
         0.31907E-02
         0.31907E-02
         0.37085E-02
         0.36233E-02
         0.28221E-02
         0.31694E-02
         0.33475E-02
         0.33475E-02
         0.32063E-02
         0.29838E-02
         0.32823E-02
         0.27281E-02
         0.31015E-02
         0.31830E-02
         0.32504E-02
         0.32504E-02
         0.30035E-02
         0.27195E-02
         0.27002E-02
         0.27827E-02
         0.27827E-02
         0.27014E-02
         0.31907E-02
         0.31907E-02
         0.32629E-02
         0.34609E-02
         0.37085E-02
         0.37085E-02
         0.36233E-02
         0.28221E-02
         0.29193E-02
         0.32501E-02
         0.32501E-02
         0.32063E-02
         0.29838E-02
         0.32823E-02
         0.32823E-02
         0.42433E-02
         0.35199E-02
         0.37680E-02
         0.42433E-02
         0.37680E-02
         0.37680E-02
         0.30106E-02
         0.32091E-02
         0.42433E-02
         0.32091E-02
         0.24164E-02
         0.30045E-02
         0.32514E-02
         0.26474E-02
         0.27195E-02
         0.42594E-02
         0.36409E-02
         0.42594E-02
         0.32091E-02
         0.29603E-02
         0.34605E-02
         0.32630E-02
         0.37081E-02
         0.32091E-02
         0.30721E-02
         0.35213E-02
         0.26765E-02
         0.26765E-02
         0.24588E-02
         0.27579E-02
         0.42594E-02
         0.35213E-02
         0.42594E-02
         0.34782E-02
         0.27281E-02
         0.31833E-02
         0.32514E-02
         0.27006E-02
         0.27826E-02
         0.27826E-02
         0.27015E-02
         0.31910E-02
         0.31910E-02
         0.37081E-02
         0.36232E-02
         0.28218E-02
         0.31700E-02
         0.33474E-02
         0.33474E-02
         0.32072E-02
         0.29836E-02
         0.32821E-02
         0.27281E-02
         0.31005E-02
         0.31833E-02
         0.32514E-02
         0.32514E-02
         0.30045E-02
         0.27195E-02
         0.27006E-02
         0.27826E-02
         0.27826E-02
         0.27015E-02
         0.31910E-02
         0.31910E-02
         0.32630E-02
         0.34605E-02
         0.37081E-02
         0.37081E-02
         0.36232E-02
         0.28218E-02
         0.29202E-02
         0.32512E-02
         0.32512E-02
         0.32072E-02
         0.29836E-02
         0.32821E-02
         0.32821E-02
         0.42435E-02
         0.35199E-02
         0.37685E-02
         0.42435E-02
         0.37685E-02
         0.37685E-02
         0.30108E-02
         0.32093E-02
         0.42435E-02
         0.32093E-02
         0.24163E-02
         0.30054E-02
         0.32525E-02
         0.26461E-02
         0.27196E-02
         0.42586E-02
         0.36399E-02
         0.42586E-02
         0.32093E-02
         0.29591E-02
         0.34601E-02
         0.32630E-02
         0.37077E-02
         0.32093E-02
         0.30710E-02
         0.35215E-02
         0.26750E-02
         0.26750E-02
         0.24583E-02
         0.27572E-02
         0.42586E-02
         0.35215E-02
         0.42586E-02
         0.34793E-02
         0.27282E-02
         0.31836E-02
         0.32525E-02
         0.27010E-02
         0.27826E-02
         0.27826E-02
         0.27016E-02
         0.31912E-02
         0.31912E-02
         0.37077E-02
         0.36231E-02
         0.28215E-02
         0.31705E-02
         0.33473E-02
         0.33473E-02
         0.32080E-02
         0.29835E-02
         0.32819E-02
         0.27282E-02
         0.30996E-02
         0.31836E-02
         0.32525E-02
         0.32525E-02
         0.30054E-02
         0.27196E-02
         0.27010E-02
         0.27826E-02
         0.27826E-02
         0.27016E-02
         0.31912E-02
         0.31912E-02
         0.32630E-02
         0.34601E-02
         0.37077E-02
         0.37077E-02
         0.36231E-02
         0.28215E-02
         0.29212E-02
         0.32524E-02
         0.32524E-02
         0.32080E-02
         0.29835E-02
         0.32819E-02
         0.32819E-02
         0.42436E-02
         0.35198E-02
         0.37690E-02
         0.42436E-02
         0.37690E-02
         0.37690E-02
         0.30110E-02
         0.32095E-02
         0.42436E-02
         0.32095E-02
         0.24162E-02
         0.30064E-02
         0.32536E-02
         0.26449E-02
         0.27196E-02
         0.42577E-02
         0.36390E-02
         0.42577E-02
         0.32096E-02
         0.29578E-02
         0.34596E-02
         0.32631E-02
         0.37074E-02
         0.32096E-02
         0.30699E-02
         0.35217E-02
         0.26735E-02
         0.26735E-02
         0.24578E-02
         0.27566E-02
         0.42577E-02
         0.35217E-02
         0.42577E-02
         0.34804E-02
         0.27283E-02
         0.31839E-02
         0.32536E-02
         0.27013E-02
         0.27826E-02
         0.27826E-02
         0.27017E-02
         0.31915E-02
         0.31915E-02
         0.37074E-02
         0.36230E-02
         0.28211E-02
         0.31710E-02
         0.33472E-02
         0.33472E-02
         0.32089E-02
         0.29834E-02
         0.32817E-02
         0.27283E-02
         0.30986E-02
         0.31839E-02
         0.32536E-02
         0.32536E-02
         0.30064E-02
         0.27196E-02
         0.27013E-02
         0.27826E-02
         0.27826E-02
         0.27017E-02
         0.31915E-02
         0.31915E-02
         0.32631E-02
         0.34596E-02
         0.37074E-02
         0.37074E-02
         0.36230E-02
         0.28211E-02
         0.29221E-02
         0.32535E-02
         0.32535E-02
         0.32089E-02
         0.29834E-02
         0.32817E-02
         0.32817E-02
         0.42437E-02
         0.35198E-02
         0.37695E-02
         0.42437E-02
         0.37695E-02
         0.37695E-02
         0.30112E-02
         0.32097E-02
         0.42437E-02
         0.32097E-02
         0.24160E-02
         0.30073E-02
         0.32547E-02
         0.26437E-02
         0.27197E-02
         0.42569E-02
         0.36381E-02
         0.42569E-02
         0.32098E-02
         0.29566E-02
         0.34592E-02
         0.32632E-02
         0.37070E-02
         0.32098E-02
         0.30688E-02
         0.35219E-02
         0.26721E-02
         0.26721E-02
         0.24573E-02
         0.27560E-02
         0.42569E-02
         0.35219E-02
         0.42569E-02
         0.34815E-02
         0.27284E-02
         0.31843E-02
         0.32547E-02
         0.27017E-02
         0.27826E-02
         0.27826E-02
         0.27018E-02
         0.31917E-02
         0.31917E-02
         0.37070E-02
         0.36229E-02
         0.28208E-02
         0.31716E-02
         0.33471E-02
         0.33471E-02
         0.32097E-02
         0.29833E-02
         0.32815E-02
         0.27284E-02
         0.30977E-02
         0.31843E-02
         0.32547E-02
         0.32547E-02
         0.30073E-02
         0.27197E-02
         0.27017E-02
         0.27826E-02
         0.27826E-02
         0.27018E-02
         0.31917E-02
         0.31917E-02
         0.32632E-02
         0.34592E-02
         0.37070E-02
         0.37070E-02
         0.36229E-02
         0.28208E-02
         0.29231E-02
         0.32546E-02
         0.32546E-02
         0.32097E-02
         0.29833E-02
         0.32815E-02
         0.32815E-02
         0.42439E-02
         0.35198E-02
         0.37701E-02
         0.42439E-02
         0.37701E-02
         0.37701E-02
         0.30113E-02
         0.32099E-02
         0.42439E-02
         0.32099E-02
         0.24159E-02
         0.30082E-02
         0.32558E-02
         0.26425E-02
         0.27197E-02
         0.42560E-02
         0.36371E-02
         0.42560E-02
         0.32100E-02
         0.29554E-02
         0.34588E-02
         0.32633E-02
         0.37066E-02
         0.32100E-02
         0.30677E-02
         0.35221E-02
         0.26706E-02
         0.26706E-02
         0.24568E-02
         0.27553E-02
         0.42560E-02
         0.35221E-02
         0.42560E-02
         0.34827E-02
         0.27284E-02
         0.31846E-02
         0.32558E-02
         0.27021E-02
         0.27826E-02
         0.27826E-02
         0.27019E-02
         0.31920E-02
         0.31920E-02
         0.37066E-02
         0.36227E-02
         0.28205E-02
         0.31721E-02
         0.33470E-02
         0.33470E-02
         0.32106E-02
         0.29831E-02
         0.32813E-02
         0.27284E-02
         0.30968E-02
         0.31846E-02
         0.32558E-02
         0.32558E-02
         0.30082E-02
         0.27197E-02
         0.27021E-02
         0.27826E-02
         0.27826E-02
         0.27019E-02
         0.31920E-02
         0.31920E-02
         0.32633E-02
         0.34588E-02
         0.37066E-02
         0.37066E-02
         0.36227E-02
         0.28205E-02
         0.29241E-02
         0.32557E-02
         0.32557E-02
         0.32106E-02
         0.29831E-02
         0.32813E-02
         0.32813E-02
         0.42440E-02
         0.35198E-02
         0.37706E-02
         0.42440E-02
         0.37706E-02
         0.37706E-02
         0.30115E-02
         0.32101E-02
         0.42440E-02
         0.32101E-02
         0.24158E-02
         0.30091E-02
         0.32568E-02
         0.26412E-02
         0.27198E-02
         0.42552E-02
         0.36362E-02
         0.42552E-02
         0.32102E-02
         0.29541E-02
         0.34583E-02
         0.32633E-02
         0.37062E-02
         0.32102E-02
         0.30665E-02
         0.35223E-02
         0.26692E-02
         0.26692E-02
         0.24563E-02
         0.27546E-02
         0.42552E-02
         0.35223E-02
         0.42552E-02
         0.34838E-02
         0.27285E-02
         0.31849E-02
         0.32568E-02
         0.27025E-02
         0.27826E-02
         0.27826E-02
         0.27020E-02
         0.31922E-02
         0.31922E-02
         0.37062E-02
         0.36226E-02
         0.28202E-02
         0.31726E-02
         0.33469E-02
         0.33469E-02
         0.32114E-02
         0.29830E-02
         0.32811E-02
         0.27285E-02
         0.30958E-02
         0.31849E-02
         0.32568E-02
         0.32568E-02
         0.30091E-02
         0.27198E-02
         0.27025E-02
         0.27826E-02
         0.27826E-02
         0.27020E-02
         0.31922E-02
         0.31922E-02
         0.32633E-02
         0.34583E-02
         0.37062E-02
         0.37062E-02
         0.36226E-02
         0.28202E-02
         0.29250E-02
         0.32568E-02
         0.32568E-02
         0.32114E-02
         0.29830E-02
         0.32811E-02
         0.32811E-02
         0.42441E-02
         0.35198E-02
         0.37711E-02
         0.42441E-02
         0.37711E-02
         0.37711E-02
         0.30117E-02
         0.32103E-02
         0.42441E-02
         0.32103E-02
         0.24156E-02
         0.30101E-02
         0.32579E-02
         0.26400E-02
         0.27198E-02
         0.42543E-02
         0.36353E-02
         0.42543E-02
         0.32104E-02
         0.29529E-02
         0.34579E-02
         0.32634E-02
         0.37058E-02
         0.32104E-02
         0.30654E-02
         0.35225E-02
         0.26677E-02
         0.26677E-02
         0.24558E-02
         0.27540E-02
         0.42543E-02
         0.35225E-02
         0.42543E-02
         0.34849E-02
         0.27286E-02
         0.31852E-02
         0.32579E-02
         0.27029E-02
         0.27826E-02
         0.27826E-02
         0.27021E-02
         0.31924E-02
         0.31924E-02
         0.37058E-02
         0.36225E-02
         0.28198E-02
         0.31731E-02
         0.33468E-02
         0.33468E-02
         0.32123E-02
         0.29829E-02
         0.32809E-02
         0.27286E-02
         0.30949E-02
         0.31852E-02
         0.32579E-02
         0.32579E-02
         0.30101E-02
         0.27198E-02
         0.27029E-02
         0.27826E-02
         0.27826E-02
         0.27021E-02
         0.31924E-02
         0.31924E-02
         0.32634E-02
         0.34579E-02
         0.37058E-02
         0.37058E-02
         0.36225E-02
         0.28198E-02
         0.29260E-02
         0.32579E-02
         0.32579E-02
         0.32123E-02
         0.29829E-02
         0.32809E-02
         0.32809E-02
         0.42443E-02
         0.35197E-02
         0.37716E-02
         0.42443E-02
         0.37716E-02
         0.37716E-02
         0.30119E-02
         0.32105E-02
         0.42443E-02
         0.32105E-02
         0.24155E-02
         0.30110E-02
         0.32590E-02
         0.26388E-02
         0.27199E-02
         0.42535E-02
         0.36343E-02
         0.42535E-02
         0.32106E-02
         0.29517E-02
         0.34575E-02
         0.32635E-02
         0.37055E-02
         0.32106E-02
         0.30643E-02
         0.35227E-02
         0.26663E-02
         0.26663E-02
         0.24553E-02
         0.27533E-02
         0.42535E-02
         0.35227E-02
         0.42535E-02
         0.34860E-02
         0.27286E-02
         0.31855E-02
         0.32590E-02
         0.27032E-02
         0.27826E-02
         0.27826E-02
         0.27022E-02
         0.31927E-02
         0.31927E-02
         0.37055E-02
         0.36224E-02
         0.28195E-02
         0.31737E-02
         0.33467E-02
         0.33467E-02
         0.32132E-02
         0.29828E-02
         0.32807E-02
         0.27286E-02
         0.30939E-02
         0.31855E-02
         0.32590E-02
         0.32590E-02
         0.30110E-02
         0.27199E-02
         0.27032E-02
         0.27826E-02
         0.27826E-02
         0.27022E-02
         0.31927E-02
         0.31927E-02
         0.32635E-02
         0.34575E-02
         0.37055E-02
         0.37055E-02
         0.36224E-02
         0.28195E-02
         0.29269E-02
         0.32591E-02
         0.32591E-02
         0.32132E-02
         0.29828E-02
         0.32807E-02
         0.32807E-02
         0.42444E-02
         0.35197E-02
         0.37721E-02
         0.42444E-02
         0.37721E-02
         0.37721E-02
         0.30121E-02
         0.32107E-02
         0.42444E-02
         0.32107E-02
         0.24154E-02
         0.30119E-02
         0.32601E-02
         0.26376E-02
         0.27199E-02
         0.42527E-02
         0.36334E-02
         0.42527E-02
         0.32108E-02
         0.29504E-02
         0.34571E-02
         0.32636E-02
         0.37051E-02
         0.32108E-02
         0.30632E-02
         0.35229E-02
         0.26648E-02
         0.26648E-02
         0.24552E-02
         0.27527E-02
         0.42527E-02
         0.35229E-02
         0.42527E-02
         0.34871E-02
         0.27287E-02
         0.31858E-02
         0.32601E-02
         0.27036E-02
         0.27825E-02
         0.27825E-02
         0.27023E-02
         0.31929E-02
         0.31929E-02
         0.37051E-02
         0.36223E-02
         0.28192E-02
         0.31742E-02
         0.33466E-02
         0.33466E-02
         0.32140E-02
         0.29827E-02
         0.32805E-02
         0.27287E-02
         0.30930E-02
         0.31858E-02
         0.32601E-02
         0.32601E-02
         0.30119E-02
         0.27199E-02
         0.27036E-02
         0.27825E-02
         0.27825E-02
         0.27023E-02
         0.31929E-02
         0.31929E-02
         0.32636E-02
         0.34571E-02
         0.37051E-02
         0.37051E-02
         0.36223E-02
         0.28192E-02
         0.29279E-02
         0.32602E-02
         0.32602E-02
         0.32140E-02
         0.29827E-02
         0.32805E-02
         0.32805E-02
         0.42445E-02
         0.35197E-02
         0.37726E-02
         0.42445E-02
         0.37726E-02
         0.37726E-02
         0.30123E-02
         0.32108E-02
         0.42445E-02
         0.32108E-02
         0.24152E-02
         0.30129E-02
         0.32611E-02
         0.26363E-02
         0.27200E-02
         0.42518E-02
         0.36325E-02
         0.42518E-02
         0.32110E-02
         0.29492E-02
         0.34566E-02
         0.32636E-02
         0.37047E-02
         0.32110E-02
         0.30621E-02
         0.35231E-02
         0.26633E-02
         0.26633E-02
         0.24554E-02
         0.27520E-02
         0.42518E-02
         0.35231E-02
         0.42518E-02
         0.34882E-02
         0.27288E-02
         0.31861E-02
         0.32611E-02
         0.27040E-02
         0.27825E-02
         0.27825E-02
         0.27024E-02
         0.31932E-02
         0.31932E-02
         0.37047E-02
         0.36222E-02
         0.28189E-02
         0.31747E-02
         0.33465E-02
         0.33465E-02
         0.32149E-02
         0.29826E-02
         0.32803E-02
         0.27288E-02
         0.30921E-02
         0.31861E-02
         0.32611E-02
         0.32611E-02
         0.30129E-02
         0.27200E-02
         0.27040E-02
         0.27825E-02
         0.27825E-02
         0.27024E-02
         0.31932E-02
         0.31932E-02
         0.32636E-02
         0.34566E-02
         0.37047E-02
         0.37047E-02
         0.36222E-02
         0.28189E-02
         0.29289E-02
         0.32613E-02
         0.32613E-02
         0.32149E-02
         0.29826E-02
         0.32803E-02
         0.32803E-02
         0.42447E-02
         0.35196E-02
         0.37732E-02
         0.42447E-02
         0.37732E-02
         0.37732E-02
         0.30125E-02
         0.32111E-02
         0.42447E-02
         0.32111E-02
         0.24151E-02
         0.30138E-02
         0.32622E-02
         0.26351E-02
         0.27200E-02
         0.42510E-02
         0.36315E-02
         0.42510E-02
         0.32112E-02
         0.29480E-02
         0.34562E-02
         0.32637E-02
         0.37043E-02
         0.32112E-02
         0.30610E-02
         0.35233E-02
         0.26619E-02
         0.26619E-02
         0.24557E-02
         0.27514E-02
         0.42510E-02
         0.35233E-02
         0.42510E-02
         0.34894E-02
         0.27289E-02
         0.31864E-02
         0.32622E-02
         0.27044E-02
         0.27825E-02
         0.27825E-02
         0.27025E-02
         0.31934E-02
         0.31934E-02
         0.37043E-02
         0.36220E-02
         0.28186E-02
         0.31753E-02
         0.33464E-02
         0.33464E-02
         0.32157E-02
         0.29824E-02
         0.32801E-02
         0.27289E-02
         0.30911E-02
         0.31864E-02
         0.32622E-02
         0.32622E-02
         0.30138E-02
         0.27200E-02
         0.27044E-02
         0.27825E-02
         0.27825E-02
         0.27025E-02
         0.31934E-02
         0.31934E-02
         0.32637E-02
         0.34562E-02
         0.37043E-02
         0.37043E-02
         0.36220E-02
         0.28186E-02
         0.29298E-02
         0.32624E-02
         0.32624E-02
         0.32157E-02
         0.29824E-02
         0.32801E-02
         0.32801E-02
         0.42448E-02
         0.35196E-02
         0.37737E-02
         0.42448E-02
         0.37737E-02
         0.37737E-02
         0.30126E-02
         0.32112E-02
         0.42448E-02
         0.32112E-02
         0.24150E-02
         0.30147E-02
         0.32633E-02
         0.26339E-02
         0.27200E-02
         0.42501E-02
         0.36306E-02
         0.42501E-02
         0.32114E-02
         0.29467E-02
         0.34558E-02
         0.32638E-02
         0.37039E-02
         0.32114E-02
         0.30598E-02
         0.35235E-02
         0.26604E-02
         0.26604E-02
         0.24559E-02
         0.27507E-02
         0.42501E-02
         0.35235E-02
         0.42501E-02
         0.34905E-02
         0.27289E-02
         0.31867E-02
         0.32633E-02
         0.27048E-02
         0.27825E-02
         0.27825E-02
         0.27026E-02
         0.31937E-02
         0.31937E-02
         0.37039E-02
         0.36219E-02
         0.28183E-02
         0.31758E-02
         0.33463E-02
         0.33463E-02
         0.32166E-02
         0.29823E-02
         0.32799E-02
         0.27289E-02
         0.30902E-02
         0.31867E-02
         0.32633E-02
         0.32633E-02
         0.30147E-02
         0.27200E-02
         0.27048E-02
         0.27825E-02
         0.27825E-02
         0.27026E-02
         0.31937E-02
         0.31937E-02
         0.32638E-02
         0.34558E-02
         0.37039E-02
         0.37039E-02
         0.36219E-02
         0.28183E-02
         0.29308E-02
         0.32635E-02
         0.32635E-02
         0.32166E-02
         0.29823E-02
         0.32799E-02
         0.32799E-02
         0.42448E-02
         0.35196E-02
         0.37737E-02
         0.42448E-02
         0.37737E-02
         0.37737E-02
         0.30126E-02
         0.32112E-02
         0.42448E-02
         0.32112E-02
         0.24148E-02
         0.30147E-02
         0.32633E-02
         0.26327E-02
         0.27200E-02
         0.42493E-02
         0.36297E-02
         0.42493E-02
         0.32114E-02
         0.29455E-02
         0.34553E-02
         0.32638E-02
         0.37036E-02
         0.32114E-02
         0.30587E-02
         0.35235E-02
         0.26590E-02
         0.26590E-02
         0.24559E-02
         0.27501E-02
         0.42493E-02
         0.35235E-02
         0.42493E-02
         0.34905E-02
         0.27289E-02
         0.31867E-02
         0.32633E-02
         0.27048E-02
         0.27825E-02
         0.27825E-02
         0.27026E-02
         0.31937E-02
         0.31937E-02
         0.37036E-02
         0.36218E-02
         0.28180E-02
         0.31758E-02
         0.33462E-02
         0.33462E-02
         0.32166E-02
         0.29822E-02
         0.32797E-02
         0.27289E-02
         0.30892E-02
         0.31867E-02
         0.32633E-02
         0.32633E-02
         0.30147E-02
         0.27200E-02
         0.27048E-02
         0.27825E-02
         0.27825E-02
         0.27026E-02
         0.31937E-02
         0.31937E-02
         0.32638E-02
         0.34553E-02
         0.37036E-02
         0.37036E-02
         0.36218E-02
         0.28180E-02
         0.29308E-02
         0.32635E-02
         0.32635E-02
         0.32166E-02
         0.29822E-02
         0.32797E-02
         0.32797E-02
  
SCALARS              physical_window_y  double 1
LOOKUP_TABLE default
         0.43155E-02
         0.43155E-02
         0.43155E-02
         0.43155E-02
         0.43155E-02
         0.43155E-02
         0.43155E-02
         0.43155E-02
         0.34883E-02
         0.34883E-02
         0.34882E-02
         0.34882E-02
         0.32826E-02
         0.32142E-02
         0.32826E-02
         0.32142E-02
         0.37863E-02
         0.31884E-02
         0.37863E-02
         0.31884E-02
         0.27172E-02
         0.33887E-02
         0.37164E-02
         0.27172E-02
         0.33887E-02
         0.37164E-02
         0.27582E-02
         0.28966E-02
         0.27582E-02
         0.28954E-02
         0.37007E-02
         0.35859E-02
         0.37863E-02
         0.37007E-02
         0.35824E-02
         0.37863E-02
         0.29875E-02
         0.29875E-02
         0.29867E-02
         0.29867E-02
         0.28561E-02
         0.26860E-02
         0.28556E-02
         0.26852E-02
         0.29518E-02
         0.28068E-02
         0.29517E-02
         0.28066E-02
         0.29975E-02
         0.29949E-02
         0.37007E-02
         0.37007E-02
         0.28693E-02
         0.28693E-02
         0.28693E-02
         0.28693E-02
         0.27602E-02
         0.26193E-02
         0.27602E-02
         0.26193E-02
         0.37007E-02
         0.37007E-02
         0.37007E-02
         0.37007E-02
         0.37685E-02
         0.37665E-02
         0.37685E-02
         0.37665E-02
         0.30230E-02
         0.37003E-02
         0.30229E-02
         0.37003E-02
         0.37164E-02
         0.37164E-02
         0.31934E-02
         0.31921E-02
         0.32777E-02
         0.32771E-02
         0.32777E-02
         0.32771E-02
         0.27006E-02
         0.25920E-02
         0.27006E-02
         0.25920E-02
         0.25916E-02
         0.25916E-02
         0.29715E-02
         0.29715E-02
         0.29715E-02
         0.29715E-02
         0.26477E-02
         0.29102E-02
         0.26477E-02
         0.29102E-02
         0.34085E-02
         0.34085E-02
         0.35350E-02
         0.35350E-02
         0.35350E-02
         0.35350E-02
         0.29766E-02
         0.32272E-02
         0.29763E-02
         0.32254E-02
         0.29087E-02
         0.29835E-02
         0.29087E-02
         0.29825E-02
         0.37003E-02
         0.37003E-02
         0.37164E-02
         0.37164E-02
         0.37164E-02
         0.37164E-02
         0.33887E-02
         0.33887E-02
         0.28966E-02
         0.28954E-02
         0.31934E-02
         0.31921E-02
         0.32777E-02
         0.32771E-02
         0.32777E-02
         0.32771E-02
         0.27006E-02
         0.27006E-02
         0.25920E-02
         0.25920E-02
         0.25916E-02
         0.25916E-02
         0.26860E-02
         0.26852E-02
         0.28561E-02
         0.28556E-02
         0.29518E-02
         0.29517E-02
         0.29715E-02
         0.29715E-02
         0.29715E-02
         0.29715E-02
         0.26477E-02
         0.26477E-02
         0.27685E-02
         0.27685E-02
         0.34085E-02
         0.34085E-02
         0.35350E-02
         0.35350E-02
         0.35350E-02
         0.35350E-02
         0.29766E-02
         0.29763E-02
         0.31381E-02
         0.31368E-02
         0.31381E-02
         0.31368E-02
         0.43153E-02
         0.43153E-02
         0.43153E-02
         0.43153E-02
         0.34883E-02
         0.34883E-02
         0.32812E-02
         0.32132E-02
         0.37858E-02
         0.31880E-02
         0.27155E-02
         0.33883E-02
         0.37163E-02
         0.27535E-02
         0.28978E-02
         0.37004E-02
         0.35894E-02
         0.37858E-02
         0.29882E-02
         0.29882E-02
         0.28566E-02
         0.26867E-02
         0.29519E-02
         0.28071E-02
         0.30001E-02
         0.37004E-02
         0.28667E-02
         0.28667E-02
         0.27589E-02
         0.26183E-02
         0.37004E-02
         0.37004E-02
         0.37706E-02
         0.37706E-02
         0.30232E-02
         0.36991E-02
         0.37163E-02
         0.31947E-02
         0.32784E-02
         0.32784E-02
         0.27006E-02
         0.25920E-02
         0.25909E-02
         0.29715E-02
         0.29715E-02
         0.26476E-02
         0.29101E-02
         0.34078E-02
         0.35344E-02
         0.35344E-02
         0.29769E-02
         0.32290E-02
         0.29059E-02
         0.29845E-02
         0.36991E-02
         0.37163E-02
         0.37163E-02
         0.33883E-02
         0.28978E-02
         0.31947E-02
         0.32784E-02
         0.32784E-02
         0.27006E-02
         0.25920E-02
         0.25909E-02
         0.26867E-02
         0.28566E-02
         0.29519E-02
         0.29715E-02
         0.29715E-02
         0.26476E-02
         0.27685E-02
         0.34078E-02
         0.35344E-02
         0.35344E-02
         0.29769E-02
         0.31395E-02
         0.31395E-02
         0.43150E-02
         0.43150E-02
         0.43150E-02
         0.43150E-02
         0.34884E-02
         0.34884E-02
         0.32798E-02
         0.32122E-02
         0.37853E-02
         0.31876E-02
         0.27137E-02
         0.33879E-02
         0.37162E-02
         0.27488E-02
         0.28990E-02
         0.37001E-02
         0.35930E-02
         0.37853E-02
         0.29889E-02
         0.29889E-02
         0.28571E-02
         0.26875E-02
         0.29521E-02
         0.28074E-02
         0.30027E-02
         0.37001E-02
         0.28641E-02
         0.28641E-02
         0.27576E-02
         0.26173E-02
         0.37001E-02
         0.37001E-02
         0.37727E-02
         0.37727E-02
         0.30234E-02
         0.36979E-02
         0.37162E-02
         0.31960E-02
         0.32790E-02
         0.32790E-02
         0.27006E-02
         0.25920E-02
         0.25902E-02
         0.29715E-02
         0.29715E-02
         0.26476E-02
         0.29100E-02
         0.34071E-02
         0.35339E-02
         0.35339E-02
         0.29772E-02
         0.32307E-02
         0.29032E-02
         0.29855E-02
         0.36979E-02
         0.37162E-02
         0.37162E-02
         0.33879E-02
         0.28990E-02
         0.31960E-02
         0.32790E-02
         0.32790E-02
         0.27006E-02
         0.25920E-02
         0.25902E-02
         0.26875E-02
         0.28571E-02
         0.29521E-02
         0.29715E-02
         0.29715E-02
         0.26476E-02
         0.27684E-02
         0.34071E-02
         0.35339E-02
         0.35339E-02
         0.29772E-02
         0.31408E-02
         0.31408E-02
         0.43148E-02
         0.43148E-02
         0.43148E-02
         0.43148E-02
         0.34885E-02
         0.34885E-02
         0.32783E-02
         0.32112E-02
         0.37849E-02
         0.31872E-02
         0.27120E-02
         0.33875E-02
         0.37161E-02
         0.27441E-02
         0.29003E-02
         0.36998E-02
         0.35965E-02
         0.37849E-02
         0.29896E-02
         0.29896E-02
         0.28575E-02
         0.26882E-02
         0.29522E-02
         0.28077E-02
         0.30053E-02
         0.36998E-02
         0.28615E-02
         0.28615E-02
         0.27563E-02
         0.26163E-02
         0.36998E-02
         0.36998E-02
         0.37747E-02
         0.37747E-02
         0.30236E-02
         0.36967E-02
         0.37161E-02
         0.31973E-02
         0.32796E-02
         0.32796E-02
         0.27006E-02
         0.25920E-02
         0.25895E-02
         0.29714E-02
         0.29714E-02
         0.26475E-02
         0.29099E-02
         0.34063E-02
         0.35333E-02
         0.35333E-02
         0.29775E-02
         0.32325E-02
         0.29004E-02
         0.29865E-02
         0.36967E-02
         0.37161E-02
         0.37161E-02
         0.33875E-02
         0.29003E-02
         0.31973E-02
         0.32796E-02
         0.32796E-02
         0.27006E-02
         0.25920E-02
         0.25895E-02
         0.26882E-02
         0.28575E-02
         0.29522E-02
         0.29714E-02
         0.29714E-02
         0.26475E-02
         0.27684E-02
         0.34063E-02
         0.35333E-02
         0.35333E-02
         0.29775E-02
         0.31422E-02
         0.31422E-02
         0.43145E-02
         0.43145E-02
         0.43145E-02
         0.43145E-02
         0.34886E-02
         0.34886E-02
         0.32769E-02
         0.32102E-02
         0.37844E-02
         0.31868E-02
         0.27103E-02
         0.33871E-02
         0.37160E-02
         0.27394E-02
         0.29015E-02
         0.36995E-02
         0.36000E-02
         0.37844E-02
         0.29903E-02
         0.29903E-02
         0.28580E-02
         0.26890E-02
         0.29523E-02
         0.28079E-02
         0.30079E-02
         0.36995E-02
         0.28589E-02
         0.28589E-02
         0.27550E-02
         0.26152E-02
         0.36995E-02
         0.36995E-02
         0.37768E-02
         0.37768E-02
         0.30238E-02
         0.36956E-02
         0.37160E-02
         0.31986E-02
         0.32802E-02
         0.32802E-02
         0.27006E-02
         0.25920E-02
         0.25887E-02
         0.29714E-02
         0.29714E-02
         0.26475E-02
         0.29098E-02
         0.34056E-02
         0.35327E-02
         0.35327E-02
         0.29778E-02
         0.32342E-02
         0.28977E-02
         0.29875E-02
         0.36956E-02
         0.37160E-02
         0.37160E-02
         0.33871E-02
         0.29015E-02
         0.31986E-02
         0.32802E-02
         0.32802E-02
         0.27006E-02
         0.25920E-02
         0.25887E-02
         0.26890E-02
         0.28580E-02
         0.29523E-02
         0.29714E-02
         0.29714E-02
         0.26475E-02
         0.27683E-02
         0.34056E-02
         0.35327E-02
         0.35327E-02
         0.29778E-02
         0.31435E-02
         0.31435E-02
         0.43143E-02
         0.43143E-02
         0.43143E-02
         0.43143E-02
         0.34887E-02
         0.34887E-02
         0.32755E-02
         0.32091E-02
         0.37839E-02
         0.31864E-02
         0.27086E-02
         0.33867E-02
         0.37159E-02
         0.27347E-02
         0.29027E-02
         0.36991E-02
         0.36036E-02
         0.37839E-02
         0.29920E-02
         0.29920E-02
         0.28585E-02
         0.26897E-02
         0.29525E-02
         0.28082E-02
         0.30105E-02
         0.36991E-02
         0.28563E-02
         0.28563E-02
         0.27537E-02
         0.26142E-02
         0.36991E-02
         0.36991E-02
         0.37789E-02
         0.37789E-02
         0.30240E-02
         0.36944E-02
         0.37159E-02
         0.31999E-02
         0.32808E-02
         0.32808E-02
         0.27006E-02
         0.25920E-02
         0.25880E-02
         0.29714E-02
         0.29714E-02
         0.26474E-02
         0.29097E-02
         0.34049E-02
         0.35322E-02
         0.35322E-02
         0.29781E-02
         0.32360E-02
         0.28949E-02
         0.29885E-02
         0.36944E-02
         0.37159E-02
         0.37159E-02
         0.33867E-02
         0.29027E-02
         0.31999E-02
         0.32808E-02
         0.32808E-02
         0.27006E-02
         0.25920E-02
         0.25880E-02
         0.26897E-02
         0.28585E-02
         0.29525E-02
         0.29714E-02
         0.29714E-02
         0.26474E-02
         0.27683E-02
         0.34049E-02
         0.35322E-02
         0.35322E-02
         0.29781E-02
         0.31449E-02
         0.31449E-02
         0.43140E-02
         0.43140E-02
         0.43140E-02
         0.43140E-02
         0.34888E-02
         0.34888E-02
         0.32740E-02
         0.32081E-02
         0.37834E-02
         0.31860E-02
         0.27069E-02
         0.33863E-02
         0.37158E-02
         0.27299E-02
         0.29039E-02
         0.36988E-02
         0.36071E-02
         0.37834E-02
         0.29946E-02
         0.29946E-02
         0.28589E-02
         0.26905E-02
         0.29526E-02
         0.28085E-02
         0.30131E-02
         0.36988E-02
         0.28538E-02
         0.28538E-02
         0.27524E-02
         0.26132E-02
         0.36988E-02
         0.36988E-02
         0.37809E-02
         0.37809E-02
         0.30241E-02
         0.36932E-02
         0.37158E-02
         0.32012E-02
         0.32814E-02
         0.32814E-02
         0.27006E-02
         0.25920E-02
         0.25873E-02
         0.29714E-02
         0.29714E-02
         0.26473E-02
         0.29097E-02
         0.34041E-02
         0.35316E-02
         0.35316E-02
         0.29784E-02
         0.32378E-02
         0.28921E-02
         0.29895E-02
         0.36932E-02
         0.37158E-02
         0.37158E-02
         0.33863E-02
         0.29039E-02
         0.32012E-02
         0.32814E-02
         0.32814E-02
         0.27006E-02
         0.25920E-02
         0.25873E-02
         0.26905E-02
         0.28589E-02
         0.29526E-02
         0.29714E-02
         0.29714E-02
         0.26473E-02
         0.27683E-02
         0.34041E-02
         0.35316E-02
         0.35316E-02
         0.29784E-02
         0.31463E-02
         0.31463E-02
         0.43138E-02
         0.43138E-02
         0.43138E-02
         0.43138E-02
         0.34888E-02
         0.34888E-02
         0.32726E-02
         0.32071E-02
         0.37830E-02
         0.31856E-02
         0.27051E-02
         0.33859E-02
         0.37157E-02
         0.27252E-02
         0.29051E-02
         0.36985E-02
         0.36106E-02
         0.37830E-02
         0.29972E-02
         0.29972E-02
         0.28594E-02
         0.26912E-02
         0.29528E-02
         0.28087E-02
         0.30156E-02
         0.36985E-02
         0.28512E-02
         0.28512E-02
         0.27512E-02
         0.26122E-02
         0.36985E-02
         0.36985E-02
         0.37830E-02
         0.37830E-02
         0.30243E-02
         0.36920E-02
         0.37157E-02
         0.32025E-02
         0.32821E-02
         0.32821E-02
         0.27006E-02
         0.25920E-02
         0.25866E-02
         0.29714E-02
         0.29714E-02
         0.26473E-02
         0.29096E-02
         0.34034E-02
         0.35310E-02
         0.35310E-02
         0.29787E-02
         0.32396E-02
         0.28894E-02
         0.29905E-02
         0.36920E-02
         0.37157E-02
         0.37157E-02
         0.33859E-02
         0.29051E-02
         0.32025E-02
         0.32821E-02
         0.32821E-02
         0.27006E-02
         0.25920E-02
         0.25866E-02
         0.26912E-02
         0.28594E-02
         0.29528E-02
         0.29714E-02
         0.29714E-02
         0.26473E-02
         0.27682E-02
         0.34034E-02
         0.35310E-02
         0.35310E-02
         0.29787E-02
         0.31476E-02
         0.31476E-02
         0.43135E-02
         0.43135E-02
         0.43135E-02
         0.43135E-02
         0.34889E-02
         0.34889E-02
         0.32712E-02
         0.32061E-02
         0.37825E-02
         0.31852E-02
         0.27034E-02
         0.33856E-02
         0.37156E-02
         0.27205E-02
         0.29063E-02
         0.36982E-02
         0.36142E-02
         0.37851E-02
         0.29998E-02
         0.29998E-02
         0.28599E-02
         0.26920E-02
         0.29529E-02
         0.28090E-02
         0.30182E-02
         0.36982E-02
         0.28486E-02
         0.28486E-02
         0.27499E-02
         0.26112E-02
         0.36982E-02
         0.36982E-02
         0.37851E-02
         0.37851E-02
         0.30245E-02
         0.36908E-02
         0.37156E-02
         0.32038E-02
         0.32827E-02
         0.32827E-02
         0.27006E-02
         0.25920E-02
         0.25859E-02
         0.29714E-02
         0.29714E-02
         0.26472E-02
         0.29095E-02
         0.34027E-02
         0.35304E-02
         0.35304E-02
         0.29790E-02
         0.32413E-02
         0.28866E-02
         0.29915E-02
         0.36908E-02
         0.37156E-02
         0.37156E-02
         0.33856E-02
         0.29063E-02
         0.32038E-02
         0.32827E-02
         0.32827E-02
         0.27006E-02
         0.25920E-02
         0.25859E-02
         0.26920E-02
         0.28599E-02
         0.29529E-02
         0.29714E-02
         0.29714E-02
         0.26472E-02
         0.27682E-02
         0.34027E-02
         0.35304E-02
         0.35304E-02
         0.29790E-02
         0.31490E-02
         0.31490E-02
         0.43133E-02
         0.43133E-02
         0.43133E-02
         0.43133E-02
         0.34890E-02
         0.34890E-02
         0.32698E-02
         0.32051E-02
         0.37820E-02
         0.31848E-02
         0.27017E-02
         0.33851E-02
         0.37155E-02
         0.27158E-02
         0.29075E-02
         0.36979E-02
         0.36177E-02
         0.37871E-02
         0.30024E-02
         0.30024E-02
         0.28603E-02
         0.26927E-02
         0.29530E-02
         0.28093E-02
         0.30208E-02
         0.36979E-02
         0.28460E-02
         0.28460E-02
         0.27486E-02
         0.26101E-02
         0.36979E-02
         0.36979E-02
         0.37871E-02
         0.37871E-02
         0.30247E-02
         0.36896E-02
         0.37155E-02
         0.32051E-02
         0.32833E-02
         0.32833E-02
         0.27006E-02
         0.25920E-02
         0.25851E-02
         0.29714E-02
         0.29714E-02
         0.26472E-02
         0.29094E-02
         0.34019E-02
         0.35299E-02
         0.35299E-02
         0.29793E-02
         0.32431E-02
         0.28838E-02
         0.29925E-02
         0.36896E-02
         0.37155E-02
         0.37155E-02
         0.33851E-02
         0.29075E-02
         0.32051E-02
         0.32833E-02
         0.32833E-02
         0.27006E-02
         0.25920E-02
         0.25851E-02
         0.26927E-02
         0.28603E-02
         0.29530E-02
         0.29714E-02
         0.29714E-02
         0.26472E-02
         0.27681E-02
         0.34019E-02
         0.35299E-02
         0.35299E-02
         0.29793E-02
         0.31503E-02
         0.31503E-02
         0.43130E-02
         0.43130E-02
         0.43130E-02
         0.43130E-02
         0.34891E-02
         0.34891E-02
         0.32683E-02
         0.32041E-02
         0.37816E-02
         0.31844E-02
         0.27000E-02
         0.33848E-02
         0.37154E-02
         0.27111E-02
         0.29087E-02
         0.36976E-02
         0.36213E-02
         0.37892E-02
         0.30050E-02
         0.30050E-02
         0.28608E-02
         0.26935E-02
         0.29532E-02
         0.28096E-02
         0.30234E-02
         0.36976E-02
         0.28434E-02
         0.28434E-02
         0.27472E-02
         0.26091E-02
         0.36976E-02
         0.36976E-02
         0.37892E-02
         0.37892E-02
         0.30249E-02
         0.36885E-02
         0.37154E-02
         0.32064E-02
         0.32839E-02
         0.32839E-02
         0.27006E-02
         0.25920E-02
         0.25844E-02
         0.29714E-02
         0.29714E-02
         0.26471E-02
         0.29094E-02
         0.34012E-02
         0.35293E-02
         0.35293E-02
         0.29797E-02
         0.32449E-02
         0.28811E-02
         0.29935E-02
         0.36885E-02
         0.37154E-02
         0.37154E-02
         0.33848E-02
         0.29087E-02
         0.32064E-02
         0.32839E-02
         0.32839E-02
         0.27006E-02
         0.25920E-02
         0.25844E-02
         0.26935E-02
         0.28608E-02
         0.29532E-02
         0.29714E-02
         0.29714E-02
         0.26471E-02
         0.27681E-02
         0.34012E-02
         0.35293E-02
         0.35293E-02
         0.29797E-02
         0.31517E-02
         0.31517E-02
         0.43128E-02
         0.43128E-02
         0.43128E-02
         0.43128E-02
         0.34892E-02
         0.34892E-02
         0.32669E-02
         0.32031E-02
         0.37811E-02
         0.31840E-02
         0.26982E-02
         0.33844E-02
         0.37152E-02
         0.27063E-02
         0.29099E-02
         0.36973E-02
         0.36248E-02
         0.37913E-02
         0.30076E-02
         0.30076E-02
         0.28613E-02
         0.26942E-02
         0.29533E-02
         0.28099E-02
         0.30260E-02
         0.36973E-02
         0.28408E-02
         0.28408E-02
         0.27460E-02
         0.26081E-02
         0.36973E-02
         0.36973E-02
         0.37913E-02
         0.37913E-02
         0.30250E-02
         0.36873E-02
         0.37152E-02
         0.32077E-02
         0.32845E-02
         0.32845E-02
         0.27006E-02
         0.25920E-02
         0.25837E-02
         0.29714E-02
         0.29714E-02
         0.26471E-02
         0.29093E-02
         0.34005E-02
         0.35287E-02
         0.35287E-02
         0.29800E-02
         0.32467E-02
         0.28783E-02
         0.29945E-02
         0.36873E-02
         0.37152E-02
         0.37152E-02
         0.33844E-02
         0.29099E-02
         0.32077E-02
         0.32845E-02
         0.32845E-02
         0.27006E-02
         0.25920E-02
         0.25837E-02
         0.26942E-02
         0.28613E-02
         0.29533E-02
         0.29714E-02
         0.29714E-02
         0.26471E-02
         0.27681E-02
         0.34005E-02
         0.35287E-02
         0.35287E-02
         0.29800E-02
         0.31530E-02
         0.31530E-02
         0.43125E-02
         0.43125E-02
         0.43125E-02
         0.43125E-02
         0.34893E-02
         0.34893E-02
         0.32655E-02
         0.32021E-02
         0.37806E-02
         0.31836E-02
         0.26965E-02
         0.33840E-02
         0.37151E-02
         0.27016E-02
         0.29111E-02
         0.36969E-02
         0.36283E-02
         0.37933E-02
         0.30102E-02
         0.30102E-02
         0.28617E-02
         0.26950E-02
         0.29535E-02
         0.28101E-02
         0.30286E-02
         0.36969E-02
         0.28382E-02
         0.28382E-02
         0.27447E-02
         0.26071E-02
         0.36969E-02
         0.36969E-02
         0.37933E-02
         0.37933E-02
         0.30252E-02
         0.36861E-02
         0.37151E-02
         0.32090E-02
         0.32852E-02
         0.32852E-02
         0.27006E-02
         0.25920E-02
         0.25830E-02
         0.29714E-02
         0.29714E-02
         0.26470E-02
         0.29092E-02
         0.33997E-02
         0.35282E-02
         0.35282E-02
         0.29803E-02
         0.32484E-02
         0.28755E-02
         0.29955E-02
         0.36861E-02
         0.37151E-02
         0.37151E-02
         0.33840E-02
         0.29111E-02
         0.32090E-02
         0.32852E-02
         0.32852E-02
         0.27006E-02
         0.25920E-02
         0.25830E-02
         0.26950E-02
         0.28617E-02
         0.29535E-02
         0.29714E-02
         0.29714E-02
         0.26470E-02
         0.27680E-02
         0.33997E-02
         0.35282E-02
         0.35282E-02
         0.29803E-02
         0.31544E-02
         0.31544E-02
         0.43123E-02
         0.43123E-02
         0.43123E-02
         0.43123E-02
         0.34893E-02
         0.34893E-02
         0.32640E-02
         0.32011E-02
         0.37801E-02
         0.31832E-02
         0.26948E-02
         0.33836E-02
         0.37150E-02
         0.26969E-02
         0.29123E-02
         0.36966E-02
         0.36319E-02
         0.37954E-02
         0.30128E-02
         0.30128E-02
         0.28622E-02
         0.26957E-02
         0.29536E-02
         0.28104E-02
         0.30312E-02
         0.36966E-02
         0.28357E-02
         0.28357E-02
         0.27434E-02
         0.26061E-02
         0.36966E-02
         0.36966E-02
         0.37954E-02
         0.37954E-02
         0.30254E-02
         0.36849E-02
         0.37150E-02
         0.32103E-02
         0.32858E-02
         0.32858E-02
         0.27006E-02
         0.25920E-02
         0.25823E-02
         0.29714E-02
         0.29714E-02
         0.26470E-02
         0.29091E-02
         0.33990E-02
         0.35276E-02
         0.35276E-02
         0.29806E-02
         0.32502E-02
         0.28728E-02
         0.29965E-02
         0.36849E-02
         0.37150E-02
         0.37150E-02
         0.33836E-02
         0.29123E-02
         0.32103E-02
         0.32858E-02
         0.32858E-02
         0.27006E-02
         0.25920E-02
         0.25823E-02
         0.26957E-02
         0.28622E-02
         0.29536E-02
         0.29714E-02
         0.29714E-02
         0.26470E-02
         0.27680E-02
         0.33990E-02
         0.35276E-02
         0.35276E-02
         0.29806E-02
         0.31557E-02
         0.31557E-02
         0.43120E-02
         0.43120E-02
         0.43120E-02
         0.43120E-02
         0.34894E-02
         0.34894E-02
         0.32626E-02
         0.32001E-02
         0.37797E-02
         0.31828E-02
         0.26931E-02
         0.33832E-02
         0.37149E-02
         0.26922E-02
         0.29135E-02
         0.36963E-02
         0.36354E-02
         0.37975E-02
         0.30154E-02
         0.30154E-02
         0.28627E-02
         0.26965E-02
         0.29537E-02
         0.28107E-02
         0.30338E-02
         0.36963E-02
         0.28331E-02
         0.28331E-02
         0.27421E-02
         0.26051E-02
         0.36963E-02
         0.36963E-02
         0.37975E-02
         0.37975E-02
         0.30256E-02
         0.36838E-02
         0.37149E-02
         0.32116E-02
         0.32864E-02
         0.32864E-02
         0.27006E-02
         0.25920E-02
         0.25815E-02
         0.29714E-02
         0.29714E-02
         0.26469E-02
         0.29090E-02
         0.33983E-02
         0.35270E-02
         0.35270E-02
         0.29809E-02
         0.32519E-02
         0.28700E-02
         0.29975E-02
         0.36838E-02
         0.37149E-02
         0.37149E-02
         0.33832E-02
         0.29135E-02
         0.32116E-02
         0.32864E-02
         0.32864E-02
         0.27006E-02
         0.25920E-02
         0.25815E-02
         0.26965E-02
         0.28627E-02
         0.29537E-02
         0.29714E-02
         0.29714E-02
         0.26469E-02
         0.27680E-02
         0.33983E-02
         0.35270E-02
         0.35270E-02
         0.29809E-02
         0.31571E-02
         0.31571E-02
         0.43118E-02
         0.43118E-02
         0.43118E-02
         0.43118E-02
         0.34895E-02
         0.34895E-02
         0.32612E-02
         0.31990E-02
         0.37792E-02
         0.31824E-02
         0.26913E-02
         0.33828E-02
         0.37148E-02
         0.26875E-02
         0.29148E-02
         0.36960E-02
         0.36390E-02
         0.37995E-02
         0.30180E-02
         0.30180E-02
         0.28631E-02
         0.26972E-02
         0.29539E-02
         0.28110E-02
         0.30364E-02
         0.36960E-02
         0.28305E-02
         0.28305E-02
         0.27408E-02
         0.26040E-02
         0.36960E-02
         0.36960E-02
         0.37995E-02
         0.37995E-02
         0.30258E-02
         0.36826E-02
         0.37148E-02
         0.32129E-02
         0.32870E-02
         0.32870E-02
         0.27006E-02
         0.25920E-02
         0.25808E-02
         0.29713E-02
         0.29713E-02
         0.26468E-02
         0.29089E-02
         0.33975E-02
         0.35264E-02
         0.35264E-02
         0.29812E-02
         0.32537E-02
         0.28672E-02
         0.29985E-02
         0.36826E-02
         0.37148E-02
         0.37148E-02
         0.33828E-02
         0.29148E-02
         0.32129E-02
         0.32870E-02
         0.32870E-02
         0.27006E-02
         0.25920E-02
         0.25808E-02
         0.26972E-02
         0.28631E-02
         0.29539E-02
         0.29713E-02
         0.29713E-02
         0.26468E-02
         0.27679E-02
         0.33975E-02
         0.35264E-02
         0.35264E-02
         0.29812E-02
         0.31585E-02
         0.31585E-02
         0.43115E-02
         0.43115E-02
         0.43115E-02
         0.43115E-02
         0.34896E-02
         0.34896E-02
         0.32597E-02
         0.31980E-02
         0.37787E-02
         0.31820E-02
         0.26896E-02
         0.33824E-02
         0.37147E-02
         0.26827E-02
         0.29160E-02
         0.36957E-02
         0.36425E-02
         0.38016E-02
         0.30206E-02
         0.30206E-02
         0.28636E-02
         0.26980E-02
         0.29540E-02
         0.28112E-02
         0.30390E-02
         0.36957E-02
         0.28279E-02
         0.28279E-02
         0.27395E-02
         0.26030E-02
         0.36957E-02
         0.36957E-02
         0.38016E-02
         0.38016E-02
         0.30260E-02
         0.36814E-02
         0.37147E-02
         0.32141E-02
         0.32876E-02
         0.32876E-02
         0.27006E-02
         0.25920E-02
         0.25801E-02
         0.29713E-02
         0.29713E-02
         0.26468E-02
         0.29089E-02
         0.33968E-02
         0.35259E-02
         0.35259E-02
         0.29815E-02
         0.32555E-02
         0.28645E-02
         0.29995E-02
         0.36814E-02
         0.37147E-02
         0.37147E-02
         0.33824E-02
         0.29160E-02
         0.32141E-02
         0.32876E-02
         0.32876E-02
         0.27006E-02
         0.25920E-02
         0.25801E-02
         0.26980E-02
         0.28636E-02
         0.29540E-02
         0.29713E-02
         0.29713E-02
         0.26468E-02
         0.27679E-02
         0.33968E-02
         0.35259E-02
         0.35259E-02
         0.29815E-02
         0.31598E-02
         0.31598E-02
         0.43113E-02
         0.43113E-02
         0.43113E-02
         0.43113E-02
         0.34897E-02
         0.34897E-02
         0.32583E-02
         0.31970E-02
         0.37783E-02
         0.31816E-02
         0.26879E-02
         0.33820E-02
         0.37146E-02
         0.26780E-02
         0.29172E-02
         0.36954E-02
         0.36460E-02
         0.38037E-02
         0.30232E-02
         0.30232E-02
         0.28641E-02
         0.26987E-02
         0.29542E-02
         0.28115E-02
         0.30416E-02
         0.36954E-02
         0.28253E-02
         0.28253E-02
         0.27382E-02
         0.26020E-02
         0.36954E-02
         0.36954E-02
         0.38037E-02
         0.38037E-02
         0.30261E-02
         0.36802E-02
         0.37146E-02
         0.32154E-02
         0.32882E-02
         0.32882E-02
         0.27006E-02
         0.25921E-02
         0.25794E-02
         0.29713E-02
         0.29713E-02
         0.26467E-02
         0.29088E-02
         0.33961E-02
         0.35253E-02
         0.35253E-02
         0.29818E-02
         0.32573E-02
         0.28617E-02
         0.30005E-02
         0.36802E-02
         0.37146E-02
         0.37146E-02
         0.33820E-02
         0.29172E-02
         0.32154E-02
         0.32882E-02
         0.32882E-02
         0.27006E-02
         0.25921E-02
         0.25794E-02
         0.26987E-02
         0.28641E-02
         0.29542E-02
         0.29713E-02
         0.29713E-02
         0.26467E-02
         0.27678E-02
         0.33961E-02
         0.35253E-02
         0.35253E-02
         0.29818E-02
         0.31612E-02
         0.31612E-02
         0.43110E-02
         0.43110E-02
         0.43110E-02
         0.43110E-02
         0.34898E-02
         0.34898E-02
         0.32569E-02
         0.31960E-02
         0.37778E-02
         0.31812E-02
         0.26862E-02
         0.33816E-02
         0.37145E-02
         0.26733E-02
         0.29184E-02
         0.36950E-02
         0.36495E-02
         0.38057E-02
         0.30258E-02
         0.30258E-02
         0.28645E-02
         0.26995E-02
         0.29543E-02
         0.28118E-02
         0.30442E-02
         0.36950E-02
         0.28227E-02
         0.28227E-02
         0.27369E-02
         0.26010E-02
         0.36950E-02
         0.36950E-02
         0.38057E-02
         0.38057E-02
         0.30263E-02
         0.36790E-02
         0.37145E-02
         0.32167E-02
         0.32889E-02
         0.32889E-02
         0.27006E-02
         0.25921E-02
         0.25787E-02
         0.29713E-02
         0.29713E-02
         0.26467E-02
         0.29087E-02
         0.33953E-02
         0.35247E-02
         0.35247E-02
         0.29821E-02
         0.32590E-02
         0.28589E-02
         0.30015E-02
         0.36790E-02
         0.37145E-02
         0.37145E-02
         0.33816E-02
         0.29184E-02
         0.32167E-02
         0.32889E-02
         0.32889E-02
         0.27006E-02
         0.25921E-02
         0.25787E-02
         0.26995E-02
         0.28645E-02
         0.29543E-02
         0.29713E-02
         0.29713E-02
         0.26467E-02
         0.27678E-02
         0.33953E-02
         0.35247E-02
         0.35247E-02
         0.29821E-02
         0.31625E-02
         0.31625E-02
         0.43108E-02
         0.43108E-02
         0.43108E-02
         0.43108E-02
         0.34898E-02
         0.34898E-02
         0.32555E-02
         0.31950E-02
         0.37773E-02
         0.31808E-02
         0.26845E-02
         0.33812E-02
         0.37144E-02
         0.26686E-02
         0.29196E-02
         0.36948E-02
         0.36531E-02
         0.38078E-02
         0.30285E-02
         0.30285E-02
         0.28650E-02
         0.27002E-02
         0.29544E-02
         0.28120E-02
         0.30467E-02
         0.36948E-02
         0.28201E-02
         0.28201E-02
         0.27356E-02
         0.26000E-02
         0.36948E-02
         0.36948E-02
         0.38078E-02
         0.38078E-02
         0.30265E-02
         0.36779E-02
         0.37144E-02
         0.32181E-02
         0.32895E-02
         0.32895E-02
         0.27006E-02
         0.25921E-02
         0.25779E-02
         0.29713E-02
         0.29713E-02
         0.26466E-02
         0.29086E-02
         0.33946E-02
         0.35242E-02
         0.35242E-02
         0.29824E-02
         0.32608E-02
         0.28562E-02
         0.30025E-02
         0.36779E-02
         0.37144E-02
         0.37144E-02
         0.33812E-02
         0.29196E-02
         0.32181E-02
         0.32895E-02
         0.32895E-02
         0.27006E-02
         0.25921E-02
         0.25779E-02
         0.27002E-02
         0.28650E-02
         0.29544E-02
         0.29713E-02
         0.29713E-02
         0.26466E-02
         0.27678E-02
         0.33946E-02
         0.35242E-02
         0.35242E-02
         0.29824E-02
         0.31639E-02
         0.31639E-02
         0.43105E-02
         0.43105E-02
         0.43105E-02
         0.43105E-02
         0.34899E-02
         0.34899E-02
         0.32540E-02
         0.31940E-02
         0.37768E-02
         0.31804E-02
         0.26827E-02
         0.33808E-02
         0.37143E-02
         0.26639E-02
         0.29208E-02
         0.36944E-02
         0.36566E-02
         0.38099E-02
         0.30311E-02
         0.30311E-02
         0.28655E-02
         0.27010E-02
         0.29546E-02
         0.28123E-02
         0.30493E-02
         0.36944E-02
         0.28175E-02
         0.28175E-02
         0.27343E-02
         0.25990E-02
         0.36944E-02
         0.36944E-02
         0.38099E-02
         0.38099E-02
         0.30267E-02
         0.36767E-02
         0.37143E-02
         0.32193E-02
         0.32901E-02
         0.32901E-02
         0.27006E-02
         0.25921E-02
         0.25772E-02
         0.29713E-02
         0.29713E-02
         0.26466E-02
         0.29085E-02
         0.33939E-02
         0.35236E-02
         0.35236E-02
         0.29827E-02
         0.32626E-02
         0.28534E-02
         0.30035E-02
         0.36767E-02
         0.37143E-02
         0.37143E-02
         0.33808E-02
         0.29208E-02
         0.32193E-02
         0.32901E-02
         0.32901E-02
         0.27006E-02
         0.25921E-02
         0.25772E-02
         0.27010E-02
         0.28655E-02
         0.29546E-02
         0.29713E-02
         0.29713E-02
         0.26466E-02
         0.27677E-02
         0.33939E-02
         0.35236E-02
         0.35236E-02
         0.29827E-02
         0.31652E-02
         0.31652E-02
         0.43103E-02
         0.43103E-02
         0.43103E-02
         0.43103E-02
         0.34900E-02
         0.34900E-02
         0.32526E-02
         0.31930E-02
         0.37764E-02
         0.31800E-02
         0.26810E-02
         0.33804E-02
         0.37142E-02
         0.26591E-02
         0.29220E-02
         0.36941E-02
         0.36602E-02
         0.38119E-02
         0.30337E-02
         0.30337E-02
         0.28660E-02
         0.27017E-02
         0.29547E-02
         0.28126E-02
         0.30519E-02
         0.36941E-02
         0.28150E-02
         0.28150E-02
         0.27330E-02
         0.25979E-02
         0.36941E-02
         0.36941E-02
         0.38119E-02
         0.38119E-02
         0.30269E-02
         0.36755E-02
         0.37142E-02
         0.32206E-02
         0.32907E-02
         0.32907E-02
         0.27006E-02
         0.25921E-02
         0.25765E-02
         0.29713E-02
         0.29713E-02
         0.26465E-02
         0.29085E-02
         0.33931E-02
         0.35230E-02
         0.35230E-02
         0.29830E-02
         0.32643E-02
         0.28507E-02
         0.30045E-02
         0.36755E-02
         0.37142E-02
         0.37142E-02
         0.33804E-02
         0.29220E-02
         0.32206E-02
         0.32907E-02
         0.32907E-02
         0.27006E-02
         0.25921E-02
         0.25765E-02
         0.27017E-02
         0.28660E-02
         0.29547E-02
         0.29713E-02
         0.29713E-02
         0.26465E-02
         0.27677E-02
         0.33931E-02
         0.35230E-02
         0.35230E-02
         0.29830E-02
         0.31666E-02
         0.31666E-02
         0.43100E-02
         0.43100E-02
         0.43100E-02
         0.43100E-02
         0.34901E-02
         0.34901E-02
         0.32512E-02
         0.31920E-02
         0.37759E-02
         0.31796E-02
         0.26793E-02
         0.33800E-02
         0.37141E-02
         0.26544E-02
         0.29232E-02
         0.36938E-02
         0.36637E-02
         0.38140E-02
         0.30363E-02
         0.30363E-02
         0.28664E-02
         0.27025E-02
         0.29548E-02
         0.28129E-02
         0.30545E-02
         0.36938E-02
         0.28124E-02
         0.28124E-02
         0.27317E-02
         0.25969E-02
         0.36938E-02
         0.36938E-02
         0.38140E-02
         0.38140E-02
         0.30271E-02
         0.36743E-02
         0.37141E-02
         0.32219E-02
         0.32913E-02
         0.32913E-02
         0.27006E-02
         0.25921E-02
         0.25758E-02
         0.29713E-02
         0.29713E-02
         0.26465E-02
         0.29084E-02
         0.33924E-02
         0.35224E-02
         0.35224E-02
         0.29833E-02
         0.32661E-02
         0.28479E-02
         0.30055E-02
         0.36743E-02
         0.37141E-02
         0.37141E-02
         0.33800E-02
         0.29232E-02
         0.32219E-02
         0.32913E-02
         0.32913E-02
         0.27006E-02
         0.25921E-02
         0.25758E-02
         0.27025E-02
         0.28664E-02
         0.29548E-02
         0.29713E-02
         0.29713E-02
         0.26465E-02
         0.27677E-02
         0.33924E-02
         0.35224E-02
         0.35224E-02
         0.29833E-02
         0.31680E-02
         0.31680E-02
         0.43098E-02
         0.43098E-02
         0.43098E-02
         0.43098E-02
         0.34901E-02
         0.34901E-02
         0.32498E-02
         0.31910E-02
         0.37754E-02
         0.31792E-02
         0.26776E-02
         0.33796E-02
         0.37140E-02
         0.26497E-02
         0.29232E-02
         0.36935E-02
         0.36637E-02
         0.38140E-02
         0.30363E-02
         0.30363E-02
         0.28664E-02
         0.27025E-02
         0.29548E-02
         0.28129E-02
         0.30545E-02
         0.36935E-02
         0.28098E-02
         0.28098E-02
         0.27304E-02
         0.25959E-02
         0.36935E-02
         0.36935E-02
         0.38140E-02
         0.38140E-02
         0.30271E-02
         0.36731E-02
         0.37140E-02
         0.32219E-02
         0.32913E-02
         0.32913E-02
         0.27006E-02
         0.25921E-02
         0.25751E-02
         0.29713E-02
         0.29713E-02
         0.26464E-02
         0.29083E-02
         0.33916E-02
         0.35219E-02
         0.35219E-02
         0.29833E-02
         0.32661E-02
         0.28451E-02
         0.30055E-02
         0.36731E-02
         0.37140E-02
         0.37140E-02
         0.33796E-02
         0.29232E-02
         0.32219E-02
         0.32913E-02
         0.32913E-02
         0.27006E-02
         0.25921E-02
         0.25751E-02
         0.27025E-02
         0.28664E-02
         0.29548E-02
         0.29713E-02
         0.29713E-02
         0.26464E-02
         0.27676E-02
         0.33916E-02
         0.35219E-02
         0.35219E-02
         0.29833E-02
         0.31680E-02
         0.31680E-02
  
SCALARS              physical_window_z  double 1
LOOKUP_TABLE default
         0.26928E-02
         0.26928E-02
         0.26928E-02
         0.26928E-02
         0.26928E-02
         0.26928E-02
         0.26928E-02
         0.26928E-02
         0.26928E-02
         0.26928E-02
         0.26928E-02
         0.26928E-02
         0.26928E-02
         0.26928E-02
         0.26928E-02
         0.26928E-02
         0.26928E-02
         0.26928E-02
         0.26928E-02
         0.26928E-02
         0.26928E-02
         0.26928E-02
         0.26928E-02
         0.26928E-02
         0.26928E-02
         0.26928E-02
         0.26928E-02
         0.26928E-02
         0.26928E-02
         0.26928E-02
         0.26928E-02
         0.26928E-02
         0.26928E-02
         0.26928E-02
         0.26928E-02
         0.26928E-02
         0.26928E-02
         0.26928E-02
         0.26928E-02
         0.26928E-02
         0.26928E-02
         0.26928E-02
         0.26928E-02
         0.26928E-02
         0.26928E-02
         0.26928E-02
         0.26928E-02
         0.26928E-02
         0.26928E-02
         0.26928E-02
         0.26928E-02
         0.26928E-02
         0.26928E-02
         0.26928E-02
         0.26928E-02
         0.26928E-02
         0.26928E-02
         0.26928E-02
         0.26928E-02
         0.26928E-02
         0.26928E-02
         0.26928E-02
         0.26928E-02
         0.26928E-02
         0.26928E-02
         0.26928E-02
         0.26928E-02
         0.26928E-02
         0.26928E-02
         0.26928E-02
         0.26928E-02
         0.26928E-02
         0.26928E-02
         0.26928E-02
         0.26928E-02
         0.26928E-02
         0.26928E-02
         0.26928E-02
         0.26928E-02
         0.26928E-02
         0.26928E-02
         0.26928E-02
         0.26928E-02
         0.26928E-02
         0.26928E-02
         0.26928E-02
         0.26928E-02
         0.26928E-02
         0.26928E-02
         0.26928E-02
         0.26928E-02
         0.26928E-02
         0.26928E-02
         0.26928E-02
         0.26928E-02
         0.26928E-02
         0.26928E-02
         0.26928E-02
         0.26928E-02
         0.26928E-02
         0.26928E-02
         0.26928E-02
         0.26928E-02
         0.26928E-02
         0.26928E-02
         0.26928E-02
         0.26928E-02
         0.26928E-02
         0.26928E-02
         0.26928E-02
         0.26928E-02
         0.26928E-02
         0.26928E-02
         0.26928E-02
         0.26928E-02
         0.26928E-02
         0.26928E-02
         0.26928E-02
         0.26928E-02
         0.26928E-02
         0.26928E-02
         0.26928E-02
         0.26928E-02
         0.26928E-02
         0.26928E-02
         0.26928E-02
         0.26928E-02
         0.26928E-02
         0.26928E-02
         0.26928E-02
         0.26928E-02
         0.26928E-02
         0.26928E-02
         0.26928E-02
         0.26928E-02
         0.26928E-02
         0.26928E-02
         0.26928E-02
         0.26928E-02
         0.26928E-02
         0.26928E-02
         0.26928E-02
         0.26928E-02
         0.26928E-02
         0.26928E-02
         0.26928E-02
         0.26928E-02
         0.26928E-02
         0.26928E-02
         0.26928E-02
         0.26928E-02
         0.26928E-02
         0.26928E-02
         0.26928E-02
         0.26928E-02
         0.26928E-02
         0.26927E-02
         0.26927E-02
         0.26927E-02
         0.26927E-02
         0.26927E-02
         0.26927E-02
         0.26927E-02
         0.26927E-02
         0.26927E-02
         0.26927E-02
         0.26927E-02
         0.26927E-02
         0.26927E-02
         0.26927E-02
         0.26927E-02
         0.26927E-02
         0.26927E-02
         0.26927E-02
         0.26927E-02
         0.26927E-02
         0.26927E-02
         0.26927E-02
         0.26927E-02
         0.26927E-02
         0.26927E-02
         0.26927E-02
         0.26927E-02
         0.26927E-02
         0.26927E-02
         0.26927E-02
         0.26927E-02
         0.26927E-02
         0.26927E-02
         0.26927E-02
         0.26927E-02
         0.26927E-02
         0.26927E-02
         0.26927E-02
         0.26927E-02
         0.26927E-02
         0.26927E-02
         0.26927E-02
         0.26927E-02
         0.26927E-02
         0.26927E-02
         0.26927E-02
         0.26927E-02
         0.26927E-02
         0.26927E-02
         0.26927E-02
         0.26927E-02
         0.26927E-02
         0.26927E-02
         0.26927E-02
         0.26927E-02
         0.26927E-02
         0.26927E-02
         0.26927E-02
         0.26927E-02
         0.26927E-02
         0.26927E-02
         0.26927E-02
         0.26927E-02
         0.26927E-02
         0.26927E-02
         0.26927E-02
         0.26927E-02
         0.26927E-02
         0.26927E-02
         0.26927E-02
         0.26927E-02
         0.26927E-02
         0.26927E-02
         0.26927E-02
         0.26927E-02
         0.26927E-02
         0.26927E-02
         0.26927E-02
         0.26927E-02
         0.26927E-02
         0.26927E-02
         0.26927E-02
         0.26927E-02
         0.26927E-02
         0.26927E-02
         0.26927E-02
         0.26927E-02
         0.26927E-02
         0.26927E-02
         0.26927E-02
         0.26927E-02
         0.26927E-02
         0.26927E-02
         0.26927E-02
         0.26927E-02
         0.26927E-02
         0.26927E-02
         0.26927E-02
         0.26927E-02
         0.26927E-02
         0.26927E-02
         0.26927E-02
         0.26927E-02
         0.26927E-02
         0.26927E-02
         0.26927E-02
         0.26927E-02
         0.26927E-02
         0.26927E-02
         0.26927E-02
         0.26927E-02
         0.26927E-02
         0.26927E-02
         0.26927E-02
         0.26927E-02
         0.26927E-02
         0.26927E-02
         0.26927E-02
         0.26927E-02
         0.26927E-02
         0.26927E-02
         0.26927E-02
         0.26927E-02
         0.26927E-02
         0.26927E-02
         0.26927E-02
         0.26927E-02
         0.26927E-02
         0.26927E-02
         0.26927E-02
         0.26927E-02
         0.26927E-02
         0.26927E-02
         0.26927E-02
         0.26927E-02
         0.26927E-02
         0.26927E-02
         0.26927E-02
         0.26927E-02
         0.26927E-02
         0.26927E-02
         0.26927E-02
         0.26927E-02
         0.26927E-02
         0.26927E-02
         0.26927E-02
         0.26927E-02
         0.26927E-02
         0.26927E-02
         0.26927E-02
         0.26927E-02
         0.26927E-02
         0.26927E-02
         0.26927E-02
         0.26927E-02
         0.26927E-02
         0.26927E-02
         0.26927E-02
         0.26927E-02
         0.26927E-02
         0.26927E-02
         0.26927E-02
         0.26927E-02
         0.26927E-02
         0.26927E-02
         0.26927E-02
         0.26927E-02
         0.26927E-02
         0.26927E-02
         0.26927E-02
         0.26927E-02
         0.26927E-02
         0.26927E-02
         0.26927E-02
         0.26927E-02
         0.26927E-02
         0.26927E-02
         0.26927E-02
         0.26927E-02
         0.26927E-02
         0.26927E-02
         0.26927E-02
         0.26927E-02
         0.26927E-02
         0.26927E-02
         0.26927E-02
         0.26927E-02
         0.26927E-02
         0.26927E-02
         0.26927E-02
         0.26927E-02
         0.26927E-02
         0.26927E-02
         0.26927E-02
         0.26927E-02
         0.26927E-02
         0.26927E-02
         0.26927E-02
         0.26927E-02
         0.26927E-02
         0.26927E-02
         0.26927E-02
         0.26927E-02
         0.26927E-02
         0.26927E-02
         0.26927E-02
         0.26927E-02
         0.26927E-02
         0.26927E-02
         0.26927E-02
         0.26927E-02
         0.26927E-02
         0.26927E-02
         0.26927E-02
         0.26927E-02
         0.26927E-02
         0.26927E-02
         0.26927E-02
         0.26927E-02
         0.26927E-02
         0.26927E-02
         0.26927E-02
         0.26927E-02
         0.26927E-02
         0.26927E-02
         0.26927E-02
         0.26927E-02
         0.26927E-02
         0.26927E-02
         0.26927E-02
         0.26927E-02
         0.26927E-02
         0.26927E-02
         0.26927E-02
         0.26927E-02
         0.26927E-02
         0.26927E-02
         0.26927E-02
         0.26927E-02
         0.26927E-02
         0.26927E-02
         0.26927E-02
         0.26927E-02
         0.26927E-02
         0.26927E-02
         0.26927E-02
         0.26927E-02
         0.26927E-02
         0.26927E-02
         0.26927E-02
         0.26927E-02
         0.26927E-02
         0.26927E-02
         0.26927E-02
         0.26927E-02
         0.26927E-02
         0.26927E-02
         0.26927E-02
         0.26927E-02
         0.26927E-02
         0.26927E-02
         0.26927E-02
         0.26927E-02
         0.26927E-02
         0.26927E-02
         0.26927E-02
         0.26927E-02
         0.26927E-02
         0.26927E-02
         0.26927E-02
         0.26927E-02
         0.26927E-02
         0.26927E-02
         0.26927E-02
         0.26927E-02
         0.26927E-02
         0.26927E-02
         0.26927E-02
         0.26927E-02
         0.26927E-02
         0.26927E-02
         0.26927E-02
         0.26927E-02
         0.26927E-02
         0.26927E-02
         0.26927E-02
         0.26927E-02
         0.26927E-02
         0.26927E-02
         0.26927E-02
         0.26927E-02
         0.26927E-02
         0.26927E-02
         0.26927E-02
         0.26927E-02
         0.26927E-02
         0.26927E-02
         0.26927E-02
         0.26927E-02
         0.26927E-02
         0.26927E-02
         0.26927E-02
         0.26927E-02
         0.26927E-02
         0.26927E-02
         0.26927E-02
         0.26927E-02
         0.26927E-02
         0.26927E-02
         0.26927E-02
         0.26927E-02
         0.26927E-02
         0.26927E-02
         0.26927E-02
         0.26927E-02
         0.26927E-02
         0.26927E-02
         0.26927E-02
         0.26927E-02
         0.26927E-02
         0.26927E-02
         0.26927E-02
         0.26927E-02
         0.26927E-02
         0.26927E-02
         0.26927E-02
         0.26927E-02
         0.26927E-02
         0.26927E-02
         0.26927E-02
         0.26927E-02
         0.26927E-02
         0.26927E-02
         0.26927E-02
         0.26927E-02
         0.26927E-02
         0.26927E-02
         0.26927E-02
         0.26927E-02
         0.26927E-02
         0.26927E-02
         0.26927E-02
         0.26927E-02
         0.26927E-02
         0.26927E-02
         0.26927E-02
         0.26927E-02
         0.26927E-02
         0.26927E-02
         0.26927E-02
         0.26927E-02
         0.26927E-02
         0.26927E-02
         0.26927E-02
         0.26927E-02
         0.26927E-02
         0.26927E-02
         0.26927E-02
         0.26927E-02
         0.26927E-02
         0.26927E-02
         0.26927E-02
         0.26927E-02
         0.26927E-02
         0.26927E-02
         0.26927E-02
         0.26927E-02
         0.26927E-02
         0.26927E-02
         0.26927E-02
         0.26927E-02
         0.26927E-02
         0.26927E-02
         0.26927E-02
         0.26927E-02
         0.26927E-02
         0.26927E-02
         0.26927E-02
         0.26927E-02
         0.26927E-02
         0.26927E-02
         0.26927E-02
         0.26927E-02
         0.26927E-02
         0.26927E-02
         0.26927E-02
         0.26927E-02
         0.26927E-02
         0.26927E-02
         0.26927E-02
         0.26927E-02
         0.26927E-02
         0.26927E-02
         0.26927E-02
         0.26927E-02
         0.26927E-02
         0.26927E-02
         0.26927E-02
         0.26927E-02
         0.26927E-02
         0.26927E-02
         0.26927E-02
         0.26927E-02
         0.26927E-02
         0.26927E-02
         0.26927E-02
         0.26927E-02
         0.26927E-02
         0.26927E-02
         0.26927E-02
         0.26927E-02
         0.26927E-02
         0.26927E-02
         0.26927E-02
         0.26927E-02
         0.26927E-02
         0.26927E-02
         0.26927E-02
         0.26927E-02
         0.26927E-02
         0.26927E-02
         0.26927E-02
         0.26927E-02
         0.26927E-02
         0.26927E-02
         0.26927E-02
         0.26927E-02
         0.26927E-02
         0.26927E-02
         0.26927E-02
         0.26927E-02
         0.26927E-02
         0.26927E-02
         0.26927E-02
         0.26927E-02
         0.26927E-02
         0.26927E-02
         0.26927E-02
         0.26927E-02
         0.26927E-02
         0.26927E-02
         0.26927E-02
         0.26927E-02
         0.26927E-02
         0.26927E-02
         0.26927E-02
         0.26927E-02
         0.26927E-02
         0.26927E-02
         0.26927E-02
         0.26927E-02
         0.26927E-02
         0.26927E-02
         0.26927E-02
         0.26927E-02
         0.26927E-02
         0.26927E-02
         0.26927E-02
         0.26927E-02
         0.26927E-02
         0.26927E-02
         0.26927E-02
         0.26927E-02
         0.26927E-02
         0.26927E-02
         0.26927E-02
         0.26927E-02
         0.26927E-02
         0.26927E-02
         0.26927E-02
         0.26927E-02
         0.26927E-02
         0.26927E-02
         0.26927E-02
         0.26927E-02
         0.26927E-02
         0.26927E-02
         0.26927E-02
         0.26927E-02
         0.26927E-02
         0.26927E-02
         0.26927E-02
         0.26927E-02
         0.26927E-02
         0.26927E-02
         0.26927E-02
         0.26927E-02
         0.26927E-02
         0.26927E-02
         0.26927E-02
         0.26927E-02
         0.26927E-02
         0.26927E-02
         0.26927E-02
         0.26927E-02
         0.26927E-02
         0.26927E-02
         0.26927E-02
         0.26927E-02
         0.26927E-02
         0.26927E-02
         0.26927E-02
         0.26927E-02
         0.26927E-02
         0.26927E-02
         0.26927E-02
         0.26927E-02
         0.26927E-02
         0.26927E-02
         0.26927E-02
         0.26927E-02
         0.26927E-02
         0.26927E-02
         0.26927E-02
         0.26927E-02
         0.26927E-02
         0.26927E-02
         0.26927E-02
         0.26927E-02
         0.26927E-02
         0.26927E-02
         0.26927E-02
         0.26927E-02
         0.26927E-02
         0.26927E-02
         0.26927E-02
         0.26927E-02
         0.26927E-02
         0.26927E-02
         0.26927E-02
         0.26927E-02
         0.26927E-02
         0.26927E-02
         0.26927E-02
         0.26927E-02
         0.26927E-02
         0.26927E-02
         0.26927E-02
         0.26927E-02
         0.26927E-02
         0.26927E-02
         0.26927E-02
         0.26927E-02
         0.26927E-02
         0.26927E-02
         0.26927E-02
         0.26927E-02
         0.26927E-02
         0.26927E-02
         0.26927E-02
         0.26927E-02
         0.26927E-02
         0.26927E-02
         0.26927E-02
         0.26927E-02
         0.26927E-02
         0.26927E-02
         0.26927E-02
         0.26927E-02
         0.26927E-02
         0.26927E-02
         0.26927E-02
         0.26927E-02
         0.26927E-02
         0.26927E-02
         0.26927E-02
         0.26927E-02
         0.26927E-02
         0.26927E-02
         0.26927E-02
         0.26927E-02
         0.26927E-02
         0.26927E-02
         0.26927E-02
         0.26927E-02
         0.26927E-02
         0.26927E-02
         0.26927E-02
         0.26927E-02
         0.26927E-02
         0.26927E-02
         0.26927E-02
         0.26927E-02
         0.26927E-02
         0.26927E-02
         0.26927E-02
         0.26927E-02
         0.26927E-02
         0.26927E-02
         0.26927E-02
         0.26927E-02
         0.26927E-02
         0.26927E-02
         0.26927E-02
         0.26927E-02
         0.26927E-02
         0.26927E-02
         0.26927E-02
         0.26927E-02
         0.26927E-02
         0.26927E-02
         0.26927E-02
         0.26927E-02
         0.26927E-02
         0.26927E-02
         0.26927E-02
         0.26927E-02
         0.26927E-02
         0.26927E-02
         0.26927E-02
         0.26927E-02
         0.26927E-02
         0.26927E-02
         0.26927E-02
         0.26927E-02
         0.26927E-02
         0.26927E-02
         0.26927E-02
         0.26927E-02
         0.26927E-02
         0.26927E-02
         0.26927E-02
         0.26927E-02
         0.26927E-02
         0.26927E-02
         0.26927E-02
         0.26927E-02
         0.26927E-02
         0.26927E-02
         0.26927E-02
         0.26927E-02
         0.26927E-02
         0.26927E-02
         0.26927E-02
         0.26927E-02
         0.26927E-02
         0.26927E-02
         0.26927E-02
         0.26927E-02
         0.26927E-02
         0.26927E-02
         0.26927E-02
         0.26927E-02
         0.26927E-02
         0.26927E-02
         0.26927E-02
         0.26927E-02
         0.26927E-02
         0.26927E-02
         0.26927E-02
         0.26927E-02
         0.26927E-02
         0.26927E-02
         0.26927E-02
         0.26927E-02
         0.26927E-02
         0.26927E-02
         0.26927E-02
         0.26927E-02
         0.26927E-02
         0.26927E-02
         0.26927E-02
         0.26927E-02
         0.26927E-02
         0.26927E-02
         0.26927E-02
         0.26927E-02
         0.26927E-02
         0.26927E-02
         0.26927E-02
         0.26927E-02
         0.26927E-02
         0.26927E-02
         0.26927E-02
         0.26927E-02
         0.26927E-02
         0.26927E-02
         0.26927E-02
         0.26927E-02
         0.26927E-02
         0.26927E-02
         0.26927E-02
         0.26927E-02
         0.26927E-02
         0.26927E-02
         0.26927E-02
         0.26927E-02
         0.26927E-02
         0.26927E-02
         0.26927E-02
         0.26927E-02
         0.26927E-02
         0.26927E-02
         0.26927E-02
         0.26927E-02
         0.26927E-02
         0.26927E-02
         0.26927E-02
         0.26927E-02
         0.26927E-02
         0.26927E-02
         0.26927E-02
         0.26927E-02
         0.26927E-02
         0.26927E-02
         0.26927E-02
         0.26927E-02
         0.26927E-02
         0.26927E-02
         0.26927E-02
         0.26927E-02
         0.26927E-02
         0.26927E-02
         0.26927E-02
         0.26927E-02
         0.26927E-02
         0.26927E-02
         0.26927E-02
         0.26927E-02
         0.26927E-02
         0.26927E-02
         0.26927E-02
         0.26927E-02
         0.26927E-02
         0.26927E-02
         0.26927E-02
         0.26927E-02
         0.26927E-02
         0.26927E-02
         0.26927E-02
         0.26927E-02
         0.26927E-02
         0.26927E-02
         0.26927E-02
         0.26927E-02
         0.26927E-02
         0.26927E-02
         0.26927E-02
         0.26927E-02
         0.26927E-02
         0.26927E-02
         0.26927E-02
         0.26927E-02
         0.26927E-02
         0.26927E-02
         0.26927E-02
         0.26927E-02
         0.26927E-02
         0.26927E-02
         0.26927E-02
         0.26927E-02
         0.26927E-02
         0.26927E-02
         0.26927E-02
         0.26927E-02
         0.26927E-02
         0.26927E-02
         0.26927E-02
         0.26927E-02
         0.26927E-02
         0.26927E-02
         0.26927E-02
         0.26927E-02
         0.26927E-02
         0.26927E-02
         0.26927E-02
         0.26927E-02
         0.26927E-02
         0.26927E-02
         0.26927E-02
         0.26927E-02
         0.26927E-02
         0.26927E-02
         0.26927E-02
         0.26927E-02
         0.26927E-02
         0.26927E-02
         0.26927E-02
         0.26927E-02
         0.26927E-02
         0.26927E-02
         0.26927E-02
         0.26927E-02
         0.26927E-02
         0.26927E-02
         0.26927E-02
         0.26927E-02
         0.26927E-02
         0.26927E-02
         0.26927E-02
         0.26927E-02
         0.26927E-02
         0.26927E-02
         0.26927E-02
         0.26927E-02
         0.26927E-02
         0.26927E-02
         0.26927E-02
         0.26927E-02
         0.26927E-02
         0.26927E-02
         0.26927E-02
         0.26927E-02
         0.26927E-02
         0.26927E-02
         0.26927E-02
         0.26927E-02
         0.26927E-02
         0.26927E-02
         0.26927E-02
         0.26927E-02
         0.26927E-02
         0.26927E-02
         0.26927E-02
         0.26927E-02
         0.26927E-02
         0.26927E-02
         0.26927E-02
         0.26927E-02
         0.26927E-02
         0.26927E-02
         0.26927E-02
         0.26927E-02
         0.26927E-02
         0.26927E-02
         0.26927E-02
         0.26927E-02
         0.26927E-02
         0.26927E-02
         0.26927E-02
         0.26927E-02
         0.26927E-02
         0.26927E-02
         0.26927E-02
         0.26927E-02
         0.26927E-02
         0.26927E-02
         0.26927E-02
         0.26927E-02
         0.26927E-02
         0.26927E-02
         0.26927E-02
         0.26927E-02
         0.26927E-02
         0.26927E-02
         0.26927E-02
         0.26927E-02
         0.26927E-02
         0.26927E-02
         0.26927E-02
         0.26927E-02
         0.26927E-02
         0.26927E-02
         0.26927E-02
         0.26927E-02
         0.26927E-02
         0.26927E-02
         0.26927E-02
         0.26927E-02
         0.26927E-02
         0.26927E-02
         0.26927E-02
         0.26927E-02
         0.26927E-02
         0.26927E-02
         0.26927E-02
         0.26927E-02
         0.26927E-02
         0.26927E-02
         0.26927E-02
         0.26927E-02
         0.26927E-02
         0.26927E-02
         0.26927E-02
         0.26927E-02
         0.26927E-02
         0.26927E-02
         0.26927E-02
         0.26927E-02
         0.26927E-02
         0.26927E-02
         0.26927E-02
         0.26927E-02
         0.26927E-02
         0.26927E-02
         0.26927E-02
         0.26927E-02
         0.26927E-02
         0.26927E-02
         0.26927E-02
         0.26927E-02
         0.26927E-02
         0.26927E-02
         0.26927E-02
         0.26927E-02
         0.26927E-02
         0.26927E-02
         0.26927E-02
         0.26927E-02
         0.26927E-02
         0.26927E-02
         0.26927E-02
         0.26927E-02
         0.26927E-02
         0.26927E-02
         0.26927E-02
         0.26927E-02
         0.26927E-02
         0.26927E-02
         0.26927E-02
         0.26927E-02
         0.26927E-02
         0.26927E-02
         0.26927E-02
         0.26927E-02
         0.26927E-02
         0.26927E-02
         0.26927E-02
         0.26927E-02
         0.26927E-02
         0.26927E-02
         0.26927E-02
         0.26927E-02
         0.26927E-02
         0.26927E-02
         0.26927E-02
         0.26927E-02
         0.26927E-02
         0.26927E-02
         0.26927E-02
         0.26927E-02
         0.26927E-02
         0.26927E-02
         0.26927E-02
         0.26927E-02
         0.26927E-02
         0.26927E-02
         0.26927E-02
         0.26927E-02
         0.26927E-02
         0.26927E-02
         0.26927E-02
         0.26927E-02
         0.26927E-02
         0.26927E-02
         0.26927E-02
         0.26927E-02
         0.26927E-02
         0.26927E-02
         0.26927E-02
         0.26927E-02
         0.26927E-02
         0.26927E-02
         0.26927E-02
         0.26927E-02
         0.26927E-02
         0.26927E-02
         0.26927E-02
         0.26927E-02
         0.26927E-02
         0.26927E-02
         0.26927E-02
         0.26927E-02
         0.26927E-02
         0.26927E-02
         0.26927E-02
         0.26927E-02
         0.26927E-02
         0.26927E-02
         0.26927E-02
         0.26927E-02
         0.26927E-02
         0.26927E-02
         0.26927E-02
         0.26927E-02
         0.26927E-02
         0.26927E-02
         0.26927E-02
         0.26927E-02
         0.26927E-02
         0.26927E-02
         0.26927E-02
         0.26927E-02
         0.26927E-02
         0.26927E-02
         0.26927E-02
         0.26927E-02
         0.26927E-02
         0.26927E-02
         0.26927E-02
         0.26927E-02
         0.26927E-02
         0.26927E-02
         0.26927E-02
         0.26927E-02
         0.26927E-02
         0.26927E-02
         0.26927E-02
         0.26927E-02
         0.26927E-02
         0.26927E-02
         0.26927E-02
         0.26927E-02
         0.26927E-02
         0.26927E-02
         0.26927E-02
         0.26927E-02
         0.26927E-02
         0.26927E-02
         0.26927E-02
         0.26927E-02
         0.26927E-02
         0.26927E-02
         0.26927E-02
         0.26927E-02
         0.26927E-02
         0.26927E-02
         0.26927E-02
         0.26927E-02
         0.26927E-02
         0.26927E-02
         0.26927E-02
         0.26927E-02
         0.26927E-02
         0.26927E-02
         0.26927E-02
         0.26927E-02
         0.26927E-02
         0.26927E-02
         0.26927E-02
         0.26927E-02
         0.26927E-02
         0.26927E-02
         0.26927E-02
         0.26927E-02
         0.26927E-02
         0.26927E-02
         0.26927E-02
         0.26927E-02
         0.26927E-02
         0.26927E-02
         0.26927E-02
         0.26927E-02
         0.26927E-02
         0.26927E-02
         0.26927E-02
         0.26927E-02
         0.26927E-02
         0.26927E-02
         0.26927E-02
         0.26927E-02
         0.26927E-02
         0.26927E-02
         0.26927E-02
         0.26927E-02
         0.26927E-02
         0.26927E-02
         0.26927E-02
         0.26927E-02
         0.26927E-02
         0.26927E-02
         0.26927E-02
         0.26927E-02
         0.26927E-02
         0.26927E-02
         0.26927E-02
         0.26927E-02
         0.26927E-02
         0.26927E-02
         0.26927E-02
         0.26927E-02
         0.26927E-02
         0.26927E-02
         0.26927E-02
         0.26927E-02
         0.26927E-02
         0.26927E-02
         0.26927E-02
         0.26927E-02
         0.26927E-02
         0.26927E-02
         0.26927E-02
         0.26927E-02
         0.26927E-02
         0.26927E-02
         0.26927E-02
         0.26927E-02
         0.26927E-02
         0.26927E-02
         0.26927E-02
         0.26927E-02
         0.26927E-02
         0.26927E-02
         0.26927E-02
         0.26927E-02
         0.26927E-02
         0.26927E-02
         0.26927E-02
         0.26927E-02
         0.26927E-02
         0.26927E-02
         0.26927E-02
         0.26927E-02
         0.26927E-02
         0.26927E-02
         0.26927E-02
         0.26927E-02
         0.26927E-02
         0.26927E-02
         0.26927E-02
         0.26927E-02
         0.26927E-02
         0.26927E-02
         0.26927E-02
         0.26927E-02
         0.26927E-02
         0.26927E-02
         0.26927E-02
         0.26927E-02
         0.26927E-02
         0.26927E-02
         0.26927E-02
         0.26927E-02
         0.26927E-02
         0.26927E-02
         0.26927E-02
         0.26927E-02
         0.26927E-02
         0.26927E-02
         0.26927E-02
         0.26927E-02
         0.26927E-02
         0.26927E-02
         0.26927E-02
         0.26927E-02
         0.26927E-02
         0.26927E-02
         0.26927E-02
         0.26927E-02
         0.26927E-02
         0.26927E-02
         0.26927E-02
         0.26927E-02
         0.26927E-02
         0.26927E-02
         0.26927E-02
         0.26927E-02
         0.26927E-02
         0.26927E-02
         0.26927E-02
         0.26927E-02
         0.26927E-02
         0.26927E-02
         0.26927E-02
         0.26927E-02
         0.26927E-02
         0.26927E-02
         0.26927E-02
         0.26927E-02
         0.26927E-02
         0.26927E-02
         0.26927E-02
         0.26927E-02
         0.26927E-02
         0.26927E-02
         0.26927E-02
         0.26927E-02
         0.26927E-02
         0.26927E-02
         0.26927E-02
         0.26927E-02
         0.26927E-02
         0.26927E-02
         0.26927E-02
         0.26927E-02
         0.26927E-02
         0.26927E-02
         0.26927E-02
         0.26927E-02
         0.26927E-02
         0.26927E-02
         0.26927E-02
         0.26927E-02
         0.26927E-02
         0.26927E-02
         0.26927E-02
         0.26927E-02
         0.26927E-02
         0.26927E-02
         0.26927E-02
         0.26927E-02
         0.26927E-02
         0.26927E-02
         0.26927E-02
         0.26927E-02
         0.26927E-02
         0.26927E-02
         0.26927E-02
         0.26927E-02
         0.26927E-02
         0.26927E-02
         0.26927E-02
         0.26927E-02
         0.26927E-02
         0.26927E-02
         0.26927E-02
         0.26927E-02
         0.26927E-02
         0.26927E-02
         0.26927E-02
         0.26927E-02
         0.26927E-02
         0.26927E-02
         0.26927E-02
         0.26927E-02
         0.26927E-02
         0.26927E-02
         0.26927E-02
         0.26927E-02
         0.26927E-02
         0.26927E-02
         0.26927E-02
         0.26927E-02
         0.26927E-02
         0.26927E-02
         0.26927E-02
         0.26927E-02
         0.26927E-02
         0.26927E-02
         0.26927E-02
         0.26927E-02
         0.26927E-02
         0.26927E-02
         0.26927E-02
         0.26927E-02
         0.26927E-02
         0.26927E-02
         0.26927E-02
         0.26927E-02
         0.26927E-02
         0.26927E-02
         0.26927E-02
         0.26927E-02
         0.26927E-02
         0.26927E-02
         0.26927E-02
         0.26927E-02
         0.26927E-02
         0.26927E-02
         0.26927E-02
         0.26927E-02
         0.26927E-02
         0.26927E-02
         0.26927E-02
         0.26927E-02
         0.26927E-02
         0.26927E-02
         0.26927E-02
         0.26927E-02
         0.26927E-02
         0.26927E-02
         0.26927E-02
         0.26927E-02
         0.26927E-02
         0.26927E-02
         0.26927E-02
         0.26927E-02
         0.26927E-02
         0.26927E-02
         0.26927E-02
         0.26927E-02
         0.26927E-02
         0.26927E-02
         0.26927E-02
         0.26927E-02
         0.26927E-02
         0.26927E-02
         0.26927E-02
         0.26927E-02
         0.26927E-02
         0.26927E-02
         0.26927E-02
         0.26927E-02
         0.26927E-02
         0.26927E-02
         0.26927E-02
         0.26927E-02
         0.26927E-02
         0.26927E-02
         0.26927E-02
         0.26927E-02
         0.26927E-02
         0.26927E-02
         0.26927E-02
         0.26927E-02
         0.26927E-02
         0.26927E-02
         0.26927E-02
         0.26927E-02
         0.26927E-02
         0.26927E-02
         0.26927E-02
         0.26927E-02
         0.26927E-02
         0.26927E-02
         0.26927E-02
         0.26927E-02
         0.26927E-02
         0.26927E-02
         0.26927E-02
         0.26927E-02
         0.26927E-02
         0.26927E-02
         0.26927E-02
         0.26927E-02
         0.26927E-02
         0.26927E-02
         0.26927E-02
         0.26927E-02
         0.26927E-02
         0.26927E-02
         0.26927E-02
         0.26927E-02
         0.26927E-02
         0.26927E-02
         0.26927E-02
         0.26927E-02
         0.26927E-02
         0.26927E-02
         0.26927E-02
         0.26927E-02
         0.26927E-02
         0.26927E-02
         0.26927E-02
         0.26927E-02
         0.26927E-02
         0.26927E-02
         0.26927E-02
         0.26927E-02
         0.26927E-02
         0.26927E-02
         0.26927E-02
         0.26927E-02
         0.26927E-02
         0.26927E-02
         0.26927E-02
         0.26927E-02
         0.26927E-02
         0.26927E-02
         0.26927E-02
         0.26927E-02
         0.26927E-02
         0.26927E-02
         0.26927E-02
         0.26927E-02
         0.26927E-02
         0.26927E-02
         0.26927E-02
         0.26927E-02
         0.26927E-02
         0.26927E-02
         0.26927E-02
         0.26927E-02
         0.26927E-02
         0.26927E-02
         0.26927E-02
         0.26927E-02
         0.26927E-02
         0.26927E-02
         0.26927E-02
         0.26927E-02
         0.26927E-02
         0.26927E-02
         0.26927E-02
         0.26927E-02
         0.26927E-02
         0.26927E-02
         0.26927E-02
         0.26927E-02
         0.26927E-02
         0.26927E-02
         0.26927E-02
         0.26927E-02
         0.26927E-02
         0.26927E-02
         0.26927E-02
         0.26927E-02
         0.26927E-02
         0.26927E-02
         0.26927E-02
         0.26927E-02
         0.26927E-02
         0.26927E-02
         0.26927E-02
         0.26927E-02
         0.26927E-02
         0.26927E-02
         0.26927E-02
         0.26927E-02
         0.26927E-02
         0.26927E-02
         0.26927E-02
         0.26927E-02
         0.26927E-02
         0.26927E-02
         0.26927E-02
         0.26927E-02
         0.26927E-02
         0.26927E-02
         0.26927E-02
         0.26927E-02
         0.26927E-02
         0.26927E-02
         0.26927E-02
         0.26927E-02
         0.26927E-02
         0.26927E-02
         0.26927E-02
         0.26927E-02
         0.26927E-02
         0.26927E-02
         0.26927E-02
         0.26927E-02
         0.26927E-02
         0.26927E-02
         0.26927E-02
         0.26927E-02
         0.26927E-02
         0.26927E-02
         0.26927E-02
         0.26927E-02
         0.26927E-02
         0.26927E-02
         0.26927E-02
         0.26927E-02
         0.26927E-02
         0.26927E-02
         0.26927E-02
         0.26927E-02
         0.26927E-02
         0.26927E-02
         0.26927E-02
         0.26927E-02
         0.26927E-02
         0.26927E-02
         0.26927E-02
         0.26927E-02
         0.26927E-02
         0.26927E-02
         0.26927E-02
         0.26927E-02
         0.26927E-02
         0.26927E-02
         0.26927E-02
         0.26927E-02
         0.26927E-02
         0.26927E-02
         0.26927E-02
         0.26927E-02
         0.26927E-02
         0.26927E-02
         0.26927E-02
         0.26927E-02
         0.26927E-02
         0.26927E-02
         0.26927E-02
         0.26927E-02
         0.26927E-02
         0.26927E-02
         0.26927E-02
         0.26927E-02
         0.26927E-02
         0.26927E-02
         0.26927E-02
         0.26927E-02
         0.26927E-02
         0.26927E-02
         0.26927E-02
         0.26927E-02
         0.26927E-02
         0.26927E-02
         0.26927E-02
         0.26927E-02
         0.26927E-02
         0.26927E-02
         0.26927E-02
         0.26927E-02
         0.26927E-02
         0.26927E-02
         0.26927E-02
         0.26927E-02
         0.26927E-02
         0.26927E-02
         0.26927E-02
         0.26927E-02
         0.26927E-02
         0.26927E-02
         0.26927E-02
         0.26927E-02
         0.26927E-02
         0.26927E-02
         0.26927E-02
         0.26927E-02
         0.26927E-02
         0.26927E-02
         0.26927E-02
         0.26927E-02
         0.26927E-02
         0.26927E-02
         0.26927E-02
         0.26927E-02
         0.26927E-02
         0.26927E-02
         0.26927E-02
         0.26927E-02
         0.26927E-02
         0.26927E-02
         0.26927E-02
         0.26927E-02
         0.26927E-02
         0.26927E-02
         0.26927E-02
         0.26927E-02
         0.26927E-02
         0.26927E-02
         0.26927E-02
         0.26927E-02
         0.26927E-02
         0.26927E-02
         0.26927E-02
         0.26927E-02
         0.26927E-02
         0.26927E-02
         0.26927E-02
         0.26927E-02
         0.26927E-02
         0.26927E-02
         0.26927E-02
         0.26927E-02
         0.26927E-02
         0.26927E-02
         0.26927E-02
         0.26927E-02
         0.26927E-02
         0.26927E-02
         0.26927E-02
         0.26927E-02
         0.26927E-02
         0.26927E-02
         0.26927E-02
         0.26927E-02
         0.26927E-02
         0.26927E-02
         0.26927E-02
         0.26927E-02
         0.26927E-02
         0.26927E-02
         0.26927E-02
         0.26927E-02
         0.26927E-02
         0.26927E-02
         0.26927E-02
         0.26927E-02
         0.26927E-02
         0.26927E-02
         0.26927E-02
         0.26927E-02
         0.26927E-02
         0.26927E-02
         0.26927E-02
         0.26927E-02
         0.26927E-02
         0.26927E-02
         0.26927E-02
         0.26927E-02
         0.26927E-02
         0.26927E-02
         0.26927E-02
         0.26927E-02
         0.26927E-02
         0.26927E-02
         0.26927E-02
         0.26927E-02
         0.26927E-02
         0.26927E-02
         0.26927E-02
         0.26927E-02
         0.26927E-02
         0.26927E-02
         0.26927E-02
         0.26927E-02
         0.26927E-02
         0.26927E-02
         0.26927E-02
         0.26927E-02
         0.26927E-02
         0.26927E-02
         0.26927E-02
         0.26927E-02
         0.26927E-02
         0.26927E-02
         0.26927E-02
         0.26927E-02
         0.26927E-02
         0.26927E-02
         0.26927E-02
         0.26927E-02
         0.26927E-02
         0.26927E-02
         0.26927E-02
         0.26927E-02
         0.26927E-02
         0.26927E-02
         0.26927E-02
         0.26927E-02
         0.26927E-02
         0.26927E-02
         0.26927E-02
         0.26927E-02
         0.26927E-02
         0.26927E-02
         0.26927E-02
         0.26927E-02
         0.26927E-02
         0.26927E-02
         0.26927E-02
         0.26927E-02
         0.26927E-02
         0.26927E-02
         0.26927E-02
         0.26927E-02
         0.26927E-02
         0.26927E-02
         0.26927E-02
         0.26927E-02
         0.26927E-02
         0.26927E-02
         0.26927E-02
         0.26928E-02
         0.26928E-02
         0.26928E-02
         0.26928E-02
         0.26928E-02
         0.26928E-02
         0.26928E-02
         0.26928E-02
         0.26928E-02
         0.26928E-02
         0.26928E-02
         0.26928E-02
         0.26928E-02
         0.26928E-02
         0.26928E-02
         0.26928E-02
         0.26928E-02
         0.26928E-02
         0.26928E-02
         0.26928E-02
         0.26928E-02
         0.26928E-02
         0.26928E-02
         0.26928E-02
         0.26928E-02
         0.26928E-02
         0.26928E-02
         0.26928E-02
         0.26928E-02
         0.26928E-02
         0.26928E-02
         0.26928E-02
         0.26928E-02
         0.26928E-02
         0.26928E-02
         0.26928E-02
         0.26928E-02
         0.26928E-02
         0.26928E-02
         0.26928E-02
         0.26928E-02
         0.26928E-02
         0.26928E-02
         0.26928E-02
         0.26928E-02
         0.26928E-02
         0.26928E-02
         0.26928E-02
         0.26928E-02
         0.26928E-02
         0.26928E-02
         0.26928E-02
         0.26928E-02
         0.26928E-02
         0.26928E-02
         0.26928E-02
         0.26928E-02
         0.26928E-02
         0.26928E-02
         0.26928E-02
         0.26928E-02
         0.26928E-02
         0.26928E-02
         0.26928E-02
         0.26928E-02
         0.26928E-02
         0.26928E-02
         0.26928E-02
         0.26928E-02
         0.26928E-02
         0.26928E-02
         0.26928E-02
         0.26928E-02
         0.26928E-02
         0.26928E-02
         0.26928E-02
         0.26928E-02
         0.26928E-02
         0.26928E-02
         0.26928E-02
         0.26928E-02
         0.26928E-02
         0.26928E-02
         0.26928E-02
         0.26928E-02
         0.26928E-02
         0.26928E-02
         0.26928E-02
         0.26928E-02
         0.26928E-02
         0.26928E-02
         0.26928E-02
         0.26928E-02
         0.26928E-02
         0.26928E-02
         0.26928E-02
         0.26928E-02
         0.26928E-02
         0.26928E-02
         0.26928E-02
         0.26928E-02
         0.26928E-02
         0.26928E-02
         0.26928E-02
         0.26928E-02
         0.26928E-02
         0.26928E-02
         0.26928E-02
         0.26928E-02
         0.26928E-02
         0.26928E-02
         0.26928E-02
         0.26928E-02
         0.26928E-02
         0.26928E-02
         0.26928E-02
         0.26928E-02
         0.26928E-02
         0.26928E-02
         0.26928E-02
         0.26928E-02
         0.26928E-02
         0.26928E-02
         0.26928E-02
         0.26928E-02
         0.26928E-02
         0.26928E-02
         0.26928E-02
         0.26928E-02
         0.26928E-02
         0.26928E-02
         0.26928E-02
         0.26928E-02
         0.26928E-02
         0.26928E-02
         0.26928E-02
         0.26928E-02
         0.26928E-02
         0.26928E-02
         0.26928E-02
         0.26928E-02
         0.26928E-02
         0.26928E-02
         0.26928E-02
         0.26928E-02
         0.26928E-02
         0.26928E-02
         0.26928E-02
         0.26928E-02
         0.26928E-02
         0.26928E-02
         0.26928E-02
         0.26928E-02
         0.26928E-02
         0.26928E-02
         0.26928E-02
  
SCALARS                   nodal_volume  double 1
LOOKUP_TABLE default
         0.91140E-09
         0.72412E-09
         0.77574E-09
         0.13316E-08
         0.45570E-09
         0.36211E-09
         0.38787E-09
         0.66566E-09
         0.71537E-09
         0.91211E-09
         0.35767E-09
         0.45600E-09
         0.51195E-09
         0.61532E-09
         0.25605E-09
         0.30776E-09
         0.10101E-08
         0.74536E-09
         0.50500E-09
         0.37281E-09
         0.30273E-09
         0.57012E-09
         0.62699E-09
         0.15144E-09
         0.28509E-09
         0.31352E-09
         0.51329E-09
         0.64933E-09
         0.25683E-09
         0.32471E-09
         0.12026E-08
         0.93909E-09
         0.11935E-08
         0.60122E-09
         0.46945E-09
         0.59663E-09
         0.70296E-09
         0.80270E-09
         0.35149E-09
         0.40134E-09
         0.75859E-09
         0.84013E-09
         0.37932E-09
         0.42007E-09
         0.64542E-09
         0.40086E-09
         0.32274E-09
         0.20045E-09
         0.76288E-09
         0.38153E-09
         0.63346E-09
         0.31675E-09
         0.66583E-09
         0.33318E-09
         0.68008E-09
         0.34022E-09
         0.58930E-09
         0.71738E-09
         0.29472E-09
         0.35874E-09
         0.90938E-09
         0.64302E-09
         0.45469E-09
         0.32154E-09
         0.10152E-08
         0.50747E-09
         0.88120E-09
         0.44042E-09
         0.40077E-09
         0.61872E-09
         0.20039E-09
         0.30940E-09
         0.70206E-09
         0.35106E-09
         0.74172E-09
         0.37089E-09
         0.71539E-09
         0.35770E-09
         0.56226E-09
         0.28113E-09
         0.35349E-09
         0.58452E-09
         0.17675E-09
         0.29229E-09
         0.77354E-09
         0.38679E-09
         0.62469E-09
         0.31238E-09
         0.54957E-09
         0.27483E-09
         0.36009E-09
         0.61365E-09
         0.18007E-09
         0.30685E-09
         0.83268E-09
         0.41635E-09
         0.87287E-09
         0.43642E-09
         0.70438E-09
         0.35217E-09
         0.43365E-09
         0.74413E-09
         0.21683E-09
         0.37198E-09
         0.27660E-09
         0.35144E-09
         0.13833E-09
         0.17573E-09
         0.32921E-09
         0.16465E-09
         0.38764E-09
         0.19382E-09
         0.37797E-09
         0.18897E-09
         0.36707E-09
         0.18352E-09
         0.39112E-09
         0.19552E-09
         0.41268E-09
         0.20627E-09
         0.38876E-09
         0.19433E-09
         0.30402E-09
         0.15200E-09
         0.24796E-09
         0.12398E-09
         0.31999E-09
         0.16000E-09
         0.42608E-09
         0.21303E-09
         0.46805E-09
         0.23401E-09
         0.44933E-09
         0.22466E-09
         0.40550E-09
         0.20276E-09
         0.36826E-09
         0.18414E-09
         0.29911E-09
         0.14956E-09
         0.25178E-09
         0.12591E-09
         0.32888E-09
         0.16445E-09
         0.43529E-09
         0.21765E-09
         0.44963E-09
         0.22482E-09
         0.36384E-09
         0.18194E-09
         0.29543E-09
         0.14774E-09
         0.36126E-09
         0.18063E-09
         0.42771E-09
         0.21386E-09
         0.91143E-09
         0.72396E-09
         0.77579E-09
         0.13322E-08
         0.71547E-09
         0.91237E-09
         0.51167E-09
         0.61494E-09
         0.10105E-08
         0.74486E-09
         0.30244E-09
         0.57001E-09
         0.62694E-09
         0.51257E-09
         0.64918E-09
         0.12029E-08
         0.93950E-09
         0.11941E-08
         0.70298E-09
         0.80279E-09
         0.75855E-09
         0.84015E-09
         0.64535E-09
         0.40081E-09
         0.76254E-09
         0.63339E-09
         0.66483E-09
         0.67941E-09
         0.58904E-09
         0.71721E-09
         0.90946E-09
         0.64293E-09
         0.10157E-08
         0.88199E-09
         0.40076E-09
         0.61859E-09
         0.70195E-09
         0.74166E-09
         0.71543E-09
         0.56228E-09
         0.35349E-09
         0.58443E-09
         0.77349E-09
         0.62459E-09
         0.54943E-09
         0.35999E-09
         0.61359E-09
         0.83268E-09
         0.87299E-09
         0.70451E-09
         0.43366E-09
         0.74449E-09
         0.27651E-09
         0.35143E-09
         0.32904E-09
         0.38765E-09
         0.37805E-09
         0.36714E-09
         0.39129E-09
         0.41297E-09
         0.38899E-09
         0.30408E-09
         0.24798E-09
         0.31999E-09
         0.42613E-09
         0.46815E-09
         0.44938E-09
         0.40548E-09
         0.36823E-09
         0.29908E-09
         0.25174E-09
         0.32885E-09
         0.43527E-09
         0.44962E-09
         0.36376E-09
         0.29536E-09
         0.36130E-09
         0.42769E-09
         0.91151E-09
         0.72383E-09
         0.77587E-09
         0.13329E-08
         0.71560E-09
         0.91267E-09
         0.51142E-09
         0.61459E-09
         0.10109E-08
         0.74439E-09
         0.30216E-09
         0.56992E-09
         0.62691E-09
         0.51187E-09
         0.64906E-09
         0.12033E-08
         0.93995E-09
         0.11947E-08
         0.70302E-09
         0.80291E-09
         0.75853E-09
         0.84020E-09
         0.64530E-09
         0.40078E-09
         0.76223E-09
         0.63335E-09
         0.66385E-09
         0.67875E-09
         0.58880E-09
         0.71706E-09
         0.90957E-09
         0.64286E-09
         0.10162E-08
         0.88281E-09
         0.40076E-09
         0.61849E-09
         0.70188E-09
         0.74162E-09
         0.71550E-09
         0.56232E-09
         0.35350E-09
         0.58436E-09
         0.77347E-09
         0.62452E-09
         0.54931E-09
         0.35990E-09
         0.61355E-09
         0.83270E-09
         0.87315E-09
         0.70467E-09
         0.43368E-09
         0.74487E-09
         0.27643E-09
         0.35143E-09
         0.32889E-09
         0.38767E-09
         0.37814E-09
         0.36723E-09
         0.39147E-09
         0.41328E-09
         0.38923E-09
         0.30416E-09
         0.24800E-09
         0.32001E-09
         0.42620E-09
         0.46826E-09
         0.44944E-09
         0.40548E-09
         0.36821E-09
         0.29906E-09
         0.25171E-09
         0.32883E-09
         0.43527E-09
         0.44963E-09
         0.36369E-09
         0.29530E-09
         0.36135E-09
         0.42769E-09
         0.91156E-09
         0.72368E-09
         0.77594E-09
         0.13335E-08
         0.71571E-09
         0.91295E-09
         0.51115E-09
         0.61422E-09
         0.10112E-08
         0.74389E-09
         0.30187E-09
         0.56982E-09
         0.62686E-09
         0.51116E-09
         0.64892E-09
         0.12036E-08
         0.94038E-09
         0.11953E-08
         0.70304E-09
         0.80300E-09
         0.75850E-09
         0.84023E-09
         0.64523E-09
         0.40073E-09
         0.76190E-09
         0.63330E-09
         0.66285E-09
         0.67809E-09
         0.58855E-09
         0.71689E-09
         0.90966E-09
         0.64278E-09
         0.10168E-08
         0.88361E-09
         0.40076E-09
         0.61837E-09
         0.70178E-09
         0.74156E-09
         0.71554E-09
         0.56234E-09
         0.35350E-09
         0.58428E-09
         0.77343E-09
         0.62442E-09
         0.54918E-09
         0.35981E-09
         0.61349E-09
         0.83271E-09
         0.87328E-09
         0.70481E-09
         0.43369E-09
         0.74524E-09
         0.27634E-09
         0.35142E-09
         0.32873E-09
         0.38768E-09
         0.37823E-09
         0.36731E-09
         0.39163E-09
         0.41358E-09
         0.38945E-09
         0.30422E-09
         0.24802E-09
         0.32001E-09
         0.42625E-09
         0.46837E-09
         0.44949E-09
         0.40546E-09
         0.36819E-09
         0.29904E-09
         0.25167E-09
         0.32881E-09
         0.43526E-09
         0.44963E-09
         0.36362E-09
         0.29523E-09
         0.36139E-09
         0.42768E-09
         0.91161E-09
         0.72353E-09
         0.77600E-09
         0.13341E-08
         0.71583E-09
         0.91323E-09
         0.51088E-09
         0.61386E-09
         0.10116E-08
         0.74341E-09
         0.30158E-09
         0.56972E-09
         0.62682E-09
         0.51045E-09
         0.64879E-09
         0.12040E-08
         0.94081E-09
         0.11959E-08
         0.70307E-09
         0.80310E-09
         0.75847E-09
         0.84027E-09
         0.64517E-09
         0.40069E-09
         0.76158E-09
         0.63325E-09
         0.66186E-09
         0.67742E-09
         0.58831E-09
         0.71673E-09
         0.90975E-09
         0.64270E-09
         0.10173E-08
         0.88441E-09
         0.40075E-09
         0.61825E-09
         0.70169E-09
         0.74151E-09
         0.71559E-09
         0.56237E-09
         0.35350E-09
         0.58420E-09
         0.77339E-09
         0.62433E-09
         0.54905E-09
         0.35972E-09
         0.61344E-09
         0.83272E-09
         0.87341E-09
         0.70496E-09
         0.43370E-09
         0.74562E-09
         0.27626E-09
         0.35142E-09
         0.32857E-09
         0.38770E-09
         0.37832E-09
         0.36739E-09
         0.39181E-09
         0.41387E-09
         0.38968E-09
         0.30429E-09
         0.24804E-09
         0.32002E-09
         0.42631E-09
         0.46847E-09
         0.44954E-09
         0.40545E-09
         0.36816E-09
         0.29901E-09
         0.25163E-09
         0.32878E-09
         0.43525E-09
         0.44963E-09
         0.36354E-09
         0.29517E-09
         0.36144E-09
         0.42766E-09
         0.91167E-09
         0.72338E-09
         0.77607E-09
         0.13348E-08
         0.71594E-09
         0.91351E-09
         0.51062E-09
         0.61349E-09
         0.10119E-08
         0.74292E-09
         0.30129E-09
         0.56962E-09
         0.62678E-09
         0.50974E-09
         0.64865E-09
         0.12044E-08
         0.94125E-09
         0.11965E-08
         0.70310E-09
         0.80321E-09
         0.75844E-09
         0.84031E-09
         0.64511E-09
         0.40065E-09
         0.76125E-09
         0.63320E-09
         0.66087E-09
         0.67676E-09
         0.58806E-09
         0.71657E-09
         0.90984E-09
         0.64263E-09
         0.10179E-08
         0.88522E-09
         0.40075E-09
         0.61813E-09
         0.70160E-09
         0.74146E-09
         0.71564E-09
         0.56240E-09
         0.35350E-09
         0.58412E-09
         0.77336E-09
         0.62425E-09
         0.54892E-09
         0.35963E-09
         0.61339E-09
         0.83274E-09
         0.87355E-09
         0.70511E-09
         0.43371E-09
         0.74599E-09
         0.27618E-09
         0.35141E-09
         0.32841E-09
         0.38771E-09
         0.37841E-09
         0.36747E-09
         0.39198E-09
         0.41417E-09
         0.38992E-09
         0.30436E-09
         0.24806E-09
         0.32003E-09
         0.42637E-09
         0.46858E-09
         0.44960E-09
         0.40544E-09
         0.36814E-09
         0.29899E-09
         0.25159E-09
         0.32876E-09
         0.43525E-09
         0.44963E-09
         0.36347E-09
         0.29511E-09
         0.36148E-09
         0.42766E-09
         0.91171E-09
         0.72323E-09
         0.77613E-09
         0.13354E-08
         0.71606E-09
         0.91379E-09
         0.51035E-09
         0.61313E-09
         0.10123E-08
         0.74243E-09
         0.30101E-09
         0.56952E-09
         0.62674E-09
         0.50903E-09
         0.64851E-09
         0.12047E-08
         0.94167E-09
         0.11971E-08
         0.70312E-09
         0.80331E-09
         0.75840E-09
         0.84034E-09
         0.64504E-09
         0.40061E-09
         0.76092E-09
         0.63314E-09
         0.65988E-09
         0.67609E-09
         0.58781E-09
         0.71641E-09
         0.90993E-09
         0.64255E-09
         0.10184E-08
         0.88601E-09
         0.40075E-09
         0.61801E-09
         0.70151E-09
         0.74140E-09
         0.71569E-09
         0.56243E-09
         0.35350E-09
         0.58404E-09
         0.77332E-09
         0.62416E-09
         0.54879E-09
         0.35953E-09
         0.61334E-09
         0.83274E-09
         0.87368E-09
         0.70525E-09
         0.43372E-09
         0.74636E-09
         0.27609E-09
         0.35141E-09
         0.32825E-09
         0.38772E-09
         0.37849E-09
         0.36754E-09
         0.39215E-09
         0.41447E-09
         0.39014E-09
         0.30443E-09
         0.24808E-09
         0.32004E-09
         0.42642E-09
         0.46868E-09
         0.44965E-09
         0.40543E-09
         0.36812E-09
         0.29897E-09
         0.25155E-09
         0.32874E-09
         0.43524E-09
         0.44963E-09
         0.36340E-09
         0.29504E-09
         0.36153E-09
         0.42764E-09
         0.91176E-09
         0.72308E-09
         0.77620E-09
         0.13360E-08
         0.71617E-09
         0.91407E-09
         0.51008E-09
         0.61276E-09
         0.10126E-08
         0.74195E-09
         0.30072E-09
         0.56942E-09
         0.62670E-09
         0.50832E-09
         0.64838E-09
         0.12051E-08
         0.94210E-09
         0.11977E-08
         0.70314E-09
         0.80341E-09
         0.75837E-09
         0.84038E-09
         0.64498E-09
         0.40056E-09
         0.76060E-09
         0.63309E-09
         0.65888E-09
         0.67542E-09
         0.58756E-09
         0.71624E-09
         0.91002E-09
         0.64247E-09
         0.10189E-08
         0.88682E-09
         0.40074E-09
         0.61790E-09
         0.70142E-09
         0.74135E-09
         0.71574E-09
         0.56245E-09
         0.35351E-09
         0.58396E-09
         0.77328E-09
         0.62407E-09
         0.54866E-09
         0.35944E-09
         0.61329E-09
         0.83275E-09
         0.87382E-09
         0.70539E-09
         0.43373E-09
         0.74673E-09
         0.27601E-09
         0.35140E-09
         0.32809E-09
         0.38774E-09
         0.37858E-09
         0.36762E-09
         0.39232E-09
         0.41477E-09
         0.39037E-09
         0.30450E-09
         0.24810E-09
         0.32005E-09
         0.42648E-09
         0.46879E-09
         0.44970E-09
         0.40541E-09
         0.36809E-09
         0.29894E-09
         0.25151E-09
         0.32871E-09
         0.43523E-09
         0.44963E-09
         0.36333E-09
         0.29497E-09
         0.36157E-09
         0.42763E-09
         0.91182E-09
         0.72293E-09
         0.77627E-09
         0.13367E-08
         0.71629E-09
         0.91436E-09
         0.50982E-09
         0.61240E-09
         0.10130E-08
         0.74146E-09
         0.30043E-09
         0.56932E-09
         0.62666E-09
         0.50762E-09
         0.64825E-09
         0.12054E-08
         0.94253E-09
         0.11983E-08
         0.70317E-09
         0.80351E-09
         0.75834E-09
         0.84041E-09
         0.64491E-09
         0.40053E-09
         0.76028E-09
         0.63304E-09
         0.65790E-09
         0.67476E-09
         0.58731E-09
         0.71609E-09
         0.91012E-09
         0.64239E-09
         0.10195E-08
         0.88762E-09
         0.40074E-09
         0.61778E-09
         0.70133E-09
         0.74130E-09
         0.71579E-09
         0.56249E-09
         0.35351E-09
         0.58388E-09
         0.77324E-09
         0.62398E-09
         0.54853E-09
         0.35935E-09
         0.61324E-09
         0.83277E-09
         0.87396E-09
         0.70554E-09
         0.43375E-09
         0.74711E-09
         0.27592E-09
         0.35140E-09
         0.32793E-09
         0.38775E-09
         0.37867E-09
         0.36770E-09
         0.39249E-09
         0.41507E-09
         0.39061E-09
         0.30457E-09
         0.24812E-09
         0.32006E-09
         0.42654E-09
         0.46890E-09
         0.44975E-09
         0.40540E-09
         0.36807E-09
         0.29892E-09
         0.25148E-09
         0.32869E-09
         0.43522E-09
         0.44963E-09
         0.36325E-09
         0.29491E-09
         0.36162E-09
         0.42762E-09
         0.91187E-09
         0.72278E-09
         0.77633E-09
         0.13373E-08
         0.71640E-09
         0.91463E-09
         0.50955E-09
         0.61204E-09
         0.10134E-08
         0.74098E-09
         0.30015E-09
         0.56922E-09
         0.62662E-09
         0.50691E-09
         0.64811E-09
         0.12058E-08
         0.94296E-09
         0.11989E-08
         0.70320E-09
         0.80361E-09
         0.75831E-09
         0.84045E-09
         0.64485E-09
         0.40048E-09
         0.75995E-09
         0.63298E-09
         0.65690E-09
         0.67409E-09
         0.58706E-09
         0.71592E-09
         0.91020E-09
         0.64231E-09
         0.10200E-08
         0.88843E-09
         0.40074E-09
         0.61766E-09
         0.70124E-09
         0.74124E-09
         0.71584E-09
         0.56251E-09
         0.35351E-09
         0.58380E-09
         0.77320E-09
         0.62389E-09
         0.54840E-09
         0.35926E-09
         0.61318E-09
         0.83277E-09
         0.87409E-09
         0.70568E-09
         0.43376E-09
         0.74748E-09
         0.27584E-09
         0.35139E-09
         0.32777E-09
         0.38777E-09
         0.37876E-09
         0.36778E-09
         0.39266E-09
         0.41536E-09
         0.39084E-09
         0.30464E-09
         0.24814E-09
         0.32006E-09
         0.42659E-09
         0.46900E-09
         0.44980E-09
         0.40539E-09
         0.36805E-09
         0.29890E-09
         0.25144E-09
         0.32867E-09
         0.43521E-09
         0.44963E-09
         0.36318E-09
         0.29485E-09
         0.36166E-09
         0.42761E-09
         0.91192E-09
         0.72263E-09
         0.77640E-09
         0.13380E-08
         0.71652E-09
         0.91491E-09
         0.50928E-09
         0.61167E-09
         0.10137E-08
         0.74049E-09
         0.29986E-09
         0.56912E-09
         0.62657E-09
         0.50620E-09
         0.64797E-09
         0.12061E-08
         0.94339E-09
         0.11995E-08
         0.70322E-09
         0.80371E-09
         0.75827E-09
         0.84048E-09
         0.64478E-09
         0.40044E-09
         0.75962E-09
         0.63293E-09
         0.65591E-09
         0.67343E-09
         0.58681E-09
         0.71576E-09
         0.91029E-09
         0.64223E-09
         0.10205E-08
         0.88923E-09
         0.40073E-09
         0.61754E-09
         0.70114E-09
         0.74119E-09
         0.71588E-09
         0.56254E-09
         0.35351E-09
         0.58372E-09
         0.77316E-09
         0.62380E-09
         0.54827E-09
         0.35917E-09
         0.61313E-09
         0.83278E-09
         0.87422E-09
         0.70582E-09
         0.43377E-09
         0.74785E-09
         0.27575E-09
         0.35138E-09
         0.32761E-09
         0.38778E-09
         0.37885E-09
         0.36786E-09
         0.39283E-09
         0.41566E-09
         0.39107E-09
         0.30470E-09
         0.24816E-09
         0.32007E-09
         0.42665E-09
         0.46911E-09
         0.44985E-09
         0.40538E-09
         0.36802E-09
         0.29887E-09
         0.25140E-09
         0.32864E-09
         0.43520E-09
         0.44963E-09
         0.36310E-09
         0.29478E-09
         0.36170E-09
         0.42760E-09
         0.91198E-09
         0.72248E-09
         0.77646E-09
         0.13386E-08
         0.71663E-09
         0.91520E-09
         0.50901E-09
         0.61131E-09
         0.10141E-08
         0.74000E-09
         0.29957E-09
         0.56902E-09
         0.62653E-09
         0.50549E-09
         0.64784E-09
         0.12065E-08
         0.94382E-09
         0.12002E-08
         0.70325E-09
         0.80381E-09
         0.75824E-09
         0.84052E-09
         0.64472E-09
         0.40040E-09
         0.75929E-09
         0.63288E-09
         0.65492E-09
         0.67276E-09
         0.58657E-09
         0.71560E-09
         0.91038E-09
         0.64216E-09
         0.10211E-08
         0.89003E-09
         0.40073E-09
         0.61742E-09
         0.70105E-09
         0.74114E-09
         0.71593E-09
         0.56257E-09
         0.35351E-09
         0.58364E-09
         0.77313E-09
         0.62371E-09
         0.54814E-09
         0.35908E-09
         0.61308E-09
         0.83280E-09
         0.87436E-09
         0.70597E-09
         0.43378E-09
         0.74823E-09
         0.27567E-09
         0.35138E-09
         0.32745E-09
         0.38779E-09
         0.37893E-09
         0.36794E-09
         0.39300E-09
         0.41596E-09
         0.39130E-09
         0.30477E-09
         0.24818E-09
         0.32008E-09
         0.42671E-09
         0.46921E-09
         0.44991E-09
         0.40537E-09
         0.36800E-09
         0.29885E-09
         0.25136E-09
         0.32862E-09
         0.43520E-09
         0.44963E-09
         0.36303E-09
         0.29472E-09
         0.36175E-09
         0.42759E-09
         0.91203E-09
         0.72233E-09
         0.77653E-09
         0.13392E-08
         0.71675E-09
         0.91547E-09
         0.50875E-09
         0.61094E-09
         0.10144E-08
         0.73952E-09
         0.29928E-09
         0.56892E-09
         0.62649E-09
         0.50478E-09
         0.64770E-09
         0.12068E-08
         0.94424E-09
         0.12008E-08
         0.70327E-09
         0.80391E-09
         0.75821E-09
         0.84055E-09
         0.64465E-09
         0.40035E-09
         0.75896E-09
         0.63282E-09
         0.65393E-09
         0.67210E-09
         0.58632E-09
         0.71543E-09
         0.91047E-09
         0.64208E-09
         0.10216E-08
         0.89084E-09
         0.40073E-09
         0.61730E-09
         0.70096E-09
         0.74108E-09
         0.71598E-09
         0.56259E-09
         0.35351E-09
         0.58356E-09
         0.77309E-09
         0.62362E-09
         0.54801E-09
         0.35898E-09
         0.61303E-09
         0.83281E-09
         0.87449E-09
         0.70611E-09
         0.43379E-09
         0.74860E-09
         0.27558E-09
         0.35137E-09
         0.32729E-09
         0.38781E-09
         0.37902E-09
         0.36802E-09
         0.39317E-09
         0.41625E-09
         0.39153E-09
         0.30484E-09
         0.24820E-09
         0.32009E-09
         0.42677E-09
         0.46932E-09
         0.44996E-09
         0.40536E-09
         0.36798E-09
         0.29883E-09
         0.25132E-09
         0.32859E-09
         0.43519E-09
         0.44963E-09
         0.36296E-09
         0.29465E-09
         0.36179E-09
         0.42758E-09
         0.91208E-09
         0.72218E-09
         0.77659E-09
         0.13399E-08
         0.71686E-09
         0.91576E-09
         0.50848E-09
         0.61058E-09
         0.10148E-08
         0.73903E-09
         0.29900E-09
         0.56882E-09
         0.62645E-09
         0.50408E-09
         0.64757E-09
         0.12072E-08
         0.94467E-09
         0.12014E-08
         0.70330E-09
         0.80401E-09
         0.75818E-09
         0.84059E-09
         0.64459E-09
         0.40031E-09
         0.75864E-09
         0.63277E-09
         0.65294E-09
         0.67143E-09
         0.58607E-09
         0.71527E-09
         0.91057E-09
         0.64200E-09
         0.10221E-08
         0.89164E-09
         0.40072E-09
         0.61719E-09
         0.70087E-09
         0.74103E-09
         0.71603E-09
         0.56262E-09
         0.35352E-09
         0.58348E-09
         0.77305E-09
         0.62354E-09
         0.54788E-09
         0.35889E-09
         0.61298E-09
         0.83282E-09
         0.87463E-09
         0.70626E-09
         0.43380E-09
         0.74897E-09
         0.27550E-09
         0.35137E-09
         0.32713E-09
         0.38782E-09
         0.37911E-09
         0.36810E-09
         0.39334E-09
         0.41655E-09
         0.39176E-09
         0.30491E-09
         0.24822E-09
         0.32010E-09
         0.42682E-09
         0.46942E-09
         0.45001E-09
         0.40534E-09
         0.36796E-09
         0.29881E-09
         0.25128E-09
         0.32857E-09
         0.43518E-09
         0.44963E-09
         0.36288E-09
         0.29459E-09
         0.36184E-09
         0.42757E-09
         0.91214E-09
         0.72204E-09
         0.77666E-09
         0.13405E-08
         0.71698E-09
         0.91604E-09
         0.50822E-09
         0.61022E-09
         0.10151E-08
         0.73855E-09
         0.29871E-09
         0.56872E-09
         0.62641E-09
         0.50337E-09
         0.64743E-09
         0.12075E-08
         0.94510E-09
         0.12020E-08
         0.70333E-09
         0.80411E-09
         0.75815E-09
         0.84063E-09
         0.64453E-09
         0.40027E-09
         0.75831E-09
         0.63272E-09
         0.65196E-09
         0.67077E-09
         0.58582E-09
         0.71511E-09
         0.91066E-09
         0.64192E-09
         0.10227E-08
         0.89245E-09
         0.40072E-09
         0.61707E-09
         0.70078E-09
         0.74098E-09
         0.71608E-09
         0.56265E-09
         0.35352E-09
         0.58340E-09
         0.77301E-09
         0.62345E-09
         0.54775E-09
         0.35880E-09
         0.61293E-09
         0.83283E-09
         0.87476E-09
         0.70641E-09
         0.43382E-09
         0.74935E-09
         0.27541E-09
         0.35136E-09
         0.32697E-09
         0.38784E-09
         0.37920E-09
         0.36818E-09
         0.39352E-09
         0.41685E-09
         0.39199E-09
         0.30498E-09
         0.24824E-09
         0.32011E-09
         0.42688E-09
         0.46953E-09
         0.45007E-09
         0.40533E-09
         0.36793E-09
         0.29878E-09
         0.25124E-09
         0.32855E-09
         0.43517E-09
         0.44963E-09
         0.36281E-09
         0.29452E-09
         0.36188E-09
         0.42756E-09
         0.91219E-09
         0.72188E-09
         0.77672E-09
         0.13412E-08
         0.71709E-09
         0.91632E-09
         0.50795E-09
         0.60986E-09
         0.10155E-08
         0.73806E-09
         0.29842E-09
         0.56862E-09
         0.62636E-09
         0.50266E-09
         0.64730E-09
         0.12079E-08
         0.94552E-09
         0.12026E-08
         0.70335E-09
         0.80421E-09
         0.75811E-09
         0.84066E-09
         0.64446E-09
         0.40023E-09
         0.75798E-09
         0.63267E-09
         0.65096E-09
         0.67010E-09
         0.58557E-09
         0.71494E-09
         0.91074E-09
         0.64184E-09
         0.10232E-08
         0.89325E-09
         0.40072E-09
         0.61695E-09
         0.70069E-09
         0.74092E-09
         0.71612E-09
         0.56268E-09
         0.35352E-09
         0.58332E-09
         0.77297E-09
         0.62336E-09
         0.54762E-09
         0.35871E-09
         0.61287E-09
         0.83284E-09
         0.87489E-09
         0.70655E-09
         0.43383E-09
         0.74972E-09
         0.27533E-09
         0.35136E-09
         0.32681E-09
         0.38785E-09
         0.37929E-09
         0.36825E-09
         0.39369E-09
         0.41715E-09
         0.39222E-09
         0.30505E-09
         0.24826E-09
         0.32011E-09
         0.42694E-09
         0.46963E-09
         0.45011E-09
         0.40532E-09
         0.36791E-09
         0.29876E-09
         0.25120E-09
         0.32853E-09
         0.43516E-09
         0.44962E-09
         0.36274E-09
         0.29445E-09
         0.36192E-09
         0.42755E-09
         0.91224E-09
         0.72173E-09
         0.77679E-09
         0.13418E-08
         0.71720E-09
         0.91660E-09
         0.50768E-09
         0.60949E-09
         0.10158E-08
         0.73758E-09
         0.29814E-09
         0.56852E-09
         0.62632E-09
         0.50195E-09
         0.64716E-09
         0.12082E-08
         0.94595E-09
         0.12032E-08
         0.70337E-09
         0.80431E-09
         0.75808E-09
         0.84069E-09
         0.64440E-09
         0.40018E-09
         0.75766E-09
         0.63262E-09
         0.64998E-09
         0.66943E-09
         0.58532E-09
         0.71478E-09
         0.91083E-09
         0.64176E-09
         0.10238E-08
         0.89406E-09
         0.40071E-09
         0.61683E-09
         0.70059E-09
         0.74087E-09
         0.71617E-09
         0.56270E-09
         0.35352E-09
         0.58324E-09
         0.77294E-09
         0.62327E-09
         0.54749E-09
         0.35861E-09
         0.61282E-09
         0.83284E-09
         0.87503E-09
         0.70669E-09
         0.43384E-09
         0.75009E-09
         0.27524E-09
         0.35135E-09
         0.32665E-09
         0.38786E-09
         0.37937E-09
         0.36833E-09
         0.39386E-09
         0.41745E-09
         0.39245E-09
         0.30512E-09
         0.24828E-09
         0.32012E-09
         0.42699E-09
         0.46974E-09
         0.45017E-09
         0.40531E-09
         0.36788E-09
         0.29873E-09
         0.25117E-09
         0.32850E-09
         0.43515E-09
         0.44962E-09
         0.36266E-09
         0.29439E-09
         0.36197E-09
         0.42754E-09
         0.91230E-09
         0.72159E-09
         0.77686E-09
         0.13425E-08
         0.71732E-09
         0.91688E-09
         0.50742E-09
         0.60913E-09
         0.10162E-08
         0.73710E-09
         0.29785E-09
         0.56842E-09
         0.62628E-09
         0.50125E-09
         0.64703E-09
         0.12086E-08
         0.94638E-09
         0.12038E-08
         0.70340E-09
         0.80441E-09
         0.75805E-09
         0.84073E-09
         0.64433E-09
         0.40014E-09
         0.75733E-09
         0.63257E-09
         0.64899E-09
         0.66877E-09
         0.58508E-09
         0.71462E-09
         0.91093E-09
         0.64169E-09
         0.10243E-08
         0.89487E-09
         0.40071E-09
         0.61671E-09
         0.70051E-09
         0.74082E-09
         0.71622E-09
         0.56273E-09
         0.35352E-09
         0.58316E-09
         0.77290E-09
         0.62318E-09
         0.54737E-09
         0.35852E-09
         0.61277E-09
         0.83286E-09
         0.87517E-09
         0.70684E-09
         0.43385E-09
         0.75047E-09
         0.27516E-09
         0.35135E-09
         0.32649E-09
         0.38788E-09
         0.37946E-09
         0.36841E-09
         0.39403E-09
         0.41775E-09
         0.39268E-09
         0.30519E-09
         0.24830E-09
         0.32013E-09
         0.42705E-09
         0.46985E-09
         0.45022E-09
         0.40530E-09
         0.36786E-09
         0.29871E-09
         0.25113E-09
         0.32848E-09
         0.43515E-09
         0.44962E-09
         0.36259E-09
         0.29433E-09
         0.36201E-09
         0.42753E-09
         0.91235E-09
         0.72143E-09
         0.77692E-09
         0.13431E-08
         0.71743E-09
         0.91716E-09
         0.50715E-09
         0.60877E-09
         0.10165E-08
         0.73661E-09
         0.29757E-09
         0.56832E-09
         0.62624E-09
         0.50054E-09
         0.64689E-09
         0.12089E-08
         0.94680E-09
         0.12044E-08
         0.70342E-09
         0.80450E-09
         0.75802E-09
         0.84076E-09
         0.64427E-09
         0.40010E-09
         0.75700E-09
         0.63251E-09
         0.64800E-09
         0.66810E-09
         0.58482E-09
         0.71445E-09
         0.91101E-09
         0.64161E-09
         0.10248E-08
         0.89567E-09
         0.40071E-09
         0.61659E-09
         0.70041E-09
         0.74077E-09
         0.71627E-09
         0.56276E-09
         0.35352E-09
         0.58308E-09
         0.77286E-09
         0.62309E-09
         0.54723E-09
         0.35843E-09
         0.61272E-09
         0.83287E-09
         0.87530E-09
         0.70698E-09
         0.43386E-09
         0.75084E-09
         0.27507E-09
         0.35134E-09
         0.32633E-09
         0.38789E-09
         0.37955E-09
         0.36849E-09
         0.39420E-09
         0.41804E-09
         0.39291E-09
         0.30525E-09
         0.24832E-09
         0.32014E-09
         0.42711E-09
         0.46995E-09
         0.45027E-09
         0.40528E-09
         0.36784E-09
         0.29869E-09
         0.25109E-09
         0.32845E-09
         0.43514E-09
         0.44962E-09
         0.36252E-09
         0.29426E-09
         0.36206E-09
         0.42751E-09
         0.91240E-09
         0.72128E-09
         0.77698E-09
         0.13437E-08
         0.71755E-09
         0.91744E-09
         0.50688E-09
         0.60841E-09
         0.10169E-08
         0.73612E-09
         0.29728E-09
         0.56822E-09
         0.62619E-09
         0.49984E-09
         0.64676E-09
         0.12093E-08
         0.94723E-09
         0.12050E-08
         0.70345E-09
         0.80460E-09
         0.75798E-09
         0.84080E-09
         0.64420E-09
         0.40006E-09
         0.75667E-09
         0.63246E-09
         0.64701E-09
         0.66744E-09
         0.58457E-09
         0.71429E-09
         0.91110E-09
         0.64153E-09
         0.10254E-08
         0.89648E-09
         0.40070E-09
         0.61647E-09
         0.70032E-09
         0.74071E-09
         0.71632E-09
         0.56279E-09
         0.35353E-09
         0.58300E-09
         0.77282E-09
         0.62300E-09
         0.54710E-09
         0.35834E-09
         0.61266E-09
         0.83288E-09
         0.87543E-09
         0.70713E-09
         0.43387E-09
         0.75122E-09
         0.27499E-09
         0.35133E-09
         0.32617E-09
         0.38790E-09
         0.37964E-09
         0.36857E-09
         0.39437E-09
         0.41834E-09
         0.39314E-09
         0.30532E-09
         0.24834E-09
         0.32014E-09
         0.42716E-09
         0.47005E-09
         0.45032E-09
         0.40527E-09
         0.36781E-09
         0.29866E-09
         0.25105E-09
         0.32843E-09
         0.43513E-09
         0.44962E-09
         0.36244E-09
         0.29419E-09
         0.36210E-09
         0.42750E-09
         0.91246E-09
         0.72114E-09
         0.77705E-09
         0.13444E-08
         0.71767E-09
         0.91773E-09
         0.50662E-09
         0.60805E-09
         0.10173E-08
         0.73564E-09
         0.29700E-09
         0.56812E-09
         0.62616E-09
         0.49914E-09
         0.64663E-09
         0.12097E-08
         0.94766E-09
         0.12056E-08
         0.70348E-09
         0.80471E-09
         0.75796E-09
         0.84084E-09
         0.64414E-09
         0.40002E-09
         0.75635E-09
         0.63241E-09
         0.64603E-09
         0.66678E-09
         0.58433E-09
         0.71413E-09
         0.91120E-09
         0.64146E-09
         0.10259E-08
         0.89729E-09
         0.40070E-09
         0.61636E-09
         0.70023E-09
         0.74067E-09
         0.71637E-09
         0.56282E-09
         0.35353E-09
         0.58293E-09
         0.77279E-09
         0.62291E-09
         0.54698E-09
         0.35825E-09
         0.61261E-09
         0.83289E-09
         0.87557E-09
         0.70728E-09
         0.43389E-09
         0.75160E-09
         0.27491E-09
         0.35133E-09
         0.32601E-09
         0.38792E-09
         0.37972E-09
         0.36865E-09
         0.39454E-09
         0.41864E-09
         0.39337E-09
         0.30539E-09
         0.24836E-09
         0.32015E-09
         0.42722E-09
         0.47016E-09
         0.45038E-09
         0.40526E-09
         0.36779E-09
         0.29864E-09
         0.25101E-09
         0.32841E-09
         0.43512E-09
         0.44962E-09
         0.36237E-09
         0.29413E-09
         0.36215E-09
         0.42750E-09
         0.91249E-09
         0.72097E-09
         0.77710E-09
         0.13450E-08
         0.71777E-09
         0.91799E-09
         0.50634E-09
         0.60767E-09
         0.10176E-08
         0.73514E-09
         0.29670E-09
         0.56801E-09
         0.62610E-09
         0.49842E-09
         0.64648E-09
         0.12100E-08
         0.94806E-09
         0.12062E-08
         0.70349E-09
         0.80479E-09
         0.75791E-09
         0.84086E-09
         0.64406E-09
         0.39997E-09
         0.75600E-09
         0.63234E-09
         0.64503E-09
         0.66610E-09
         0.58407E-09
         0.71395E-09
         0.91127E-09
         0.64136E-09
         0.10264E-08
         0.89808E-09
         0.40069E-09
         0.61622E-09
         0.70012E-09
         0.74060E-09
         0.71641E-09
         0.56283E-09
         0.35352E-09
         0.58283E-09
         0.77273E-09
         0.62281E-09
         0.54684E-09
         0.35815E-09
         0.61255E-09
         0.83288E-09
         0.87569E-09
         0.70741E-09
         0.43389E-09
         0.75195E-09
         0.27482E-09
         0.35132E-09
         0.32584E-09
         0.38793E-09
         0.37980E-09
         0.36872E-09
         0.39470E-09
         0.41893E-09
         0.39360E-09
         0.30545E-09
         0.24837E-09
         0.32016E-09
         0.42727E-09
         0.47026E-09
         0.45042E-09
         0.40524E-09
         0.36776E-09
         0.29861E-09
         0.25097E-09
         0.32838E-09
         0.43510E-09
         0.44961E-09
         0.36229E-09
         0.29406E-09
         0.36218E-09
         0.42748E-09
         0.91256E-09
         0.72083E-09
         0.77718E-09
         0.13457E-08
         0.71789E-09
         0.91829E-09
         0.50608E-09
         0.60732E-09
         0.10180E-08
         0.73467E-09
         0.29642E-09
         0.56792E-09
         0.62607E-09
         0.49772E-09
         0.64636E-09
         0.12103E-08
         0.94850E-09
         0.12068E-08
         0.70352E-09
         0.80490E-09
         0.75789E-09
         0.84091E-09
         0.64401E-09
         0.39993E-09
         0.75569E-09
         0.63230E-09
         0.64405E-09
         0.66544E-09
         0.58382E-09
         0.71379E-09
         0.91137E-09
         0.64129E-09
         0.10270E-08
         0.89890E-09
         0.40069E-09
         0.61611E-09
         0.70004E-09
         0.74056E-09
         0.71646E-09
         0.56287E-09
         0.35353E-09
         0.58276E-09
         0.77271E-09
         0.62273E-09
         0.54672E-09
         0.35806E-09
         0.61251E-09
         0.83291E-09
         0.87583E-09
         0.70756E-09
         0.43391E-09
         0.75234E-09
         0.27474E-09
         0.35132E-09
         0.32569E-09
         0.38794E-09
         0.37990E-09
         0.36881E-09
         0.39488E-09
         0.41923E-09
         0.39383E-09
         0.30553E-09
         0.24840E-09
         0.32017E-09
         0.42734E-09
         0.47037E-09
         0.45048E-09
         0.40524E-09
         0.36774E-09
         0.29859E-09
         0.25093E-09
         0.32836E-09
         0.43510E-09
         0.44962E-09
         0.36222E-09
         0.29400E-09
         0.36223E-09
         0.42747E-09
         0.45631E-09
         0.36039E-09
         0.38862E-09
         0.67302E-09
         0.35899E-09
         0.45923E-09
         0.25298E-09
         0.30358E-09
         0.50909E-09
         0.36723E-09
         0.14815E-09
         0.28394E-09
         0.31303E-09
         0.24869E-09
         0.32316E-09
         0.60528E-09
         0.47437E-09
         0.60357E-09
         0.35178E-09
         0.40249E-09
         0.37895E-09
         0.42048E-09
         0.32200E-09
         0.19996E-09
         0.37777E-09
         0.31615E-09
         0.32179E-09
         0.33257E-09
         0.29186E-09
         0.35687E-09
         0.45572E-09
         0.32064E-09
         0.51365E-09
         0.44967E-09
         0.20035E-09
         0.30804E-09
         0.35001E-09
         0.37028E-09
         0.35826E-09
         0.28145E-09
         0.17677E-09
         0.29137E-09
         0.38636E-09
         0.31135E-09
         0.27333E-09
         0.17901E-09
         0.30625E-09
         0.41647E-09
         0.43797E-09
         0.35383E-09
         0.21697E-09
         0.37628E-09
         0.13735E-09
         0.17566E-09
         0.16281E-09
         0.19398E-09
         0.18998E-09
         0.18443E-09
         0.19749E-09
         0.20970E-09
         0.19698E-09
         0.15279E-09
         0.12421E-09
         0.16009E-09
         0.21369E-09
         0.23522E-09
         0.22526E-09
         0.20262E-09
         0.18387E-09
         0.14930E-09
         0.12546E-09
         0.16418E-09
         0.21756E-09
         0.22482E-09
         0.18110E-09
         0.14699E-09
         0.18113E-09
         0.21374E-09
  
SCALARS               pre_disp_force_x  double 1
LOOKUP_TABLE default
         0.00000E+00
         0.00000E+00
         0.00000E+00
         0.00000E+00
         0.00000E+00
         0.00000E+00
         0.00000E+00
         0.00000E+00
         0.00000E+00
         0.00000E+00
         0.00000E+00
         0.00000E+00
         0.00000E+00
         0.00000E+00
         0.00000E+00
         0.00000E+00
         0.00000E+00
         0.00000E+00
         0.00000E+00
         0.00000E+00
         0.00000E+00
         0.00000E+00
         0.00000E+00
         0.00000E+00
         0.00000E+00
         0.00000E+00
         0.00000E+00
         0.00000E+00
         0.00000E+00
         0.00000E+00
         0.00000E+00
         0.00000E+00
         0.00000E+00
         0.00000E+00
         0.00000E+00
         0.00000E+00
         0.00000E+00
         0.00000E+00
         0.00000E+00
         0.00000E+00
         0.00000E+00
         0.00000E+00
         0.00000E+00
         0.00000E+00
         0.00000E+00
         0.00000E+00
         0.00000E+00
         0.00000E+00
         0.00000E+00
         0.00000E+00
         0.00000E+00
         0.00000E+00
         0.00000E+00
         0.00000E+00
         0.00000E+00
         0.00000E+00
         0.00000E+00
         0.00000E+00
         0.00000E+00
         0.00000E+00
         0.00000E+00
         0.00000E+00
         0.00000E+00
         0.00000E+00
         0.00000E+00
         0.00000E+00
         0.00000E+00
         0.00000E+00
         0.00000E+00
         0.00000E+00
         0.00000E+00
         0.00000E+00
         0.00000E+00
         0.00000E+00
         0.00000E+00
         0.00000E+00
         0.00000E+00
         0.00000E+00
         0.00000E+00
         0.00000E+00
         0.00000E+00
         0.00000E+00
         0.00000E+00
         0.00000E+00
         0.00000E+00
         0.00000E+00
         0.00000E+00
         0.00000E+00
         0.00000E+00
         0.00000E+00
         0.00000E+00
         0.00000E+00
         0.00000E+00
         0.00000E+00
         0.00000E+00
         0.00000E+00
         0.00000E+00
         0.00000E+00
         0.00000E+00
         0.00000E+00
         0.00000E+00
         0.00000E+00
         0.00000E+00
         0.00000E+00
         0.00000E+00
         0.00000E+00
         0.00000E+00
         0.00000E+00
         0.00000E+00
         0.00000E+00
         0.00000E+00
         0.00000E+00
         0.00000E+00
         0.00000E+00
         0.00000E+00
         0.00000E+00
         0.00000E+00
         0.00000E+00
         0.00000E+00
         0.00000E+00
         0.00000E+00
         0.00000E+00
         0.00000E+00
         0.00000E+00
         0.00000E+00
         0.00000E+00
         0.00000E+00
         0.00000E+00
         0.00000E+00
         0.00000E+00
         0.00000E+00
         0.00000E+00
         0.00000E+00
         0.00000E+00
         0.00000E+00
         0.00000E+00
         0.00000E+00
         0.00000E+00
         0.00000E+00
         0.00000E+00
         0.00000E+00
         0.00000E+00
         0.00000E+00
         0.00000E+00
         0.00000E+00
         0.00000E+00
         0.00000E+00
         0.00000E+00
         0.00000E+00
         0.00000E+00
         0.00000E+00
         0.00000E+00
         0.00000E+00
         0.00000E+00
         0.00000E+00
         0.00000E+00
         0.00000E+00
         0.00000E+00
         0.00000E+00
         0.00000E+00
         0.00000E+00
         0.00000E+00
         0.00000E+00
         0.00000E+00
         0.00000E+00
         0.00000E+00
         0.00000E+00
         0.00000E+00
         0.00000E+00
         0.00000E+00
         0.00000E+00
         0.00000E+00
         0.00000E+00
         0.00000E+00
         0.00000E+00
         0.00000E+00
         0.00000E+00
         0.00000E+00
         0.00000E+00
         0.00000E+00
         0.00000E+00
         0.00000E+00
         0.00000E+00
         0.00000E+00
         0.00000E+00
         0.00000E+00
         0.00000E+00
         0.00000E+00
         0.00000E+00
         0.00000E+00
         0.00000E+00
         0.00000E+00
         0.00000E+00
         0.00000E+00
         0.00000E+00
         0.00000E+00
         0.00000E+00
         0.00000E+00
         0.00000E+00
         0.00000E+00
         0.00000E+00
         0.00000E+00
         0.00000E+00
         0.00000E+00
         0.00000E+00
         0.00000E+00
         0.00000E+00
         0.00000E+00
         0.00000E+00
         0.00000E+00
         0.00000E+00
         0.00000E+00
         0.00000E+00
         0.00000E+00
         0.00000E+00
         0.00000E+00
         0.00000E+00
         0.00000E+00
         0.00000E+00
         0.00000E+00
         0.00000E+00
         0.00000E+00
         0.00000E+00
         0.00000E+00
         0.00000E+00
         0.00000E+00
         0.00000E+00
         0.00000E+00
         0.00000E+00
         0.00000E+00
         0.00000E+00
         0.00000E+00
         0.00000E+00
         0.00000E+00
         0.00000E+00
         0.00000E+00
         0.00000E+00
         0.00000E+00
         0.00000E+00
         0.00000E+00
         0.00000E+00
         0.00000E+00
         0.00000E+00
         0.00000E+00
         0.00000E+00
         0.00000E+00
         0.00000E+00
         0.00000E+00
         0.00000E+00
         0.00000E+00
         0.00000E+00
         0.00000E+00
         0.00000E+00
         0.00000E+00
         0.00000E+00
         0.00000E+00
         0.00000E+00
         0.00000E+00
         0.00000E+00
         0.00000E+00
         0.00000E+00
         0.00000E+00
         0.00000E+00
         0.00000E+00
         0.00000E+00
         0.00000E+00
         0.00000E+00
         0.00000E+00
         0.00000E+00
         0.00000E+00
         0.00000E+00
         0.00000E+00
         0.00000E+00
         0.00000E+00
         0.00000E+00
         0.00000E+00
         0.00000E+00
         0.00000E+00
         0.00000E+00
         0.00000E+00
         0.00000E+00
         0.00000E+00
         0.00000E+00
         0.00000E+00
         0.00000E+00
         0.00000E+00
         0.00000E+00
         0.00000E+00
         0.00000E+00
         0.00000E+00
         0.00000E+00
         0.00000E+00
         0.00000E+00
         0.00000E+00
         0.00000E+00
         0.00000E+00
         0.00000E+00
         0.00000E+00
         0.00000E+00
         0.00000E+00
         0.00000E+00
         0.00000E+00
         0.00000E+00
         0.00000E+00
         0.00000E+00
         0.00000E+00
         0.00000E+00
         0.00000E+00
         0.00000E+00
         0.00000E+00
         0.00000E+00
         0.00000E+00
         0.00000E+00
         0.00000E+00
         0.00000E+00
         0.00000E+00
         0.00000E+00
         0.00000E+00
         0.00000E+00
         0.00000E+00
         0.00000E+00
         0.00000E+00
         0.00000E+00
         0.00000E+00
         0.00000E+00
         0.00000E+00
         0.00000E+00
         0.00000E+00
         0.00000E+00
         0.00000E+00
         0.00000E+00
         0.00000E+00
         0.00000E+00
         0.00000E+00
         0.00000E+00
         0.00000E+00
         0.00000E+00
         0.00000E+00
         0.00000E+00
         0.00000E+00
         0.00000E+00
         0.00000E+00
         0.00000E+00
         0.00000E+00
         0.00000E+00
         0.00000E+00
         0.00000E+00
         0.00000E+00
         0.00000E+00
         0.00000E+00
         0.00000E+00
         0.00000E+00
         0.00000E+00
         0.00000E+00
         0.00000E+00
         0.00000E+00
         0.00000E+00
         0.00000E+00
         0.00000E+00
         0.00000E+00
         0.00000E+00
         0.00000E+00
         0.00000E+00
         0.00000E+00
         0.00000E+00
         0.00000E+00
         0.00000E+00
         0.00000E+00
         0.00000E+00
         0.00000E+00
         0.00000E+00
         0.00000E+00
         0.00000E+00
         0.00000E+00
         0.00000E+00
         0.00000E+00
         0.00000E+00
         0.00000E+00
         0.00000E+00
         0.00000E+00
         0.00000E+00
         0.00000E+00
         0.00000E+00
         0.00000E+00
         0.00000E+00
         0.00000E+00
         0.00000E+00
         0.00000E+00
         0.00000E+00
         0.00000E+00
         0.00000E+00
         0.00000E+00
         0.00000E+00
         0.00000E+00
         0.00000E+00
         0.00000E+00
         0.00000E+00
         0.00000E+00
         0.00000E+00
         0.00000E+00
         0.00000E+00
         0.00000E+00
         0.00000E+00
         0.00000E+00
         0.00000E+00
         0.00000E+00
         0.00000E+00
         0.00000E+00
         0.00000E+00
         0.00000E+00
         0.00000E+00
         0.00000E+00
         0.00000E+00
         0.00000E+00
         0.00000E+00
         0.00000E+00
         0.00000E+00
         0.00000E+00
         0.00000E+00
         0.00000E+00
         0.00000E+00
         0.00000E+00
         0.00000E+00
         0.00000E+00
         0.00000E+00
         0.00000E+00
         0.00000E+00
         0.00000E+00
         0.00000E+00
         0.00000E+00
         0.00000E+00
         0.00000E+00
         0.00000E+00
         0.00000E+00
         0.00000E+00
         0.00000E+00
         0.00000E+00
         0.00000E+00
         0.00000E+00
         0.00000E+00
         0.00000E+00
         0.00000E+00
         0.00000E+00
         0.00000E+00
         0.00000E+00
         0.00000E+00
         0.00000E+00
         0.00000E+00
         0.00000E+00
         0.00000E+00
         0.00000E+00
         0.00000E+00
         0.00000E+00
         0.00000E+00
         0.00000E+00
         0.00000E+00
         0.00000E+00
         0.00000E+00
         0.00000E+00
         0.00000E+00
         0.00000E+00
         0.00000E+00
         0.00000E+00
         0.00000E+00
         0.00000E+00
         0.00000E+00
         0.00000E+00
         0.00000E+00
         0.00000E+00
         0.00000E+00
         0.00000E+00
         0.00000E+00
         0.00000E+00
         0.00000E+00
         0.00000E+00
         0.00000E+00
         0.00000E+00
         0.00000E+00
         0.00000E+00
         0.00000E+00
         0.00000E+00
         0.00000E+00
         0.00000E+00
         0.00000E+00
         0.00000E+00
         0.00000E+00
         0.00000E+00
         0.00000E+00
         0.00000E+00
         0.00000E+00
         0.00000E+00
         0.00000E+00
         0.00000E+00
         0.00000E+00
         0.00000E+00
         0.00000E+00
         0.00000E+00
         0.00000E+00
         0.00000E+00
         0.00000E+00
         0.00000E+00
         0.00000E+00
         0.00000E+00
         0.00000E+00
         0.00000E+00
         0.00000E+00
         0.00000E+00
         0.00000E+00
         0.00000E+00
         0.00000E+00
         0.00000E+00
         0.00000E+00
         0.00000E+00
         0.00000E+00
         0.00000E+00
         0.00000E+00
         0.00000E+00
         0.00000E+00
         0.00000E+00
         0.00000E+00
         0.00000E+00
         0.00000E+00
         0.00000E+00
         0.00000E+00
         0.00000E+00
         0.00000E+00
         0.00000E+00
         0.00000E+00
         0.00000E+00
         0.00000E+00
         0.00000E+00
         0.00000E+00
         0.00000E+00
         0.00000E+00
         0.00000E+00
         0.00000E+00
         0.00000E+00
         0.00000E+00
         0.00000E+00
         0.00000E+00
         0.00000E+00
         0.00000E+00
         0.00000E+00
         0.00000E+00
         0.00000E+00
         0.00000E+00
         0.00000E+00
         0.00000E+00
         0.00000E+00
         0.00000E+00
         0.00000E+00
         0.00000E+00
         0.00000E+00
         0.00000E+00
         0.00000E+00
         0.00000E+00
         0.00000E+00
         0.00000E+00
         0.00000E+00
         0.00000E+00
         0.00000E+00
         0.00000E+00
         0.00000E+00
         0.00000E+00
         0.00000E+00
         0.00000E+00
         0.00000E+00
         0.00000E+00
         0.00000E+00
         0.00000E+00
         0.00000E+00
         0.00000E+00
         0.00000E+00
         0.00000E+00
         0.00000E+00
         0.00000E+00
         0.00000E+00
         0.00000E+00
         0.00000E+00
         0.00000E+00
         0.00000E+00
         0.00000E+00
         0.00000E+00
         0.00000E+00
         0.00000E+00
         0.00000E+00
         0.00000E+00
         0.00000E+00
         0.00000E+00
         0.00000E+00
         0.00000E+00
         0.00000E+00
         0.00000E+00
         0.00000E+00
         0.00000E+00
         0.00000E+00
         0.00000E+00
         0.00000E+00
         0.00000E+00
         0.00000E+00
         0.00000E+00
         0.00000E+00
         0.00000E+00
         0.00000E+00
         0.00000E+00
         0.00000E+00
         0.00000E+00
         0.00000E+00
         0.00000E+00
         0.00000E+00
         0.00000E+00
         0.00000E+00
         0.00000E+00
         0.00000E+00
         0.00000E+00
         0.00000E+00
         0.00000E+00
         0.00000E+00
         0.00000E+00
         0.00000E+00
         0.00000E+00
         0.00000E+00
         0.00000E+00
         0.00000E+00
         0.00000E+00
         0.00000E+00
         0.00000E+00
         0.00000E+00
         0.00000E+00
         0.00000E+00
         0.00000E+00
         0.00000E+00
         0.00000E+00
         0.00000E+00
         0.00000E+00
         0.00000E+00
         0.00000E+00
         0.00000E+00
         0.00000E+00
         0.00000E+00
         0.00000E+00
         0.00000E+00
         0.00000E+00
         0.00000E+00
         0.00000E+00
         0.00000E+00
         0.00000E+00
         0.00000E+00
         0.00000E+00
         0.00000E+00
         0.00000E+00
         0.00000E+00
         0.00000E+00
         0.00000E+00
         0.00000E+00
         0.00000E+00
         0.00000E+00
         0.00000E+00
         0.00000E+00
         0.00000E+00
         0.00000E+00
         0.00000E+00
         0.00000E+00
         0.00000E+00
         0.00000E+00
         0.00000E+00
         0.00000E+00
         0.00000E+00
         0.00000E+00
         0.00000E+00
         0.00000E+00
         0.00000E+00
         0.00000E+00
         0.00000E+00
         0.00000E+00
         0.00000E+00
         0.00000E+00
         0.00000E+00
         0.00000E+00
         0.00000E+00
         0.00000E+00
         0.00000E+00
         0.00000E+00
         0.00000E+00
         0.00000E+00
         0.00000E+00
         0.00000E+00
         0.00000E+00
         0.00000E+00
         0.00000E+00
         0.00000E+00
         0.00000E+00
         0.00000E+00
         0.00000E+00
         0.00000E+00
         0.00000E+00
         0.00000E+00
         0.00000E+00
         0.00000E+00
         0.00000E+00
         0.00000E+00
         0.00000E+00
         0.00000E+00
         0.00000E+00
         0.00000E+00
         0.00000E+00
         0.00000E+00
         0.00000E+00
         0.00000E+00
         0.00000E+00
         0.00000E+00
         0.00000E+00
         0.00000E+00
         0.00000E+00
         0.00000E+00
         0.00000E+00
         0.00000E+00
         0.00000E+00
         0.00000E+00
         0.00000E+00
         0.00000E+00
         0.00000E+00
         0.00000E+00
         0.00000E+00
         0.00000E+00
         0.00000E+00
         0.00000E+00
         0.00000E+00
         0.00000E+00
         0.00000E+00
         0.00000E+00
         0.00000E+00
         0.00000E+00
         0.00000E+00
         0.00000E+00
         0.00000E+00
         0.00000E+00
         0.00000E+00
         0.00000E+00
         0.00000E+00
         0.00000E+00
         0.00000E+00
         0.00000E+00
         0.00000E+00
         0.00000E+00
         0.00000E+00
         0.00000E+00
         0.00000E+00
         0.00000E+00
         0.00000E+00
         0.00000E+00
         0.00000E+00
         0.00000E+00
         0.00000E+00
         0.00000E+00
         0.00000E+00
         0.00000E+00
         0.00000E+00
         0.00000E+00
         0.00000E+00
         0.00000E+00
         0.00000E+00
         0.00000E+00
         0.00000E+00
         0.00000E+00
         0.00000E+00
         0.00000E+00
         0.00000E+00
         0.00000E+00
         0.00000E+00
         0.00000E+00
         0.00000E+00
         0.00000E+00
         0.00000E+00
         0.00000E+00
         0.00000E+00
         0.00000E+00
         0.00000E+00
         0.00000E+00
         0.00000E+00
         0.00000E+00
         0.00000E+00
         0.00000E+00
         0.00000E+00
         0.00000E+00
         0.00000E+00
         0.00000E+00
         0.00000E+00
         0.00000E+00
         0.00000E+00
         0.00000E+00
         0.00000E+00
         0.00000E+00
         0.00000E+00
         0.00000E+00
         0.00000E+00
         0.00000E+00
         0.00000E+00
         0.00000E+00
         0.00000E+00
         0.00000E+00
         0.00000E+00
         0.00000E+00
         0.00000E+00
         0.00000E+00
         0.00000E+00
         0.00000E+00
         0.00000E+00
         0.00000E+00
         0.00000E+00
         0.00000E+00
         0.00000E+00
         0.00000E+00
         0.00000E+00
         0.00000E+00
         0.00000E+00
         0.00000E+00
         0.00000E+00
         0.00000E+00
         0.00000E+00
         0.00000E+00
         0.00000E+00
         0.00000E+00
         0.00000E+00
         0.00000E+00
         0.00000E+00
         0.00000E+00
         0.00000E+00
         0.00000E+00
         0.00000E+00
         0.00000E+00
         0.00000E+00
         0.00000E+00
         0.00000E+00
         0.00000E+00
         0.00000E+00
         0.00000E+00
         0.00000E+00
         0.00000E+00
         0.00000E+00
         0.00000E+00
         0.00000E+00
         0.00000E+00
         0.00000E+00
         0.00000E+00
         0.00000E+00
         0.00000E+00
         0.00000E+00
         0.00000E+00
         0.00000E+00
         0.00000E+00
         0.00000E+00
         0.00000E+00
         0.00000E+00
         0.00000E+00
         0.00000E+00
         0.00000E+00
         0.00000E+00
         0.00000E+00
         0.00000E+00
         0.00000E+00
         0.00000E+00
         0.00000E+00
         0.00000E+00
         0.00000E+00
         0.00000E+00
         0.00000E+00
         0.00000E+00
         0.00000E+00
         0.00000E+00
         0.00000E+00
         0.00000E+00
         0.00000E+00
         0.00000E+00
         0.00000E+00
         0.00000E+00
         0.00000E+00
         0.00000E+00
         0.00000E+00
         0.00000E+00
         0.00000E+00
         0.00000E+00
         0.00000E+00
         0.00000E+00
         0.00000E+00
         0.00000E+00
         0.00000E+00
         0.00000E+00
         0.00000E+00
         0.00000E+00
         0.00000E+00
         0.00000E+00
         0.00000E+00
         0.00000E+00
         0.00000E+00
         0.00000E+00
         0.00000E+00
         0.00000E+00
         0.00000E+00
         0.00000E+00
         0.00000E+00
         0.00000E+00
         0.00000E+00
         0.00000E+00
         0.00000E+00
         0.00000E+00
         0.00000E+00
         0.00000E+00
         0.00000E+00
         0.00000E+00
         0.00000E+00
         0.00000E+00
         0.00000E+00
         0.00000E+00
         0.00000E+00
         0.00000E+00
         0.00000E+00
         0.00000E+00
         0.00000E+00
         0.00000E+00
         0.00000E+00
         0.00000E+00
         0.00000E+00
         0.00000E+00
         0.00000E+00
         0.00000E+00
         0.00000E+00
         0.00000E+00
         0.00000E+00
         0.00000E+00
         0.00000E+00
         0.00000E+00
         0.00000E+00
         0.00000E+00
         0.00000E+00
         0.00000E+00
         0.00000E+00
         0.00000E+00
         0.00000E+00
         0.00000E+00
         0.00000E+00
         0.00000E+00
         0.00000E+00
         0.00000E+00
         0.00000E+00
         0.00000E+00
         0.00000E+00
         0.00000E+00
         0.00000E+00
         0.00000E+00
         0.00000E+00
         0.00000E+00
         0.00000E+00
         0.00000E+00
         0.00000E+00
         0.00000E+00
         0.00000E+00
         0.00000E+00
         0.00000E+00
         0.00000E+00
         0.00000E+00
         0.00000E+00
         0.00000E+00
         0.00000E+00
         0.00000E+00
         0.00000E+00
         0.00000E+00
         0.00000E+00
         0.00000E+00
         0.00000E+00
         0.00000E+00
         0.00000E+00
         0.00000E+00
         0.00000E+00
         0.00000E+00
         0.00000E+00
         0.00000E+00
         0.00000E+00
         0.00000E+00
         0.00000E+00
         0.00000E+00
         0.00000E+00
         0.00000E+00
         0.00000E+00
         0.00000E+00
         0.00000E+00
         0.00000E+00
         0.00000E+00
         0.00000E+00
         0.00000E+00
         0.00000E+00
         0.00000E+00
         0.00000E+00
         0.00000E+00
         0.00000E+00
         0.00000E+00
         0.00000E+00
         0.00000E+00
         0.00000E+00
         0.00000E+00
         0.00000E+00
         0.00000E+00
         0.00000E+00
         0.00000E+00
         0.00000E+00
         0.00000E+00
         0.00000E+00
         0.00000E+00
         0.00000E+00
         0.00000E+00
         0.00000E+00
         0.00000E+00
         0.00000E+00
         0.00000E+00
         0.00000E+00
         0.00000E+00
         0.00000E+00
         0.00000E+00
         0.00000E+00
         0.00000E+00
         0.00000E+00
         0.00000E+00
         0.00000E+00
         0.00000E+00
         0.00000E+00
         0.00000E+00
         0.00000E+00
         0.00000E+00
         0.00000E+00
         0.00000E+00
         0.00000E+00
         0.00000E+00
         0.00000E+00
         0.00000E+00
         0.00000E+00
         0.00000E+00
         0.00000E+00
         0.00000E+00
         0.00000E+00
         0.00000E+00
         0.00000E+00
         0.00000E+00
         0.00000E+00
         0.00000E+00
         0.00000E+00
         0.00000E+00
         0.00000E+00
         0.00000E+00
         0.00000E+00
         0.00000E+00
         0.00000E+00
         0.00000E+00
         0.00000E+00
         0.00000E+00
         0.00000E+00
         0.00000E+00
         0.00000E+00
         0.00000E+00
         0.00000E+00
         0.00000E+00
         0.00000E+00
         0.00000E+00
         0.00000E+00
         0.00000E+00
         0.00000E+00
         0.00000E+00
         0.00000E+00
         0.00000E+00
         0.00000E+00
         0.00000E+00
         0.00000E+00
         0.00000E+00
         0.00000E+00
         0.00000E+00
         0.00000E+00
         0.00000E+00
         0.00000E+00
         0.00000E+00
         0.00000E+00
         0.00000E+00
         0.00000E+00
         0.00000E+00
         0.00000E+00
         0.00000E+00
         0.00000E+00
         0.00000E+00
         0.00000E+00
         0.00000E+00
         0.00000E+00
         0.00000E+00
         0.00000E+00
         0.00000E+00
         0.00000E+00
         0.00000E+00
         0.00000E+00
         0.00000E+00
         0.00000E+00
         0.00000E+00
         0.00000E+00
         0.00000E+00
         0.00000E+00
         0.00000E+00
         0.00000E+00
         0.00000E+00
         0.00000E+00
         0.00000E+00
         0.00000E+00
         0.00000E+00
         0.00000E+00
         0.00000E+00
         0.00000E+00
         0.00000E+00
         0.00000E+00
         0.00000E+00
         0.00000E+00
         0.00000E+00
         0.00000E+00
         0.00000E+00
         0.00000E+00
         0.00000E+00
         0.00000E+00
         0.00000E+00
         0.00000E+00
         0.00000E+00
         0.00000E+00
         0.00000E+00
         0.00000E+00
         0.00000E+00
         0.00000E+00
         0.00000E+00
         0.00000E+00
         0.00000E+00
         0.00000E+00
         0.00000E+00
         0.00000E+00
         0.00000E+00
         0.00000E+00
         0.00000E+00
         0.00000E+00
         0.00000E+00
         0.00000E+00
         0.00000E+00
         0.00000E+00
         0.00000E+00
         0.00000E+00
         0.00000E+00
         0.00000E+00
         0.00000E+00
         0.00000E+00
         0.00000E+00
         0.00000E+00
         0.00000E+00
         0.00000E+00
         0.00000E+00
         0.00000E+00
         0.00000E+00
         0.00000E+00
         0.00000E+00
         0.00000E+00
         0.00000E+00
         0.00000E+00
         0.00000E+00
         0.00000E+00
         0.00000E+00
         0.00000E+00
         0.00000E+00
         0.00000E+00
         0.00000E+00
         0.00000E+00
         0.00000E+00
         0.00000E+00
         0.00000E+00
         0.00000E+00
         0.00000E+00
         0.00000E+00
         0.00000E+00
         0.00000E+00
         0.00000E+00
         0.00000E+00
         0.00000E+00
         0.00000E+00
         0.00000E+00
         0.00000E+00
         0.00000E+00
         0.00000E+00
         0.00000E+00
         0.00000E+00
         0.00000E+00
         0.00000E+00
         0.00000E+00
         0.00000E+00
         0.00000E+00
         0.00000E+00
         0.00000E+00
         0.00000E+00
         0.00000E+00
         0.00000E+00
         0.00000E+00
         0.00000E+00
         0.00000E+00
         0.00000E+00
         0.00000E+00
         0.00000E+00
         0.00000E+00
         0.00000E+00
         0.00000E+00
         0.00000E+00
         0.00000E+00
         0.00000E+00
         0.00000E+00
         0.00000E+00
         0.00000E+00
         0.00000E+00
         0.00000E+00
         0.00000E+00
         0.00000E+00
         0.00000E+00
         0.00000E+00
         0.00000E+00
         0.00000E+00
         0.00000E+00
         0.00000E+00
         0.00000E+00
         0.00000E+00
         0.00000E+00
         0.00000E+00
         0.00000E+00
         0.00000E+00
         0.00000E+00
         0.00000E+00
         0.00000E+00
         0.00000E+00
         0.00000E+00
         0.00000E+00
         0.00000E+00
         0.00000E+00
         0.00000E+00
         0.00000E+00
         0.00000E+00
         0.00000E+00
         0.00000E+00
         0.00000E+00
         0.00000E+00
         0.00000E+00
         0.00000E+00
         0.00000E+00
         0.00000E+00
         0.00000E+00
         0.00000E+00
         0.00000E+00
         0.00000E+00
         0.00000E+00
         0.00000E+00
         0.00000E+00
         0.00000E+00
         0.00000E+00
         0.00000E+00
         0.00000E+00
         0.00000E+00
         0.00000E+00
         0.00000E+00
         0.00000E+00
         0.00000E+00
         0.00000E+00
         0.00000E+00
         0.00000E+00
         0.00000E+00
         0.00000E+00
         0.00000E+00
         0.00000E+00
         0.00000E+00
         0.00000E+00
         0.00000E+00
         0.00000E+00
         0.00000E+00
         0.00000E+00
         0.00000E+00
         0.00000E+00
         0.00000E+00
         0.00000E+00
         0.00000E+00
         0.00000E+00
         0.00000E+00
         0.00000E+00
         0.00000E+00
         0.00000E+00
         0.00000E+00
         0.00000E+00
         0.00000E+00
         0.00000E+00
         0.00000E+00
         0.00000E+00
         0.00000E+00
         0.00000E+00
         0.00000E+00
         0.00000E+00
         0.00000E+00
         0.00000E+00
         0.00000E+00
         0.00000E+00
         0.00000E+00
         0.00000E+00
         0.00000E+00
         0.00000E+00
         0.00000E+00
         0.00000E+00
         0.00000E+00
         0.00000E+00
         0.00000E+00
         0.00000E+00
         0.00000E+00
         0.00000E+00
         0.00000E+00
         0.00000E+00
         0.00000E+00
         0.00000E+00
         0.00000E+00
         0.00000E+00
         0.00000E+00
         0.00000E+00
         0.00000E+00
         0.00000E+00
         0.00000E+00
         0.00000E+00
         0.00000E+00
         0.00000E+00
         0.00000E+00
         0.00000E+00
         0.00000E+00
         0.00000E+00
         0.00000E+00
         0.00000E+00
         0.00000E+00
         0.00000E+00
         0.00000E+00
         0.00000E+00
         0.00000E+00
         0.00000E+00
         0.00000E+00
         0.00000E+00
         0.00000E+00
         0.00000E+00
         0.00000E+00
         0.00000E+00
         0.00000E+00
         0.00000E+00
         0.00000E+00
         0.00000E+00
         0.00000E+00
         0.00000E+00
         0.00000E+00
         0.00000E+00
         0.00000E+00
         0.00000E+00
         0.00000E+00
         0.00000E+00
         0.00000E+00
         0.00000E+00
         0.00000E+00
         0.00000E+00
         0.00000E+00
         0.00000E+00
         0.00000E+00
         0.00000E+00
         0.00000E+00
         0.00000E+00
         0.00000E+00
         0.00000E+00
         0.00000E+00
         0.00000E+00
         0.00000E+00
         0.00000E+00
         0.00000E+00
         0.00000E+00
         0.00000E+00
         0.00000E+00
         0.00000E+00
         0.00000E+00
         0.00000E+00
         0.00000E+00
         0.00000E+00
         0.00000E+00
         0.00000E+00
         0.00000E+00
         0.00000E+00
         0.00000E+00
         0.00000E+00
         0.00000E+00
         0.00000E+00
         0.00000E+00
         0.00000E+00
         0.00000E+00
         0.00000E+00
         0.00000E+00
         0.00000E+00
         0.00000E+00
         0.00000E+00
         0.00000E+00
         0.00000E+00
         0.00000E+00
         0.00000E+00
         0.00000E+00
         0.00000E+00
         0.00000E+00
         0.00000E+00
         0.00000E+00
         0.00000E+00
         0.00000E+00
         0.00000E+00
         0.00000E+00
         0.00000E+00
         0.00000E+00
         0.00000E+00
         0.00000E+00
         0.00000E+00
         0.00000E+00
         0.00000E+00
         0.00000E+00
         0.00000E+00
         0.00000E+00
         0.00000E+00
         0.00000E+00
         0.00000E+00
         0.00000E+00
         0.00000E+00
         0.00000E+00
         0.00000E+00
         0.00000E+00
         0.00000E+00
         0.00000E+00
         0.00000E+00
         0.00000E+00
         0.00000E+00
         0.00000E+00
         0.00000E+00
         0.00000E+00
         0.00000E+00
         0.00000E+00
         0.00000E+00
         0.00000E+00
         0.00000E+00
         0.00000E+00
         0.00000E+00
         0.00000E+00
         0.00000E+00
         0.00000E+00
         0.00000E+00
         0.00000E+00
         0.00000E+00
         0.00000E+00
         0.00000E+00
         0.00000E+00
         0.00000E+00
         0.00000E+00
         0.00000E+00
         0.00000E+00
         0.00000E+00
         0.00000E+00
         0.00000E+00
         0.00000E+00
         0.00000E+00
         0.00000E+00
         0.00000E+00
         0.00000E+00
         0.00000E+00
         0.00000E+00
         0.00000E+00
         0.00000E+00
         0.00000E+00
         0.00000E+00
         0.00000E+00
         0.00000E+00
         0.00000E+00
         0.00000E+00
         0.00000E+00
         0.00000E+00
         0.00000E+00
         0.00000E+00
         0.00000E+00
         0.00000E+00
         0.00000E+00
         0.00000E+00
         0.00000E+00
         0.00000E+00
         0.00000E+00
         0.00000E+00
         0.00000E+00
         0.00000E+00
         0.00000E+00
         0.00000E+00
         0.00000E+00
         0.00000E+00
         0.00000E+00
         0.00000E+00
         0.00000E+00
         0.00000E+00
         0.00000E+00
         0.00000E+00
         0.00000E+00
         0.00000E+00
         0.00000E+00
         0.00000E+00
         0.00000E+00
         0.00000E+00
         0.00000E+00
         0.00000E+00
         0.00000E+00
         0.00000E+00
         0.00000E+00
         0.00000E+00
         0.00000E+00
         0.00000E+00
         0.00000E+00
         0.00000E+00
         0.00000E+00
         0.00000E+00
         0.00000E+00
         0.00000E+00
         0.00000E+00
         0.00000E+00
         0.00000E+00
         0.00000E+00
         0.00000E+00
         0.00000E+00
         0.00000E+00
         0.00000E+00
         0.00000E+00
         0.00000E+00
         0.00000E+00
         0.00000E+00
         0.00000E+00
         0.00000E+00
         0.00000E+00
         0.00000E+00
         0.00000E+00
         0.00000E+00
         0.00000E+00
         0.00000E+00
         0.00000E+00
         0.00000E+00
         0.00000E+00
         0.00000E+00
         0.00000E+00
         0.00000E+00
         0.00000E+00
         0.00000E+00
         0.00000E+00
         0.00000E+00
         0.00000E+00
         0.00000E+00
         0.00000E+00
         0.00000E+00
         0.00000E+00
         0.00000E+00
         0.00000E+00
         0.00000E+00
         0.00000E+00
         0.00000E+00
         0.00000E+00
         0.00000E+00
         0.00000E+00
         0.00000E+00
         0.00000E+00
         0.00000E+00
         0.00000E+00
         0.00000E+00
         0.00000E+00
         0.00000E+00
         0.00000E+00
         0.00000E+00
         0.00000E+00
         0.00000E+00
         0.00000E+00
         0.00000E+00
         0.00000E+00
         0.00000E+00
         0.00000E+00
         0.00000E+00
         0.00000E+00
         0.00000E+00
         0.00000E+00
         0.00000E+00
         0.00000E+00
         0.00000E+00
         0.00000E+00
         0.00000E+00
         0.00000E+00
         0.00000E+00
         0.00000E+00
         0.00000E+00
         0.00000E+00
         0.00000E+00
         0.00000E+00
         0.00000E+00
         0.00000E+00
         0.00000E+00
         0.00000E+00
         0.00000E+00
         0.00000E+00
         0.00000E+00
         0.00000E+00
         0.00000E+00
         0.00000E+00
         0.00000E+00
         0.00000E+00
         0.00000E+00
         0.00000E+00
         0.00000E+00
         0.00000E+00
         0.00000E+00
         0.00000E+00
         0.00000E+00
         0.00000E+00
         0.00000E+00
         0.00000E+00
         0.00000E+00
         0.00000E+00
         0.00000E+00
         0.00000E+00
         0.00000E+00
         0.00000E+00
         0.00000E+00
         0.00000E+00
         0.00000E+00
         0.00000E+00
         0.00000E+00
         0.00000E+00
         0.00000E+00
         0.00000E+00
         0.00000E+00
         0.00000E+00
         0.00000E+00
         0.00000E+00
         0.00000E+00
         0.00000E+00
         0.00000E+00
         0.00000E+00
         0.00000E+00
         0.00000E+00
         0.00000E+00
         0.00000E+00
         0.00000E+00
         0.00000E+00
         0.00000E+00
         0.00000E+00
         0.00000E+00
         0.00000E+00
         0.00000E+00
         0.00000E+00
         0.00000E+00
         0.00000E+00
         0.00000E+00
         0.00000E+00
         0.00000E+00
         0.00000E+00
         0.00000E+00
         0.00000E+00
         0.00000E+00
         0.00000E+00
         0.00000E+00
         0.00000E+00
         0.00000E+00
         0.00000E+00
         0.00000E+00
         0.00000E+00
         0.00000E+00
         0.00000E+00
         0.00000E+00
         0.00000E+00
         0.00000E+00
         0.00000E+00
         0.00000E+00
         0.00000E+00
         0.00000E+00
         0.00000E+00
         0.00000E+00
         0.00000E+00
         0.00000E+00
         0.00000E+00
         0.00000E+00
         0.00000E+00
         0.00000E+00
         0.00000E+00
         0.00000E+00
         0.00000E+00
         0.00000E+00
         0.00000E+00
         0.00000E+00
         0.00000E+00
         0.00000E+00
         0.00000E+00
         0.00000E+00
         0.00000E+00
         0.00000E+00
         0.00000E+00
         0.00000E+00
         0.00000E+00
         0.00000E+00
         0.00000E+00
         0.00000E+00
         0.00000E+00
         0.00000E+00
         0.00000E+00
         0.00000E+00
         0.00000E+00
         0.00000E+00
         0.00000E+00
         0.00000E+00
         0.00000E+00
         0.00000E+00
         0.00000E+00
         0.00000E+00
         0.00000E+00
         0.00000E+00
         0.00000E+00
         0.00000E+00
         0.00000E+00
         0.00000E+00
         0.00000E+00
         0.00000E+00
         0.00000E+00
         0.00000E+00
         0.00000E+00
         0.00000E+00
         0.00000E+00
         0.00000E+00
         0.00000E+00
         0.00000E+00
         0.00000E+00
         0.00000E+00
         0.00000E+00
         0.00000E+00
         0.00000E+00
         0.00000E+00
         0.00000E+00
         0.00000E+00
         0.00000E+00
         0.00000E+00
         0.00000E+00
         0.00000E+00
         0.00000E+00
         0.00000E+00
         0.00000E+00
         0.00000E+00
         0.00000E+00
         0.00000E+00
         0.00000E+00
         0.00000E+00
         0.00000E+00
         0.00000E+00
         0.00000E+00
         0.00000E+00
         0.00000E+00
         0.00000E+00
         0.00000E+00
         0.00000E+00
         0.00000E+00
         0.00000E+00
         0.00000E+00
         0.00000E+00
         0.00000E+00
         0.00000E+00
         0.00000E+00
         0.00000E+00
         0.00000E+00
         0.00000E+00
         0.00000E+00
         0.00000E+00
         0.00000E+00
         0.00000E+00
         0.00000E+00
         0.00000E+00
         0.00000E+00
         0.00000E+00
         0.00000E+00
         0.00000E+00
         0.00000E+00
         0.00000E+00
         0.00000E+00
         0.00000E+00
         0.00000E+00
         0.00000E+00
         0.00000E+00
         0.00000E+00
         0.00000E+00
         0.00000E+00
         0.00000E+00
         0.00000E+00
         0.00000E+00
         0.00000E+00
         0.00000E+00
         0.00000E+00
         0.00000E+00
         0.00000E+00
         0.00000E+00
         0.00000E+00
         0.00000E+00
         0.00000E+00
         0.00000E+00
         0.00000E+00
         0.00000E+00
         0.00000E+00
         0.00000E+00
         0.00000E+00
         0.00000E+00
         0.00000E+00
         0.00000E+00
         0.00000E+00
         0.00000E+00
         0.00000E+00
         0.00000E+00
         0.00000E+00
         0.00000E+00
         0.00000E+00
         0.00000E+00
         0.00000E+00
         0.00000E+00
         0.00000E+00
         0.00000E+00
         0.00000E+00
         0.00000E+00
         0.00000E+00
         0.00000E+00
         0.00000E+00
         0.00000E+00
         0.00000E+00
         0.00000E+00
         0.00000E+00
         0.00000E+00
         0.00000E+00
         0.00000E+00
         0.00000E+00
         0.00000E+00
         0.00000E+00
         0.00000E+00
         0.00000E+00
         0.00000E+00
         0.00000E+00
         0.00000E+00
         0.00000E+00
         0.00000E+00
         0.00000E+00
         0.00000E+00
         0.00000E+00
         0.00000E+00
         0.00000E+00
         0.00000E+00
         0.00000E+00
         0.00000E+00
         0.00000E+00
         0.00000E+00
         0.00000E+00
         0.00000E+00
         0.00000E+00
         0.00000E+00
         0.00000E+00
         0.00000E+00
         0.00000E+00
         0.00000E+00
         0.00000E+00
         0.00000E+00
         0.00000E+00
         0.00000E+00
         0.00000E+00
         0.00000E+00
         0.00000E+00
         0.00000E+00
         0.00000E+00
         0.00000E+00
         0.00000E+00
         0.00000E+00
         0.00000E+00
         0.00000E+00
         0.00000E+00
         0.00000E+00
         0.00000E+00
         0.00000E+00
         0.00000E+00
         0.00000E+00
         0.00000E+00
         0.00000E+00
         0.00000E+00
         0.00000E+00
         0.00000E+00
         0.00000E+00
         0.00000E+00
         0.00000E+00
         0.00000E+00
         0.00000E+00
         0.00000E+00
         0.00000E+00
         0.00000E+00
         0.00000E+00
         0.00000E+00
         0.00000E+00
         0.00000E+00
         0.00000E+00
         0.00000E+00
         0.00000E+00
         0.00000E+00
         0.00000E+00
         0.00000E+00
         0.00000E+00
         0.00000E+00
         0.00000E+00
         0.00000E+00
         0.00000E+00
         0.00000E+00
         0.00000E+00
         0.00000E+00
         0.00000E+00
         0.00000E+00
         0.00000E+00
         0.00000E+00
         0.00000E+00
         0.00000E+00
         0.00000E+00
         0.00000E+00
         0.00000E+00
         0.00000E+00
         0.00000E+00
         0.00000E+00
         0.00000E+00
         0.00000E+00
         0.00000E+00
         0.00000E+00
         0.00000E+00
         0.00000E+00
         0.00000E+00
         0.00000E+00
         0.00000E+00
         0.00000E+00
         0.00000E+00
         0.00000E+00
         0.00000E+00
         0.00000E+00
         0.00000E+00
         0.00000E+00
         0.00000E+00
         0.00000E+00
         0.00000E+00
         0.00000E+00
         0.00000E+00
         0.00000E+00
         0.00000E+00
         0.00000E+00
         0.00000E+00
         0.00000E+00
         0.00000E+00
         0.00000E+00
  
SCALARS               pre_disp_force_y  double 1
LOOKUP_TABLE default
         0.00000E+00
         0.00000E+00
         0.00000E+00
         0.00000E+00
         0.00000E+00
         0.00000E+00
         0.00000E+00
         0.00000E+00
         0.00000E+00
         0.00000E+00
         0.00000E+00
         0.00000E+00
         0.00000E+00
         0.00000E+00
         0.00000E+00
         0.00000E+00
         0.00000E+00
         0.00000E+00
         0.00000E+00
         0.00000E+00
         0.00000E+00
         0.00000E+00
         0.00000E+00
         0.00000E+00
         0.00000E+00
         0.00000E+00
         0.00000E+00
         0.00000E+00
         0.00000E+00
         0.00000E+00
         0.00000E+00
         0.00000E+00
         0.00000E+00
         0.00000E+00
         0.00000E+00
         0.00000E+00
         0.00000E+00
         0.00000E+00
         0.00000E+00
         0.00000E+00
         0.00000E+00
         0.00000E+00
         0.00000E+00
         0.00000E+00
         0.00000E+00
         0.00000E+00
         0.00000E+00
         0.00000E+00
         0.00000E+00
         0.00000E+00
         0.00000E+00
         0.00000E+00
         0.00000E+00
         0.00000E+00
         0.00000E+00
         0.00000E+00
         0.00000E+00
         0.00000E+00
         0.00000E+00
         0.00000E+00
         0.00000E+00
         0.00000E+00
         0.00000E+00
         0.00000E+00
         0.00000E+00
         0.00000E+00
         0.00000E+00
         0.00000E+00
         0.00000E+00
         0.00000E+00
         0.00000E+00
         0.00000E+00
         0.00000E+00
         0.00000E+00
         0.00000E+00
         0.00000E+00
         0.00000E+00
         0.00000E+00
         0.00000E+00
         0.00000E+00
         0.00000E+00
         0.00000E+00
         0.00000E+00
         0.00000E+00
         0.00000E+00
         0.00000E+00
         0.00000E+00
         0.00000E+00
         0.00000E+00
         0.00000E+00
         0.00000E+00
         0.00000E+00
         0.00000E+00
         0.00000E+00
         0.00000E+00
         0.00000E+00
         0.00000E+00
         0.00000E+00
         0.00000E+00
         0.00000E+00
         0.00000E+00
         0.00000E+00
         0.00000E+00
         0.00000E+00
         0.00000E+00
         0.00000E+00
         0.00000E+00
         0.00000E+00
         0.00000E+00
         0.00000E+00
         0.00000E+00
         0.00000E+00
         0.00000E+00
         0.00000E+00
         0.00000E+00
         0.00000E+00
         0.00000E+00
         0.00000E+00
         0.00000E+00
         0.00000E+00
         0.00000E+00
         0.00000E+00
         0.00000E+00
         0.00000E+00
         0.00000E+00
         0.00000E+00
         0.00000E+00
         0.00000E+00
         0.00000E+00
         0.00000E+00
         0.00000E+00
         0.00000E+00
         0.00000E+00
         0.00000E+00
         0.00000E+00
         0.00000E+00
         0.00000E+00
         0.00000E+00
         0.00000E+00
         0.00000E+00
         0.00000E+00
         0.00000E+00
         0.00000E+00
         0.00000E+00
         0.00000E+00
         0.00000E+00
         0.00000E+00
         0.00000E+00
         0.00000E+00
         0.00000E+00
         0.00000E+00
         0.00000E+00
         0.00000E+00
         0.00000E+00
         0.00000E+00
         0.00000E+00
         0.00000E+00
         0.00000E+00
         0.00000E+00
         0.00000E+00
         0.00000E+00
         0.00000E+00
         0.00000E+00
         0.00000E+00
         0.00000E+00
         0.00000E+00
         0.00000E+00
         0.00000E+00
         0.00000E+00
         0.00000E+00
         0.00000E+00
         0.00000E+00
         0.00000E+00
         0.00000E+00
         0.00000E+00
         0.00000E+00
         0.00000E+00
         0.00000E+00
         0.00000E+00
         0.00000E+00
         0.00000E+00
         0.00000E+00
         0.00000E+00
         0.00000E+00
         0.00000E+00
         0.00000E+00
         0.00000E+00
         0.00000E+00
         0.00000E+00
         0.00000E+00
         0.00000E+00
         0.00000E+00
         0.00000E+00
         0.00000E+00
         0.00000E+00
         0.00000E+00
         0.00000E+00
         0.00000E+00
         0.00000E+00
         0.00000E+00
         0.00000E+00
         0.00000E+00
         0.00000E+00
         0.00000E+00
         0.00000E+00
         0.00000E+00
         0.00000E+00
         0.00000E+00
         0.00000E+00
         0.00000E+00
         0.00000E+00
         0.00000E+00
         0.00000E+00
         0.00000E+00
         0.00000E+00
         0.00000E+00
         0.00000E+00
         0.00000E+00
         0.00000E+00
         0.00000E+00
         0.00000E+00
         0.00000E+00
         0.00000E+00
         0.00000E+00
         0.00000E+00
         0.00000E+00
         0.00000E+00
         0.00000E+00
         0.00000E+00
         0.00000E+00
         0.00000E+00
         0.00000E+00
         0.00000E+00
         0.00000E+00
         0.00000E+00
         0.00000E+00
         0.00000E+00
         0.00000E+00
         0.00000E+00
         0.00000E+00
         0.00000E+00
         0.00000E+00
         0.00000E+00
         0.00000E+00
         0.00000E+00
         0.00000E+00
         0.00000E+00
         0.00000E+00
         0.00000E+00
         0.00000E+00
         0.00000E+00
         0.00000E+00
         0.00000E+00
         0.00000E+00
         0.00000E+00
         0.00000E+00
         0.00000E+00
         0.00000E+00
         0.00000E+00
         0.00000E+00
         0.00000E+00
         0.00000E+00
         0.00000E+00
         0.00000E+00
         0.00000E+00
         0.00000E+00
         0.00000E+00
         0.00000E+00
         0.00000E+00
         0.00000E+00
         0.00000E+00
         0.00000E+00
         0.00000E+00
         0.00000E+00
         0.00000E+00
         0.00000E+00
         0.00000E+00
         0.00000E+00
         0.00000E+00
         0.00000E+00
         0.00000E+00
         0.00000E+00
         0.00000E+00
         0.00000E+00
         0.00000E+00
         0.00000E+00
         0.00000E+00
         0.00000E+00
         0.00000E+00
         0.00000E+00
         0.00000E+00
         0.00000E+00
         0.00000E+00
         0.00000E+00
         0.00000E+00
         0.00000E+00
         0.00000E+00
         0.00000E+00
         0.00000E+00
         0.00000E+00
         0.00000E+00
         0.00000E+00
         0.00000E+00
         0.00000E+00
         0.00000E+00
         0.00000E+00
         0.00000E+00
         0.00000E+00
         0.00000E+00
         0.00000E+00
         0.00000E+00
         0.00000E+00
         0.00000E+00
         0.00000E+00
         0.00000E+00
         0.00000E+00
         0.00000E+00
         0.00000E+00
         0.00000E+00
         0.00000E+00
         0.00000E+00
         0.00000E+00
         0.00000E+00
         0.00000E+00
         0.00000E+00
         0.00000E+00
         0.00000E+00
         0.00000E+00
         0.00000E+00
         0.00000E+00
         0.00000E+00
         0.00000E+00
         0.00000E+00
         0.00000E+00
         0.00000E+00
         0.00000E+00
         0.00000E+00
         0.00000E+00
         0.00000E+00
         0.00000E+00
         0.00000E+00
         0.00000E+00
         0.00000E+00
         0.00000E+00
         0.00000E+00
         0.00000E+00
         0.00000E+00
         0.00000E+00
         0.00000E+00
         0.00000E+00
         0.00000E+00
         0.00000E+00
         0.00000E+00
         0.00000E+00
         0.00000E+00
         0.00000E+00
         0.00000E+00
         0.00000E+00
         0.00000E+00
         0.00000E+00
         0.00000E+00
         0.00000E+00
         0.00000E+00
         0.00000E+00
         0.00000E+00
         0.00000E+00
         0.00000E+00
         0.00000E+00
         0.00000E+00
         0.00000E+00
         0.00000E+00
         0.00000E+00
         0.00000E+00
         0.00000E+00
         0.00000E+00
         0.00000E+00
         0.00000E+00
         0.00000E+00
         0.00000E+00
         0.00000E+00
         0.00000E+00
         0.00000E+00
         0.00000E+00
         0.00000E+00
         0.00000E+00
         0.00000E+00
         0.00000E+00
         0.00000E+00
         0.00000E+00
         0.00000E+00
         0.00000E+00
         0.00000E+00
         0.00000E+00
         0.00000E+00
         0.00000E+00
         0.00000E+00
         0.00000E+00
         0.00000E+00
         0.00000E+00
         0.00000E+00
         0.00000E+00
         0.00000E+00
         0.00000E+00
         0.00000E+00
         0.00000E+00
         0.00000E+00
         0.00000E+00
         0.00000E+00
         0.00000E+00
         0.00000E+00
         0.00000E+00
         0.00000E+00
         0.00000E+00
         0.00000E+00
         0.00000E+00
         0.00000E+00
         0.00000E+00
         0.00000E+00
         0.00000E+00
         0.00000E+00
         0.00000E+00
         0.00000E+00
         0.00000E+00
         0.00000E+00
         0.00000E+00
         0.00000E+00
         0.00000E+00
         0.00000E+00
         0.00000E+00
         0.00000E+00
         0.00000E+00
         0.00000E+00
         0.00000E+00
         0.00000E+00
         0.00000E+00
         0.00000E+00
         0.00000E+00
         0.00000E+00
         0.00000E+00
         0.00000E+00
         0.00000E+00
         0.00000E+00
         0.00000E+00
         0.00000E+00
         0.00000E+00
         0.00000E+00
         0.00000E+00
         0.00000E+00
         0.00000E+00
         0.00000E+00
         0.00000E+00
         0.00000E+00
         0.00000E+00
         0.00000E+00
         0.00000E+00
         0.00000E+00
         0.00000E+00
         0.00000E+00
         0.00000E+00
         0.00000E+00
         0.00000E+00
         0.00000E+00
         0.00000E+00
         0.00000E+00
         0.00000E+00
         0.00000E+00
         0.00000E+00
         0.00000E+00
         0.00000E+00
         0.00000E+00
         0.00000E+00
         0.00000E+00
         0.00000E+00
         0.00000E+00
         0.00000E+00
         0.00000E+00
         0.00000E+00
         0.00000E+00
         0.00000E+00
         0.00000E+00
         0.00000E+00
         0.00000E+00
         0.00000E+00
         0.00000E+00
         0.00000E+00
         0.00000E+00
         0.00000E+00
         0.00000E+00
         0.00000E+00
         0.00000E+00
         0.00000E+00
         0.00000E+00
         0.00000E+00
         0.00000E+00
         0.00000E+00
         0.00000E+00
         0.00000E+00
         0.00000E+00
         0.00000E+00
         0.00000E+00
         0.00000E+00
         0.00000E+00
         0.00000E+00
         0.00000E+00
         0.00000E+00
         0.00000E+00
         0.00000E+00
         0.00000E+00
         0.00000E+00
         0.00000E+00
         0.00000E+00
         0.00000E+00
         0.00000E+00
         0.00000E+00
         0.00000E+00
         0.00000E+00
         0.00000E+00
         0.00000E+00
         0.00000E+00
         0.00000E+00
         0.00000E+00
         0.00000E+00
         0.00000E+00
         0.00000E+00
         0.00000E+00
         0.00000E+00
         0.00000E+00
         0.00000E+00
         0.00000E+00
         0.00000E+00
         0.00000E+00
         0.00000E+00
         0.00000E+00
         0.00000E+00
         0.00000E+00
         0.00000E+00
         0.00000E+00
         0.00000E+00
         0.00000E+00
         0.00000E+00
         0.00000E+00
         0.00000E+00
         0.00000E+00
         0.00000E+00
         0.00000E+00
         0.00000E+00
         0.00000E+00
         0.00000E+00
         0.00000E+00
         0.00000E+00
         0.00000E+00
         0.00000E+00
         0.00000E+00
         0.00000E+00
         0.00000E+00
         0.00000E+00
         0.00000E+00
         0.00000E+00
         0.00000E+00
         0.00000E+00
         0.00000E+00
         0.00000E+00
         0.00000E+00
         0.00000E+00
         0.00000E+00
         0.00000E+00
         0.00000E+00
         0.00000E+00
         0.00000E+00
         0.00000E+00
         0.00000E+00
         0.00000E+00
         0.00000E+00
         0.00000E+00
         0.00000E+00
         0.00000E+00
         0.00000E+00
         0.00000E+00
         0.00000E+00
         0.00000E+00
         0.00000E+00
         0.00000E+00
         0.00000E+00
         0.00000E+00
         0.00000E+00
         0.00000E+00
         0.00000E+00
         0.00000E+00
         0.00000E+00
         0.00000E+00
         0.00000E+00
         0.00000E+00
         0.00000E+00
         0.00000E+00
         0.00000E+00
         0.00000E+00
         0.00000E+00
         0.00000E+00
         0.00000E+00
         0.00000E+00
         0.00000E+00
         0.00000E+00
         0.00000E+00
         0.00000E+00
         0.00000E+00
         0.00000E+00
         0.00000E+00
         0.00000E+00
         0.00000E+00
         0.00000E+00
         0.00000E+00
         0.00000E+00
         0.00000E+00
         0.00000E+00
         0.00000E+00
         0.00000E+00
         0.00000E+00
         0.00000E+00
         0.00000E+00
         0.00000E+00
         0.00000E+00
         0.00000E+00
         0.00000E+00
         0.00000E+00
         0.00000E+00
         0.00000E+00
         0.00000E+00
         0.00000E+00
         0.00000E+00
         0.00000E+00
         0.00000E+00
         0.00000E+00
         0.00000E+00
         0.00000E+00
         0.00000E+00
         0.00000E+00
         0.00000E+00
         0.00000E+00
         0.00000E+00
         0.00000E+00
         0.00000E+00
         0.00000E+00
         0.00000E+00
         0.00000E+00
         0.00000E+00
         0.00000E+00
         0.00000E+00
         0.00000E+00
         0.00000E+00
         0.00000E+00
         0.00000E+00
         0.00000E+00
         0.00000E+00
         0.00000E+00
         0.00000E+00
         0.00000E+00
         0.00000E+00
         0.00000E+00
         0.00000E+00
         0.00000E+00
         0.00000E+00
         0.00000E+00
         0.00000E+00
         0.00000E+00
         0.00000E+00
         0.00000E+00
         0.00000E+00
         0.00000E+00
         0.00000E+00
         0.00000E+00
         0.00000E+00
         0.00000E+00
         0.00000E+00
         0.00000E+00
         0.00000E+00
         0.00000E+00
         0.00000E+00
         0.00000E+00
         0.00000E+00
         0.00000E+00
         0.00000E+00
         0.00000E+00
         0.00000E+00
         0.00000E+00
         0.00000E+00
         0.00000E+00
         0.00000E+00
         0.00000E+00
         0.00000E+00
         0.00000E+00
         0.00000E+00
         0.00000E+00
         0.00000E+00
         0.00000E+00
         0.00000E+00
         0.00000E+00
         0.00000E+00
         0.00000E+00
         0.00000E+00
         0.00000E+00
         0.00000E+00
         0.00000E+00
         0.00000E+00
         0.00000E+00
         0.00000E+00
         0.00000E+00
         0.00000E+00
         0.00000E+00
         0.00000E+00
         0.00000E+00
         0.00000E+00
         0.00000E+00
         0.00000E+00
         0.00000E+00
         0.00000E+00
         0.00000E+00
         0.00000E+00
         0.00000E+00
         0.00000E+00
         0.00000E+00
         0.00000E+00
         0.00000E+00
         0.00000E+00
         0.00000E+00
         0.00000E+00
         0.00000E+00
         0.00000E+00
         0.00000E+00
         0.00000E+00
         0.00000E+00
         0.00000E+00
         0.00000E+00
         0.00000E+00
         0.00000E+00
         0.00000E+00
         0.00000E+00
         0.00000E+00
         0.00000E+00
         0.00000E+00
         0.00000E+00
         0.00000E+00
         0.00000E+00
         0.00000E+00
         0.00000E+00
         0.00000E+00
         0.00000E+00
         0.00000E+00
         0.00000E+00
         0.00000E+00
         0.00000E+00
         0.00000E+00
         0.00000E+00
         0.00000E+00
         0.00000E+00
         0.00000E+00
         0.00000E+00
         0.00000E+00
         0.00000E+00
         0.00000E+00
         0.00000E+00
         0.00000E+00
         0.00000E+00
         0.00000E+00
         0.00000E+00
         0.00000E+00
         0.00000E+00
         0.00000E+00
         0.00000E+00
         0.00000E+00
         0.00000E+00
         0.00000E+00
         0.00000E+00
         0.00000E+00
         0.00000E+00
         0.00000E+00
         0.00000E+00
         0.00000E+00
         0.00000E+00
         0.00000E+00
         0.00000E+00
         0.00000E+00
         0.00000E+00
         0.00000E+00
         0.00000E+00
         0.00000E+00
         0.00000E+00
         0.00000E+00
         0.00000E+00
         0.00000E+00
         0.00000E+00
         0.00000E+00
         0.00000E+00
         0.00000E+00
         0.00000E+00
         0.00000E+00
         0.00000E+00
         0.00000E+00
         0.00000E+00
         0.00000E+00
         0.00000E+00
         0.00000E+00
         0.00000E+00
         0.00000E+00
         0.00000E+00
         0.00000E+00
         0.00000E+00
         0.00000E+00
         0.00000E+00
         0.00000E+00
         0.00000E+00
         0.00000E+00
         0.00000E+00
         0.00000E+00
         0.00000E+00
         0.00000E+00
         0.00000E+00
         0.00000E+00
         0.00000E+00
         0.00000E+00
         0.00000E+00
         0.00000E+00
         0.00000E+00
         0.00000E+00
         0.00000E+00
         0.00000E+00
         0.00000E+00
         0.00000E+00
         0.00000E+00
         0.00000E+00
         0.00000E+00
         0.00000E+00
         0.00000E+00
         0.00000E+00
         0.00000E+00
         0.00000E+00
         0.00000E+00
         0.00000E+00
         0.00000E+00
         0.00000E+00
         0.00000E+00
         0.00000E+00
         0.00000E+00
         0.00000E+00
         0.00000E+00
         0.00000E+00
         0.00000E+00
         0.00000E+00
         0.00000E+00
         0.00000E+00
         0.00000E+00
         0.00000E+00
         0.00000E+00
         0.00000E+00
         0.00000E+00
         0.00000E+00
         0.00000E+00
         0.00000E+00
         0.00000E+00
         0.00000E+00
         0.00000E+00
         0.00000E+00
         0.00000E+00
         0.00000E+00
         0.00000E+00
         0.00000E+00
         0.00000E+00
         0.00000E+00
         0.00000E+00
         0.00000E+00
         0.00000E+00
         0.00000E+00
         0.00000E+00
         0.00000E+00
         0.00000E+00
         0.00000E+00
         0.00000E+00
         0.00000E+00
         0.00000E+00
         0.00000E+00
         0.00000E+00
         0.00000E+00
         0.00000E+00
         0.00000E+00
         0.00000E+00
         0.00000E+00
         0.00000E+00
         0.00000E+00
         0.00000E+00
         0.00000E+00
         0.00000E+00
         0.00000E+00
         0.00000E+00
         0.00000E+00
         0.00000E+00
         0.00000E+00
         0.00000E+00
         0.00000E+00
         0.00000E+00
         0.00000E+00
         0.00000E+00
         0.00000E+00
         0.00000E+00
         0.00000E+00
         0.00000E+00
         0.00000E+00
         0.00000E+00
         0.00000E+00
         0.00000E+00
         0.00000E+00
         0.00000E+00
         0.00000E+00
         0.00000E+00
         0.00000E+00
         0.00000E+00
         0.00000E+00
         0.00000E+00
         0.00000E+00
         0.00000E+00
         0.00000E+00
         0.00000E+00
         0.00000E+00
         0.00000E+00
         0.00000E+00
         0.00000E+00
         0.00000E+00
         0.00000E+00
         0.00000E+00
         0.00000E+00
         0.00000E+00
         0.00000E+00
         0.00000E+00
         0.00000E+00
         0.00000E+00
         0.00000E+00
         0.00000E+00
         0.00000E+00
         0.00000E+00
         0.00000E+00
         0.00000E+00
         0.00000E+00
         0.00000E+00
         0.00000E+00
         0.00000E+00
         0.00000E+00
         0.00000E+00
         0.00000E+00
         0.00000E+00
         0.00000E+00
         0.00000E+00
         0.00000E+00
         0.00000E+00
         0.00000E+00
         0.00000E+00
         0.00000E+00
         0.00000E+00
         0.00000E+00
         0.00000E+00
         0.00000E+00
         0.00000E+00
         0.00000E+00
         0.00000E+00
         0.00000E+00
         0.00000E+00
         0.00000E+00
         0.00000E+00
         0.00000E+00
         0.00000E+00
         0.00000E+00
         0.00000E+00
         0.00000E+00
         0.00000E+00
         0.00000E+00
         0.00000E+00
         0.00000E+00
         0.00000E+00
         0.00000E+00
         0.00000E+00
         0.00000E+00
         0.00000E+00
         0.00000E+00
         0.00000E+00
         0.00000E+00
         0.00000E+00
         0.00000E+00
         0.00000E+00
         0.00000E+00
         0.00000E+00
         0.00000E+00
         0.00000E+00
         0.00000E+00
         0.00000E+00
         0.00000E+00
         0.00000E+00
         0.00000E+00
         0.00000E+00
         0.00000E+00
         0.00000E+00
         0.00000E+00
         0.00000E+00
         0.00000E+00
         0.00000E+00
         0.00000E+00
         0.00000E+00
         0.00000E+00
         0.00000E+00
         0.00000E+00
         0.00000E+00
         0.00000E+00
         0.00000E+00
         0.00000E+00
         0.00000E+00
         0.00000E+00
         0.00000E+00
         0.00000E+00
         0.00000E+00
         0.00000E+00
         0.00000E+00
         0.00000E+00
         0.00000E+00
         0.00000E+00
         0.00000E+00
         0.00000E+00
         0.00000E+00
         0.00000E+00
         0.00000E+00
         0.00000E+00
         0.00000E+00
         0.00000E+00
         0.00000E+00
         0.00000E+00
         0.00000E+00
         0.00000E+00
         0.00000E+00
         0.00000E+00
         0.00000E+00
         0.00000E+00
         0.00000E+00
         0.00000E+00
         0.00000E+00
         0.00000E+00
         0.00000E+00
         0.00000E+00
         0.00000E+00
         0.00000E+00
         0.00000E+00
         0.00000E+00
         0.00000E+00
         0.00000E+00
         0.00000E+00
         0.00000E+00
         0.00000E+00
         0.00000E+00
         0.00000E+00
         0.00000E+00
         0.00000E+00
         0.00000E+00
         0.00000E+00
         0.00000E+00
         0.00000E+00
         0.00000E+00
         0.00000E+00
         0.00000E+00
         0.00000E+00
         0.00000E+00
         0.00000E+00
         0.00000E+00
         0.00000E+00
         0.00000E+00
         0.00000E+00
         0.00000E+00
         0.00000E+00
         0.00000E+00
         0.00000E+00
         0.00000E+00
         0.00000E+00
         0.00000E+00
         0.00000E+00
         0.00000E+00
         0.00000E+00
         0.00000E+00
         0.00000E+00
         0.00000E+00
         0.00000E+00
         0.00000E+00
         0.00000E+00
         0.00000E+00
         0.00000E+00
         0.00000E+00
         0.00000E+00
         0.00000E+00
         0.00000E+00
         0.00000E+00
         0.00000E+00
         0.00000E+00
         0.00000E+00
         0.00000E+00
         0.00000E+00
         0.00000E+00
         0.00000E+00
         0.00000E+00
         0.00000E+00
         0.00000E+00
         0.00000E+00
         0.00000E+00
         0.00000E+00
         0.00000E+00
         0.00000E+00
         0.00000E+00
         0.00000E+00
         0.00000E+00
         0.00000E+00
         0.00000E+00
         0.00000E+00
         0.00000E+00
         0.00000E+00
         0.00000E+00
         0.00000E+00
         0.00000E+00
         0.00000E+00
         0.00000E+00
         0.00000E+00
         0.00000E+00
         0.00000E+00
         0.00000E+00
         0.00000E+00
         0.00000E+00
         0.00000E+00
         0.00000E+00
         0.00000E+00
         0.00000E+00
         0.00000E+00
         0.00000E+00
         0.00000E+00
         0.00000E+00
         0.00000E+00
         0.00000E+00
         0.00000E+00
         0.00000E+00
         0.00000E+00
         0.00000E+00
         0.00000E+00
         0.00000E+00
         0.00000E+00
         0.00000E+00
         0.00000E+00
         0.00000E+00
         0.00000E+00
         0.00000E+00
         0.00000E+00
         0.00000E+00
         0.00000E+00
         0.00000E+00
         0.00000E+00
         0.00000E+00
         0.00000E+00
         0.00000E+00
         0.00000E+00
         0.00000E+00
         0.00000E+00
         0.00000E+00
         0.00000E+00
         0.00000E+00
         0.00000E+00
         0.00000E+00
         0.00000E+00
         0.00000E+00
         0.00000E+00
         0.00000E+00
         0.00000E+00
         0.00000E+00
         0.00000E+00
         0.00000E+00
         0.00000E+00
         0.00000E+00
         0.00000E+00
         0.00000E+00
         0.00000E+00
         0.00000E+00
         0.00000E+00
         0.00000E+00
         0.00000E+00
         0.00000E+00
         0.00000E+00
         0.00000E+00
         0.00000E+00
         0.00000E+00
         0.00000E+00
         0.00000E+00
         0.00000E+00
         0.00000E+00
         0.00000E+00
         0.00000E+00
         0.00000E+00
         0.00000E+00
         0.00000E+00
         0.00000E+00
         0.00000E+00
         0.00000E+00
         0.00000E+00
         0.00000E+00
         0.00000E+00
         0.00000E+00
         0.00000E+00
         0.00000E+00
         0.00000E+00
         0.00000E+00
         0.00000E+00
         0.00000E+00
         0.00000E+00
         0.00000E+00
         0.00000E+00
         0.00000E+00
         0.00000E+00
         0.00000E+00
         0.00000E+00
         0.00000E+00
         0.00000E+00
         0.00000E+00
         0.00000E+00
         0.00000E+00
         0.00000E+00
         0.00000E+00
         0.00000E+00
         0.00000E+00
         0.00000E+00
         0.00000E+00
         0.00000E+00
         0.00000E+00
         0.00000E+00
         0.00000E+00
         0.00000E+00
         0.00000E+00
         0.00000E+00
         0.00000E+00
         0.00000E+00
         0.00000E+00
         0.00000E+00
         0.00000E+00
         0.00000E+00
         0.00000E+00
         0.00000E+00
         0.00000E+00
         0.00000E+00
         0.00000E+00
         0.00000E+00
         0.00000E+00
         0.00000E+00
         0.00000E+00
         0.00000E+00
         0.00000E+00
         0.00000E+00
         0.00000E+00
         0.00000E+00
         0.00000E+00
         0.00000E+00
         0.00000E+00
         0.00000E+00
         0.00000E+00
         0.00000E+00
         0.00000E+00
         0.00000E+00
         0.00000E+00
         0.00000E+00
         0.00000E+00
         0.00000E+00
         0.00000E+00
         0.00000E+00
         0.00000E+00
         0.00000E+00
         0.00000E+00
         0.00000E+00
         0.00000E+00
         0.00000E+00
         0.00000E+00
         0.00000E+00
         0.00000E+00
         0.00000E+00
         0.00000E+00
         0.00000E+00
         0.00000E+00
         0.00000E+00
         0.00000E+00
         0.00000E+00
         0.00000E+00
         0.00000E+00
         0.00000E+00
         0.00000E+00
         0.00000E+00
         0.00000E+00
         0.00000E+00
         0.00000E+00
         0.00000E+00
         0.00000E+00
         0.00000E+00
         0.00000E+00
         0.00000E+00
         0.00000E+00
         0.00000E+00
         0.00000E+00
         0.00000E+00
         0.00000E+00
         0.00000E+00
         0.00000E+00
         0.00000E+00
         0.00000E+00
         0.00000E+00
         0.00000E+00
         0.00000E+00
         0.00000E+00
         0.00000E+00
         0.00000E+00
         0.00000E+00
         0.00000E+00
         0.00000E+00
         0.00000E+00
         0.00000E+00
         0.00000E+00
         0.00000E+00
         0.00000E+00
         0.00000E+00
         0.00000E+00
         0.00000E+00
         0.00000E+00
         0.00000E+00
         0.00000E+00
         0.00000E+00
         0.00000E+00
         0.00000E+00
         0.00000E+00
         0.00000E+00
         0.00000E+00
         0.00000E+00
         0.00000E+00
         0.00000E+00
         0.00000E+00
         0.00000E+00
         0.00000E+00
         0.00000E+00
         0.00000E+00
         0.00000E+00
         0.00000E+00
         0.00000E+00
         0.00000E+00
         0.00000E+00
         0.00000E+00
         0.00000E+00
         0.00000E+00
         0.00000E+00
         0.00000E+00
         0.00000E+00
         0.00000E+00
         0.00000E+00
         0.00000E+00
         0.00000E+00
         0.00000E+00
         0.00000E+00
         0.00000E+00
         0.00000E+00
         0.00000E+00
         0.00000E+00
         0.00000E+00
         0.00000E+00
         0.00000E+00
         0.00000E+00
         0.00000E+00
         0.00000E+00
         0.00000E+00
         0.00000E+00
         0.00000E+00
         0.00000E+00
         0.00000E+00
         0.00000E+00
         0.00000E+00
         0.00000E+00
         0.00000E+00
         0.00000E+00
         0.00000E+00
         0.00000E+00
         0.00000E+00
         0.00000E+00
         0.00000E+00
         0.00000E+00
         0.00000E+00
         0.00000E+00
         0.00000E+00
         0.00000E+00
         0.00000E+00
         0.00000E+00
         0.00000E+00
         0.00000E+00
         0.00000E+00
         0.00000E+00
         0.00000E+00
         0.00000E+00
         0.00000E+00
         0.00000E+00
         0.00000E+00
         0.00000E+00
         0.00000E+00
         0.00000E+00
         0.00000E+00
         0.00000E+00
         0.00000E+00
         0.00000E+00
         0.00000E+00
         0.00000E+00
         0.00000E+00
         0.00000E+00
         0.00000E+00
         0.00000E+00
         0.00000E+00
         0.00000E+00
         0.00000E+00
         0.00000E+00
         0.00000E+00
         0.00000E+00
         0.00000E+00
         0.00000E+00
         0.00000E+00
         0.00000E+00
         0.00000E+00
         0.00000E+00
         0.00000E+00
         0.00000E+00
         0.00000E+00
         0.00000E+00
         0.00000E+00
         0.00000E+00
         0.00000E+00
         0.00000E+00
         0.00000E+00
         0.00000E+00
         0.00000E+00
         0.00000E+00
         0.00000E+00
         0.00000E+00
         0.00000E+00
         0.00000E+00
         0.00000E+00
         0.00000E+00
         0.00000E+00
         0.00000E+00
         0.00000E+00
         0.00000E+00
         0.00000E+00
         0.00000E+00
         0.00000E+00
         0.00000E+00
         0.00000E+00
         0.00000E+00
         0.00000E+00
         0.00000E+00
         0.00000E+00
         0.00000E+00
         0.00000E+00
         0.00000E+00
         0.00000E+00
         0.00000E+00
         0.00000E+00
         0.00000E+00
         0.00000E+00
         0.00000E+00
         0.00000E+00
         0.00000E+00
         0.00000E+00
         0.00000E+00
         0.00000E+00
         0.00000E+00
         0.00000E+00
         0.00000E+00
         0.00000E+00
         0.00000E+00
         0.00000E+00
         0.00000E+00
         0.00000E+00
         0.00000E+00
         0.00000E+00
         0.00000E+00
         0.00000E+00
         0.00000E+00
         0.00000E+00
         0.00000E+00
         0.00000E+00
         0.00000E+00
         0.00000E+00
         0.00000E+00
         0.00000E+00
         0.00000E+00
         0.00000E+00
         0.00000E+00
         0.00000E+00
         0.00000E+00
         0.00000E+00
         0.00000E+00
         0.00000E+00
         0.00000E+00
         0.00000E+00
         0.00000E+00
         0.00000E+00
         0.00000E+00
         0.00000E+00
         0.00000E+00
         0.00000E+00
         0.00000E+00
         0.00000E+00
         0.00000E+00
         0.00000E+00
         0.00000E+00
         0.00000E+00
         0.00000E+00
         0.00000E+00
         0.00000E+00
         0.00000E+00
         0.00000E+00
         0.00000E+00
         0.00000E+00
         0.00000E+00
         0.00000E+00
         0.00000E+00
         0.00000E+00
         0.00000E+00
         0.00000E+00
         0.00000E+00
         0.00000E+00
         0.00000E+00
         0.00000E+00
         0.00000E+00
         0.00000E+00
         0.00000E+00
         0.00000E+00
         0.00000E+00
         0.00000E+00
         0.00000E+00
         0.00000E+00
         0.00000E+00
         0.00000E+00
         0.00000E+00
         0.00000E+00
         0.00000E+00
         0.00000E+00
         0.00000E+00
         0.00000E+00
         0.00000E+00
         0.00000E+00
         0.00000E+00
         0.00000E+00
         0.00000E+00
         0.00000E+00
         0.00000E+00
         0.00000E+00
         0.00000E+00
         0.00000E+00
         0.00000E+00
         0.00000E+00
         0.00000E+00
         0.00000E+00
         0.00000E+00
         0.00000E+00
         0.00000E+00
         0.00000E+00
         0.00000E+00
         0.00000E+00
         0.00000E+00
         0.00000E+00
         0.00000E+00
         0.00000E+00
         0.00000E+00
         0.00000E+00
         0.00000E+00
         0.00000E+00
         0.00000E+00
         0.00000E+00
         0.00000E+00
         0.00000E+00
         0.00000E+00
         0.00000E+00
         0.00000E+00
         0.00000E+00
         0.00000E+00
         0.00000E+00
         0.00000E+00
         0.00000E+00
         0.00000E+00
         0.00000E+00
         0.00000E+00
         0.00000E+00
         0.00000E+00
         0.00000E+00
         0.00000E+00
         0.00000E+00
         0.00000E+00
         0.00000E+00
         0.00000E+00
         0.00000E+00
         0.00000E+00
         0.00000E+00
         0.00000E+00
         0.00000E+00
         0.00000E+00
         0.00000E+00
         0.00000E+00
         0.00000E+00
         0.00000E+00
         0.00000E+00
         0.00000E+00
         0.00000E+00
         0.00000E+00
         0.00000E+00
         0.00000E+00
         0.00000E+00
         0.00000E+00
         0.00000E+00
         0.00000E+00
         0.00000E+00
         0.00000E+00
         0.00000E+00
         0.00000E+00
         0.00000E+00
         0.00000E+00
         0.00000E+00
         0.00000E+00
         0.00000E+00
         0.00000E+00
         0.00000E+00
         0.00000E+00
         0.00000E+00
         0.00000E+00
         0.00000E+00
         0.00000E+00
         0.00000E+00
         0.00000E+00
         0.00000E+00
         0.00000E+00
         0.00000E+00
         0.00000E+00
         0.00000E+00
         0.00000E+00
         0.00000E+00
         0.00000E+00
         0.00000E+00
         0.00000E+00
         0.00000E+00
         0.00000E+00
         0.00000E+00
         0.00000E+00
         0.00000E+00
         0.00000E+00
         0.00000E+00
         0.00000E+00
         0.00000E+00
         0.00000E+00
         0.00000E+00
         0.00000E+00
         0.00000E+00
         0.00000E+00
         0.00000E+00
         0.00000E+00
         0.00000E+00
         0.00000E+00
         0.00000E+00
         0.00000E+00
         0.00000E+00
         0.00000E+00
         0.00000E+00
         0.00000E+00
         0.00000E+00
         0.00000E+00
         0.00000E+00
         0.00000E+00
         0.00000E+00
         0.00000E+00
         0.00000E+00
         0.00000E+00
         0.00000E+00
         0.00000E+00
         0.00000E+00
         0.00000E+00
         0.00000E+00
         0.00000E+00
         0.00000E+00
         0.00000E+00
         0.00000E+00
         0.00000E+00
         0.00000E+00
         0.00000E+00
         0.00000E+00
         0.00000E+00
         0.00000E+00
         0.00000E+00
         0.00000E+00
         0.00000E+00
         0.00000E+00
         0.00000E+00
         0.00000E+00
         0.00000E+00
         0.00000E+00
         0.00000E+00
         0.00000E+00
         0.00000E+00
         0.00000E+00
         0.00000E+00
         0.00000E+00
         0.00000E+00
         0.00000E+00
         0.00000E+00
         0.00000E+00
         0.00000E+00
         0.00000E+00
         0.00000E+00
         0.00000E+00
         0.00000E+00
         0.00000E+00
         0.00000E+00
         0.00000E+00
         0.00000E+00
         0.00000E+00
         0.00000E+00
         0.00000E+00
         0.00000E+00
         0.00000E+00
         0.00000E+00
         0.00000E+00
         0.00000E+00
         0.00000E+00
         0.00000E+00
         0.00000E+00
         0.00000E+00
         0.00000E+00
         0.00000E+00
         0.00000E+00
         0.00000E+00
         0.00000E+00
         0.00000E+00
         0.00000E+00
         0.00000E+00
         0.00000E+00
         0.00000E+00
         0.00000E+00
         0.00000E+00
         0.00000E+00
         0.00000E+00
         0.00000E+00
         0.00000E+00
         0.00000E+00
         0.00000E+00
         0.00000E+00
         0.00000E+00
         0.00000E+00
         0.00000E+00
         0.00000E+00
         0.00000E+00
         0.00000E+00
         0.00000E+00
         0.00000E+00
         0.00000E+00
         0.00000E+00
         0.00000E+00
         0.00000E+00
         0.00000E+00
         0.00000E+00
         0.00000E+00
         0.00000E+00
         0.00000E+00
         0.00000E+00
         0.00000E+00
         0.00000E+00
         0.00000E+00
         0.00000E+00
         0.00000E+00
         0.00000E+00
         0.00000E+00
         0.00000E+00
         0.00000E+00
         0.00000E+00
         0.00000E+00
         0.00000E+00
         0.00000E+00
         0.00000E+00
         0.00000E+00
         0.00000E+00
         0.00000E+00
         0.00000E+00
         0.00000E+00
         0.00000E+00
         0.00000E+00
         0.00000E+00
         0.00000E+00
         0.00000E+00
         0.00000E+00
         0.00000E+00
         0.00000E+00
         0.00000E+00
         0.00000E+00
         0.00000E+00
         0.00000E+00
         0.00000E+00
         0.00000E+00
         0.00000E+00
         0.00000E+00
         0.00000E+00
         0.00000E+00
         0.00000E+00
         0.00000E+00
         0.00000E+00
         0.00000E+00
         0.00000E+00
         0.00000E+00
         0.00000E+00
         0.00000E+00
         0.00000E+00
         0.00000E+00
         0.00000E+00
         0.00000E+00
         0.00000E+00
         0.00000E+00
         0.00000E+00
         0.00000E+00
         0.00000E+00
         0.00000E+00
         0.00000E+00
         0.00000E+00
         0.00000E+00
         0.00000E+00
         0.00000E+00
         0.00000E+00
         0.00000E+00
         0.00000E+00
         0.00000E+00
         0.00000E+00
         0.00000E+00
         0.00000E+00
         0.00000E+00
         0.00000E+00
         0.00000E+00
         0.00000E+00
         0.00000E+00
         0.00000E+00
         0.00000E+00
         0.00000E+00
         0.00000E+00
         0.00000E+00
         0.00000E+00
         0.00000E+00
         0.00000E+00
         0.00000E+00
         0.00000E+00
         0.00000E+00
         0.00000E+00
         0.00000E+00
         0.00000E+00
         0.00000E+00
         0.00000E+00
         0.00000E+00
         0.00000E+00
         0.00000E+00
         0.00000E+00
         0.00000E+00
         0.00000E+00
         0.00000E+00
         0.00000E+00
         0.00000E+00
         0.00000E+00
         0.00000E+00
         0.00000E+00
         0.00000E+00
         0.00000E+00
         0.00000E+00
         0.00000E+00
         0.00000E+00
         0.00000E+00
         0.00000E+00
         0.00000E+00
         0.00000E+00
         0.00000E+00
         0.00000E+00
         0.00000E+00
         0.00000E+00
         0.00000E+00
         0.00000E+00
         0.00000E+00
         0.00000E+00
         0.00000E+00
         0.00000E+00
         0.00000E+00
         0.00000E+00
         0.00000E+00
         0.00000E+00
         0.00000E+00
         0.00000E+00
         0.00000E+00
         0.00000E+00
         0.00000E+00
         0.00000E+00
         0.00000E+00
         0.00000E+00
         0.00000E+00
         0.00000E+00
         0.00000E+00
         0.00000E+00
         0.00000E+00
         0.00000E+00
         0.00000E+00
         0.00000E+00
         0.00000E+00
         0.00000E+00
         0.00000E+00
         0.00000E+00
         0.00000E+00
         0.00000E+00
         0.00000E+00
         0.00000E+00
         0.00000E+00
         0.00000E+00
         0.00000E+00
         0.00000E+00
         0.00000E+00
         0.00000E+00
         0.00000E+00
         0.00000E+00
         0.00000E+00
         0.00000E+00
         0.00000E+00
         0.00000E+00
         0.00000E+00
         0.00000E+00
         0.00000E+00
         0.00000E+00
         0.00000E+00
         0.00000E+00
         0.00000E+00
         0.00000E+00
         0.00000E+00
         0.00000E+00
         0.00000E+00
         0.00000E+00
         0.00000E+00
         0.00000E+00
         0.00000E+00
         0.00000E+00
         0.00000E+00
         0.00000E+00
         0.00000E+00
         0.00000E+00
         0.00000E+00
         0.00000E+00
         0.00000E+00
         0.00000E+00
         0.00000E+00
         0.00000E+00
         0.00000E+00
  
SCALARS               pre_disp_force_z  double 1
LOOKUP_TABLE default
         0.00000E+00
         0.00000E+00
         0.00000E+00
         0.00000E+00
         0.15487E+03
        -0.41311E+02
        -0.93755E+02
         0.41687E+02
         0.00000E+00
         0.00000E+00
        -0.10324E+03
        -0.11248E+03
         0.00000E+00
         0.00000E+00
        -0.45672E+02
         0.12147E+03
         0.00000E+00
         0.00000E+00
         0.28446E+03
         0.12939E+03
         0.00000E+00
         0.00000E+00
         0.00000E+00
        -0.88155E+02
        -0.10592E+03
        -0.10188E+03
         0.00000E+00
         0.00000E+00
        -0.71494E+02
        -0.14531E+03
         0.00000E+00
         0.00000E+00
         0.00000E+00
         0.16140E+03
         0.31605E+03
         0.10287E+03
         0.00000E+00
         0.00000E+00
        -0.99980E+02
        -0.72960E+02
         0.00000E+00
         0.00000E+00
        -0.17306E+03
        -0.16044E+03
         0.00000E+00
         0.00000E+00
        -0.13536E+03
        -0.93190E+02
         0.00000E+00
         0.17380E+03
         0.00000E+00
        -0.45792E+01
         0.00000E+00
        -0.71076E+02
         0.00000E+00
        -0.40652E+02
         0.00000E+00
         0.00000E+00
        -0.11300E+03
        -0.16462E+03
         0.00000E+00
         0.00000E+00
        -0.51845E+02
        -0.82458E+02
         0.00000E+00
        -0.71951E+02
         0.00000E+00
        -0.93793E+02
         0.00000E+00
         0.00000E+00
        -0.86105E+02
        -0.11034E+03
         0.00000E+00
        -0.11442E+03
         0.00000E+00
        -0.17639E+03
         0.00000E+00
        -0.16004E+03
         0.00000E+00
        -0.11361E+03
         0.00000E+00
         0.00000E+00
        -0.89333E+02
        -0.12102E+03
         0.00000E+00
        -0.18939E+03
         0.00000E+00
        -0.90491E+02
         0.00000E+00
        -0.92630E+02
         0.00000E+00
         0.00000E+00
        -0.87940E+02
        -0.13304E+03
         0.00000E+00
        -0.15082E+03
         0.00000E+00
        -0.12787E+03
         0.00000E+00
        -0.10120E+03
         0.00000E+00
         0.00000E+00
        -0.96310E+02
        -0.12307E+03
         0.00000E+00
         0.00000E+00
        -0.60954E+02
        -0.59821E+02
         0.00000E+00
        -0.74180E+02
         0.00000E+00
        -0.70804E+02
         0.00000E+00
        -0.63139E+02
         0.00000E+00
        -0.78070E+02
         0.00000E+00
        -0.98887E+02
         0.00000E+00
        -0.82112E+02
         0.00000E+00
        -0.76366E+02
         0.00000E+00
        -0.44621E+02
         0.00000E+00
        -0.30627E+02
         0.00000E+00
        -0.30542E+02
         0.00000E+00
        -0.91199E+02
         0.00000E+00
        -0.10449E+03
         0.00000E+00
        -0.88799E+02
         0.00000E+00
        -0.71452E+02
         0.00000E+00
        -0.52979E+02
         0.00000E+00
        -0.53823E+02
         0.00000E+00
        -0.57298E+02
         0.00000E+00
        -0.41483E+02
         0.00000E+00
        -0.64075E+02
         0.00000E+00
        -0.60346E+02
         0.00000E+00
        -0.62149E+02
         0.00000E+00
        -0.45800E+02
         0.00000E+00
        -0.79388E+02
         0.00000E+00
        -0.69500E+02
         0.00000E+00
         0.00000E+00
         0.00000E+00
         0.00000E+00
         0.00000E+00
         0.00000E+00
         0.00000E+00
         0.00000E+00
         0.00000E+00
         0.00000E+00
         0.00000E+00
         0.00000E+00
         0.00000E+00
         0.00000E+00
         0.00000E+00
         0.00000E+00
         0.00000E+00
         0.00000E+00
         0.00000E+00
         0.00000E+00
         0.00000E+00
         0.00000E+00
         0.00000E+00
         0.00000E+00
         0.00000E+00
         0.00000E+00
         0.00000E+00
         0.00000E+00
         0.00000E+00
         0.00000E+00
         0.00000E+00
         0.00000E+00
         0.00000E+00
         0.00000E+00
         0.00000E+00
         0.00000E+00
         0.00000E+00
         0.00000E+00
         0.00000E+00
         0.00000E+00
         0.00000E+00
         0.00000E+00
         0.00000E+00
         0.00000E+00
         0.00000E+00
         0.00000E+00
         0.00000E+00
         0.00000E+00
         0.00000E+00
         0.00000E+00
         0.00000E+00
         0.00000E+00
         0.00000E+00
         0.00000E+00
         0.00000E+00
         0.00000E+00
         0.00000E+00
         0.00000E+00
         0.00000E+00
         0.00000E+00
         0.00000E+00
         0.00000E+00
         0.00000E+00
         0.00000E+00
         0.00000E+00
         0.00000E+00
         0.00000E+00
         0.00000E+00
         0.00000E+00
         0.00000E+00
         0.00000E+00
         0.00000E+00
         0.00000E+00
         0.00000E+00
         0.00000E+00
         0.00000E+00
         0.00000E+00
         0.00000E+00
         0.00000E+00
         0.00000E+00
         0.00000E+00
         0.00000E+00
         0.00000E+00
         0.00000E+00
         0.00000E+00
         0.00000E+00
         0.00000E+00
         0.00000E+00
         0.00000E+00
         0.00000E+00
         0.00000E+00
         0.00000E+00
         0.00000E+00
         0.00000E+00
         0.00000E+00
         0.00000E+00
         0.00000E+00
         0.00000E+00
         0.00000E+00
         0.00000E+00
         0.00000E+00
         0.00000E+00
         0.00000E+00
         0.00000E+00
         0.00000E+00
         0.00000E+00
         0.00000E+00
         0.00000E+00
         0.00000E+00
         0.00000E+00
         0.00000E+00
         0.00000E+00
         0.00000E+00
         0.00000E+00
         0.00000E+00
         0.00000E+00
         0.00000E+00
         0.00000E+00
         0.00000E+00
         0.00000E+00
         0.00000E+00
         0.00000E+00
         0.00000E+00
         0.00000E+00
         0.00000E+00
         0.00000E+00
         0.00000E+00
         0.00000E+00
         0.00000E+00
         0.00000E+00
         0.00000E+00
         0.00000E+00
         0.00000E+00
         0.00000E+00
         0.00000E+00
         0.00000E+00
         0.00000E+00
         0.00000E+00
         0.00000E+00
         0.00000E+00
         0.00000E+00
         0.00000E+00
         0.00000E+00
         0.00000E+00
         0.00000E+00
         0.00000E+00
         0.00000E+00
         0.00000E+00
         0.00000E+00
         0.00000E+00
         0.00000E+00
         0.00000E+00
         0.00000E+00
         0.00000E+00
         0.00000E+00
         0.00000E+00
         0.00000E+00
         0.00000E+00
         0.00000E+00
         0.00000E+00
         0.00000E+00
         0.00000E+00
         0.00000E+00
         0.00000E+00
         0.00000E+00
         0.00000E+00
         0.00000E+00
         0.00000E+00
         0.00000E+00
         0.00000E+00
         0.00000E+00
         0.00000E+00
         0.00000E+00
         0.00000E+00
         0.00000E+00
         0.00000E+00
         0.00000E+00
         0.00000E+00
         0.00000E+00
         0.00000E+00
         0.00000E+00
         0.00000E+00
         0.00000E+00
         0.00000E+00
         0.00000E+00
         0.00000E+00
         0.00000E+00
         0.00000E+00
         0.00000E+00
         0.00000E+00
         0.00000E+00
         0.00000E+00
         0.00000E+00
         0.00000E+00
         0.00000E+00
         0.00000E+00
         0.00000E+00
         0.00000E+00
         0.00000E+00
         0.00000E+00
         0.00000E+00
         0.00000E+00
         0.00000E+00
         0.00000E+00
         0.00000E+00
         0.00000E+00
         0.00000E+00
         0.00000E+00
         0.00000E+00
         0.00000E+00
         0.00000E+00
         0.00000E+00
         0.00000E+00
         0.00000E+00
         0.00000E+00
         0.00000E+00
         0.00000E+00
         0.00000E+00
         0.00000E+00
         0.00000E+00
         0.00000E+00
         0.00000E+00
         0.00000E+00
         0.00000E+00
         0.00000E+00
         0.00000E+00
         0.00000E+00
         0.00000E+00
         0.00000E+00
         0.00000E+00
         0.00000E+00
         0.00000E+00
         0.00000E+00
         0.00000E+00
         0.00000E+00
         0.00000E+00
         0.00000E+00
         0.00000E+00
         0.00000E+00
         0.00000E+00
         0.00000E+00
         0.00000E+00
         0.00000E+00
         0.00000E+00
         0.00000E+00
         0.00000E+00
         0.00000E+00
         0.00000E+00
         0.00000E+00
         0.00000E+00
         0.00000E+00
         0.00000E+00
         0.00000E+00
         0.00000E+00
         0.00000E+00
         0.00000E+00
         0.00000E+00
         0.00000E+00
         0.00000E+00
         0.00000E+00
         0.00000E+00
         0.00000E+00
         0.00000E+00
         0.00000E+00
         0.00000E+00
         0.00000E+00
         0.00000E+00
         0.00000E+00
         0.00000E+00
         0.00000E+00
         0.00000E+00
         0.00000E+00
         0.00000E+00
         0.00000E+00
         0.00000E+00
         0.00000E+00
         0.00000E+00
         0.00000E+00
         0.00000E+00
         0.00000E+00
         0.00000E+00
         0.00000E+00
         0.00000E+00
         0.00000E+00
         0.00000E+00
         0.00000E+00
         0.00000E+00
         0.00000E+00
         0.00000E+00
         0.00000E+00
         0.00000E+00
         0.00000E+00
         0.00000E+00
         0.00000E+00
         0.00000E+00
         0.00000E+00
         0.00000E+00
         0.00000E+00
         0.00000E+00
         0.00000E+00
         0.00000E+00
         0.00000E+00
         0.00000E+00
         0.00000E+00
         0.00000E+00
         0.00000E+00
         0.00000E+00
         0.00000E+00
         0.00000E+00
         0.00000E+00
         0.00000E+00
         0.00000E+00
         0.00000E+00
         0.00000E+00
         0.00000E+00
         0.00000E+00
         0.00000E+00
         0.00000E+00
         0.00000E+00
         0.00000E+00
         0.00000E+00
         0.00000E+00
         0.00000E+00
         0.00000E+00
         0.00000E+00
         0.00000E+00
         0.00000E+00
         0.00000E+00
         0.00000E+00
         0.00000E+00
         0.00000E+00
         0.00000E+00
         0.00000E+00
         0.00000E+00
         0.00000E+00
         0.00000E+00
         0.00000E+00
         0.00000E+00
         0.00000E+00
         0.00000E+00
         0.00000E+00
         0.00000E+00
         0.00000E+00
         0.00000E+00
         0.00000E+00
         0.00000E+00
         0.00000E+00
         0.00000E+00
         0.00000E+00
         0.00000E+00
         0.00000E+00
         0.00000E+00
         0.00000E+00
         0.00000E+00
         0.00000E+00
         0.00000E+00
         0.00000E+00
         0.00000E+00
         0.00000E+00
         0.00000E+00
         0.00000E+00
         0.00000E+00
         0.00000E+00
         0.00000E+00
         0.00000E+00
         0.00000E+00
         0.00000E+00
         0.00000E+00
         0.00000E+00
         0.00000E+00
         0.00000E+00
         0.00000E+00
         0.00000E+00
         0.00000E+00
         0.00000E+00
         0.00000E+00
         0.00000E+00
         0.00000E+00
         0.00000E+00
         0.00000E+00
         0.00000E+00
         0.00000E+00
         0.00000E+00
         0.00000E+00
         0.00000E+00
         0.00000E+00
         0.00000E+00
         0.00000E+00
         0.00000E+00
         0.00000E+00
         0.00000E+00
         0.00000E+00
         0.00000E+00
         0.00000E+00
         0.00000E+00
         0.00000E+00
         0.00000E+00
         0.00000E+00
         0.00000E+00
         0.00000E+00
         0.00000E+00
         0.00000E+00
         0.00000E+00
         0.00000E+00
         0.00000E+00
         0.00000E+00
         0.00000E+00
         0.00000E+00
         0.00000E+00
         0.00000E+00
         0.00000E+00
         0.00000E+00
         0.00000E+00
         0.00000E+00
         0.00000E+00
         0.00000E+00
         0.00000E+00
         0.00000E+00
         0.00000E+00
         0.00000E+00
         0.00000E+00
         0.00000E+00
         0.00000E+00
         0.00000E+00
         0.00000E+00
         0.00000E+00
         0.00000E+00
         0.00000E+00
         0.00000E+00
         0.00000E+00
         0.00000E+00
         0.00000E+00
         0.00000E+00
         0.00000E+00
         0.00000E+00
         0.00000E+00
         0.00000E+00
         0.00000E+00
         0.00000E+00
         0.00000E+00
         0.00000E+00
         0.00000E+00
         0.00000E+00
         0.00000E+00
         0.00000E+00
         0.00000E+00
         0.00000E+00
         0.00000E+00
         0.00000E+00
         0.00000E+00
         0.00000E+00
         0.00000E+00
         0.00000E+00
         0.00000E+00
         0.00000E+00
         0.00000E+00
         0.00000E+00
         0.00000E+00
         0.00000E+00
         0.00000E+00
         0.00000E+00
         0.00000E+00
         0.00000E+00
         0.00000E+00
         0.00000E+00
         0.00000E+00
         0.00000E+00
         0.00000E+00
         0.00000E+00
         0.00000E+00
         0.00000E+00
         0.00000E+00
         0.00000E+00
         0.00000E+00
         0.00000E+00
         0.00000E+00
         0.00000E+00
         0.00000E+00
         0.00000E+00
         0.00000E+00
         0.00000E+00
         0.00000E+00
         0.00000E+00
         0.00000E+00
         0.00000E+00
         0.00000E+00
         0.00000E+00
         0.00000E+00
         0.00000E+00
         0.00000E+00
         0.00000E+00
         0.00000E+00
         0.00000E+00
         0.00000E+00
         0.00000E+00
         0.00000E+00
         0.00000E+00
         0.00000E+00
         0.00000E+00
         0.00000E+00
         0.00000E+00
         0.00000E+00
         0.00000E+00
         0.00000E+00
         0.00000E+00
         0.00000E+00
         0.00000E+00
         0.00000E+00
         0.00000E+00
         0.00000E+00
         0.00000E+00
         0.00000E+00
         0.00000E+00
         0.00000E+00
         0.00000E+00
         0.00000E+00
         0.00000E+00
         0.00000E+00
         0.00000E+00
         0.00000E+00
         0.00000E+00
         0.00000E+00
         0.00000E+00
         0.00000E+00
         0.00000E+00
         0.00000E+00
         0.00000E+00
         0.00000E+00
         0.00000E+00
         0.00000E+00
         0.00000E+00
         0.00000E+00
         0.00000E+00
         0.00000E+00
         0.00000E+00
         0.00000E+00
         0.00000E+00
         0.00000E+00
         0.00000E+00
         0.00000E+00
         0.00000E+00
         0.00000E+00
         0.00000E+00
         0.00000E+00
         0.00000E+00
         0.00000E+00
         0.00000E+00
         0.00000E+00
         0.00000E+00
         0.00000E+00
         0.00000E+00
         0.00000E+00
         0.00000E+00
         0.00000E+00
         0.00000E+00
         0.00000E+00
         0.00000E+00
         0.00000E+00
         0.00000E+00
         0.00000E+00
         0.00000E+00
         0.00000E+00
         0.00000E+00
         0.00000E+00
         0.00000E+00
         0.00000E+00
         0.00000E+00
         0.00000E+00
         0.00000E+00
         0.00000E+00
         0.00000E+00
         0.00000E+00
         0.00000E+00
         0.00000E+00
         0.00000E+00
         0.00000E+00
         0.00000E+00
         0.00000E+00
         0.00000E+00
         0.00000E+00
         0.00000E+00
         0.00000E+00
         0.00000E+00
         0.00000E+00
         0.00000E+00
         0.00000E+00
         0.00000E+00
         0.00000E+00
         0.00000E+00
         0.00000E+00
         0.00000E+00
         0.00000E+00
         0.00000E+00
         0.00000E+00
         0.00000E+00
         0.00000E+00
         0.00000E+00
         0.00000E+00
         0.00000E+00
         0.00000E+00
         0.00000E+00
         0.00000E+00
         0.00000E+00
         0.00000E+00
         0.00000E+00
         0.00000E+00
         0.00000E+00
         0.00000E+00
         0.00000E+00
         0.00000E+00
         0.00000E+00
         0.00000E+00
         0.00000E+00
         0.00000E+00
         0.00000E+00
         0.00000E+00
         0.00000E+00
         0.00000E+00
         0.00000E+00
         0.00000E+00
         0.00000E+00
         0.00000E+00
         0.00000E+00
         0.00000E+00
         0.00000E+00
         0.00000E+00
         0.00000E+00
         0.00000E+00
         0.00000E+00
         0.00000E+00
         0.00000E+00
         0.00000E+00
         0.00000E+00
         0.00000E+00
         0.00000E+00
         0.00000E+00
         0.00000E+00
         0.00000E+00
         0.00000E+00
         0.00000E+00
         0.00000E+00
         0.00000E+00
         0.00000E+00
         0.00000E+00
         0.00000E+00
         0.00000E+00
         0.00000E+00
         0.00000E+00
         0.00000E+00
         0.00000E+00
         0.00000E+00
         0.00000E+00
         0.00000E+00
         0.00000E+00
         0.00000E+00
         0.00000E+00
         0.00000E+00
         0.00000E+00
         0.00000E+00
         0.00000E+00
         0.00000E+00
         0.00000E+00
         0.00000E+00
         0.00000E+00
         0.00000E+00
         0.00000E+00
         0.00000E+00
         0.00000E+00
         0.00000E+00
         0.00000E+00
         0.00000E+00
         0.00000E+00
         0.00000E+00
         0.00000E+00
         0.00000E+00
         0.00000E+00
         0.00000E+00
         0.00000E+00
         0.00000E+00
         0.00000E+00
         0.00000E+00
         0.00000E+00
         0.00000E+00
         0.00000E+00
         0.00000E+00
         0.00000E+00
         0.00000E+00
         0.00000E+00
         0.00000E+00
         0.00000E+00
         0.00000E+00
         0.00000E+00
         0.00000E+00
         0.00000E+00
         0.00000E+00
         0.00000E+00
         0.00000E+00
         0.00000E+00
         0.00000E+00
         0.00000E+00
         0.00000E+00
         0.00000E+00
         0.00000E+00
         0.00000E+00
         0.00000E+00
         0.00000E+00
         0.00000E+00
         0.00000E+00
         0.00000E+00
         0.00000E+00
         0.00000E+00
         0.00000E+00
         0.00000E+00
         0.00000E+00
         0.00000E+00
         0.00000E+00
         0.00000E+00
         0.00000E+00
         0.00000E+00
         0.00000E+00
         0.00000E+00
         0.00000E+00
         0.00000E+00
         0.00000E+00
         0.00000E+00
         0.00000E+00
         0.00000E+00
         0.00000E+00
         0.00000E+00
         0.00000E+00
         0.00000E+00
         0.00000E+00
         0.00000E+00
         0.00000E+00
         0.00000E+00
         0.00000E+00
         0.00000E+00
         0.00000E+00
         0.00000E+00
         0.00000E+00
         0.00000E+00
         0.00000E+00
         0.00000E+00
         0.00000E+00
         0.00000E+00
         0.00000E+00
         0.00000E+00
         0.00000E+00
         0.00000E+00
         0.00000E+00
         0.00000E+00
         0.00000E+00
         0.00000E+00
         0.00000E+00
         0.00000E+00
         0.00000E+00
         0.00000E+00
         0.00000E+00
         0.00000E+00
         0.00000E+00
         0.00000E+00
         0.00000E+00
         0.00000E+00
         0.00000E+00
         0.00000E+00
         0.00000E+00
         0.00000E+00
         0.00000E+00
         0.00000E+00
         0.00000E+00
         0.00000E+00
         0.00000E+00
         0.00000E+00
         0.00000E+00
         0.00000E+00
         0.00000E+00
         0.00000E+00
         0.00000E+00
         0.00000E+00
         0.00000E+00
         0.00000E+00
         0.00000E+00
         0.00000E+00
         0.00000E+00
         0.00000E+00
         0.00000E+00
         0.00000E+00
         0.00000E+00
         0.00000E+00
         0.00000E+00
         0.00000E+00
         0.00000E+00
         0.00000E+00
         0.00000E+00
         0.00000E+00
         0.00000E+00
         0.00000E+00
         0.00000E+00
         0.00000E+00
         0.00000E+00
         0.00000E+00
         0.00000E+00
         0.00000E+00
         0.00000E+00
         0.00000E+00
         0.00000E+00
         0.00000E+00
         0.00000E+00
         0.00000E+00
         0.00000E+00
         0.00000E+00
         0.00000E+00
         0.00000E+00
         0.00000E+00
         0.00000E+00
         0.00000E+00
         0.00000E+00
         0.00000E+00
         0.00000E+00
         0.00000E+00
         0.00000E+00
         0.00000E+00
         0.00000E+00
         0.00000E+00
         0.00000E+00
         0.00000E+00
         0.00000E+00
         0.00000E+00
         0.00000E+00
         0.00000E+00
         0.00000E+00
         0.00000E+00
         0.00000E+00
         0.00000E+00
         0.00000E+00
         0.00000E+00
         0.00000E+00
         0.00000E+00
         0.00000E+00
         0.00000E+00
         0.00000E+00
         0.00000E+00
         0.00000E+00
         0.00000E+00
         0.00000E+00
         0.00000E+00
         0.00000E+00
         0.00000E+00
         0.00000E+00
         0.00000E+00
         0.00000E+00
         0.00000E+00
         0.00000E+00
         0.00000E+00
         0.00000E+00
         0.00000E+00
         0.00000E+00
         0.00000E+00
         0.00000E+00
         0.00000E+00
         0.00000E+00
         0.00000E+00
         0.00000E+00
         0.00000E+00
         0.00000E+00
         0.00000E+00
         0.00000E+00
         0.00000E+00
         0.00000E+00
         0.00000E+00
         0.00000E+00
         0.00000E+00
         0.00000E+00
         0.00000E+00
         0.00000E+00
         0.00000E+00
         0.00000E+00
         0.00000E+00
         0.00000E+00
         0.00000E+00
         0.00000E+00
         0.00000E+00
         0.00000E+00
         0.00000E+00
         0.00000E+00
         0.00000E+00
         0.00000E+00
         0.00000E+00
         0.00000E+00
         0.00000E+00
         0.00000E+00
         0.00000E+00
         0.00000E+00
         0.00000E+00
         0.00000E+00
         0.00000E+00
         0.00000E+00
         0.00000E+00
         0.00000E+00
         0.00000E+00
         0.00000E+00
         0.00000E+00
         0.00000E+00
         0.00000E+00
         0.00000E+00
         0.00000E+00
         0.00000E+00
         0.00000E+00
         0.00000E+00
         0.00000E+00
         0.00000E+00
         0.00000E+00
         0.00000E+00
         0.00000E+00
         0.00000E+00
         0.00000E+00
         0.00000E+00
         0.00000E+00
         0.00000E+00
         0.00000E+00
         0.00000E+00
         0.00000E+00
         0.00000E+00
         0.00000E+00
         0.00000E+00
         0.00000E+00
         0.00000E+00
         0.00000E+00
         0.00000E+00
         0.00000E+00
         0.00000E+00
         0.00000E+00
         0.00000E+00
         0.00000E+00
         0.00000E+00
         0.00000E+00
         0.00000E+00
         0.00000E+00
         0.00000E+00
         0.00000E+00
         0.00000E+00
         0.00000E+00
         0.00000E+00
         0.00000E+00
         0.00000E+00
         0.00000E+00
         0.00000E+00
         0.00000E+00
         0.00000E+00
         0.00000E+00
         0.00000E+00
         0.00000E+00
         0.00000E+00
         0.00000E+00
         0.00000E+00
         0.00000E+00
         0.00000E+00
         0.00000E+00
         0.00000E+00
         0.00000E+00
         0.00000E+00
         0.00000E+00
         0.00000E+00
         0.00000E+00
         0.00000E+00
         0.00000E+00
         0.00000E+00
         0.00000E+00
         0.00000E+00
         0.00000E+00
         0.00000E+00
         0.00000E+00
         0.00000E+00
         0.00000E+00
         0.00000E+00
         0.00000E+00
         0.00000E+00
         0.00000E+00
         0.00000E+00
         0.00000E+00
         0.00000E+00
         0.00000E+00
         0.00000E+00
         0.00000E+00
         0.00000E+00
         0.00000E+00
         0.00000E+00
         0.00000E+00
         0.00000E+00
         0.00000E+00
         0.00000E+00
         0.00000E+00
         0.00000E+00
         0.00000E+00
         0.00000E+00
         0.00000E+00
         0.00000E+00
         0.00000E+00
         0.00000E+00
         0.00000E+00
         0.00000E+00
         0.00000E+00
         0.00000E+00
         0.00000E+00
         0.00000E+00
         0.00000E+00
         0.00000E+00
         0.00000E+00
         0.00000E+00
         0.00000E+00
         0.00000E+00
         0.00000E+00
         0.00000E+00
         0.00000E+00
         0.00000E+00
         0.00000E+00
         0.00000E+00
         0.00000E+00
         0.00000E+00
         0.00000E+00
         0.00000E+00
         0.00000E+00
         0.00000E+00
         0.00000E+00
         0.00000E+00
         0.00000E+00
         0.00000E+00
         0.00000E+00
         0.00000E+00
         0.00000E+00
         0.00000E+00
         0.00000E+00
         0.00000E+00
         0.00000E+00
         0.00000E+00
         0.00000E+00
         0.00000E+00
         0.00000E+00
         0.00000E+00
         0.00000E+00
         0.00000E+00
         0.00000E+00
         0.00000E+00
         0.00000E+00
         0.00000E+00
         0.00000E+00
         0.00000E+00
         0.00000E+00
         0.00000E+00
         0.00000E+00
         0.00000E+00
         0.00000E+00
         0.00000E+00
         0.00000E+00
         0.00000E+00
         0.00000E+00
         0.00000E+00
         0.00000E+00
         0.00000E+00
         0.00000E+00
         0.00000E+00
         0.00000E+00
         0.00000E+00
         0.00000E+00
         0.00000E+00
         0.00000E+00
         0.00000E+00
         0.00000E+00
         0.00000E+00
         0.00000E+00
         0.00000E+00
         0.00000E+00
         0.00000E+00
         0.00000E+00
         0.00000E+00
         0.00000E+00
         0.00000E+00
         0.00000E+00
         0.00000E+00
         0.00000E+00
         0.00000E+00
         0.00000E+00
         0.00000E+00
         0.00000E+00
         0.00000E+00
         0.00000E+00
         0.00000E+00
         0.00000E+00
         0.00000E+00
         0.00000E+00
         0.00000E+00
         0.00000E+00
         0.00000E+00
         0.00000E+00
         0.00000E+00
         0.00000E+00
         0.00000E+00
         0.00000E+00
         0.00000E+00
         0.00000E+00
         0.00000E+00
         0.00000E+00
         0.00000E+00
         0.00000E+00
         0.00000E+00
         0.00000E+00
         0.00000E+00
         0.00000E+00
         0.00000E+00
         0.00000E+00
         0.00000E+00
         0.00000E+00
         0.00000E+00
         0.00000E+00
         0.00000E+00
         0.00000E+00
         0.00000E+00
         0.00000E+00
         0.00000E+00
         0.00000E+00
         0.00000E+00
         0.00000E+00
         0.00000E+00
         0.00000E+00
         0.00000E+00
         0.00000E+00
         0.00000E+00
         0.00000E+00
         0.00000E+00
         0.00000E+00
         0.00000E+00
         0.00000E+00
         0.00000E+00
         0.00000E+00
         0.00000E+00
         0.00000E+00
         0.00000E+00
         0.00000E+00
         0.00000E+00
         0.00000E+00
         0.00000E+00
         0.00000E+00
         0.00000E+00
         0.00000E+00
         0.00000E+00
         0.00000E+00
         0.00000E+00
         0.00000E+00
         0.00000E+00
         0.00000E+00
         0.00000E+00
         0.00000E+00
         0.00000E+00
         0.00000E+00
         0.00000E+00
         0.00000E+00
         0.00000E+00
         0.00000E+00
         0.00000E+00
         0.00000E+00
         0.00000E+00
         0.00000E+00
         0.00000E+00
         0.00000E+00
         0.00000E+00
         0.00000E+00
         0.00000E+00
         0.00000E+00
         0.00000E+00
         0.00000E+00
         0.00000E+00
         0.00000E+00
         0.00000E+00
         0.00000E+00
         0.00000E+00
         0.00000E+00
         0.00000E+00
         0.00000E+00
         0.00000E+00
         0.00000E+00
         0.00000E+00
         0.00000E+00
         0.00000E+00
         0.00000E+00
         0.00000E+00
         0.00000E+00
         0.00000E+00
         0.00000E+00
         0.00000E+00
         0.00000E+00
         0.00000E+00
         0.00000E+00
         0.00000E+00
         0.00000E+00
         0.00000E+00
         0.00000E+00
         0.00000E+00
         0.00000E+00
         0.00000E+00
         0.00000E+00
         0.00000E+00
         0.00000E+00
         0.00000E+00
         0.00000E+00
         0.00000E+00
         0.00000E+00
         0.00000E+00
         0.00000E+00
         0.00000E+00
         0.00000E+00
         0.00000E+00
         0.00000E+00
         0.00000E+00
         0.00000E+00
         0.00000E+00
         0.00000E+00
         0.00000E+00
         0.00000E+00
         0.00000E+00
         0.00000E+00
         0.00000E+00
         0.00000E+00
         0.00000E+00
         0.00000E+00
         0.00000E+00
         0.00000E+00
         0.00000E+00
         0.00000E+00
         0.00000E+00
         0.00000E+00
         0.00000E+00
         0.00000E+00
         0.00000E+00
         0.00000E+00
         0.00000E+00
         0.00000E+00
         0.00000E+00
         0.00000E+00
         0.00000E+00
         0.00000E+00
         0.00000E+00
         0.00000E+00
         0.00000E+00
         0.00000E+00
         0.00000E+00
         0.00000E+00
         0.00000E+00
         0.00000E+00
         0.00000E+00
         0.00000E+00
         0.00000E+00
         0.00000E+00
         0.00000E+00
         0.00000E+00
         0.00000E+00
         0.00000E+00
         0.00000E+00
         0.00000E+00
         0.00000E+00
         0.00000E+00
         0.00000E+00
         0.00000E+00
         0.00000E+00
         0.00000E+00
         0.00000E+00
         0.00000E+00
         0.00000E+00
         0.00000E+00
         0.00000E+00
         0.00000E+00
         0.00000E+00
         0.00000E+00
         0.00000E+00
         0.00000E+00
         0.00000E+00
         0.00000E+00
         0.00000E+00
         0.00000E+00
         0.00000E+00
         0.00000E+00
         0.00000E+00
         0.00000E+00
         0.00000E+00
         0.00000E+00
         0.00000E+00
         0.00000E+00
         0.00000E+00
         0.00000E+00
         0.00000E+00
         0.00000E+00
         0.00000E+00
         0.00000E+00
         0.00000E+00
         0.00000E+00
         0.00000E+00
         0.00000E+00
         0.00000E+00
         0.00000E+00
         0.00000E+00
         0.00000E+00
         0.00000E+00
         0.00000E+00
         0.00000E+00
         0.00000E+00
         0.00000E+00
         0.00000E+00
         0.00000E+00
         0.00000E+00
         0.00000E+00
         0.00000E+00
         0.00000E+00
         0.00000E+00
         0.00000E+00
         0.00000E+00
         0.00000E+00
         0.00000E+00
         0.00000E+00
         0.00000E+00
         0.00000E+00
         0.00000E+00
         0.00000E+00
         0.00000E+00
         0.00000E+00
         0.00000E+00
         0.00000E+00
         0.00000E+00
         0.00000E+00
         0.00000E+00
         0.00000E+00
         0.00000E+00
         0.00000E+00
         0.00000E+00
         0.00000E+00
         0.00000E+00
         0.00000E+00
         0.00000E+00
         0.00000E+00
         0.00000E+00
         0.00000E+00
         0.00000E+00
         0.00000E+00
         0.00000E+00
         0.00000E+00
         0.00000E+00
         0.00000E+00
         0.00000E+00
         0.00000E+00
         0.00000E+00
         0.00000E+00
         0.00000E+00
         0.00000E+00
         0.00000E+00
         0.00000E+00
         0.00000E+00
         0.00000E+00
         0.00000E+00
         0.00000E+00
         0.00000E+00
         0.00000E+00
         0.00000E+00
         0.00000E+00
         0.00000E+00
         0.00000E+00
         0.00000E+00
         0.00000E+00
         0.00000E+00
         0.00000E+00
         0.00000E+00
         0.00000E+00
         0.00000E+00
         0.00000E+00
         0.00000E+00
         0.00000E+00
         0.00000E+00
         0.00000E+00
         0.00000E+00
         0.00000E+00
         0.00000E+00
         0.00000E+00
         0.00000E+00
         0.00000E+00
         0.00000E+00
         0.00000E+00
         0.00000E+00
         0.00000E+00
         0.00000E+00
         0.00000E+00
         0.00000E+00
         0.00000E+00
         0.00000E+00
         0.00000E+00
         0.00000E+00
         0.00000E+00
         0.00000E+00
         0.00000E+00
         0.00000E+00
         0.00000E+00
         0.00000E+00
         0.00000E+00
         0.00000E+00
         0.00000E+00
         0.00000E+00
         0.00000E+00
         0.00000E+00
         0.00000E+00
         0.00000E+00
         0.00000E+00
         0.00000E+00
         0.00000E+00
         0.00000E+00
         0.00000E+00
         0.00000E+00
         0.00000E+00
         0.00000E+00
         0.00000E+00
         0.00000E+00
         0.00000E+00
         0.00000E+00
         0.00000E+00
         0.00000E+00
         0.00000E+00
         0.00000E+00
         0.00000E+00
         0.00000E+00
         0.00000E+00
         0.00000E+00
         0.00000E+00
         0.00000E+00
         0.00000E+00
         0.00000E+00
         0.00000E+00
         0.00000E+00
         0.00000E+00
         0.00000E+00
         0.00000E+00
         0.00000E+00
         0.00000E+00
         0.00000E+00
         0.00000E+00
         0.00000E+00
         0.00000E+00
         0.00000E+00
         0.00000E+00
         0.00000E+00
         0.00000E+00
         0.00000E+00
         0.00000E+00
         0.00000E+00
         0.00000E+00
         0.00000E+00
         0.00000E+00
         0.00000E+00
         0.00000E+00
         0.00000E+00
         0.00000E+00
         0.00000E+00
         0.00000E+00
         0.00000E+00
         0.00000E+00
         0.00000E+00
         0.00000E+00
         0.00000E+00
         0.00000E+00
         0.00000E+00
         0.00000E+00
         0.00000E+00
         0.00000E+00
         0.00000E+00
         0.00000E+00
         0.00000E+00
         0.00000E+00
         0.00000E+00
         0.00000E+00
         0.00000E+00
         0.00000E+00
         0.00000E+00
         0.00000E+00
         0.00000E+00
         0.00000E+00
         0.00000E+00
         0.00000E+00
         0.00000E+00
         0.00000E+00
         0.00000E+00
         0.00000E+00
         0.00000E+00
         0.00000E+00
         0.00000E+00
         0.00000E+00
         0.00000E+00
         0.00000E+00
         0.00000E+00
         0.00000E+00
         0.00000E+00
         0.00000E+00
         0.00000E+00
         0.00000E+00
         0.00000E+00
         0.00000E+00
         0.00000E+00
         0.00000E+00
         0.00000E+00
         0.00000E+00
         0.00000E+00
         0.00000E+00
         0.00000E+00
         0.00000E+00
         0.00000E+00
         0.00000E+00
         0.00000E+00
         0.00000E+00
         0.00000E+00
         0.00000E+00
         0.00000E+00
         0.00000E+00
         0.00000E+00
         0.00000E+00
         0.00000E+00
         0.00000E+00
         0.00000E+00
         0.00000E+00
         0.00000E+00
         0.00000E+00
         0.00000E+00
         0.00000E+00
         0.00000E+00
         0.00000E+00
         0.00000E+00
         0.00000E+00
         0.00000E+00
         0.00000E+00
         0.00000E+00
         0.00000E+00
         0.00000E+00
         0.00000E+00
         0.00000E+00
         0.00000E+00
         0.00000E+00
         0.00000E+00
         0.00000E+00
         0.00000E+00
         0.00000E+00
         0.00000E+00
         0.00000E+00
         0.00000E+00
         0.00000E+00
         0.00000E+00
         0.00000E+00
         0.00000E+00
         0.00000E+00
         0.00000E+00
         0.00000E+00
         0.00000E+00
         0.00000E+00
         0.00000E+00
         0.00000E+00
         0.00000E+00
         0.00000E+00
         0.00000E+00
         0.00000E+00
         0.00000E+00
         0.00000E+00
         0.00000E+00
         0.00000E+00
         0.00000E+00
         0.00000E+00
         0.00000E+00
         0.00000E+00
         0.00000E+00
         0.00000E+00
         0.00000E+00
         0.00000E+00
         0.00000E+00
         0.00000E+00
         0.00000E+00
         0.00000E+00
         0.00000E+00
         0.00000E+00
         0.00000E+00
         0.00000E+00
         0.00000E+00
         0.00000E+00
         0.00000E+00
         0.00000E+00
         0.00000E+00
         0.00000E+00
         0.00000E+00
         0.00000E+00
         0.00000E+00
         0.00000E+00
         0.00000E+00
         0.00000E+00
         0.00000E+00
         0.00000E+00
         0.00000E+00
         0.00000E+00
         0.00000E+00
         0.00000E+00
         0.00000E+00
         0.00000E+00
         0.00000E+00
         0.00000E+00
         0.00000E+00
         0.00000E+00
         0.00000E+00
         0.00000E+00
         0.00000E+00
         0.00000E+00
         0.00000E+00
         0.00000E+00
         0.00000E+00
         0.00000E+00
         0.00000E+00
         0.00000E+00
         0.00000E+00
         0.00000E+00
         0.00000E+00
         0.00000E+00
         0.00000E+00
         0.00000E+00
         0.00000E+00
         0.00000E+00
         0.00000E+00
         0.00000E+00
         0.00000E+00
         0.00000E+00
         0.00000E+00
         0.00000E+00
         0.00000E+00
         0.00000E+00
         0.00000E+00
         0.00000E+00
         0.00000E+00
         0.00000E+00
         0.00000E+00
         0.00000E+00
         0.00000E+00
         0.00000E+00
         0.00000E+00
         0.00000E+00
         0.00000E+00
         0.00000E+00
         0.00000E+00
         0.00000E+00
         0.00000E+00
         0.00000E+00
         0.00000E+00
         0.00000E+00
         0.00000E+00
         0.00000E+00
         0.00000E+00
         0.00000E+00
         0.00000E+00
         0.00000E+00
         0.00000E+00
         0.00000E+00
         0.00000E+00
         0.00000E+00
         0.00000E+00
         0.00000E+00
         0.00000E+00
         0.00000E+00
         0.00000E+00
         0.00000E+00
         0.00000E+00
         0.00000E+00
         0.00000E+00
         0.00000E+00
         0.00000E+00
         0.00000E+00
         0.00000E+00
         0.00000E+00
         0.00000E+00
         0.00000E+00
         0.00000E+00
         0.00000E+00
         0.00000E+00
         0.00000E+00
         0.00000E+00
         0.00000E+00
         0.00000E+00
         0.00000E+00
         0.00000E+00
         0.00000E+00
         0.00000E+00
         0.00000E+00
         0.00000E+00
         0.00000E+00
         0.00000E+00
         0.00000E+00
         0.00000E+00
         0.00000E+00
         0.00000E+00
         0.00000E+00
         0.00000E+00
         0.00000E+00
         0.00000E+00
         0.00000E+00
         0.00000E+00
         0.00000E+00
         0.00000E+00
         0.00000E+00
         0.00000E+00
         0.00000E+00
         0.00000E+00
         0.00000E+00
         0.00000E+00
         0.00000E+00
         0.00000E+00
         0.00000E+00
         0.00000E+00
         0.00000E+00
         0.00000E+00
         0.00000E+00
         0.00000E+00
         0.00000E+00
         0.00000E+00
         0.00000E+00
         0.00000E+00
         0.00000E+00
         0.00000E+00
         0.00000E+00
         0.00000E+00
         0.00000E+00
         0.00000E+00
         0.00000E+00
         0.00000E+00
         0.00000E+00
         0.00000E+00
         0.00000E+00
         0.00000E+00
         0.00000E+00
         0.00000E+00
         0.00000E+00
         0.00000E+00
         0.00000E+00
         0.00000E+00
         0.00000E+00
         0.00000E+00
         0.00000E+00
         0.00000E+00
         0.00000E+00
         0.00000E+00
         0.00000E+00
         0.00000E+00
         0.00000E+00
         0.00000E+00
         0.00000E+00
         0.00000E+00
         0.00000E+00
         0.00000E+00
         0.00000E+00
         0.00000E+00
         0.00000E+00
         0.00000E+00
         0.00000E+00
         0.00000E+00
         0.00000E+00
         0.00000E+00
         0.00000E+00
         0.00000E+00
         0.00000E+00
         0.00000E+00
         0.00000E+00
         0.00000E+00
         0.00000E+00
         0.00000E+00
         0.00000E+00
         0.00000E+00
         0.00000E+00
         0.00000E+00
         0.00000E+00
         0.00000E+00
         0.00000E+00
         0.00000E+00
         0.00000E+00
         0.00000E+00
         0.00000E+00
         0.00000E+00
         0.00000E+00
         0.00000E+00
         0.00000E+00
         0.00000E+00
         0.00000E+00
         0.00000E+00
         0.00000E+00
         0.00000E+00
         0.00000E+00
         0.00000E+00
         0.00000E+00
         0.00000E+00
         0.00000E+00
         0.00000E+00
         0.00000E+00
  
SCALARS                      stress_xx  double 1
LOOKUP_TABLE default
         0.59085E+09
         0.41711E+09
         0.21702E+09
         0.59288E+09
         0.27633E+03
         0.20670E+03
         0.18620E+03
         0.31275E+03
         0.31750E+09
         0.21252E+09
        -0.52871E+01
         0.10136E+03
         0.21166E+09
         0.95339E+09
         0.12530E+03
         0.15747E+03
         0.59813E+09
         0.22951E+09
         0.30374E+03
         0.18594E+03
         0.11065E+09
         0.37059E+09
         0.26878E+09
         0.36835E+02
         0.42564E+02
         0.95499E+02
         0.19797E+09
         0.26067E+09
         0.60762E+02
         0.97167E+02
         0.61696E+09
         0.74995E+09
         0.43492E+09
         0.26581E+03
         0.22215E+03
         0.37257E+03
         0.17520E+09
         0.49201E+09
         0.11999E+03
         0.12422E+03
         0.30798E+09
         0.34195E+09
         0.77130E+02
         0.74461E+02
         0.11281E+09
         0.15402E+09
         0.10583E+03
         0.10464E+03
         0.80514E+09
         0.14863E+03
         0.77739E+09
         0.15148E+03
         0.47725E+09
         0.12640E+03
         0.43721E+09
         0.11712E+03
         0.54555E+09
        -0.33016E+08
         0.56837E+02
         0.11418E+03
         0.55006E+09
         0.19383E+09
         0.28930E+03
         0.14595E+03
         0.48377E+09
         0.31350E+03
         0.33231E+09
         0.21043E+03
         0.23757E+08
         0.33761E+09
        -0.90752E+01
         0.75275E+01
         0.21067E+09
         0.11791E+03
         0.24813E+09
         0.10544E+03
         0.12887E+09
         0.51097E+02
         0.27982E+09
         0.35047E+01
        -0.55912E+08
         0.37497E+09
        -0.20754E+02
         0.14822E+02
         0.19853E+09
         0.54257E+02
         0.19885E+09
         0.89064E+02
         0.16293E+09
         0.49734E+02
         0.28602E+09
         0.12402E+09
         0.41206E+02
         0.11249E+03
         0.30592E+09
         0.18927E+03
         0.31248E+09
         0.15421E+03
         0.30440E+09
         0.64009E+02
         0.24308E+09
         0.18364E+09
        -0.19786E+02
         0.84457E+02
        -0.57373E+07
        -0.95071E+08
        -0.11955E+02
        -0.31190E+02
        -0.22430E+09
        -0.78214E+02
         0.11712E+09
        -0.52214E+01
        -0.13456E+09
        -0.13638E+02
        -0.14057E+09
        -0.24577E+02
        -0.34854E+08
         0.21828E+02
        -0.39104E+09
         0.85056E+01
         0.57754E+07
        -0.87640E+01
        -0.10995E+09
        -0.27231E+02
        -0.16015E+09
        -0.14911E+02
        -0.30744E+08
        -0.27206E+02
        -0.24781E+08
        -0.28991E+02
        -0.17665E+08
        -0.35908E+02
        -0.49422E+08
        -0.36778E+02
         0.46924E+08
        -0.27756E+02
         0.17866E+09
        -0.14079E+02
        -0.16808E+09
        -0.88502E+01
        -0.33140E+09
         0.36265E+02
        -0.24808E+09
         0.64212E+02
         0.32837E+09
         0.41287E+02
        -0.26924E+09
         0.19484E+02
        -0.20715E+09
        -0.15735E+02
        -0.24343E+09
         0.32494E+02
        -0.47699E+08
        -0.38640E+02
        -0.43746E+08
        -0.16369E+02
        -0.96142E+08
         0.72013E+09
        -0.82051E+09
        -0.15980E+09
         0.73272E+09
        -0.32694E+09
        -0.62668E+09
         0.82407E+09
        -0.33942E+08
         0.21821E+09
        -0.93888E+09
         0.20525E+09
        -0.14581E+09
        -0.69211E+09
         0.23013E+09
         0.11680E+08
         0.17900E+09
         0.60678E+09
        -0.34939E+09
         0.10393E+09
         0.69940E+09
         0.51032E+09
         0.14605E+09
         0.70316E+09
         0.14055E+09
        -0.15362E+09
         0.22536E+09
         0.48268E+09
        -0.13610E+09
         0.39431E+09
         0.50077E+09
        -0.35044E+09
        -0.55508E+09
         0.91959E+08
         0.73859E+08
         0.49053E+09
         0.30534E+09
        -0.19386E+09
         0.10124E+09
        -0.41294E+09
         0.58120E+09
        -0.16646E+08
         0.32286E+09
        -0.27876E+09
         0.56103E+09
         0.98946E+09
        -0.74467E+09
         0.21561E+09
         0.63170E+09
        -0.97760E+09
         0.96482E+09
         0.34676E+09
        -0.73350E+09
        -0.55954E+09
        -0.43890E+09
        -0.80763E+09
        -0.19086E+09
        -0.50510E+09
        -0.29433E+09
        -0.17156E+09
        -0.17489E+09
        -0.31760E+09
        -0.25416E+09
        -0.32386E+09
        -0.31813E+09
        -0.53598E+09
        -0.48084E+09
        -0.32236E+09
        -0.36895E+09
        -0.68340E+09
        -0.11974E+10
         0.19455E+09
        -0.24127E+09
        -0.51071E+09
        -0.19322E+09
        -0.41214E+09
        -0.87433E+09
         0.65245E+08
         0.17401E+09
         0.12066E+10
        -0.80373E+08
         0.55290E+09
         0.62088E+09
         0.14202E+09
         0.86169E+09
         0.24821E+09
         0.87374E+09
         0.23523E+09
         0.38459E+09
         0.25838E+09
        -0.33689E+09
         0.77574E+09
         0.83815E+08
         0.10625E+09
         0.99533E+09
         0.37955E+09
         0.46671E+08
         0.36017E+09
         0.31117E+09
         0.77983E+08
        -0.54763E+09
         0.19077E+10
        -0.15235E+08
         0.12493E+10
         0.96106E+09
         0.84467E+09
         0.43401E+09
         0.50483E+09
         0.11797E+10
        -0.12985E+09
         0.46542E+09
         0.19562E+09
        -0.30244E+09
         0.39685E+09
        -0.22213E+09
        -0.14436E+09
        -0.71479E+08
         0.23310E+09
         0.13124E+09
        -0.15223E+09
         0.34061E+09
        -0.71230E+09
         0.18736E+09
         0.73522E+09
         0.21634E+09
        -0.72673E+09
         0.61278E+09
         0.13367E+09
         0.61707E+09
         0.17337E+09
        -0.36045E+09
        -0.49463E+09
        -0.20755E+09
        -0.20266E+09
         0.10668E+09
        -0.22474E+09
         0.27380E+08
         0.20499E+08
         0.13077E+08
        -0.39714E+09
        -0.22150E+09
        -0.37317E+09
        -0.31796E+09
        -0.38253E+09
        -0.37624E+09
         0.51695E+08
         0.12608E+09
        -0.69773E+08
        -0.89054E+09
         0.17359E+09
         0.30548E+09
        -0.12938E+09
        -0.17001E+09
        -0.40736E+09
        -0.89085E+08
        -0.39396E+09
        -0.18228E+09
        -0.43942E+08
        -0.18021E+09
        -0.35437E+09
         0.50013E+09
        -0.30941E+09
         0.14547E+08
        -0.50833E+09
        -0.83502E+09
        -0.65757E+09
         0.12760E+09
        -0.15850E+09
        -0.40556E+09
         0.19680E+09
        -0.59908E+09
        -0.27614E+09
        -0.57744E+09
        -0.12691E+09
        -0.30324E+09
        -0.10967E+09
         0.18227E+08
        -0.22410E+09
        -0.38597E+08
        -0.28082E+09
        -0.37825E+09
        -0.41368E+09
         0.24873E+09
         0.68547E+08
        -0.28657E+09
         0.10013E+09
        -0.15853E+08
        -0.60481E+09
        -0.28310E+09
        -0.31073E+09
        -0.40305E+09
        -0.29272E+09
        -0.11014E+09
        -0.37561E+09
        -0.34751E+09
        -0.69259E+09
         0.13908E+09
        -0.20726E+09
        -0.43872E+09
         0.49920E+08
        -0.20159E+08
        -0.98271E+08
        -0.26021E+09
        -0.25305E+09
         0.67683E+08
        -0.34397E+09
         0.24506E+09
         0.17439E+09
        -0.28317E+09
        -0.95976E+09
        -0.46019E+09
        -0.35085E+09
        -0.38795E+09
        -0.32651E+09
        -0.26364E+09
        -0.23405E+09
        -0.35195E+09
        -0.35274E+09
        -0.36168E+09
        -0.46676E+09
        -0.27842E+09
        -0.44360E+09
        -0.52461E+09
        -0.58785E+09
        -0.49957E+09
        -0.52342E+09
        -0.82401E+09
        -0.34856E+09
        -0.47892E+09
        -0.39321E+09
        -0.47168E+09
        -0.75032E+09
        -0.78526E+09
        -0.26174E+09
        -0.43047E+09
         0.76332E+09
         0.39874E+09
         0.28284E+09
         0.50829E+09
        -0.37019E+08
         0.10690E+10
         0.47918E+09
         0.14150E+10
         0.42168E+09
         0.16792E+09
         0.14749E+09
        -0.39807E+09
         0.19701E+09
         0.50721E+09
         0.11329E+09
         0.57928E+09
         0.14936E+09
         0.34785E+09
         0.28896E+09
         0.27937E+09
        -0.27078E+08
        -0.42085E+09
         0.77025E+09
        -0.31114E+09
         0.10568E+10
         0.62636E+09
         0.83188E+09
         0.52761E+09
         0.52634E+09
         0.95302E+09
         0.59651E+09
         0.45515E+09
         0.44366E+09
        -0.59919E+09
        -0.13226E+09
         0.16149E+09
         0.32664E+09
        -0.16287E+08
         0.25876E+09
        -0.47546E+08
         0.41675E+07
        -0.68524E+08
        -0.60459E+09
         0.29937E+09
        -0.13263E+09
         0.61518E+08
        -0.26738E+09
         0.44955E+09
         0.19470E+09
         0.94625E+08
         0.15851E+09
         0.95781E+08
        -0.21467E+09
        -0.22454E+08
        -0.20718E+08
         0.91394E+08
        -0.17122E+08
        -0.30159E+09
        -0.40450E+08
        -0.79911E+08
        -0.80436E+08
        -0.31043E+09
         0.63691E+08
        -0.41210E+08
        -0.11850E+09
        -0.25366E+09
         0.57192E+08
         0.79421E+08
         0.57359E+08
        -0.35047E+09
         0.92005E+08
         0.15908E+09
        -0.12028E+09
        -0.48559E+08
        -0.21090E+09
         0.19990E+09
        -0.37681E+09
         0.25540E+09
        -0.25140E+09
        -0.28152E+09
        -0.66856E+08
         0.18544E+09
        -0.30075E+09
        -0.22754E+09
        -0.68082E+09
        -0.10599E+10
        -0.58095E+09
         0.18021E+09
         0.27653E+08
         0.51904E+08
         0.44725E+09
        -0.60214E+09
        -0.51694E+09
        -0.25537E+08
        -0.48342E+09
        -0.23421E+09
         0.30736E+08
        -0.69330E+08
         0.22115E+08
         0.19188E+09
        -0.13543E+09
        -0.89904E+09
        -0.60977E+08
         0.56969E+09
        -0.30948E+08
         0.16301E+09
         0.32752E+09
         0.39772E+08
        -0.63408E+09
        -0.76818E+08
        -0.35874E+09
         0.58079E+08
        -0.12026E+09
        -0.29961E+07
        -0.30671E+09
        -0.33804E+09
        -0.28644E+09
        -0.44001E+09
        -0.41470E+09
        -0.24357E+09
         0.30766E+08
        -0.22331E+09
         0.33079E+08
         0.25733E+09
        -0.11512E+09
        -0.18363E+09
        -0.81782E+08
         0.16946E+09
         0.21547E+09
        -0.51022E+09
        -0.37208E+09
        -0.18974E+09
        -0.51991E+09
        -0.36210E+09
        -0.67060E+09
        -0.14400E+09
        -0.33459E+09
        -0.40007E+09
        -0.39693E+09
        -0.13219E+09
        -0.31065E+09
        -0.27850E+09
        -0.38448E+09
        -0.27187E+09
        -0.72715E+09
        -0.45433E+09
        -0.25269E+09
        -0.59698E+09
        -0.56939E+09
        -0.47150E+09
        -0.42444E+09
        -0.36447E+09
        -0.70966E+09
        -0.60623E+09
        -0.29255E+09
         0.27663E+09
        -0.14318E+09
         0.30714E+09
         0.88523E+08
         0.81624E+07
        -0.32173E+09
        -0.81620E+08
         0.28770E+09
         0.12236E+10
         0.69115E+09
        -0.97687E+07
         0.37504E+09
        -0.22373E+08
        -0.95320E+08
         0.33262E+09
         0.52740E+09
         0.11270E+10
         0.20271E+08
        -0.14410E+09
        -0.59726E+09
        -0.28649E+08
         0.22487E+09
        -0.57539E+09
        -0.88785E+08
         0.28787E+09
         0.56628E+09
        -0.36745E+09
         0.68242E+08
         0.36302E+09
        -0.16743E+09
         0.47452E+09
         0.26212E+09
         0.43388E+09
         0.10061E+09
        -0.31744E+09
        -0.35433E+09
         0.14051E+09
         0.49462E+09
         0.18650E+09
         0.61971E+08
         0.12621E+09
        -0.17146E+09
        -0.12423E+09
        -0.48777E+09
        -0.17172E+09
         0.52563E+08
         0.87465E+08
        -0.21013E+09
         0.14152E+09
         0.24260E+09
        -0.70340E+08
         0.62586E+08
        -0.30136E+09
        -0.49973E+08
         0.11232E+09
        -0.14336E+08
        -0.12252E+09
         0.53197E+08
        -0.46241E+09
        -0.17447E+09
        -0.21813E+09
         0.91352E+07
        -0.39078E+09
         0.19209E+09
        -0.24918E+09
        -0.76084E+08
        -0.15532E+09
         0.24643E+09
        -0.11872E+09
         0.14477E+09
        -0.47501E+09
        -0.13500E+09
         0.80358E+08
         0.17938E+08
        -0.14697E+09
        -0.46301E+09
         0.21943E+09
        -0.45500E+08
        -0.25577E+09
         0.74883E+08
        -0.33830E+09
         0.37045E+07
         0.10478E+09
         0.65643E+08
         0.20501E+09
        -0.22529E+09
        -0.10304E+10
        -0.47190E+09
         0.21590E+09
        -0.18653E+09
        -0.75816E+08
         0.43807E+09
        -0.47081E+09
        -0.72224E+09
        -0.76676E+09
        -0.12518E+09
         0.65439E+08
         0.28934E+09
         0.21279E+09
        -0.18587E+09
         0.14440E+09
         0.24722E+09
        -0.78873E+09
         0.13693E+09
         0.62025E+09
         0.37348E+09
         0.23225E+09
         0.64549E+09
        -0.58571E+08
        -0.48923E+09
         0.21669E+09
        -0.34680E+09
         0.68555E+09
         0.30906E+07
         0.26036E+09
        -0.46723E+09
        -0.31554E+09
        -0.27398E+09
        -0.54420E+09
        -0.36853E+09
        -0.40177E+08
         0.16892E+09
         0.78959E+07
         0.27547E+09
        -0.49072E+08
         0.50265E+08
        -0.21144E+09
        -0.29363E+08
         0.35869E+09
         0.33059E+09
        -0.40358E+09
        -0.94418E+08
        -0.97406E+08
        -0.34652E+09
        -0.19807E+09
        -0.22345E+09
        -0.47235E+07
        -0.18592E+09
        -0.17850E+09
        -0.25209E+09
         0.20850E+09
        -0.67199E+08
        -0.14492E+09
        -0.15952E+09
        -0.13533E+09
        -0.33414E+09
        -0.27622E+09
        -0.20377E+09
        -0.58706E+09
        -0.40667E+09
        -0.35294E+09
        -0.35734E+09
        -0.16430E+09
        -0.51882E+09
        -0.26224E+09
        -0.28507E+09
         0.29891E+09
         0.13823E+09
        -0.13232E+09
        -0.10030E+09
        -0.95553E+08
        -0.17708E+09
        -0.29425E+09
         0.11599E+09
         0.11229E+10
         0.44758E+09
        -0.54089E+09
        -0.20988E+09
        -0.26241E+09
        -0.27805E+09
         0.18294E+09
         0.62696E+09
         0.10560E+10
         0.24657E+09
        -0.11268E+09
        -0.51594E+09
        -0.40217E+09
        -0.11939E+09
        -0.90295E+09
        -0.34968E+09
         0.20297E+09
         0.17592E+09
        -0.38760E+09
        -0.28123E+09
         0.12248E+09
        -0.27093E+09
        -0.16600E+08
        -0.93158E+08
         0.19399E+08
        -0.28578E+09
        -0.12664E+09
        -0.81667E+09
        -0.22799E+09
         0.27059E+09
        -0.19060E+09
        -0.79054E+08
         0.12028E+09
        -0.20206E+09
        -0.42224E+09
        -0.33319E+09
        -0.20051E+09
         0.12540E+09
        -0.30131E+09
        -0.16716E+09
        -0.11400E+09
        -0.21966E+09
        -0.11495E+09
        -0.81586E+08
        -0.32920E+09
        -0.65822E+08
         0.42059E+09
        -0.13962E+09
         0.19320E+09
         0.17990E+09
         0.46529E+08
        -0.40805E+08
         0.20987E+09
         0.35834E+08
        -0.16009E+09
        -0.61543E+08
         0.25352E+08
         0.44402E+08
        -0.11996E+08
         0.40051E+09
         0.25668E+08
         0.11976E+09
        -0.35132E+08
         0.23108E+08
         0.67559E+08
         0.10465E+09
         0.17810E+08
        -0.92790E+08
         0.76343E+08
        -0.79685E+08
        -0.55779E+09
         0.33733E+08
        -0.40197E+07
        -0.81198E+08
         0.28908E+09
         0.14492E+09
        -0.76741E+08
        -0.42517E+09
        -0.90049E+09
        -0.34925E+09
        -0.57973E+06
         0.31786E+09
         0.18002E+09
        -0.27123E+09
        -0.42130E+08
        -0.87381E+09
        -0.65754E+09
        -0.28736E+09
        -0.28483E+09
        -0.14956E+09
         0.73744E+09
         0.37320E+09
         0.66560E+09
         0.19451E+09
        -0.56605E+09
        -0.11820E+09
        -0.18533E+08
        -0.35989E+08
        -0.17199E+09
         0.10843E+09
        -0.15450E+09
        -0.26534E+09
        -0.85987E+07
        -0.29211E+09
         0.75117E+09
         0.22561E+09
         0.34548E+09
        -0.30158E+09
        -0.54475E+07
        -0.93953E+08
        -0.12836E+08
         0.77937E+08
         0.34253E+09
         0.56703E+09
         0.83321E+08
         0.45594E+09
         0.25556E+09
         0.10656E+09
        -0.70945E+08
         0.46421E+09
         0.68806E+09
         0.29850E+09
        -0.25330E+09
        -0.19517E+09
        -0.28030E+09
        -0.93710E+08
        -0.32672E+09
        -0.54494E+09
        -0.15740E+09
        -0.20951E+09
        -0.14943E+09
        -0.18376E+09
         0.22682E+09
        -0.16701E+08
        -0.23623E+09
        -0.14841E+09
        -0.33295E+09
        -0.29365E+09
        -0.35608E+09
        -0.21543E+09
        -0.54088E+09
        -0.58988E+09
        -0.28497E+09
        -0.26565E+09
        -0.36659E+09
        -0.66505E+09
        -0.12045E+09
        -0.79788E+08
         0.43023E+09
         0.10834E+09
        -0.37048E+09
         0.61209E+08
        -0.18972E+09
        -0.35533E+09
         0.28564E+08
         0.72410E+09
         0.37515E+09
         0.24260E+09
        -0.33241E+09
        -0.51764E+09
        -0.45481E+09
        -0.33542E+08
        -0.16055E+09
         0.82220E+09
         0.49413E+09
         0.24356E+09
         0.15179E+09
        -0.71566E+08
        -0.91767E+09
        -0.60085E+09
        -0.87729E+09
        -0.24283E+09
         0.88818E+08
         0.17239E+08
        -0.21654E+09
        -0.93295E+08
         0.16467E+09
         0.19038E+09
        -0.97030E+07
        -0.10404E+09
        -0.78048E+08
        -0.21776E+09
        -0.16447E+09
        -0.79758E+09
        -0.52112E+09
         0.16281E+08
        -0.69772E+08
        -0.16746E+09
        -0.32588E+09
        -0.31556E+09
        -0.43783E+09
        -0.51943E+09
        -0.62192E+09
        -0.20087E+09
        -0.24800E+09
        -0.10480E+08
        -0.27052E+09
        -0.44807E+09
        -0.22118E+09
        -0.25638E+09
         0.89363E+08
        -0.15711E+08
         0.40715E+09
         0.27477E+09
         0.38280E+09
         0.68849E+09
         0.25950E+09
         0.28322E+09
         0.23816E+09
         0.24028E+09
         0.10992E+09
         0.43721E+08
         0.19880E+09
         0.21935E+09
         0.35823E+09
         0.22008E+09
         0.21908E+09
         0.54487E+09
         0.70702E+09
         0.38926E+09
         0.38169E+09
         0.34023E+09
         0.66328E+09
         0.14415E+09
         0.15396E+09
        -0.13131E+08
        -0.83709E+09
        -0.40994E+08
         0.65489E+08
        -0.26112E+09
         0.16996E+09
         0.23839E+09
        -0.43076E+09
        -0.82806E+09
        -0.35672E+09
        -0.25286E+09
        -0.14258E+09
         0.43436E+09
         0.41593E+09
        -0.27987E+09
         0.48688E+09
        -0.10345E+10
        -0.41159E+09
        -0.41204E+09
        -0.40916E+09
        -0.24533E+09
         0.99431E+09
         0.70353E+09
         0.66955E+09
        -0.37790E+08
        -0.50144E+09
        -0.25434E+09
        -0.18184E+09
        -0.33561E+09
        -0.28532E+09
        -0.38828E+09
        -0.30765E+09
         0.62043E+06
        -0.27993E+08
        -0.78831E+08
         0.24824E+09
         0.40427E+09
         0.76601E+09
         0.81746E+07
        -0.72494E+08
         0.27678E+09
         0.42981E+09
         0.24698E+09
         0.23324E+09
         0.71204E+09
         0.53635E+09
         0.36316E+09
         0.14016E+09
         0.96377E+08
         0.27509E+09
         0.41893E+09
         0.34220E+09
         0.18941E+09
        -0.28097E+09
        -0.87034E+07
        -0.50452E+09
        -0.50785E+09
        -0.51292E+09
        -0.76827E+09
        -0.57662E+09
        -0.39052E+09
        -0.16963E+09
        -0.34268E+09
        -0.36471E+09
         0.95908E+07
        -0.26733E+09
        -0.49208E+09
        -0.56344E+09
        -0.25411E+09
        -0.49797E+09
        -0.81538E+09
        -0.73451E+09
        -0.62707E+09
        -0.25098E+09
        -0.45537E+09
        -0.65572E+09
        -0.28156E+09
        -0.12248E+09
         0.85331E+07
         0.66798E+09
        -0.46021E+08
        -0.28083E+09
        -0.31655E+08
         0.15638E+08
        -0.24281E+09
         0.21669E+09
         0.86497E+09
         0.22037E+09
         0.19791E+09
        -0.34992E+08
        -0.26211E+09
        -0.34160E+09
        -0.94450E+08
        -0.42919E+09
         0.10671E+10
         0.17031E+09
         0.21764E+09
         0.48581E+08
        -0.23102E+09
        -0.95813E+09
        -0.71716E+09
        -0.69894E+09
        -0.52092E+08
         0.40297E+09
         0.15819E+09
        -0.21501E+09
         0.25612E+09
         0.16213E+09
         0.39360E+09
         0.21639E+09
        -0.46038E+08
        -0.13130E+09
        -0.16504E+09
        -0.33018E+08
        -0.68044E+09
        -0.74798E+09
        -0.14378E+09
         0.18117E+09
        -0.34973E+09
        -0.67419E+09
        -0.37367E+09
        -0.26363E+09
        -0.65521E+09
        -0.75283E+09
        -0.27596E+09
        -0.11477E+09
         0.40157E+08
        -0.22550E+09
        -0.29435E+09
        -0.61088E+08
        -0.11096E+09
         0.83555E+08
        -0.20702E+09
         0.53073E+09
         0.58122E+09
         0.48621E+09
         0.68898E+09
         0.58302E+09
         0.40027E+09
         0.19581E+09
         0.26101E+09
         0.65035E+09
        -0.28336E+07
         0.11552E+09
         0.36898E+09
         0.53340E+09
         0.37583E+09
         0.49296E+09
         0.80048E+09
         0.87260E+09
         0.51917E+09
         0.19443E+09
         0.46995E+09
         0.60364E+09
         0.16662E+09
         0.14177E+09
        -0.95965E+08
        -0.74520E+09
         0.99623E+08
         0.17681E+09
         0.88727E+08
        -0.38987E+08
         0.19431E+09
        -0.28146E+09
        -0.81900E+09
        -0.55446E+09
        -0.29859E+09
         0.20436E+08
         0.33507E+09
         0.43154E+09
         0.10036E+09
         0.47452E+09
        -0.11143E+10
        -0.39459E+09
        -0.37847E+09
        -0.12135E+09
         0.20469E+09
         0.81052E+09
         0.49932E+09
         0.70387E+09
         0.16338E+09
        -0.50910E+09
        -0.13943E+09
         0.21606E+09
        -0.32062E+09
        -0.24035E+09
        -0.11962E+09
        -0.19383E+09
         0.11988E+09
         0.12175E+09
         0.86459E+08
        -0.10644E+08
         0.31248E+09
         0.72538E+09
         0.24628E+09
         0.11319E+08
         0.23189E+09
         0.53708E+09
         0.42245E+09
         0.28919E+09
         0.67660E+09
         0.59614E+09
         0.30945E+09
         0.20113E+09
         0.12858E+09
         0.19413E+09
         0.16824E+09
         0.77148E+08
         0.87561E+08
         0.75822E+08
         0.37194E+09
        -0.39410E+09
        -0.53109E+09
        -0.39429E+09
        -0.55806E+09
        -0.51824E+09
        -0.45426E+09
        -0.19322E+09
        -0.30240E+09
        -0.54016E+09
        -0.11396E+09
        -0.42915E+08
        -0.23787E+09
        -0.59117E+09
        -0.54455E+09
        -0.58953E+09
        -0.88234E+09
        -0.75304E+09
        -0.49838E+09
        -0.12447E+09
        -0.39068E+09
        -0.45133E+09
        -0.14676E+09
        -0.65036E+08
         0.11052E+09
         0.54588E+09
        -0.24848E+09
        -0.20593E+09
        -0.37227E+09
         0.76534E+08
        -0.24822E+09
        -0.22898E+07
         0.72958E+09
         0.81010E+09
         0.42291E+09
        -0.96278E+08
        -0.19299E+09
        -0.30979E+09
        -0.71323E+08
        -0.25408E+09
         0.10344E+10
         0.44532E+09
         0.34088E+09
        -0.73430E+08
        -0.40645E+09
        -0.67555E+09
        -0.45861E+09
        -0.75069E+09
        -0.37301E+09
         0.38467E+09
        -0.69126E+08
        -0.27451E+09
         0.21425E+09
         0.25856E+09
        -0.51276E+08
         0.14857E+09
        -0.11486E+09
        -0.12669E+09
        -0.10722E+09
         0.70655E+08
        -0.26918E+09
        -0.55117E+09
        -0.19365E+09
         0.62712E+08
        -0.30813E+06
        -0.28506E+09
        -0.31818E+09
        -0.44969E+09
        -0.57084E+09
        -0.48765E+09
        -0.18273E+09
        -0.18165E+09
        -0.76198E+08
        -0.44398E+08
         0.32562E+08
         0.10636E+09
        -0.19285E+08
        -0.31202E+09
        -0.47851E+09
         0.28077E+09
         0.46497E+09
         0.38744E+09
         0.52389E+09
         0.44517E+09
         0.51427E+09
         0.23671E+09
         0.30093E+09
         0.12364E+09
         0.20893E+09
        -0.19622E+08
         0.20003E+09
         0.35834E+09
         0.58018E+09
         0.64335E+09
         0.58617E+09
         0.82283E+09
         0.50934E+09
         0.24958E+09
         0.38731E+09
         0.28268E+09
        -0.42988E+08
         0.17703E+08
        -0.51457E+06
        -0.44000E+09
         0.24987E+09
         0.11932E+09
         0.31514E+09
        -0.27437E+08
         0.33098E+09
         0.19552E+09
        -0.65383E+09
        -0.10021E+10
        -0.55197E+09
         0.29086E+09
         0.35579E+09
         0.47109E+09
         0.11710E+09
         0.34369E+09
        -0.89656E+09
        -0.77216E+09
        -0.45967E+09
        -0.13799E+09
         0.19912E+09
         0.60969E+09
         0.51900E+09
         0.66656E+09
         0.45663E+09
        -0.28902E+09
         0.28522E+09
         0.26632E+09
         0.52997E+08
        -0.41612E+08
         0.23481E+09
         0.18590E+09
         0.20373E+09
         0.13033E+09
        -0.34058E+08
        -0.12228E+09
         0.44080E+07
         0.42644E+09
         0.30116E+09
         0.10912E+09
        -0.44422E+08
        -0.17167E+08
         0.14592E+09
         0.51229E+09
         0.53694E+09
         0.34600E+09
         0.46960E+08
         0.10443E+09
         0.22773E+09
         0.70812E+08
        -0.12096E+09
        -0.82781E+08
         0.49749E+08
         0.53513E+09
         0.36654E+09
        -0.25607E+08
        -0.34618E+09
        -0.40664E+09
        -0.52542E+09
        -0.41566E+09
        -0.49425E+09
        -0.32658E+09
        -0.17724E+09
         0.13284E+09
        -0.13321E+09
        -0.78894E+08
        -0.26860E+09
        -0.27003E+09
        -0.57889E+09
        -0.60847E+09
        -0.48201E+09
        -0.56949E+09
        -0.34725E+09
        -0.17053E+09
        -0.34122E+09
         0.11756E+08
         0.14339E+09
        -0.13168E+09
        -0.16167E+09
         0.47501E+09
        -0.24738E+09
        -0.12077E+09
        -0.38077E+09
         0.12878E+06
        -0.36453E+09
        -0.39349E+09
         0.58326E+09
         0.11402E+10
         0.67587E+09
        -0.37809E+09
        -0.38065E+09
        -0.41900E+09
         0.13468E+08
        -0.17259E+09
         0.73071E+09
         0.87678E+09
         0.38207E+09
         0.22919E+09
        -0.19514E+09
        -0.51469E+09
        -0.58779E+09
        -0.62224E+09
        -0.42735E+09
         0.14029E+09
        -0.38086E+09
        -0.20479E+09
        -0.19872E+09
         0.49755E+08
        -0.34993E+09
        -0.25079E+09
        -0.18460E+09
        -0.13918E+09
         0.45984E+08
         0.17628E+09
         0.14007E+09
        -0.22203E+09
        -0.22426E+09
        -0.53787E+08
         0.18785E+09
         0.19951E+09
        -0.18722E+08
        -0.54219E+09
        -0.43507E+09
        -0.12658E+09
         0.15681E+09
         0.70896E+08
        -0.69263E+08
         0.93215E+08
         0.31880E+09
         0.19049E+09
        -0.11487E+08
        -0.39410E+09
        -0.23637E+09
        -0.97468E+08
         0.32549E+09
         0.49460E+09
         0.47443E+09
         0.37949E+09
         0.34176E+09
         0.44064E+09
         0.82103E+08
        -0.22460E+09
         0.48018E+08
         0.19464E+09
         0.36257E+09
         0.23555E+09
         0.49966E+09
         0.54949E+09
         0.20849E+09
         0.43797E+09
         0.19645E+09
         0.17749E+09
         0.34402E+09
        -0.10359E+09
        -0.34150E+09
         0.24865E+09
         0.32128E+09
        -0.62851E+09
         0.21059E+09
         0.12384E+09
         0.21220E+09
         0.82411E+08
         0.30156E+09
         0.53800E+09
        -0.56713E+09
        -0.11133E+10
        -0.67540E+09
         0.58471E+09
         0.39851E+09
         0.54552E+09
         0.17137E+09
         0.31639E+09
        -0.67439E+09
        -0.86343E+09
        -0.32521E+09
        -0.33154E+09
        -0.21726E+08
         0.58213E+09
         0.63729E+09
         0.53918E+09
         0.45087E+09
        -0.13199E+09
         0.45446E+09
         0.16446E+09
         0.24288E+09
         0.10969E+09
         0.22299E+09
         0.39068E+09
         0.24327E+09
         0.20499E+09
        -0.11582E+09
        -0.51024E+08
        -0.56335E+08
         0.23149E+09
         0.29962E+09
         0.12015E+09
        -0.32181E+08
        -0.19842E+09
        -0.44199E+08
         0.48089E+09
         0.40456E+09
         0.13748E+09
        -0.89291E+08
        -0.36477E+08
         0.10274E+08
        -0.89767E+08
        -0.22154E+09
        -0.11549E+09
         0.20528E+08
         0.20495E+09
         0.30925E+08
         0.11130E+08
        -0.33523E+09
        -0.46592E+09
        -0.63050E+09
        -0.39514E+09
        -0.27764E+09
        -0.50144E+09
        -0.10979E+09
         0.74896E+08
         0.57640E+08
        -0.26593E+09
        -0.44989E+09
        -0.28621E+09
        -0.47169E+09
        -0.45425E+09
        -0.33057E+09
        -0.35349E+09
        -0.13650E+09
        -0.11643E+09
        -0.28752E+09
         0.15229E+09
         0.24454E+09
        -0.15581E+09
        -0.42120E+09
         0.56347E+09
        -0.23943E+09
        -0.33177E+09
        -0.84917E+08
        -0.10994E+09
        -0.15028E+09
        -0.53991E+09
         0.59269E+09
         0.10376E+10
         0.78622E+09
        -0.60484E+09
        -0.63530E+09
        -0.34965E+09
        -0.21991E+08
        -0.43204E+09
         0.46514E+09
         0.83627E+09
         0.11753E+09
         0.25152E+09
        -0.72458E+08
        -0.58320E+09
        -0.65425E+09
        -0.41878E+09
        -0.47154E+09
         0.20704E+08
        -0.51166E+09
        -0.16757E+08
        -0.26572E+09
        -0.14726E+09
        -0.25459E+09
        -0.41504E+09
        -0.29153E+09
        -0.21039E+09
         0.59761E+08
         0.42489E+07
        -0.11312E+09
        -0.44950E+08
        -0.16953E+09
         0.34060E+08
         0.90729E+08
         0.13880E+09
         0.82690E+08
        -0.39171E+09
        -0.20891E+09
        -0.16425E+09
         0.32176E+08
         0.16991E+09
         0.29348E+09
         0.21591E+09
         0.17283E+09
         0.87230E+08
        -0.22537E+08
         0.65016E+08
         0.25880E+09
         0.24799E+09
         0.32926E+09
         0.20384E+09
         0.66279E+09
         0.28399E+09
         0.11845E+09
         0.33704E+09
         0.55167E+08
         0.76744E+08
        -0.73577E+08
         0.32473E+09
         0.43293E+09
         0.37356E+09
         0.48762E+09
         0.20537E+09
         0.27648E+09
         0.28851E+09
        -0.16715E+09
         0.11183E+09
         0.19007E+09
         0.10401E+09
         0.10995E+09
         0.13058E+08
         0.33997E+09
        -0.76193E+09
         0.30197E+09
         0.41047E+09
        -0.64237E+08
         0.97942E+08
         0.14488E+09
         0.53443E+09
        -0.36768E+09
        -0.11155E+10
        -0.81821E+09
         0.87463E+09
         0.56161E+09
         0.32531E+09
         0.39827E+09
         0.40757E+09
        -0.34851E+09
        -0.78234E+09
        -0.19567E+09
        -0.30429E+09
        -0.12428E+09
         0.65461E+09
         0.53197E+09
         0.38462E+09
         0.43647E+09
        -0.22391E+09
         0.43392E+09
         0.54102E+08
         0.18829E+09
         0.25211E+09
         0.29543E+09
         0.33483E+09
         0.33854E+09
         0.10404E+09
        -0.13903E+09
         0.29018E+08
         0.86107E+08
         0.17424E+09
         0.21745E+09
         0.14137E+09
         0.25918E+08
        -0.14991E+09
         0.69975E+08
         0.39238E+09
         0.12231E+09
         0.72898E+08
         0.56887E+08
         0.33209E+08
        -0.24521E+09
        -0.17045E+09
         0.25771E+07
         0.81180E+08
         0.97836E+08
        -0.63563E+08
        -0.32776E+09
        -0.23470E+09
        -0.32774E+09
        -0.17568E+09
        -0.69646E+09
        -0.32110E+09
        -0.89143E+08
        -0.29215E+09
        -0.17961E+09
        -0.12796E+09
        -0.60781E+08
        -0.33602E+09
        -0.29998E+09
        -0.44890E+09
        -0.47907E+09
        -0.78920E+08
        -0.33489E+09
        -0.30790E+09
         0.22660E+09
        -0.51714E+08
         0.45270E+08
        -0.12212E+09
        -0.35555E+09
         0.31210E+08
        -0.32755E+09
         0.41927E+09
        -0.34838E+09
        -0.50658E+09
        -0.64845E+08
        -0.15311E+08
        -0.39498E+08
        -0.40603E+09
         0.22076E+09
         0.10057E+10
         0.72569E+09
        -0.67030E+09
        -0.60386E+09
        -0.38319E+09
        -0.44285E+09
        -0.39089E+09
         0.65400E+08
         0.56073E+09
        -0.13575E+09
        -0.18969E+08
        -0.22595E+09
        -0.42965E+09
        -0.27663E+09
        -0.38235E+09
        -0.34435E+09
         0.32438E+09
        -0.37980E+09
        -0.32369E+09
        -0.11249E+09
        -0.29203E+09
        -0.29567E+09
        -0.38333E+09
        -0.37539E+09
         0.70753E+08
         0.62750E+08
         0.12929E+09
         0.83683E+08
         0.88408E+07
        -0.15033E+09
        -0.73687E+07
        -0.73738E+08
        -0.28567E+09
        -0.25123E+09
        -0.29526E+09
        -0.69957E+08
         0.55803E+08
         0.15885E+09
         0.72746E+08
         0.23029E+09
         0.34853E+09
         0.14924E+09
        -0.19505E+09
        -0.22759E+09
        -0.92392E+08
         0.25933E+09
         0.47270E+08
         0.19141E+09
         0.21951E+09
         0.52793E+09
         0.18064E+09
        -0.37530E+06
         0.32755E+08
         0.24467E+09
         0.25227E+09
         0.28993E+09
         0.21452E+09
         0.28305E+09
         0.32007E+09
         0.39885E+09
         0.13003E+09
         0.83209E+08
         0.82722E+08
        -0.38419E+09
         0.29899E+08
        -0.95213E+08
        -0.76931E+07
         0.52144E+09
         0.11856E+09
         0.34681E+09
        -0.20034E+09
        -0.23951E+09
         0.37417E+09
         0.11474E+09
        -0.12193E+09
        -0.83522E+07
         0.60613E+09
        -0.38760E+08
        -0.12230E+10
        -0.10782E+10
         0.74851E+09
         0.27100E+09
         0.52096E+09
         0.67794E+09
         0.16055E+09
        -0.20024E+09
        -0.23443E+09
        -0.81618E+08
         0.59674E+08
         0.94967E+08
         0.94203E+08
         0.29023E+09
         0.10753E+09
         0.75813E+09
        -0.35554E+09
         0.56152E+09
         0.42904E+09
         0.20125E+09
         0.11864E+09
         0.43439E+08
         0.35341E+09
         0.62441E+08
         0.11909E+09
        -0.38085E+09
        -0.15952E+09
         0.48175E+08
        -0.23849E+08
         0.41647E+09
         0.72620E+08
         0.10134E+09
         0.61406E+09
         0.35479E+09
         0.43770E+09
        -0.82058E+08
         0.11887E+09
         0.24315E+08
         0.52448E+08
        -0.10348E+09
        -0.14656E+09
        -0.42722E+07
         0.37210E+09
         0.29730E+09
        -0.76471E+06
         0.13731E+09
         0.18955E+09
        -0.71447E+08
        -0.26132E+09
        -0.27488E+09
        -0.60353E+08
        -0.99096E+08
        -0.69604E+08
        -0.21669E+09
        -0.30953E+09
        -0.31261E+09
        -0.18003E+09
        -0.23089E+09
        -0.15316E+09
        -0.21325E+09
        -0.15529E+09
        -0.86875E+08
        -0.23086E+09
         0.21772E+09
         0.12674E+09
        -0.10481E+09
         0.23213E+09
        -0.63642E+09
        -0.14724E+08
        -0.41767E+09
         0.57479E+09
        -0.25785E+09
        -0.68671E+09
         0.24299E+09
         0.56290E+09
        -0.30697E+09
        -0.90854E+09
         0.92233E+09
         0.25636E+08
         0.13450E+10
        -0.11159E+10
         0.63466E+08
        -0.14614E+09
        -0.12824E+10
         0.22569E+09
         0.60438E+09
         0.50611E+09
         0.11453E+09
        -0.23973E+09
        -0.26225E+09
         0.91709E+08
         0.76492E+08
        -0.16153E+09
        -0.94131E+09
         0.65685E+09
        -0.84617E+09
        -0.11815E+10
        -0.10729E+09
        -0.15446E+09
        -0.56557E+09
        -0.39030E+09
        -0.49279E+09
        -0.20997E+09
        -0.21976E+09
         0.94978E+09
         0.60467E+09
         0.27260E+09
        -0.94950E+07
         0.52697E+08
        -0.48716E+08
        -0.52676E+09
        -0.23672E+09
        -0.19088E+09
         0.54208E+09
        -0.42790E+08
         0.81922E+08
         0.44701E+09
         0.55053E+09
        -0.16513E+09
         0.51917E+09
         0.97992E+09
        -0.23376E+09
        -0.92141E+09
         0.70631E+08
        -0.43511E+09
        -0.68107E+08
        -0.17492E+09
         0.29635E+09
        -0.21226E+09
         0.21943E+08
        -0.15065E+09
         0.28436E+09
         0.21278E+09
         0.34802E+09
         0.17340E+09
         0.92107E+08
         0.13582E+09
         0.16649E+09
        -0.12110E+09
        -0.42248E+08
        -0.18361E+09
        -0.59985E+09
        -0.47131E+09
         0.77621E+04
        -0.35827E+09
        -0.51672E+09
         0.11720E+09
         0.23517E+09
        -0.23839E+09
         0.34246E+09
        -0.35692E+09
         0.36565E+09
         0.93463E+09
        -0.21273E+09
        -0.17256E+10
         0.10972E+10
        -0.11134E+10
        -0.24218E+09
         0.29380E+09
         0.32163E+09
         0.96413E+09
         0.10179E+10
         0.22348E+08
         0.51626E+09
        -0.43741E+09
         0.33093E+09
        -0.42071E+08
         0.40845E+09
         0.43330E+09
         0.25036E+09
         0.55994E+09
         0.22653E+09
         0.50987E+09
        -0.12919E+10
        -0.15895E+09
         0.28061E+09
         0.85129E+09
        -0.18137E+09
         0.28416E+09
         0.60716E+09
        -0.52054E+09
         0.13216E+09
        -0.18323E+09
        -0.80530E+09
         0.10643E+10
         0.33583E+09
         0.65093E+09
        -0.16156E+08
         0.55205E+09
         0.30262E+09
         0.70299E+09
         0.11346E+10
         0.36013E+09
         0.44441E+09
        -0.12891E+08
         0.43427E+09
         0.57737E+09
         0.55427E+08
         0.86134E+09
         0.83456E+07
         0.69160E+09
        -0.30479E+09
         0.47671E+09
        -0.16744E+09
        -0.12935E+09
        -0.14681E+08
         0.43653E+09
         0.18199E+09
         0.15065E+09
         0.93078E+08
         0.11358E+09
         0.42201E+08
        -0.92990E+07
         0.13497E+09
         0.24849E+07
        -0.67871E+08
        -0.14094E+09
         0.12879E+09
         0.93485E+08
         0.57100E+09
         0.17204E+09
         0.15602E+09
         0.29205E+09
        -0.23008E+09
         0.42430E+09
         0.19114E+09
  
SCALARS                      stress_yy  double 1
LOOKUP_TABLE default
         0.54226E+09
         0.39184E+09
         0.22459E+09
         0.60348E+09
         0.25718E+03
         0.20315E+03
         0.24072E+03
         0.36921E+03
         0.43281E+09
         0.26557E+09
         0.11244E+03
         0.19989E+03
         0.18229E+09
         0.92686E+09
         0.10179E+03
         0.12394E+03
         0.63516E+09
         0.23297E+09
         0.26537E+03
         0.14350E+03
         0.19049E+09
         0.29726E+09
         0.26729E+09
         0.39864E+02
         0.44275E+02
         0.13287E+03
         0.25253E+09
         0.26016E+09
         0.39354E+02
         0.66234E+02
         0.60703E+09
         0.76980E+09
         0.45800E+09
         0.27631E+03
         0.22104E+03
         0.36520E+03
         0.95966E+08
         0.50333E+09
         0.12933E+03
         0.15848E+03
         0.31937E+09
         0.38290E+09
         0.86187E+02
         0.10464E+03
         0.97271E+08
         0.18501E+09
         0.81384E+02
         0.12194E+03
         0.78373E+09
         0.14007E+03
         0.70726E+09
         0.14654E+03
         0.52227E+09
         0.95488E+02
         0.45534E+09
         0.93127E+02
         0.51725E+09
        -0.92862E+08
         0.62477E+02
         0.14317E+03
         0.46893E+09
         0.10891E+09
         0.21039E+03
         0.98689E+02
         0.46367E+09
         0.26182E+03
         0.33267E+09
         0.24778E+03
         0.18951E+09
         0.31336E+09
         0.78158E+02
         0.83714E+02
         0.24501E+09
         0.11166E+03
         0.25115E+09
         0.59733E+02
         0.14638E+09
         0.27853E+02
         0.18394E+09
        -0.24208E+01
        -0.19289E+09
         0.33482E+09
        -0.90421E+01
         0.34309E+02
         0.30794E+09
         0.87363E+02
         0.16969E+09
         0.60544E+02
         0.67286E+08
         0.29206E+02
         0.52367E+09
         0.10517E+09
        -0.39293E+02
         0.11405E+02
         0.10320E+09
         0.71609E+02
         0.16377E+09
         0.73754E+02
         0.20480E+09
         0.39360E+02
         0.20618E+09
         0.21810E+09
         0.24703E+02
         0.16563E+03
        -0.36359E+09
        -0.91628E+08
         0.45392E+02
         0.53292E+02
         0.12429E+08
         0.13441E+02
         0.57444E+08
        -0.73375E+01
        -0.16210E+09
        -0.23216E+02
        -0.61691E+08
        -0.87040E+02
        -0.43627E+08
        -0.40620E+02
        -0.31976E+08
        -0.49570E+02
        -0.72883E+08
        -0.36882E+02
        -0.37868E+08
        -0.38914E+02
        -0.22460E+09
        -0.12395E+02
         0.66807E+08
        -0.43761E+01
         0.10567E+09
         0.97045E+01
         0.70464E+08
         0.12079E+02
         0.22513E+09
         0.59991E+01
         0.29701E+09
        -0.43363E+00
         0.15622E+08
        -0.70821E+01
        -0.19942E+09
        -0.47463E+02
        -0.24006E+09
        -0.43806E+02
        -0.41833E+08
        -0.86489E+01
        -0.18763E+08
        -0.26600E+02
         0.49510E+08
        -0.28320E+02
        -0.10090E+09
        -0.22732E+02
        -0.42299E+09
         0.62219E+01
         0.10698E+09
         0.64089E+01
        -0.47066E+09
         0.58254E+02
        -0.31054E+09
         0.25362E+09
        -0.98907E+09
         0.33325E+09
         0.80434E+09
        -0.43679E+09
        -0.34187E+09
         0.83782E+09
        -0.42838E+09
        -0.96936E+08
        -0.61005E+09
         0.54212E+09
        -0.13225E+08
        -0.41578E+09
         0.70273E+09
         0.34179E+09
         0.28987E+09
         0.63284E+09
        -0.22040E+09
         0.13209E+09
         0.28194E+09
         0.18392E+08
        -0.44960E+08
         0.64174E+09
        -0.22898E+09
        -0.23434E+09
         0.20096E+09
         0.61371E+09
        -0.31939E+09
         0.22808E+09
         0.42025E+08
         0.26928E+08
        -0.67325E+09
         0.25307E+09
        -0.15278E+08
         0.41057E+09
         0.39021E+09
        -0.26019E+08
         0.39283E+09
        -0.25249E+09
         0.35448E+09
        -0.21275E+09
         0.12383E+09
        -0.24189E+09
         0.56470E+09
         0.11488E+10
        -0.44314E+09
         0.33139E+09
         0.70489E+09
        -0.98408E+09
         0.82847E+09
         0.47706E+08
        -0.10414E+10
        -0.58498E+09
        -0.56539E+09
        -0.61290E+09
        -0.38616E+09
        -0.65507E+09
        -0.34789E+09
        -0.31948E+09
        -0.23144E+09
        -0.21094E+09
        -0.29876E+09
        -0.24464E+09
        -0.27657E+09
        -0.47036E+09
        -0.42951E+09
        -0.29244E+09
        -0.37030E+09
        -0.76498E+09
        -0.12450E+10
         0.14536E+09
        -0.59451E+09
        -0.32169E+09
        -0.29278E+08
        -0.43322E+09
        -0.53025E+09
         0.23994E+08
         0.17711E+09
         0.11838E+10
         0.23916E+08
         0.57843E+09
         0.89898E+09
         0.34921E+09
         0.80062E+09
         0.18020E+09
         0.89806E+09
         0.19368E+09
         0.39618E+09
         0.20545E+09
        -0.50254E+09
         0.75251E+09
         0.56321E+08
         0.12469E+09
         0.10562E+10
         0.39205E+09
         0.83065E+08
         0.36592E+09
         0.32988E+09
         0.14280E+09
        -0.54240E+09
         0.19328E+10
        -0.87850E+07
         0.12013E+10
         0.87677E+09
         0.80738E+09
         0.43602E+09
         0.51547E+09
         0.10985E+10
        -0.25248E+09
         0.44959E+09
         0.22824E+09
        -0.75762E+08
         0.50734E+09
        -0.31463E+09
        -0.22749E+09
        -0.12684E+09
         0.23810E+09
         0.74624E+08
        -0.14268E+09
         0.41848E+09
        -0.72690E+09
         0.74674E+08
         0.68021E+09
         0.13535E+09
        -0.79172E+09
         0.51829E+09
         0.92852E+08
         0.69219E+09
         0.32005E+09
        -0.70616E+09
        -0.31574E+09
        -0.70819E+08
        -0.17569E+09
         0.99167E+08
        -0.26159E+09
        -0.34691E+09
        -0.74960E+08
        -0.19307E+09
        -0.38980E+09
        -0.21209E+09
        -0.11940E+09
        -0.16881E+08
        -0.11844E+08
        -0.80057E+08
         0.93372E+08
         0.12799E+09
        -0.16875E+09
        -0.10403E+10
         0.77455E+08
         0.99522E+08
        -0.15557E+09
        -0.24226E+09
        -0.29431E+09
        -0.89725E+08
        -0.23750E+09
        -0.23922E+09
        -0.33626E+08
        -0.20089E+09
        -0.33638E+09
         0.22683E+09
        -0.40290E+09
         0.63270E+08
        -0.50358E+09
        -0.63412E+09
        -0.61787E+09
         0.27218E+09
        -0.12251E+08
        -0.51372E+09
         0.24944E+09
        -0.45361E+09
        -0.15869E+09
        -0.41349E+09
        -0.21799E+09
        -0.18701E+09
        -0.10933E+09
        -0.25784E+09
        -0.23591E+09
        -0.36813E+09
        -0.41710E+09
        -0.41172E+09
        -0.43246E+09
         0.63443E+08
         0.80408E+08
        -0.29555E+09
         0.52752E+08
        -0.75091E+08
        -0.63097E+09
        -0.42442E+09
        -0.19425E+09
        -0.59452E+09
        -0.30087E+09
        -0.30911E+09
        -0.51328E+09
        -0.32673E+09
        -0.59681E+09
        -0.26023E+08
        -0.29709E+09
        -0.43196E+09
         0.21664E+09
         0.97406E+08
        -0.25817E+08
         0.14933E+08
        -0.45099E+08
         0.25710E+09
        -0.18709E+09
         0.30001E+09
         0.12647E+09
        -0.24475E+09
        -0.92131E+09
        -0.49248E+09
        -0.40494E+09
        -0.44534E+09
        -0.38321E+09
        -0.27230E+09
        -0.23155E+09
        -0.39584E+09
        -0.36442E+09
        -0.39362E+09
        -0.49042E+09
        -0.27889E+09
        -0.49475E+09
        -0.46917E+09
        -0.55871E+09
        -0.52708E+09
        -0.65913E+09
        -0.77865E+09
        -0.20681E+09
        -0.48014E+09
        -0.58414E+09
        -0.44052E+09
        -0.83157E+09
        -0.75187E+09
        -0.11434E+09
        -0.43967E+09
         0.77142E+09
         0.56585E+09
         0.36658E+09
         0.85803E+09
         0.20332E+09
         0.88386E+09
         0.32933E+09
         0.14617E+10
         0.36350E+09
        -0.82361E+07
        -0.96896E+08
        -0.66190E+09
        -0.19177E+08
         0.30466E+09
         0.14936E+09
         0.63694E+09
         0.15649E+09
         0.50387E+09
         0.43113E+09
         0.50161E+09
         0.23437E+09
        -0.25156E+09
         0.89151E+09
        -0.32408E+09
         0.10102E+10
         0.40098E+09
         0.73742E+09
         0.47927E+09
         0.61521E+09
         0.80112E+09
         0.41503E+09
         0.36244E+09
         0.47606E+09
        -0.32828E+09
         0.63854E+08
         0.17530E+09
         0.46104E+08
        -0.23900E+09
         0.15571E+09
        -0.10962E+09
         0.16780E+09
         0.27845E+09
        -0.68310E+09
         0.15444E+09
        -0.60315E+08
        -0.90794E+08
        -0.48758E+09
         0.23478E+09
         0.76055E+08
         0.19121E+09
         0.34435E+09
         0.51280E+08
        -0.21603E+09
        -0.10841E+08
        -0.38184E+08
         0.56857E+08
         0.16328E+07
        -0.16614E+09
         0.44888E+08
         0.22955E+08
         0.39264E+08
        -0.23228E+09
        -0.15547E+09
        -0.95110E+08
        -0.84039E+08
        -0.24560E+09
         0.16431E+09
         0.96915E+08
        -0.12571E+09
        -0.33466E+09
         0.62672E+08
         0.61224E+08
        -0.11838E+09
         0.92082E+08
        -0.25417E+09
         0.10523E+09
        -0.66066E+08
         0.26803E+09
        -0.23361E+09
        -0.32752E+09
        -0.19225E+09
        -0.59957E+08
        -0.44502E+09
        -0.25142E+09
        -0.62382E+09
        -0.94964E+09
        -0.47591E+09
         0.19830E+09
         0.22309E+08
        -0.67177E+08
         0.49034E+09
        -0.58585E+09
        -0.45634E+09
        -0.50897E+08
        -0.44110E+09
        -0.17942E+09
        -0.65959E+08
        -0.10942E+09
         0.72285E+08
         0.31699E+09
        -0.47490E+08
        -0.85418E+09
        -0.31567E+08
         0.63341E+09
         0.85899E+08
         0.10537E+09
         0.24008E+09
         0.88392E+08
        -0.62687E+09
        -0.69540E+08
        -0.34894E+09
        -0.82619E+08
        -0.12368E+09
        -0.41797E+08
        -0.35567E+09
        -0.33898E+09
        -0.28744E+09
        -0.56652E+09
        -0.45632E+09
        -0.15015E+09
         0.12703E+09
        -0.23145E+09
         0.70849E+08
         0.33784E+09
        -0.35979E+08
        -0.16754E+09
        -0.44988E+08
         0.22841E+09
         0.16288E+09
        -0.65787E+09
        -0.39906E+09
        -0.23884E+09
        -0.55440E+09
        -0.31812E+09
        -0.42622E+09
        -0.35563E+08
        -0.18498E+09
        -0.29049E+09
        -0.28777E+09
        -0.11803E+09
        -0.36217E+09
        -0.40801E+09
        -0.51751E+09
        -0.47488E+09
        -0.75217E+09
        -0.45834E+09
        -0.37910E+09
        -0.44895E+09
        -0.36764E+09
        -0.40032E+09
        -0.39174E+09
        -0.47304E+09
        -0.74812E+09
        -0.73296E+09
        -0.35427E+09
         0.29337E+09
        -0.66593E+08
         0.54409E+09
         0.19240E+09
         0.39535E+09
         0.27466E+08
        -0.14946E+09
         0.16922E+09
         0.12270E+10
         0.59703E+09
        -0.23154E+09
        -0.32115E+08
        -0.39567E+09
        -0.33591E+09
        -0.39757E+08
         0.52816E+09
         0.11771E+10
         0.22981E+08
         0.13477E+09
        -0.38234E+09
         0.31148E+09
         0.47726E+09
        -0.27665E+09
         0.24314E+08
         0.28392E+09
         0.39119E+09
        -0.57140E+09
         0.49787E+08
         0.37029E+09
        -0.46519E+08
         0.30051E+09
        -0.26747E+08
         0.30805E+09
         0.12313E+09
        -0.24417E+07
        -0.16606E+09
         0.83006E+08
         0.98000E+08
         0.20651E+08
         0.29245E+08
         0.23990E+08
         0.15680E+09
         0.20888E+09
        -0.41100E+09
         0.27104E+08
         0.11676E+09
        -0.25171E+09
        -0.47393E+09
        -0.21111E+09
        -0.36695E+08
         0.62012E+08
         0.32318E+09
        -0.24881E+08
        -0.45894E+09
        -0.78838E+08
         0.16753E+09
         0.11476E+09
         0.18516E+08
        -0.24051E+09
         0.11797E+09
        -0.15943E+09
         0.50542E+08
        -0.20659E+09
        -0.17400E+09
        -0.19375E+09
        -0.21335E+09
        -0.26682E+09
         0.26213E+09
        -0.84023E+08
        -0.72565E+08
        -0.28964E+09
         0.43552E+08
         0.11163E+09
        -0.66412E+08
        -0.13325E+09
        -0.39878E+09
        -0.14054E+09
        -0.61911E+08
        -0.21404E+09
         0.90976E+08
        -0.31988E+09
         0.57104E+08
        -0.27264E+09
        -0.20903E+09
         0.25315E+09
        -0.24463E+09
        -0.10086E+10
        -0.54654E+09
         0.33671E+09
         0.11415E+09
        -0.27454E+08
         0.46565E+09
        -0.19002E+09
        -0.75197E+09
        -0.72053E+09
        -0.11229E+09
         0.13446E+09
         0.32368E+09
         0.78685E+08
        -0.31633E+09
         0.14353E+09
         0.26620E+09
        -0.79770E+09
         0.94888E+08
         0.59413E+09
         0.40746E+09
         0.21738E+09
         0.65765E+09
        -0.64950E+08
        -0.46133E+09
         0.19860E+09
        -0.35835E+09
         0.36614E+09
        -0.18300E+09
         0.20609E+09
        -0.31450E+09
        -0.15584E+09
        -0.18817E+09
        -0.61725E+09
        -0.43648E+09
        -0.46191E+08
         0.23714E+09
         0.11279E+09
         0.41666E+09
         0.26271E+09
         0.32304E+09
        -0.70168E+08
        -0.39541E+08
         0.31319E+09
         0.14970E+09
        -0.51239E+09
        -0.20104E+09
        -0.21028E+09
        -0.43582E+09
        -0.18310E+09
        -0.14744E+09
         0.10674E+09
        -0.51578E+08
        -0.74878E+08
        -0.16575E+09
         0.14748E+09
        -0.15626E+09
        -0.25958E+09
        -0.30761E+09
        -0.27713E+09
        -0.40295E+09
        -0.28465E+09
        -0.18222E+09
        -0.49068E+09
        -0.30175E+09
        -0.27277E+09
        -0.25159E+09
        -0.99486E+08
        -0.50945E+09
        -0.37859E+09
        -0.42498E+09
         0.23924E+09
         0.97092E+08
         0.36146E+08
        -0.50571E+08
         0.25113E+09
        -0.55047E+08
        -0.31923E+09
         0.11388E+09
         0.10629E+10
         0.47397E+09
        -0.54399E+09
        -0.37420E+09
        -0.37359E+09
        -0.25396E+09
        -0.70314E+08
         0.60221E+09
         0.10517E+10
         0.26683E+09
        -0.32507E+08
        -0.53948E+09
        -0.28066E+09
         0.37575E+08
        -0.77122E+09
        -0.31390E+09
         0.19015E+09
         0.10899E+09
        -0.36906E+09
        -0.21964E+09
         0.73690E+08
        -0.32837E+09
         0.20836E+08
        -0.18272E+09
         0.58814E+08
        -0.20502E+09
         0.18873E+09
        -0.60172E+09
        -0.24952E+09
         0.28632E+08
        -0.31250E+09
        -0.11673E+09
         0.13192E+09
        -0.89713E+08
        -0.19609E+09
        -0.29652E+09
        -0.22974E+09
        -0.14935E+09
        -0.69565E+09
        -0.41297E+09
        -0.32237E+09
        -0.37500E+09
        -0.23037E+08
         0.55539E+08
        -0.57567E+08
        -0.78119E+08
         0.48189E+09
         0.10803E+09
         0.17461E+09
        -0.22564E+08
        -0.19961E+09
        -0.76968E+06
        -0.52446E+08
        -0.36473E+08
         0.11551E+08
        -0.97311E+08
         0.23806E+09
         0.74483E+08
         0.21419E+09
         0.43178E+09
        -0.33154E+08
        -0.51502E+07
        -0.14643E+09
         0.25929E+09
         0.49180E+08
         0.41782E+08
         0.27782E+09
         0.86874E+07
         0.14244E+08
         0.78743E+08
        -0.56816E+09
         0.65928E+08
        -0.43366E+08
        -0.10533E+09
        -0.38679E+08
        -0.11647E+09
         0.41966E+08
        -0.34966E+09
        -0.91617E+09
        -0.30366E+09
         0.10064E+09
         0.49861E+09
         0.30951E+09
        -0.20601E+09
         0.21014E+09
        -0.88264E+09
        -0.68481E+09
        -0.28701E+09
        -0.27437E+09
        -0.21002E+09
         0.47020E+09
         0.81565E+08
         0.52869E+09
         0.16747E+09
        -0.56869E+09
        -0.16558E+09
         0.39425E+08
         0.34360E+08
        -0.19477E+09
         0.57757E+08
        -0.76929E+08
        -0.19872E+09
         0.50733E+08
        -0.29816E+09
         0.33884E+09
         0.23661E+08
         0.32180E+09
        -0.68236E+08
         0.18719E+09
         0.87198E+08
        -0.10290E+09
        -0.15490E+09
         0.16793E+09
         0.46524E+09
         0.18271E+09
         0.73260E+09
         0.60590E+09
         0.38106E+09
         0.15275E+09
         0.51464E+09
         0.63368E+09
         0.83920E+08
        -0.49180E+09
        -0.37419E+09
        -0.41616E+09
        -0.15856E+09
        -0.18803E+09
        -0.24128E+09
         0.56117E+08
         0.12774E+08
        -0.21661E+08
        -0.10908E+09
         0.19015E+09
        -0.11513E+09
        -0.44720E+09
        -0.38497E+09
        -0.58794E+09
        -0.50325E+09
        -0.34360E+09
        -0.92715E+08
        -0.40857E+09
        -0.40264E+09
        -0.11093E+09
        -0.17270E+09
        -0.29944E+09
        -0.65248E+09
        -0.25311E+09
        -0.28179E+09
         0.39235E+09
         0.10811E+09
        -0.14757E+09
         0.16341E+09
         0.89280E+08
        -0.12111E+09
        -0.24192E+08
         0.67213E+09
         0.34205E+09
         0.20263E+09
        -0.35776E+09
        -0.63120E+09
        -0.58842E+09
        -0.60253E+08
        -0.31980E+09
         0.83289E+09
         0.47512E+09
         0.23663E+09
         0.22856E+09
        -0.73904E+08
        -0.76596E+09
        -0.39717E+09
        -0.76470E+09
        -0.16403E+09
         0.81463E+08
         0.26307E+08
        -0.24157E+09
        -0.88270E+08
         0.20110E+09
         0.21551E+09
        -0.10181E+09
        -0.23565E+09
        -0.16821E+09
        -0.12125E+09
         0.82050E+08
        -0.56911E+09
        -0.54866E+09
        -0.17231E+09
        -0.22549E+09
        -0.25054E+09
        -0.24754E+09
        -0.13546E+09
        -0.24265E+09
        -0.49282E+09
        -0.77977E+09
        -0.52667E+09
        -0.58936E+09
        -0.30449E+09
        -0.47891E+09
        -0.51709E+09
        -0.13910E+09
        -0.97056E+08
         0.45842E+09
         0.32686E+09
         0.75441E+09
         0.25797E+09
         0.28559E+09
         0.31630E+09
        -0.36034E+08
         0.51145E+07
        -0.41349E+08
         0.11853E+09
         0.16748E+09
         0.30077E+09
         0.40389E+09
         0.46999E+09
         0.66797E+09
         0.53778E+09
         0.34725E+09
         0.36794E+09
         0.29417E+09
         0.71142E+08
         0.29248E+08
         0.43087E+08
         0.59815E+09
         0.16288E+09
         0.38138E+09
         0.33588E+09
        -0.82202E+09
        -0.50154E+08
        -0.43430E+08
        -0.31902E+09
        -0.62435E+07
         0.63213E+08
        -0.29998E+09
        -0.71832E+09
        -0.37079E+09
        -0.20735E+09
         0.12756E+08
         0.54980E+09
         0.49582E+09
        -0.13344E+09
         0.64963E+09
        -0.10688E+10
        -0.44848E+09
        -0.43639E+09
        -0.48057E+09
        -0.36376E+09
         0.83021E+09
         0.52797E+09
         0.53611E+09
        -0.90671E+08
        -0.48516E+09
        -0.26008E+09
        -0.99542E+08
        -0.27595E+09
        -0.25191E+09
        -0.43285E+09
        -0.21427E+09
         0.12021E+09
         0.22068E+08
        -0.11359E+09
         0.99031E+08
         0.27425E+09
         0.66501E+09
         0.23167E+09
         0.27051E+08
         0.34920E+09
         0.40210E+09
         0.83969E+08
         0.84671E+08
         0.70022E+09
         0.67485E+09
         0.57645E+09
         0.33725E+09
         0.28280E+09
         0.40794E+09
         0.39371E+09
         0.29576E+09
         0.11255E+09
        -0.67812E+09
        -0.29886E+09
        -0.65182E+09
        -0.50151E+09
        -0.29774E+09
        -0.43044E+09
        -0.33307E+09
        -0.10834E+09
         0.35650E+08
        -0.16485E+09
        -0.43987E+09
        -0.23294E+09
        -0.41391E+09
        -0.73573E+09
        -0.90642E+09
        -0.60172E+09
        -0.48341E+09
        -0.65437E+09
        -0.47540E+09
        -0.32120E+09
         0.15572E+09
        -0.18580E+09
        -0.52386E+09
        -0.38239E+09
        -0.39533E+09
        -0.29153E+09
         0.65495E+09
         0.46170E+08
        -0.50181E+08
         0.95075E+08
         0.28412E+09
        -0.23351E+06
         0.93232E+08
         0.75752E+09
         0.18722E+09
         0.13889E+09
        -0.26102E+09
        -0.50809E+09
        -0.48941E+09
        -0.26525E+09
        -0.59162E+09
         0.10446E+10
         0.18232E+09
         0.18591E+09
         0.17914E+09
        -0.12103E+09
        -0.78645E+09
        -0.57920E+09
        -0.52868E+09
         0.41974E+08
         0.40876E+09
         0.11521E+09
        -0.30261E+09
         0.21866E+09
         0.20146E+09
         0.50031E+09
         0.50152E+08
        -0.25895E+09
        -0.22078E+09
        -0.13762E+09
         0.19146E+09
        -0.49721E+09
        -0.72587E+09
        -0.29789E+09
        -0.35368E+08
        -0.43536E+09
        -0.63261E+09
        -0.25610E+09
        -0.67984E+08
        -0.66586E+09
        -0.88151E+09
        -0.51339E+09
        -0.47381E+09
        -0.29570E+09
        -0.35727E+09
        -0.33455E+09
        -0.21953E+08
         0.11345E+08
         0.45215E+09
         0.89685E+08
         0.85245E+09
         0.55621E+09
         0.37485E+09
         0.46449E+09
         0.26837E+09
         0.89032E+08
        -0.10094E+09
         0.15031E+09
         0.71602E+09
         0.22710E+09
         0.44225E+09
         0.64046E+09
         0.82607E+09
         0.61317E+09
         0.53045E+09
         0.77319E+09
         0.61938E+09
         0.18344E+09
        -0.22068E+09
         0.86068E+08
         0.52295E+09
         0.22989E+09
         0.40236E+09
         0.24816E+09
        -0.68874E+09
         0.13863E+09
         0.93545E+08
         0.70752E+08
        -0.19137E+09
         0.82507E+08
        -0.11218E+09
        -0.71252E+09
        -0.57138E+09
        -0.29501E+09
         0.15514E+09
         0.41101E+09
         0.49725E+09
         0.17096E+09
         0.53105E+09
        -0.11967E+10
        -0.42384E+09
        -0.41543E+09
        -0.17905E+09
         0.17280E+09
         0.77018E+09
         0.44869E+09
         0.65316E+09
         0.85874E+08
        -0.51135E+09
        -0.14044E+09
         0.23894E+09
        -0.29021E+09
        -0.27868E+09
        -0.14706E+09
        -0.10901E+09
         0.25060E+09
         0.14494E+09
         0.77683E+08
        -0.14186E+09
         0.22074E+09
         0.67900E+09
         0.32781E+09
         0.12123E+09
         0.29694E+09
         0.46350E+09
         0.28898E+09
         0.22760E+09
         0.69951E+09
         0.72394E+09
         0.43359E+09
         0.34539E+09
         0.27800E+09
         0.28733E+09
         0.17298E+09
         0.52273E+08
         0.43817E+08
        -0.22690E+09
         0.19724E+08
        -0.63827E+09
        -0.61673E+09
        -0.41221E+09
        -0.34924E+09
        -0.29701E+09
        -0.14814E+09
         0.15046E+07
        -0.12054E+09
        -0.53738E+09
        -0.32268E+09
        -0.35763E+09
        -0.58225E+09
        -0.74741E+09
        -0.61394E+09
        -0.56251E+09
        -0.64388E+09
        -0.71326E+09
        -0.14022E+09
         0.23917E+09
        -0.59347E+08
        -0.32764E+09
        -0.17313E+09
        -0.25381E+09
        -0.24971E+09
         0.53055E+09
        -0.21981E+09
        -0.46490E+08
        -0.30659E+09
         0.37943E+09
         0.19991E+08
        -0.16435E+09
         0.58483E+09
         0.80024E+09
         0.35440E+09
        -0.31883E+09
        -0.45130E+09
        -0.44575E+09
        -0.23200E+09
        -0.40426E+09
         0.10766E+10
         0.48952E+09
         0.33660E+09
         0.90461E+08
        -0.29586E+09
        -0.52208E+09
        -0.28602E+09
        -0.59917E+09
        -0.24862E+09
         0.38172E+09
        -0.72136E+08
        -0.40326E+09
         0.12263E+09
         0.31237E+09
         0.73434E+08
        -0.39950E+08
        -0.28089E+09
        -0.19353E+09
        -0.98400E+08
         0.34054E+09
        -0.12996E+09
        -0.52024E+09
        -0.37717E+09
        -0.16609E+09
        -0.47264E+08
        -0.22595E+09
        -0.18518E+09
        -0.21489E+09
        -0.55405E+09
        -0.55861E+09
        -0.31380E+09
        -0.41942E+09
        -0.37602E+09
        -0.16936E+09
         0.13610E+08
         0.13725E+09
         0.93768E+08
         0.69216E+08
        -0.90100E+08
         0.55060E+09
         0.57495E+09
         0.40435E+09
         0.35734E+09
         0.22102E+09
         0.20847E+09
        -0.63574E+08
         0.14915E+09
         0.13629E+09
         0.39586E+09
         0.35619E+09
         0.56806E+09
         0.58298E+09
         0.62294E+09
         0.60116E+09
         0.50530E+09
         0.55551E+09
         0.22214E+09
        -0.13012E+09
         0.69516E+08
         0.18198E+09
        -0.38263E+08
         0.20534E+09
         0.32473E+09
        -0.35934E+09
         0.30713E+09
         0.66251E+08
         0.30995E+09
        -0.16722E+09
         0.24469E+09
         0.29533E+09
        -0.58411E+09
        -0.99087E+09
        -0.55822E+09
         0.34801E+09
         0.38781E+09
         0.51059E+09
         0.13760E+09
         0.37574E+09
        -0.95632E+09
        -0.78723E+09
        -0.46131E+09
        -0.19034E+09
         0.17338E+09
         0.58217E+09
         0.46344E+09
         0.63033E+09
         0.38048E+09
        -0.30358E+09
         0.25495E+09
         0.27441E+09
         0.64466E+08
        -0.72093E+08
         0.19599E+09
         0.25433E+09
         0.26694E+09
         0.16128E+09
        -0.46397E+08
        -0.26903E+09
        -0.63890E+08
         0.43377E+09
         0.37170E+09
         0.18767E+09
        -0.21061E+08
        -0.62757E+08
         0.65836E+08
         0.42945E+09
         0.53172E+09
         0.40908E+09
         0.12557E+09
         0.19192E+09
         0.32235E+09
         0.12822E+09
        -0.12568E+09
        -0.10842E+09
         0.14538E+08
         0.17736E+09
         0.62336E+08
        -0.41076E+09
        -0.42040E+09
        -0.40500E+09
        -0.42065E+09
        -0.21853E+09
        -0.19033E+09
        -0.76324E+07
        -0.28250E+08
         0.12566E+09
        -0.29518E+09
        -0.45975E+09
        -0.58006E+09
        -0.53126E+09
        -0.65162E+09
        -0.63263E+09
        -0.28958E+09
        -0.39475E+09
        -0.50833E+07
         0.45469E+08
        -0.67033E+08
        -0.33939E+08
         0.17117E+09
        -0.92814E+08
        -0.40070E+09
         0.44008E+09
        -0.28829E+09
        -0.12619E+08
        -0.25594E+09
         0.15274E+09
        -0.24126E+09
        -0.53992E+09
         0.43142E+09
         0.11260E+10
         0.60960E+09
        -0.43960E+09
        -0.34540E+09
        -0.55318E+09
        -0.64458E+08
        -0.14742E+09
         0.77459E+09
         0.93675E+09
         0.38274E+09
         0.27803E+09
        -0.13718E+09
        -0.39100E+09
        -0.43330E+09
        -0.56067E+09
        -0.40728E+09
         0.16175E+09
        -0.38157E+09
        -0.28105E+09
        -0.22167E+09
         0.73316E+08
        -0.28177E+09
        -0.39371E+09
        -0.29067E+09
        -0.22879E+09
         0.91202E+08
         0.34991E+09
         0.25809E+09
        -0.25169E+09
        -0.34153E+09
        -0.19766E+09
         0.13309E+09
         0.20430E+09
         0.80299E+08
        -0.37562E+09
        -0.41493E+09
        -0.19657E+09
         0.53083E+07
        -0.98645E+08
        -0.23228E+09
        -0.23212E+08
         0.31486E+09
         0.25774E+09
         0.60649E+08
        -0.11016E+09
         0.22081E+08
         0.18754E+09
         0.35339E+09
         0.39294E+09
         0.46970E+09
         0.21596E+09
         0.66186E+08
         0.17989E+09
        -0.33722E+08
        -0.23068E+09
         0.20284E+09
         0.45581E+09
         0.57012E+09
         0.38476E+09
         0.57800E+09
         0.54429E+09
         0.22737E+09
         0.13330E+09
         0.94238E+08
        -0.69301E+08
         0.46917E+08
        -0.11536E+09
        -0.27972E+09
         0.14544E+09
         0.53335E+09
        -0.55595E+09
         0.22450E+09
         0.63692E+08
         0.17632E+09
         0.23796E+08
         0.28236E+09
         0.59867E+09
        -0.43662E+09
        -0.10840E+10
        -0.61396E+09
         0.58565E+09
         0.32447E+09
         0.52729E+09
         0.20109E+09
         0.25693E+09
        -0.70300E+09
        -0.90433E+09
        -0.34271E+09
        -0.35585E+09
        -0.67595E+08
         0.59403E+09
         0.59687E+09
         0.55775E+09
         0.45777E+09
        -0.15803E+09
         0.46560E+09
         0.18281E+09
         0.21978E+09
         0.96925E+08
         0.20487E+09
         0.45337E+09
         0.29278E+09
         0.23734E+09
        -0.13382E+09
        -0.13364E+09
        -0.13285E+09
         0.19565E+09
         0.28659E+09
         0.10528E+09
        -0.55207E+08
        -0.20719E+09
        -0.32940E+08
         0.46272E+09
         0.42027E+09
         0.20688E+09
         0.21018E+07
         0.15567E+08
         0.75304E+08
        -0.38568E+08
        -0.24133E+09
        -0.14344E+09
         0.18538E+08
         0.14613E+07
        -0.11892E+09
        -0.13723E+09
        -0.30579E+09
        -0.34161E+09
        -0.57690E+09
        -0.27361E+09
        -0.46603E+07
        -0.21487E+09
         0.76223E+08
         0.54448E+08
        -0.11457E+09
        -0.51367E+09
        -0.58013E+09
        -0.47084E+09
        -0.62737E+09
        -0.55815E+09
        -0.18211E+09
        -0.21006E+09
         0.73413E+08
         0.54657E+08
        -0.26640E+08
         0.95839E+08
         0.11992E+09
        -0.18927E+09
        -0.51255E+09
         0.50574E+09
        -0.22085E+09
        -0.11771E+09
         0.45645E+08
        -0.36402E+08
        -0.12395E+09
        -0.80187E+09
         0.29868E+09
         0.96135E+09
         0.57074E+09
        -0.84560E+09
        -0.45197E+09
        -0.42216E+09
        -0.34815E+09
        -0.29829E+09
         0.47661E+09
         0.91311E+09
         0.64544E+08
         0.34276E+09
         0.10157E+09
        -0.56435E+09
        -0.52574E+09
        -0.41247E+09
        -0.43270E+09
         0.57169E+08
        -0.48548E+09
        -0.22849E+09
        -0.21802E+09
        -0.11624E+09
        -0.15830E+09
        -0.53215E+09
        -0.42761E+09
        -0.30417E+09
         0.62806E+08
         0.55813E+08
         0.54779E+08
        -0.10813E+09
        -0.28025E+09
         0.33056E+07
         0.16995E+09
         0.35034E+08
         0.33801E+08
        -0.27869E+09
        -0.13061E+09
        -0.19243E+09
        -0.10040E+08
        -0.22654E+08
         0.13654E+09
         0.16053E+09
         0.16340E+09
         0.11830E+09
        -0.11097E+08
        -0.22661E+08
         0.19534E+09
         0.18257E+09
         0.22993E+09
         0.22224E+09
         0.72962E+09
         0.30474E+09
         0.48601E+08
         0.16124E+09
         0.11940E+08
         0.35161E+08
         0.71946E+08
         0.38185E+09
         0.44696E+09
         0.38765E+09
         0.47257E+09
         0.21181E+09
         0.35244E+09
         0.36268E+09
        -0.17798E+09
        -0.28986E+08
        -0.35900E+08
         0.28738E+08
         0.22935E+09
         0.17958E+09
         0.48976E+09
        -0.71138E+09
         0.26953E+09
         0.33729E+09
        -0.10441E+09
         0.10758E+09
         0.14808E+09
         0.61752E+09
        -0.15597E+09
        -0.10940E+10
        -0.72325E+09
         0.84609E+09
         0.46297E+09
         0.31198E+09
         0.40533E+09
         0.30926E+09
        -0.37971E+09
        -0.84570E+09
        -0.22275E+09
        -0.30536E+09
        -0.15560E+09
         0.67773E+09
         0.52230E+09
         0.41754E+09
         0.46393E+09
        -0.26218E+09
         0.46226E+09
         0.10138E+09
         0.18322E+09
         0.19768E+09
         0.26071E+09
         0.35961E+09
         0.35497E+09
         0.11793E+09
        -0.15369E+09
         0.40480E+08
         0.17549E+08
         0.11059E+09
         0.21363E+09
         0.15312E+09
        -0.19055E+08
        -0.19479E+09
         0.62959E+08
         0.39712E+09
         0.14470E+09
         0.10017E+09
         0.79646E+08
         0.45055E+08
        -0.23047E+09
        -0.16268E+09
        -0.15380E+08
         0.64383E+08
         0.89366E+08
         0.38014E+08
        -0.22156E+09
        -0.15822E+09
        -0.27956E+09
        -0.15599E+09
        -0.75338E+09
        -0.29341E+09
         0.54166E+06
        -0.19630E+09
        -0.12579E+09
        -0.12828E+09
        -0.11549E+09
        -0.36486E+09
        -0.35864E+09
        -0.39501E+09
        -0.43612E+09
        -0.12678E+09
        -0.32880E+09
        -0.27407E+09
         0.31311E+09
        -0.16215E+08
         0.85821E+08
        -0.14489E+09
        -0.39417E+09
         0.20795E+07
        -0.27056E+09
         0.42276E+09
        -0.34029E+09
        -0.36668E+09
         0.15792E+08
         0.14761E+08
         0.15985E+08
        -0.61685E+09
         0.41332E+08
         0.91489E+09
         0.59972E+09
        -0.81965E+09
        -0.56150E+09
        -0.40034E+09
        -0.61107E+09
        -0.23627E+09
         0.33186E+08
         0.53635E+09
        -0.19526E+09
         0.56355E+08
        -0.15242E+09
        -0.31606E+09
        -0.24208E+09
        -0.42721E+09
        -0.32297E+09
         0.26100E+09
        -0.35221E+09
        -0.41101E+09
        -0.14073E+09
        -0.16679E+09
        -0.19002E+09
        -0.48980E+09
        -0.41522E+09
        -0.21399E+08
         0.11499E+09
         0.30623E+08
         0.70874E+08
         0.31752E+08
        -0.12910E+09
        -0.46690E+08
        -0.27228E+08
        -0.31675E+09
        -0.32028E+09
        -0.32654E+09
        -0.72874E+08
         0.89097E+08
         0.18732E+09
         0.26696E+08
         0.94611E+08
         0.17548E+09
         0.11105E+09
        -0.86288E+08
        -0.12742E+09
        -0.18454E+09
         0.80859E+08
        -0.96578E+07
         0.19756E+09
         0.29320E+09
         0.56609E+09
         0.23385E+09
         0.85506E+08
         0.88648E+08
         0.28003E+09
         0.21265E+09
         0.26423E+09
         0.17624E+09
         0.18534E+09
         0.20626E+09
         0.32943E+09
         0.11752E+09
         0.12682E+09
         0.10768E+09
        -0.29371E+09
         0.14903E+09
        -0.38005E+08
         0.70947E+08
         0.52124E+09
         0.32286E+08
         0.23760E+09
        -0.30034E+09
        -0.24341E+09
         0.40922E+09
         0.13472E+09
        -0.52785E+08
         0.11356E+09
         0.60300E+09
         0.81898E+08
        -0.10924E+10
        -0.93278E+09
         0.68822E+09
         0.14684E+09
         0.47004E+09
         0.65874E+09
         0.80173E+08
        -0.13753E+09
        -0.30154E+09
        -0.19411E+08
         0.13640E+08
         0.74325E+08
         0.22068E+09
         0.37379E+09
         0.18390E+09
         0.77656E+09
        -0.16369E+09
         0.57211E+09
         0.34036E+09
         0.19601E+09
         0.17059E+09
         0.10213E+09
         0.43855E+09
         0.12649E+09
         0.39071E+08
        -0.45808E+09
        -0.11937E+09
         0.85491E+08
        -0.27641E+08
         0.35337E+09
         0.10053E+08
         0.59593E+08
         0.61241E+09
         0.38464E+09
         0.46554E+09
        -0.83938E+08
         0.11036E+09
         0.86703E+07
         0.48877E+08
        -0.14860E+09
        -0.24088E+09
        -0.10472E+09
         0.32843E+09
         0.37387E+09
        -0.19123E+07
         0.10623E+09
         0.86687E+08
        -0.24326E+09
        -0.26963E+09
        -0.31810E+09
        -0.63273E+08
        -0.99999E+08
         0.29551E+06
        -0.22912E+09
        -0.32677E+09
        -0.30020E+09
        -0.18555E+09
        -0.15168E+09
        -0.18277E+09
        -0.16763E+09
        -0.12068E+09
        -0.67660E+07
        -0.26540E+09
         0.15247E+09
         0.19874E+09
        -0.13538E+09
         0.28806E+09
        -0.72097E+09
         0.22509E+08
        -0.28962E+09
         0.63440E+09
        -0.14087E+09
        -0.86636E+09
         0.38522E+09
         0.24518E+09
        -0.27923E+09
        -0.92707E+09
         0.94442E+09
         0.18198E+09
         0.12238E+10
        -0.11483E+10
        -0.39992E+08
        -0.14108E+09
        -0.12484E+10
         0.26287E+09
         0.64945E+09
         0.53972E+09
         0.87064E+08
        -0.20354E+09
        -0.27783E+09
         0.14385E+09
        -0.31110E+08
         0.10909E+07
        -0.80972E+09
         0.67531E+09
        -0.79508E+09
        -0.13388E+10
        -0.33766E+09
         0.41181E+08
        -0.37358E+09
        -0.27820E+09
        -0.57395E+09
        -0.22922E+09
        -0.14985E+09
         0.65836E+09
         0.54380E+09
         0.28406E+09
         0.17184E+09
         0.14156E+09
        -0.29088E+09
        -0.48594E+09
        -0.15406E+09
        -0.22567E+09
         0.57323E+09
        -0.22512E+09
         0.11899E+09
         0.44031E+09
         0.85643E+09
         0.31506E+08
         0.50433E+09
         0.85776E+09
        -0.12079E+09
        -0.90646E+09
        -0.23107E+09
        -0.45703E+09
         0.10425E+08
         0.20441E+09
         0.44551E+09
        -0.26219E+09
         0.12471E+09
         0.14015E+08
         0.29433E+09
         0.29710E+09
         0.26244E+09
        -0.27315E+07
        -0.42162E+08
        -0.64297E+08
         0.21223E+08
        -0.17969E+09
         0.81157E+08
         0.13473E+09
        -0.63232E+09
        -0.30425E+09
        -0.43734E+07
        -0.33190E+09
        -0.64237E+09
        -0.13432E+09
         0.92416E+08
        -0.51583E+08
         0.36008E+09
        -0.89956E+08
         0.28414E+09
         0.11210E+10
        -0.28080E+09
        -0.19194E+10
         0.11353E+10
        -0.11026E+10
        -0.29285E+09
         0.25403E+09
         0.35850E+09
         0.89322E+09
         0.11241E+10
         0.13837E+09
         0.23805E+09
        -0.37706E+09
         0.16555E+09
         0.69956E+07
         0.48709E+09
         0.31972E+09
         0.14081E+09
         0.37267E+09
         0.10419E+09
         0.31178E+09
        -0.11351E+10
        -0.23720E+08
         0.17431E+09
         0.80085E+09
        -0.45122E+09
         0.70684E+07
         0.45591E+09
        -0.68805E+09
         0.14516E+09
        -0.98057E+08
        -0.59158E+09
         0.10255E+10
         0.33983E+09
         0.64938E+09
         0.30872E+08
         0.50850E+09
         0.17001E+09
         0.67796E+09
         0.12535E+10
         0.31996E+09
         0.28356E+09
        -0.25481E+09
         0.44306E+09
         0.59745E+09
         0.95002E+07
         0.10755E+10
         0.53063E+08
         0.65410E+09
        -0.21235E+09
         0.46897E+09
        -0.11336E+09
        -0.17772E+09
        -0.17452E+09
         0.27138E+09
         0.17285E+09
         0.15013E+09
         0.10213E+09
         0.37705E+08
        -0.54847E+08
         0.14903E+09
         0.11579E+09
         0.25290E+09
        -0.16642E+08
        -0.10729E+09
        -0.71958E+08
        -0.17607E+08
         0.42467E+09
         0.27029E+08
         0.79164E+08
         0.14984E+09
        -0.26700E+09
         0.30564E+09
         0.38424E+09
  
SCALARS                      stress_zz  double 1
LOOKUP_TABLE default
         0.84899E+08
        -0.32268E+08
        -0.24370E+09
         0.15917E+09
        -0.12049E+02
        -0.42311E+02
        -0.14936E+02
         0.56171E+02
         0.35296E+08
        -0.16232E+09
        -0.81834E+02
        -0.24992E+02
        -0.26254E+09
         0.63815E+09
        -0.11200E+03
        -0.10635E+03
         0.11627E+09
        -0.25465E+09
         0.36255E+01
        -0.79631E+02
        -0.28697E+09
        -0.10787E+09
        -0.10055E+09
        -0.15153E+03
        -0.10899E+03
        -0.70977E+02
        -0.20107E+09
        -0.14116E+09
        -0.14740E+03
        -0.77932E+02
         0.16227E+09
         0.29188E+09
        -0.51015E+08
         0.24665E+01
        -0.31488E+02
         0.68266E+02
        -0.35120E+09
         0.98241E+08
        -0.77404E+02
        -0.62653E+02
        -0.89150E+08
        -0.24999E+08
        -0.60074E+02
        -0.44592E+02
        -0.36636E+09
        -0.62932E+08
        -0.58908E+02
        -0.78037E+02
         0.36068E+09
        -0.79746E+02
         0.38056E+09
        -0.60993E+02
         0.43336E+08
        -0.95448E+02
         0.27798E+08
        -0.85674E+02
         0.14269E+09
        -0.55133E+09
        -0.99973E+02
        -0.68469E+02
         0.75454E+08
        -0.32104E+09
         0.11006E+02
        -0.64928E+02
         0.25757E+08
         0.35121E+02
        -0.14432E+09
         0.29803E+00
         0.22281E+09
        -0.22864E+08
        -0.88367E+02
        -0.95691E+02
        -0.16166E+09
        -0.64190E+02
        -0.16261E+09
        -0.59970E+02
        -0.31287E+09
        -0.80185E+02
        -0.22282E+09
        -0.10370E+03
        -0.33660E+09
        -0.17710E+08
        -0.10215E+03
        -0.86167E+02
        -0.19909E+09
        -0.54713E+02
        -0.18601E+09
        -0.75001E+02
        -0.12551E+09
        -0.93601E+02
         0.15600E+09
        -0.31487E+09
        -0.10589E+03
        -0.75423E+02
        -0.19118E+09
        -0.30376E+02
        -0.20744E+09
        -0.40649E+02
         0.17963E+09
        -0.80588E+02
        -0.13905E+09
        -0.16489E+09
        -0.10227E+03
        -0.38278E+02
        -0.44844E+09
        -0.77085E+07
        -0.63343E+02
        -0.60162E+02
         0.81416E+08
        -0.93040E+02
        -0.99473E+08
        -0.77604E+02
         0.10006E+08
        -0.85081E+02
         0.14838E+09
        -0.10198E+03
        -0.17862E+08
        -0.64531E+02
         0.41613E+08
        -0.64721E+02
         0.27891E+08
        -0.66875E+02
         0.13542E+08
        -0.78341E+02
         0.10633E+09
        -0.68559E+02
        -0.14508E+09
        -0.62359E+02
        -0.29111E+08
        -0.50918E+02
         0.42713E+08
        -0.51381E+02
        -0.12612E+08
        -0.59905E+02
         0.50759E+08
        -0.67546E+02
         0.36163E+08
        -0.71016E+02
         0.95093E+08
        -0.86068E+02
        -0.99454E+08
        -0.74212E+02
         0.10999E+09
        -0.48520E+02
         0.40173E+08
        -0.53603E+02
         0.12778E+08
        -0.61496E+02
         0.53940E+07
        -0.75542E+02
        -0.39333E+09
        -0.56405E+02
         0.33052E+09
        -0.74686E+02
        -0.14092E+09
        -0.49584E+02
         0.19091E+09
         0.48022E+09
        -0.11152E+10
         0.17976E+09
         0.10444E+10
        -0.37358E+09
        -0.84966E+09
         0.12866E+10
        -0.50309E+09
        -0.27293E+09
        -0.83689E+09
         0.34440E+09
        -0.27558E+09
        -0.21995E+09
         0.35263E+09
         0.29429E+08
         0.42594E+09
         0.11725E+09
        -0.41646E+09
        -0.17428E+09
         0.26869E+09
         0.13488E+09
        -0.31773E+09
         0.11210E+10
         0.50737E+07
         0.27122E+09
         0.33255E+09
         0.62426E+09
        -0.13591E+08
         0.12800E+09
         0.37404E+09
        -0.37908E+09
        -0.44679E+09
         0.26521E+09
         0.35829E+09
         0.85071E+09
         0.24284E+09
        -0.39053E+09
        -0.54453E+08
        -0.64077E+08
         0.55257E+09
        -0.20025E+09
         0.18314E+09
        -0.51879E+09
         0.68368E+09
         0.14170E+10
        -0.77077E+09
         0.37135E+08
         0.10113E+10
        -0.11828E+10
         0.10493E+10
         0.28928E+09
        -0.10395E+10
        -0.63681E+09
        -0.28784E+09
        -0.69951E+09
         0.82946E+08
        -0.27282E+09
        -0.22075E+09
         0.43228E+08
        -0.89820E+08
        -0.10494E+09
        -0.47755E+09
        -0.67315E+08
        -0.16468E+09
        -0.25081E+09
        -0.16526E+09
        -0.11995E+08
         0.16929E+08
        -0.35749E+09
        -0.13220E+10
         0.54522E+09
        -0.57306E+09
        -0.47347E+09
         0.49261E+08
        -0.42918E+09
        -0.70941E+09
         0.16457E+09
        -0.23928E+09
         0.78721E+09
        -0.45421E+09
         0.96636E+08
         0.55497E+09
        -0.13007E+09
         0.41421E+09
        -0.18905E+09
         0.39703E+09
        -0.24453E+09
         0.55333E+07
        -0.27698E+08
        -0.62161E+09
         0.46298E+09
        -0.32014E+09
        -0.32407E+09
         0.55576E+09
        -0.82373E+08
        -0.32152E+09
        -0.91117E+08
        -0.39427E+06
        -0.23881E+09
        -0.94656E+09
         0.16788E+10
        -0.45545E+09
         0.89516E+09
         0.55892E+09
         0.41514E+09
         0.39320E+07
         0.53055E+08
         0.74858E+09
        -0.58591E+09
         0.36257E+08
        -0.23007E+09
        -0.19645E+09
         0.16565E+09
        -0.56286E+09
        -0.57280E+09
        -0.40947E+09
        -0.43460E+08
        -0.12116E+09
        -0.49678E+09
         0.33419E+08
        -0.11362E+10
         0.53175E+08
         0.84143E+09
        -0.15098E+09
        -0.11843E+10
         0.18369E+09
        -0.19552E+09
         0.57370E+09
        -0.87777E+08
        -0.53361E+09
        -0.19650E+09
         0.11248E+09
        -0.48316E+08
         0.30709E+09
        -0.34963E+09
        -0.14924E+09
        -0.15864E+08
        -0.10744E+07
        -0.12684E+09
        -0.52818E+08
         0.49245E+08
        -0.27716E+09
        -0.94254E+08
        -0.20718E+09
         0.34898E+09
         0.34776E+09
         0.21872E+09
        -0.10822E+10
         0.34274E+09
         0.41663E+09
        -0.12345E+07
         0.77856E+08
        -0.33852E+09
        -0.15258E+09
        -0.21888E+08
         0.23473E+09
         0.20265E+09
         0.31953E+08
        -0.37643E+08
         0.73042E+09
        -0.68864E+08
         0.22027E+09
        -0.14920E+09
        -0.37153E+09
        -0.17278E+09
         0.42040E+09
         0.33249E+09
        -0.23806E+08
         0.56919E+09
        -0.13375E+09
         0.13632E+09
        -0.85566E+08
        -0.25915E+08
         0.34364E+07
         0.20322E+09
         0.23208E+09
         0.13590E+09
         0.39811E+08
         0.82231E+08
        -0.44260E+08
        -0.15753E+08
         0.59356E+09
         0.46955E+09
         0.18346E+08
         0.45135E+09
         0.35478E+09
        -0.26051E+09
         0.72023E+08
        -0.24557E+08
        -0.17538E+09
        -0.72224E+08
         0.18080E+09
        -0.10792E+09
         0.39902E+08
        -0.25770E+09
         0.33946E+09
         0.16366E+09
        -0.32005E+08
         0.39661E+09
         0.42131E+09
         0.31073E+09
         0.19458E+09
        -0.78207E+08
         0.33953E+09
        -0.12530E+09
         0.56018E+09
         0.35582E+09
        -0.25105E+08
        -0.71484E+09
        -0.31246E+09
        -0.25635E+09
        -0.30632E+09
        -0.31949E+09
        -0.21036E+09
        -0.13471E+09
        -0.29980E+09
        -0.24703E+09
        -0.28845E+09
        -0.38977E+09
        -0.25217E+09
        -0.32176E+09
        -0.31799E+09
        -0.40876E+09
        -0.40603E+09
        -0.39496E+09
        -0.73083E+09
        -0.14568E+09
        -0.34773E+09
        -0.34999E+09
        -0.23021E+09
        -0.72390E+09
        -0.59384E+09
         0.99461E+07
        -0.83310E+09
         0.38387E+09
         0.10162E+09
        -0.30298E+08
         0.37703E+09
        -0.30068E+09
         0.60575E+09
         0.28753E+08
         0.98355E+09
        -0.14084E+08
        -0.25792E+09
         0.66930E+08
        -0.55439E+09
        -0.20946E+09
         0.74668E+08
        -0.24833E+09
         0.17588E+09
        -0.27673E+09
         0.79108E+08
         0.13954E+08
         0.33991E+08
        -0.27876E+09
        -0.65259E+09
         0.56617E+09
        -0.72660E+09
         0.73425E+09
         0.25010E+09
         0.49738E+09
         0.13295E+09
         0.19516E+09
         0.53236E+09
         0.10826E+09
         0.69352E+08
         0.71518E+08
        -0.60249E+09
        -0.36440E+09
        -0.10036E+09
        -0.15522E+09
        -0.38939E+09
        -0.10728E+09
        -0.33213E+09
        -0.22398E+09
        -0.15497E+09
        -0.96318E+09
         0.14250E+09
         0.19020E+08
        -0.33604E+09
        -0.76513E+09
        -0.13778E+08
        -0.20217E+09
        -0.12911E+09
        -0.13839E+09
         0.28071E+08
         0.53111E+08
        -0.79932E+08
        -0.83456E+08
        -0.12425E+09
        -0.28102E+09
        -0.41078E+09
        -0.18325E+09
        -0.18180E+09
        -0.25408E+09
         0.53378E+08
        -0.16268E+09
        -0.25264E+09
        -0.10589E+09
        -0.31350E+09
         0.16422E+08
         0.28200E+09
        -0.51179E+08
        -0.38557E+09
         0.19109E+09
         0.14238E+09
        -0.45050E+08
         0.19019E+09
        -0.23428E+09
         0.78963E+08
        -0.19299E+09
         0.54172E+09
        -0.48644E+08
        -0.35063E+08
         0.13296E+09
         0.44903E+09
        -0.30737E+08
         0.92760E+08
        -0.40713E+09
        -0.61134E+09
        -0.24094E+09
         0.62496E+09
         0.45898E+09
         0.41846E+09
         0.85747E+09
        -0.16406E+09
        -0.16202E+09
         0.33490E+09
        -0.82411E+08
        -0.22309E+08
         0.18700E+09
         0.34935E+09
         0.48340E+09
         0.69012E+09
         0.27995E+09
        -0.63253E+09
         0.27438E+09
         0.98096E+09
         0.41359E+09
         0.52154E+09
         0.60336E+09
         0.34809E+09
        -0.25355E+09
         0.21267E+09
        -0.78960E+08
         0.26281E+09
         0.31652E+09
         0.40974E+09
         0.11517E+09
         0.10697E+09
         0.15895E+09
        -0.10835E+09
         0.78259E+06
         0.24362E+09
         0.51132E+09
         0.19751E+09
         0.40247E+09
         0.69570E+09
         0.35539E+09
         0.22328E+09
         0.31953E+09
         0.54128E+09
         0.56192E+09
        -0.42681E+09
        -0.18712E+09
        -0.11945E+09
        -0.45572E+09
        -0.34564E+09
        -0.48846E+09
         0.15563E+07
        -0.18865E+09
        -0.25013E+09
        -0.32537E+09
        -0.64913E+08
        -0.21841E+09
        -0.35081E+09
        -0.40287E+09
        -0.29260E+09
        -0.73518E+09
        -0.30227E+09
        -0.21500E+09
        -0.53949E+09
        -0.47297E+09
        -0.39588E+09
        -0.25601E+09
        -0.29524E+09
        -0.68108E+09
        -0.53902E+09
        -0.16181E+09
        -0.95161E+08
        -0.42222E+09
         0.13124E+09
        -0.19363E+09
        -0.40418E+08
        -0.36604E+09
        -0.41809E+09
        -0.98507E+08
         0.79042E+09
         0.27239E+09
        -0.26713E+09
         0.28264E+09
        -0.26625E+09
        -0.34850E+09
         0.12482E+09
         0.14479E+09
         0.73903E+09
        -0.39693E+09
        -0.30807E+09
        -0.81594E+09
         0.15090E+09
         0.80058E+08
        -0.39855E+09
        -0.24169E+09
        -0.69211E+08
         0.22564E+09
        -0.67203E+09
        -0.20001E+09
         0.90864E+08
        -0.40661E+09
         0.60533E+08
        -0.11730E+09
         0.57504E+08
        -0.20095E+09
        -0.24502E+09
        -0.39682E+09
        -0.29488E+08
         0.41954E+08
        -0.20202E+09
        -0.22974E+09
        -0.26402E+08
        -0.23981E+09
        -0.22885E+09
        -0.60085E+09
        -0.14696E+09
         0.23688E+09
        -0.19116E+09
        -0.70369E+09
        -0.28234E+09
        -0.99940E+08
        -0.77501E+08
         0.28149E+07
         0.55432E+08
        -0.73196E+08
        -0.25739E+09
        -0.39285E+08
        -0.26989E+09
        -0.33951E+09
        -0.53548E+09
        -0.23606E+09
        -0.36246E+09
        -0.21042E+09
        -0.21507E+09
        -0.18113E+09
        -0.34446E+09
        -0.30862E+09
        -0.42073E+09
        -0.14912E+09
         0.41959E+08
        -0.80431E+08
        -0.52095E+09
         0.90861E+08
         0.10401E+09
        -0.63021E+08
        -0.15522E+09
        -0.37708E+09
        -0.77569E+08
        -0.15746E+09
         0.15669E+09
         0.46444E+09
         0.61862E+08
         0.41686E+09
         0.18470E+09
         0.27247E+09
         0.59165E+09
         0.13430E+09
        -0.63420E+09
        -0.15146E+09
         0.63882E+09
         0.14525E+09
         0.21357E+09
         0.82853E+09
        -0.34235E+07
        -0.35790E+09
        -0.36720E+09
         0.27764E+09
         0.47237E+09
         0.69065E+09
         0.55904E+09
         0.16532E+09
         0.51734E+09
         0.65753E+09
        -0.42501E+09
         0.51653E+09
         0.99284E+09
         0.78789E+09
         0.63129E+09
         0.10424E+10
         0.34098E+09
        -0.61826E+08
         0.60616E+09
         0.30595E+08
         0.61557E+09
         0.22947E+09
         0.53478E+09
         0.70250E+07
         0.14025E+09
         0.37502E+08
        -0.40591E+09
        -0.57742E+08
         0.38263E+09
         0.56592E+09
         0.28057E+09
         0.44935E+09
         0.36404E+09
         0.53673E+09
         0.24160E+09
         0.26711E+09
         0.45236E+09
         0.56544E+09
        -0.46987E+09
        -0.15488E+09
        -0.14919E+09
        -0.43628E+09
        -0.25707E+09
        -0.20982E+09
         0.36045E+08
        -0.15379E+09
        -0.16821E+09
        -0.19850E+09
         0.20648E+09
        -0.14284E+09
        -0.28671E+09
        -0.31996E+09
        -0.31754E+09
        -0.52796E+09
        -0.39700E+09
        -0.21978E+09
        -0.48529E+09
        -0.36137E+09
        -0.35973E+09
        -0.37305E+09
        -0.23441E+09
        -0.50692E+09
        -0.41560E+09
        -0.38476E+09
        -0.82416E+08
        -0.21877E+09
        -0.36075E+09
        -0.43018E+09
         0.28333E+08
        -0.24506E+09
        -0.54506E+09
        -0.16916E+09
         0.72672E+09
         0.14550E+09
        -0.71490E+09
        -0.78063E+08
        -0.20091E+09
        -0.51001E+09
         0.19688E+09
         0.24471E+09
         0.71888E+09
        -0.14164E+09
        -0.36457E+09
        -0.86998E+09
        -0.19248E+09
         0.56200E+07
        -0.67006E+09
        -0.46142E+09
        -0.88376E+08
        -0.96914E+08
        -0.61875E+09
        -0.42238E+09
        -0.11422E+09
        -0.59743E+09
        -0.31595E+09
        -0.44545E+09
        -0.28333E+09
        -0.52486E+09
         0.18018E+09
        -0.64861E+09
        -0.24039E+09
        -0.33952E+07
        -0.43374E+09
        -0.27958E+09
         0.26772E+09
        -0.32899E+09
        -0.44094E+09
        -0.24012E+09
        -0.51343E+07
         0.20558E+09
        -0.55259E+09
        -0.46044E+09
        -0.25542E+09
        -0.20402E+09
         0.11057E+09
         0.50697E+07
        -0.74522E+08
        -0.87819E+08
         0.33910E+09
        -0.18534E+09
        -0.32218E+08
        -0.24136E+09
        -0.42754E+09
        -0.28948E+09
        -0.17113E+09
        -0.20024E+09
        -0.30609E+09
        -0.15315E+09
        -0.19156E+09
        -0.35250E+09
        -0.24067E+09
         0.20045E+08
         0.28200E+08
        -0.10689E+09
        -0.17231E+09
         0.17356E+09
         0.13973E+08
        -0.54150E+08
        -0.73113E+08
         0.17639E+08
        -0.11557E+09
        -0.10216E+09
        -0.15667E+09
         0.42435E+09
         0.36135E+09
         0.30676E+09
         0.40154E+09
         0.31770E+09
         0.33227E+09
         0.77324E+07
        -0.50184E+09
         0.78197E+08
         0.39161E+09
         0.71245E+09
         0.53342E+09
         0.13161E+09
         0.38473E+09
        -0.47190E+09
        -0.26459E+09
         0.11889E+09
         0.11837E+09
         0.21740E+09
         0.88931E+09
         0.54497E+09
         0.86192E+09
         0.57221E+09
        -0.16671E+09
         0.24313E+09
         0.40357E+09
         0.39422E+09
         0.20355E+09
         0.47624E+09
         0.27674E+09
         0.12149E+09
         0.41536E+09
         0.88838E+08
         0.66607E+09
         0.34431E+09
         0.59726E+09
         0.16948E+09
         0.45993E+09
         0.25195E+09
        -0.86227E+08
         0.25279E+09
         0.63112E+09
         0.74805E+09
         0.21882E+09
         0.56086E+09
         0.63156E+09
         0.48843E+09
         0.28554E+09
         0.65595E+09
         0.73292E+09
         0.45923E+09
        -0.51804E+09
        -0.36690E+09
        -0.49497E+09
        -0.24645E+09
        -0.43928E+09
        -0.49513E+09
        -0.95811E+08
        -0.17651E+09
        -0.21578E+09
        -0.26108E+09
         0.14650E+08
        -0.22184E+09
        -0.46381E+09
        -0.37532E+09
        -0.63565E+09
        -0.54631E+09
        -0.48962E+09
        -0.30091E+09
        -0.65408E+09
        -0.53799E+09
        -0.27863E+09
        -0.33473E+09
        -0.44226E+09
        -0.83000E+09
        -0.35311E+09
        -0.33696E+09
         0.31099E+08
        -0.24955E+09
        -0.52779E+09
        -0.26593E+09
        -0.18407E+09
        -0.37341E+09
        -0.32683E+09
         0.37467E+09
        -0.50666E+08
        -0.13871E+09
        -0.61181E+09
        -0.73890E+09
        -0.64669E+09
        -0.28985E+09
        -0.32515E+09
         0.43683E+09
         0.10953E+09
        -0.17071E+09
        -0.12207E+09
        -0.41270E+09
        -0.87166E+09
        -0.60918E+09
        -0.85844E+09
        -0.40216E+09
        -0.28529E+09
        -0.23763E+09
        -0.51175E+09
        -0.42604E+09
        -0.14625E+09
        -0.14336E+09
        -0.38993E+09
        -0.41398E+09
        -0.45650E+09
        -0.44040E+09
        -0.16344E+09
        -0.76340E+09
        -0.57176E+09
        -0.21975E+09
        -0.44715E+09
        -0.46240E+09
        -0.22634E+09
        -0.42967E+09
        -0.58066E+09
        -0.49697E+09
        -0.60651E+09
        -0.26419E+09
        -0.52375E+09
        -0.39364E+09
        -0.52043E+09
        -0.56410E+09
        -0.21439E+09
        -0.24515E+09
         0.39276E+09
         0.28564E+09
         0.68043E+09
         0.21817E+09
         0.30700E+09
         0.31985E+09
        -0.19357E+09
        -0.14366E+09
         0.11984E+08
         0.93197E+08
         0.18139E+09
         0.79962E+08
        -0.65750E+07
         0.19168E+08
         0.25320E+09
         0.30775E+09
         0.26010E+09
         0.39559E+09
         0.50661E+09
         0.20359E+09
         0.14799E+09
         0.19824E+09
         0.64702E+09
         0.30791E+09
         0.41635E+09
         0.94328E+08
        -0.45886E+09
         0.30030E+09
         0.32630E+09
         0.75536E+08
         0.37693E+09
         0.45433E+09
        -0.32974E+08
        -0.44056E+09
         0.21951E+08
         0.13148E+09
         0.23908E+09
         0.78553E+09
         0.74971E+09
         0.63289E+08
         0.80112E+09
        -0.67798E+09
        -0.47430E+08
        -0.43514E+08
        -0.12635E+09
         0.89057E+07
         0.11204E+10
         0.88846E+09
         0.79862E+09
         0.27451E+09
        -0.12133E+09
         0.93967E+08
         0.15839E+09
         0.39008E+08
         0.29829E+08
        -0.11467E+09
         0.83955E+08
         0.31655E+09
         0.36887E+09
         0.21857E+09
         0.45201E+09
         0.57895E+09
         0.95637E+09
         0.36522E+09
         0.27566E+09
         0.56161E+09
         0.63369E+09
         0.40376E+09
         0.45993E+09
         0.88938E+09
         0.73134E+09
         0.56225E+09
         0.35765E+09
         0.35861E+09
         0.60163E+09
         0.63994E+09
         0.58634E+09
         0.45755E+09
        -0.39057E+09
        -0.16068E+09
        -0.33279E+09
        -0.34490E+09
        -0.34017E+09
        -0.46179E+09
        -0.13394E+09
        -0.18135E+09
        -0.40029E+08
        -0.24314E+09
        -0.38979E+09
        -0.88906E+08
        -0.26968E+09
        -0.39570E+09
        -0.61418E+09
        -0.39628E+09
        -0.43088E+09
        -0.60663E+09
        -0.43585E+09
        -0.40875E+09
        -0.76040E+08
        -0.26294E+09
        -0.57497E+09
        -0.51442E+09
        -0.36019E+09
        -0.26898E+09
         0.25880E+09
        -0.33722E+09
        -0.44084E+09
        -0.34466E+09
        -0.82835E+08
        -0.37289E+09
        -0.14328E+09
         0.43728E+09
        -0.20983E+09
        -0.23217E+09
        -0.38036E+09
        -0.66857E+09
        -0.65139E+09
        -0.47572E+09
        -0.80032E+09
         0.66590E+09
        -0.23582E+09
        -0.20913E+09
        -0.18904E+09
        -0.51039E+09
        -0.11606E+10
        -0.95043E+09
        -0.84408E+09
        -0.20239E+09
         0.93475E+07
        -0.12445E+09
        -0.58172E+09
        -0.11656E+09
        -0.15383E+09
         0.13479E+09
        -0.19039E+09
        -0.41597E+09
        -0.53658E+09
        -0.50444E+09
        -0.16986E+09
        -0.86043E+09
        -0.10184E+10
        -0.50280E+09
        -0.21658E+09
        -0.70620E+09
        -0.90020E+09
        -0.56147E+09
        -0.43756E+09
        -0.89432E+09
        -0.10501E+10
        -0.61110E+09
        -0.46724E+09
        -0.37635E+09
        -0.62403E+09
        -0.62604E+09
        -0.27809E+09
        -0.30294E+09
         0.48170E+09
         0.13868E+09
         0.70839E+09
         0.55689E+09
         0.39131E+09
         0.32159E+09
         0.15576E+09
        -0.11322E+08
         0.36595E+08
         0.25647E+09
         0.66691E+09
         0.13696E+08
         0.16879E+09
         0.20446E+09
         0.51609E+09
         0.42508E+09
         0.42676E+09
         0.74270E+09
         0.60709E+09
         0.46018E+09
         0.10933E+09
         0.34305E+09
         0.86569E+09
         0.52799E+09
         0.55286E+09
         0.25556E+09
        -0.38944E+09
         0.38934E+09
         0.38034E+09
         0.36018E+09
         0.93457E+08
         0.31640E+09
         0.36403E+07
        -0.47017E+09
        -0.19074E+09
         0.49394E+08
         0.26189E+09
         0.56019E+09
         0.64487E+09
         0.37220E+09
         0.70535E+09
        -0.84496E+09
        -0.39758E+08
        -0.35501E+08
         0.91449E+08
         0.43644E+09
         0.98484E+09
         0.65390E+09
         0.81831E+09
         0.32857E+09
        -0.18679E+09
         0.61874E+08
         0.48766E+09
        -0.60418E+08
        -0.49828E+08
         0.54713E+08
         0.12292E+09
         0.36131E+09
         0.46417E+09
         0.35961E+09
         0.17618E+09
         0.52655E+09
         0.93917E+09
         0.44879E+09
         0.19279E+09
         0.53552E+09
         0.77260E+09
         0.52513E+09
         0.34533E+09
         0.82361E+09
         0.85979E+09
         0.58676E+09
         0.41458E+09
         0.31606E+09
         0.48307E+09
         0.44547E+09
         0.35739E+09
         0.31612E+09
        -0.11412E+09
         0.13631E+09
        -0.26501E+09
        -0.36769E+09
        -0.24177E+09
        -0.22625E+09
        -0.10282E+09
        -0.77786E+08
        -0.88793E+08
        -0.21612E+09
        -0.48172E+09
        -0.13307E+09
        -0.21131E+09
        -0.22939E+09
        -0.47378E+09
        -0.43485E+09
        -0.37926E+09
        -0.55468E+09
        -0.51891E+09
        -0.33523E+09
         0.97526E+08
        -0.22181E+09
        -0.45871E+09
        -0.25871E+09
        -0.29121E+09
        -0.14509E+09
         0.14295E+09
        -0.52980E+09
        -0.42312E+09
        -0.73464E+09
         0.70615E+08
        -0.28495E+09
        -0.28505E+09
         0.29873E+09
         0.39454E+09
        -0.12828E+08
        -0.39262E+09
        -0.58566E+09
        -0.65182E+09
        -0.46219E+09
        -0.66940E+09
         0.69725E+09
         0.60433E+08
        -0.70254E+08
        -0.30123E+09
        -0.70598E+09
        -0.94337E+09
        -0.68876E+09
        -0.97181E+09
        -0.45447E+09
        -0.16854E+08
        -0.20874E+09
        -0.69523E+09
        -0.17634E+09
        -0.49139E+08
        -0.31277E+09
        -0.23459E+09
        -0.45817E+09
        -0.53176E+09
        -0.46475E+09
        -0.16508E+08
        -0.53476E+09
        -0.88250E+09
        -0.60751E+09
        -0.34496E+09
        -0.37314E+09
        -0.59923E+09
        -0.55944E+09
        -0.55417E+09
        -0.86104E+09
        -0.85192E+09
        -0.56663E+09
        -0.59208E+09
        -0.50369E+09
        -0.44401E+09
        -0.32027E+09
        -0.15826E+09
        -0.21056E+09
         0.19501E+08
        -0.18464E+09
         0.47185E+09
         0.36022E+09
         0.24457E+09
         0.21571E+09
         0.41019E+08
         0.91199E+08
         0.18408E+08
         0.15187E+09
         0.28750E+08
         0.13300E+09
         0.11343E+09
         0.20613E+09
         0.29761E+09
         0.44491E+09
         0.41388E+09
         0.40583E+09
         0.64488E+09
         0.39632E+09
         0.88096E+08
         0.33974E+09
         0.51949E+09
         0.30159E+09
         0.36582E+09
         0.34159E+09
        -0.47139E+08
         0.50799E+09
         0.30531E+09
         0.60533E+09
         0.56899E+08
         0.44914E+09
         0.42686E+09
        -0.30509E+09
        -0.61666E+09
        -0.19847E+09
         0.45457E+09
         0.47139E+09
         0.61661E+09
         0.34275E+09
         0.50277E+09
        -0.58000E+09
        -0.40893E+09
        -0.97893E+08
         0.87648E+08
         0.45982E+09
         0.73168E+09
         0.60302E+09
         0.74553E+09
         0.58453E+09
         0.40806E+08
         0.42209E+09
         0.55895E+09
         0.30071E+09
         0.13426E+09
         0.43955E+09
         0.46786E+09
         0.37661E+09
         0.44256E+09
         0.20545E+09
        -0.31836E+08
         0.16448E+09
         0.61506E+09
         0.51519E+09
         0.29547E+09
         0.14171E+09
         0.18897E+09
         0.27870E+09
         0.56512E+09
         0.62627E+09
         0.52355E+09
         0.27097E+09
         0.30348E+09
         0.43557E+09
         0.32469E+09
         0.11224E+09
         0.12167E+09
         0.22967E+09
         0.34969E+09
         0.19951E+09
        -0.15456E+09
        -0.20959E+09
        -0.21731E+09
        -0.22978E+09
        -0.21504E+08
        -0.11526E+09
        -0.89822E+08
        -0.12506E+09
         0.21329E+09
        -0.20913E+09
        -0.14712E+09
        -0.33482E+09
        -0.26657E+09
        -0.47720E+09
        -0.39247E+09
        -0.18341E+09
        -0.38290E+09
        -0.10403E+09
         0.35622E+08
        -0.22093E+09
        -0.19035E+09
        -0.19830E+08
        -0.26849E+09
        -0.29609E+09
         0.85228E+08
        -0.57770E+09
        -0.32024E+09
        -0.69074E+09
        -0.15057E+09
        -0.58324E+09
        -0.69117E+09
         0.21504E+09
         0.73825E+09
         0.25428E+09
        -0.57601E+09
        -0.67690E+09
        -0.81213E+09
        -0.18743E+09
        -0.48612E+09
         0.43857E+09
         0.52480E+09
         0.25568E+07
        -0.13204E+08
        -0.51193E+09
        -0.78087E+09
        -0.84066E+09
        -0.93765E+09
        -0.64398E+09
        -0.22688E+09
        -0.57103E+09
        -0.58587E+09
        -0.55653E+09
        -0.21863E+09
        -0.66876E+09
        -0.59347E+09
        -0.47213E+09
        -0.49767E+09
        -0.23957E+09
         0.77229E+08
        -0.42215E+08
        -0.52814E+09
        -0.61568E+09
        -0.46161E+09
        -0.59650E+08
        -0.15326E+08
        -0.22810E+09
        -0.79515E+09
        -0.74367E+09
        -0.41745E+09
        -0.14461E+09
        -0.30606E+09
        -0.49320E+09
        -0.27505E+09
         0.46584E+08
         0.28256E+08
        -0.22783E+09
        -0.26981E+09
        -0.18324E+09
        -0.12888E+07
         0.17173E+09
         0.20856E+09
         0.15666E+09
        -0.15143E+08
        -0.48060E+08
         0.10278E+09
        -0.11759E+09
        -0.37870E+09
        -0.10142E+08
         0.97412E+08
         0.31952E+09
         0.13972E+09
         0.33466E+09
         0.32043E+09
        -0.25768E+08
         0.17089E+09
         0.47732E+08
        -0.70406E+08
         0.25059E+09
         0.14666E+09
        -0.81486E+08
         0.36974E+09
         0.43414E+09
        -0.24061E+09
         0.41542E+09
         0.26028E+09
         0.46777E+09
         0.23365E+09
         0.52161E+09
         0.78227E+09
        -0.19339E+09
        -0.74109E+09
        -0.28830E+09
         0.78114E+09
         0.51182E+09
         0.66989E+09
         0.41314E+09
         0.41591E+09
        -0.33458E+09
        -0.51687E+09
         0.37416E+08
        -0.83515E+08
         0.25944E+09
         0.63994E+09
         0.70522E+09
         0.63672E+09
         0.65690E+09
         0.19968E+09
         0.66481E+09
         0.45147E+09
         0.49380E+09
         0.30332E+09
         0.49449E+09
         0.66885E+09
         0.40969E+09
         0.46179E+09
         0.59042E+08
         0.38403E+08
         0.82902E+07
         0.32184E+09
         0.44004E+09
         0.29290E+09
         0.10255E+09
        -0.73531E+08
         0.11807E+09
         0.63375E+09
         0.50462E+09
         0.27019E+09
         0.78273E+08
         0.11720E+09
         0.22165E+09
         0.12420E+09
        -0.63814E+08
         0.68548E+08
         0.23562E+09
         0.30524E+09
         0.12995E+09
         0.21619E+09
        -0.67265E+08
        -0.14453E+09
        -0.25561E+09
         0.35975E+07
         0.97131E+08
        -0.19649E+09
         0.99756E+08
         0.19324E+09
         0.17521E+08
        -0.14788E+09
        -0.31424E+09
        -0.11264E+09
        -0.30359E+09
        -0.21806E+09
         0.38399E+08
        -0.31320E+08
         0.15741E+09
         0.11564E+09
        -0.72273E+08
         0.46163E+08
         0.18857E+09
        -0.15820E+09
        -0.33975E+09
         0.27494E+09
        -0.40687E+09
        -0.36350E+09
        -0.29935E+09
        -0.32533E+09
        -0.37901E+09
        -0.85728E+09
         0.28395E+09
         0.72103E+09
         0.45609E+09
        -0.99362E+09
        -0.85550E+09
        -0.73536E+09
        -0.28936E+09
        -0.69514E+09
         0.25284E+09
         0.61413E+09
        -0.28641E+09
         0.15196E+09
        -0.23157E+09
        -0.94857E+09
        -0.92473E+09
        -0.79829E+09
        -0.64968E+09
        -0.27128E+09
        -0.68598E+09
        -0.28562E+09
        -0.52188E+09
        -0.39525E+09
        -0.53737E+09
        -0.71411E+09
        -0.53877E+09
        -0.43415E+09
        -0.10650E+09
        -0.26309E+09
        -0.24234E+09
        -0.31821E+09
        -0.51978E+09
        -0.34314E+09
        -0.16452E+09
         0.10565E+08
        -0.23382E+09
        -0.70357E+09
        -0.49652E+09
        -0.39110E+09
        -0.22604E+09
        -0.14761E+09
        -0.32919E+08
        -0.11178E+08
        -0.27512E+08
        -0.12101E+09
        -0.23708E+09
        -0.30258E+09
        -0.42967E+08
        -0.44804E+08
         0.29450E+08
        -0.13319E+08
         0.48572E+09
         0.76817E+08
        -0.18509E+09
         0.58425E+08
        -0.27060E+09
        -0.23512E+09
        -0.17107E+09
         0.10713E+09
         0.22097E+09
         0.19175E+09
         0.28999E+09
         0.23484E+08
         0.10557E+09
         0.29988E+08
        -0.42576E+09
        -0.18589E+09
        -0.75148E+08
         0.13668E+08
         0.16709E+09
         0.88889E+08
         0.22402E+09
        -0.46410E+09
         0.40128E+09
         0.47384E+09
         0.10952E+09
         0.24183E+09
         0.27202E+09
         0.72868E+09
         0.21331E+07
        -0.81125E+09
        -0.45192E+09
         0.10213E+10
         0.68792E+09
         0.48449E+09
         0.59142E+09
         0.49808E+09
        -0.29218E+08
        -0.45608E+09
         0.14604E+09
        -0.96461E+08
         0.13911E+09
         0.76731E+09
         0.65027E+09
         0.52233E+09
         0.61845E+09
         0.76939E+08
         0.64219E+09
         0.32736E+09
         0.45505E+09
         0.46668E+09
         0.54766E+09
         0.54613E+09
         0.48800E+09
         0.31028E+09
        -0.53157E+07
         0.23309E+09
         0.17825E+09
         0.26166E+09
         0.33808E+09
         0.29377E+09
         0.18514E+09
        -0.16347E+08
         0.20177E+09
         0.52226E+09
         0.27509E+09
         0.23163E+09
         0.21610E+09
         0.15328E+09
        -0.12500E+09
        -0.50922E+08
         0.12210E+09
         0.25351E+09
         0.24407E+09
         0.31909E+09
        -0.29298E+07
         0.10297E+09
        -0.41084E+08
         0.13870E+09
        -0.41401E+09
         0.39586E+07
         0.20509E+09
        -0.34518E+08
         0.13758E+09
         0.52207E+08
         0.18024E+09
        -0.10436E+09
        -0.14474E+09
        -0.13532E+09
        -0.15145E+09
         0.18642E+09
        -0.71339E+08
        -0.67578E+08
         0.50626E+09
         0.15329E+09
         0.26918E+09
         0.19366E+09
        -0.10043E+09
         0.26647E+09
        -0.12303E+09
         0.40586E+09
        -0.34524E+09
        -0.47530E+09
        -0.22360E+09
        -0.19629E+09
        -0.11657E+09
        -0.70093E+09
         0.19830E+09
         0.85813E+09
         0.67838E+09
        -0.97914E+09
        -0.90392E+09
        -0.75225E+09
        -0.63860E+09
        -0.60228E+09
        -0.18659E+08
         0.49717E+09
        -0.51312E+09
        -0.11441E+09
        -0.31643E+09
        -0.71456E+09
        -0.59455E+09
        -0.76162E+09
        -0.53303E+09
         0.28073E+09
        -0.51811E+09
        -0.40889E+09
        -0.13572E+09
        -0.15913E+09
        -0.27064E+09
        -0.52320E+09
        -0.53055E+09
        -0.11883E+09
        -0.10575E+08
        -0.26075E+09
        -0.26026E+09
        -0.34464E+09
        -0.47748E+09
        -0.39616E+09
        -0.38947E+09
        -0.62977E+09
        -0.64001E+09
        -0.67725E+09
        -0.43736E+09
        -0.29700E+09
        -0.16832E+09
        -0.27183E+09
        -0.28286E+08
         0.15418E+09
         0.12440E+09
        -0.18014E+09
        -0.25564E+09
        -0.48638E+09
        -0.11426E+09
        -0.24784E+09
        -0.10786E+08
         0.71678E+08
         0.43687E+09
         0.79508E+08
        -0.19414E+09
        -0.16237E+09
         0.86079E+08
         0.47184E+08
         0.12088E+09
        -0.14432E+08
        -0.43571E+08
         0.50767E+08
         0.17029E+09
        -0.62127E+08
        -0.48431E+08
        -0.11485E+09
        -0.59621E+09
        -0.17688E+09
        -0.38863E+09
        -0.30448E+09
         0.29325E+09
        -0.23452E+09
        -0.29019E+08
        -0.12647E+09
        -0.10688E+09
         0.58246E+09
         0.12464E+09
         0.13318E+09
         0.22583E+09
         0.68699E+09
        -0.39278E+08
        -0.98996E+09
        -0.10348E+10
         0.88696E+09
         0.42822E+09
         0.74271E+09
         0.89800E+09
         0.31263E+09
         0.42409E+08
        -0.95589E+08
         0.13463E+09
         0.19448E+09
         0.28141E+09
         0.37167E+09
         0.53271E+09
         0.34643E+09
         0.90493E+09
        -0.14339E+09
         0.67010E+09
         0.64169E+09
         0.35145E+09
         0.29773E+09
         0.27871E+09
         0.51509E+09
         0.23534E+09
         0.11654E+09
        -0.43901E+09
         0.85929E+08
         0.28865E+09
         0.21199E+09
         0.61085E+09
         0.24253E+09
         0.23187E+09
         0.73992E+09
         0.52769E+09
         0.63948E+09
         0.69791E+08
         0.28098E+09
         0.19345E+09
         0.18676E+09
        -0.30546E+08
        -0.66137E+08
         0.11222E+09
         0.54653E+09
         0.47286E+09
         0.15922E+09
         0.29042E+09
         0.32957E+09
         0.59707E+08
         0.28181E+07
        -0.78049E+08
        -0.46146E+08
         0.15126E+08
         0.11550E+09
        -0.55520E+08
        -0.14992E+09
        -0.86755E+08
        -0.32232E+08
        -0.94240E+08
        -0.24555E+07
         0.95657E+08
         0.19738E+09
         0.20708E+09
        -0.88683E+08
         0.34848E+09
         0.34319E+09
         0.10879E+09
         0.50720E+09
        -0.40522E+09
         0.29009E+09
        -0.14451E+09
         0.42210E+09
        -0.54049E+09
        -0.10673E+10
         0.21332E+09
         0.18305E+09
        -0.47485E+09
        -0.11981E+10
         0.92775E+09
         0.16570E+09
         0.15328E+10
        -0.13620E+10
        -0.32183E+09
        -0.50258E+09
        -0.15048E+10
        -0.88802E+08
         0.34271E+09
         0.53392E+09
         0.24097E+08
        -0.48510E+09
        -0.35175E+09
        -0.14275E+09
        -0.26887E+09
        -0.12996E+09
        -0.12280E+10
         0.92000E+09
        -0.11722E+10
        -0.12566E+10
         0.73530E+08
         0.94896E+08
        -0.44765E+09
        -0.63988E+09
        -0.84627E+09
        -0.44703E+09
        -0.19532E+09
         0.56431E+09
         0.38129E+09
         0.40795E+08
        -0.20142E+09
        -0.25398E+09
        -0.42933E+09
        -0.85616E+09
        -0.54686E+09
        -0.55571E+09
         0.59155E+09
        -0.33066E+09
        -0.22137E+09
         0.27384E+09
         0.75199E+09
        -0.93152E+08
         0.47477E+09
         0.73839E+09
        -0.15872E+09
        -0.11726E+10
        -0.34288E+09
        -0.74263E+09
        -0.24571E+09
        -0.18550E+08
         0.20999E+09
        -0.35786E+09
        -0.18849E+09
        -0.38337E+09
         0.65766E+08
         0.59564E+08
         0.80859E+08
        -0.12068E+09
        -0.29629E+09
        -0.31296E+09
        -0.18929E+09
        -0.40277E+09
        -0.29230E+09
        -0.18611E+09
        -0.88333E+09
        -0.75556E+09
        -0.27044E+09
        -0.59646E+09
        -0.88638E+09
        -0.20971E+09
         0.23655E+07
        -0.45438E+09
         0.27839E+09
        -0.45083E+09
         0.36745E+09
         0.12459E+10
        -0.34776E+09
        -0.16037E+10
         0.13955E+10
        -0.14995E+10
        -0.57194E+09
         0.32205E+09
         0.13156E+09
         0.70984E+09
         0.13835E+10
        -0.14369E+08
         0.55547E+09
        -0.67498E+09
         0.20585E+09
         0.27238E+09
         0.72046E+09
         0.99334E+08
         0.11940E+09
         0.21691E+09
         0.37240E+09
         0.16466E+09
        -0.11178E+10
        -0.46261E+09
        -0.16624E+09
         0.75650E+09
        -0.41040E+09
        -0.17037E+09
         0.21618E+09
        -0.71768E+09
         0.29056E+08
        -0.10222E+09
        -0.64763E+09
         0.81546E+09
         0.35820E+09
         0.51588E+09
        -0.11204E+09
         0.44243E+09
         0.46685E+08
         0.58344E+09
         0.93339E+09
         0.23512E+09
         0.61239E+09
        -0.32946E+08
         0.53957E+09
         0.23387E+09
        -0.37859E+09
         0.10754E+10
        -0.99143E+08
         0.74667E+09
        -0.19282E+09
         0.67048E+09
        -0.10767E+08
         0.72722E+08
         0.39854E+08
         0.38594E+09
         0.13129E+09
         0.20151E+09
         0.12311E+09
         0.16732E+09
         0.11320E+09
         0.59941E+08
         0.24388E+09
         0.37089E+09
         0.46818E+08
         0.43737E+08
         0.45473E+08
         0.15749E+09
         0.52353E+09
         0.21781E+09
         0.27354E+09
         0.50390E+09
        -0.11538E+09
         0.42090E+09
         0.37619E+09
  
SCALARS                      stress_yz  double 1
LOOKUP_TABLE default
         0.26581E+08
         0.27241E+08
         0.36194E+08
        -0.40542E+08
         0.32329E+01
         0.15600E+00
         0.10917E+02
        -0.86018E+01
        -0.56359E+08
         0.13723E+08
        -0.48396E+01
        -0.18884E+02
         0.96245E+08
         0.18328E+09
         0.41917E+02
         0.28184E+02
        -0.65966E+07
         0.58162E+08
        -0.41947E+01
         0.16317E+02
         0.73748E+08
         0.80182E+08
         0.15603E+09
         0.51935E+02
         0.45210E+02
         0.30286E+02
         0.12648E+09
         0.15906E+09
         0.53486E+02
         0.40930E+02
        -0.11083E+09
        -0.42687E+07
        -0.44655E+08
        -0.22129E+02
         0.34186E+01
        -0.13009E+02
         0.44421E+07
        -0.10688E+08
         0.84964E+00
         0.84064E+01
        -0.49213E+08
        -0.42044E+08
        -0.47076E+01
         0.28503E+01
        -0.20676E+08
        -0.12457E+09
        -0.18319E+02
        -0.22205E+02
         0.85561E+08
         0.16869E+02
        -0.13754E+09
        -0.19172E+02
         0.10608E+09
         0.35741E+02
         0.12756E+09
         0.32618E+02
         0.69344E+08
        -0.77457E+07
         0.13645E+02
         0.13005E+02
        -0.13321E+09
        -0.54915E+08
        -0.24343E+02
        -0.26725E+02
        -0.12058E+09
        -0.22436E+02
        -0.38576E+08
        -0.12657E+02
         0.76443E+08
         0.11405E+09
         0.36840E+01
         0.19569E+02
         0.62831E+08
         0.31367E+02
         0.14658E+09
         0.30641E+02
         0.98219E+08
         0.27739E+02
         0.58087E+08
         0.24299E+02
         0.46332E+08
         0.96856E+08
         0.18230E+02
         0.88915E+01
         0.19330E+08
         0.33131E+01
        -0.11370E+09
        -0.31300E+02
        -0.21976E+09
        -0.29288E+02
        -0.20530E+09
        -0.12183E+09
        -0.40403E+02
        -0.38591E+02
        -0.11544E+09
        -0.34248E+02
        -0.34227E+08
        -0.34185E+02
        -0.16246E+09
        -0.35725E+02
        -0.96905E+08
        -0.94452E+08
        -0.28811E+02
        -0.11553E+02
        -0.24472E+08
         0.68125E+08
         0.46736E+01
        -0.83070E+00
         0.20607E+09
         0.14473E+02
        -0.34785E+08
         0.29335E+02
         0.46474E+08
         0.34811E+02
         0.15465E+09
         0.38678E+02
         0.24775E+09
         0.30397E+02
         0.47183E+08
         0.26265E+02
         0.92456E+08
         0.23464E+02
         0.36995E+08
         0.22085E+02
         0.92244E+08
         0.14568E+02
        -0.15211E+09
         0.92974E+01
         0.12142E+09
         0.38342E+01
         0.25596E+08
         0.12254E+01
        -0.16131E+09
        -0.34391E+01
        -0.37913E+08
        -0.11238E+02
         0.10839E+09
        -0.19605E+02
        -0.19746E+08
        -0.29769E+02
        -0.20793E+09
        -0.35026E+02
        -0.29789E+08
        -0.31963E+02
        -0.56306E+08
        -0.30608E+02
        -0.14159E+09
        -0.30350E+02
        -0.75629E+08
        -0.29257E+02
         0.11630E+09
        -0.26638E+02
        -0.10767E+09
        -0.19840E+02
         0.11635E+08
        -0.65657E+01
        -0.56286E+07
         0.26109E+08
        -0.19482E+08
        -0.89021E+08
         0.69957E+08
        -0.50801E+07
        -0.51828E+08
        -0.96370E+08
        -0.19459E+08
        -0.11808E+09
         0.84320E+08
         0.33909E+08
         0.10805E+09
         0.13832E+09
        -0.31034E+08
         0.16097E+08
        -0.98943E+07
        -0.26109E+08
         0.47853E+08
        -0.60648E+08
        -0.36429E+08
         0.52403E+08
         0.46923E+07
         0.29809E+08
        -0.91342E+07
         0.24956E+08
         0.24613E+09
         0.50198E+08
        -0.11998E+09
        -0.16749E+07
        -0.40392E+08
         0.38656E+07
         0.11837E+09
         0.96614E+08
         0.41085E+08
        -0.12345E+08
         0.74230E+08
        -0.15443E+09
         0.13942E+09
         0.41337E+08
         0.10313E+09
         0.11058E+09
         0.26633E+08
        -0.13986E+09
        -0.22760E+09
        -0.14805E+09
        -0.19670E+09
        -0.12948E+09
         0.64289E+08
         0.54087E+08
        -0.16548E+09
        -0.94494E+08
        -0.39822E+06
        -0.73197E+08
         0.14682E+09
         0.15700E+09
         0.74678E+07
         0.16610E+09
         0.25963E+09
         0.18783E+09
         0.24988E+09
         0.22683E+09
         0.17803E+09
         0.50712E+07
         0.44089E+08
         0.54853E+08
        -0.77162E+08
        -0.81294E+08
        -0.40018E+06
        -0.28379E+08
        -0.23166E+09
        -0.78950E+08
         0.13747E+07
        -0.23245E+09
        -0.13633E+09
        -0.20123E+09
         0.35394E+08
        -0.54011E+08
         0.25621E+08
         0.64861E+08
        -0.99486E+07
        -0.44227E+08
         0.10007E+07
        -0.55980E+08
         0.11385E+09
         0.13085E+09
         0.38005E+07
         0.83714E+08
         0.15546E+09
         0.18404E+09
         0.19483E+09
         0.18828E+09
         0.12713E+09
        -0.10668E+09
        -0.45069E+07
        -0.65046E+08
        -0.47361E+08
         0.27510E+07
        -0.68228E+08
         0.26211E+08
        -0.66907E+08
        -0.10583E+09
         0.12476E+08
        -0.14878E+09
         0.17722E+09
         0.11790E+09
         0.50599E+08
         0.11566E+08
        -0.14956E+09
        -0.11502E+09
        -0.10671E+09
        -0.56180E+08
         0.86317E+08
         0.60580E+08
         0.12533E+09
         0.14633E+09
         0.18092E+09
         0.16029E+09
         0.13041E+09
         0.75319E+08
         0.59503E+08
        -0.10371E+09
        -0.22537E+09
        -0.21246E+09
        -0.14212E+09
        -0.11469E+09
        -0.13730E+09
        -0.12482E+09
        -0.12709E+09
        -0.96621E+08
         0.14974E+09
        -0.76309E+08
         0.15758E+09
         0.18304E+09
         0.21632E+09
         0.17180E+09
         0.13923E+09
         0.25857E+09
         0.17868E+09
         0.15700E+09
         0.10792E+09
         0.13796E+09
        -0.62909E+07
         0.49918E+07
        -0.23037E+08
        -0.10965E+09
         0.34360E+08
        -0.37385E+08
        -0.22947E+09
        -0.20938E+09
        -0.20638E+09
        -0.24045E+09
        -0.14645E+09
        -0.16353E+09
        -0.13111E+09
        -0.54541E+08
        -0.76510E+08
        -0.18862E+09
        -0.44381E+08
         0.49000E+07
         0.43066E+08
        -0.16903E+08
        -0.21678E+09
        -0.17745E+09
        -0.10379E+09
        -0.59468E+08
        -0.19435E+09
         0.48425E+08
         0.40397E+08
        -0.17221E+09
        -0.72435E+08
         0.16820E+09
        -0.84152E+08
         0.11907E+09
         0.13305E+09
         0.41544E+08
         0.28672E+08
        -0.16630E+08
         0.74566E+08
         0.12866E+08
        -0.17212E+09
         0.75653E+08
        -0.52916E+07
        -0.13103E+09
        -0.14918E+09
        -0.68449E+08
         0.60125E+08
         0.15632E+09
         0.49143E+08
         0.11083E+09
         0.75351E+08
        -0.12589E+09
        -0.76731E+08
        -0.15086E+09
        -0.86559E+08
        -0.97451E+08
         0.72855E+08
        -0.18975E+08
        -0.32688E+08
         0.82369E+08
        -0.78948E+07
        -0.11057E+09
        -0.10901E+09
         0.13341E+09
         0.22415E+09
         0.18952E+09
         0.80822E+06
        -0.39241E+08
         0.12590E+09
        -0.48377E+07
         0.13816E+09
         0.18683E+09
         0.20957E+09
         0.23303E+09
         0.25868E+09
         0.25461E+09
         0.24890E+09
         0.21871E+09
         0.18066E+09
         0.80537E+08
         0.58982E+08
         0.45293E+08
        -0.40491E+07
        -0.12709E+09
        -0.90093E+08
        -0.15587E+09
        -0.25093E+09
        -0.22978E+09
        -0.25028E+09
        -0.22507E+09
        -0.20212E+09
        -0.10762E+09
        -0.10172E+09
        -0.77494E+08
         0.71423E+08
         0.31099E+08
        -0.36053E+08
        -0.23147E+08
        -0.97981E+07
        -0.25078E+08
         0.90420E+08
         0.10948E+09
         0.55600E+08
         0.13480E+09
         0.14252E+09
         0.50554E+08
         0.46448E+08
         0.12352E+09
         0.14699E+09
        -0.13236E+09
        -0.29320E+08
        -0.90348E+08
        -0.43746E+08
        -0.50341E+08
        -0.38927E+08
        -0.20039E+08
        -0.13321E+08
        -0.73332E+08
         0.66663E+08
        -0.13477E+09
         0.18607E+09
         0.17018E+09
         0.95686E+08
         0.12580E+08
        -0.16404E+09
        -0.27878E+08
        -0.14439E+09
        -0.67117E+08
         0.89821E+08
        -0.11455E+08
         0.26386E+08
         0.10485E+09
         0.14792E+09
         0.10586E+09
         0.12816E+09
         0.10010E+09
         0.81410E+08
        -0.90923E+08
        -0.17032E+09
        -0.18275E+09
        -0.46651E+08
        -0.93120E+08
        -0.93113E+08
        -0.82070E+08
        -0.80394E+08
        -0.19238E+08
         0.13814E+09
        -0.38007E+08
         0.10980E+09
         0.19308E+09
         0.18052E+09
         0.15609E+09
         0.23048E+09
         0.23259E+09
         0.22349E+09
         0.17058E+09
         0.12959E+09
         0.39844E+08
         0.92929E+08
         0.41513E+08
        -0.11295E+09
        -0.17198E+09
        -0.22283E+08
        -0.15239E+09
        -0.25153E+09
        -0.24871E+09
        -0.25171E+09
        -0.26022E+09
        -0.14241E+09
        -0.16221E+09
        -0.18054E+09
        -0.18470E+09
        -0.18438E+09
        -0.19858E+09
        -0.59357E+08
         0.22515E+08
         0.16508E+08
        -0.39244E+08
        -0.16496E+09
        -0.21138E+09
        -0.94912E+08
        -0.18528E+09
        -0.60117E+08
         0.62613E+08
         0.18353E+08
        -0.12817E+09
         0.65190E+08
         0.15165E+09
        -0.77811E+08
         0.12459E+09
         0.91014E+08
        -0.12409E+08
        -0.27585E+08
         0.52206E+08
        -0.15901E+08
         0.89374E+08
        -0.19479E+09
         0.15985E+09
        -0.13178E+09
        -0.10317E+09
        -0.95054E+08
        -0.86359E+08
         0.15952E+09
         0.10188E+09
         0.19119E+09
         0.17377E+09
         0.97247E+08
        -0.43831E+07
        -0.36155E+08
        -0.11511E+08
        -0.21363E+08
        -0.74543E+06
         0.17474E+08
        -0.39834E+08
         0.99343E+07
         0.43187E+08
        -0.62842E+08
        -0.16259E+09
        -0.93215E+08
         0.32076E+08
         0.11210E+09
         0.99002E+08
         0.93020E+07
         0.53879E+08
         0.94250E+08
         0.20006E+07
         0.11831E+09
         0.18058E+09
         0.18989E+09
         0.20554E+09
         0.24991E+09
         0.24356E+09
         0.21681E+09
         0.21201E+09
         0.15982E+09
         0.82974E+08
         0.35340E+08
         0.87383E+07
        -0.51889E+08
        -0.11375E+09
        -0.11044E+09
        -0.16170E+09
        -0.23727E+09
        -0.24436E+09
        -0.25555E+09
        -0.23670E+09
        -0.17696E+09
        -0.11051E+09
        -0.13426E+09
        -0.12882E+09
         0.40293E+08
         0.21009E+08
         0.30122E+08
        -0.17110E+08
         0.62650E+08
         0.10397E+08
         0.99221E+08
         0.11340E+09
         0.38700E+08
         0.12113E+09
         0.16756E+09
        -0.87910E+08
         0.84151E+08
         0.18137E+09
        -0.29963E+08
        -0.97625E+08
        -0.10776E+08
        -0.60908E+08
        -0.84109E+08
        -0.28466E+08
        -0.56270E+08
         0.75222E+08
        -0.34738E+08
        -0.15991E+09
         0.77940E+08
        -0.12500E+09
         0.19603E+09
         0.12733E+09
         0.72479E+08
         0.52402E+08
        -0.13291E+09
        -0.58645E+08
        -0.14720E+09
        -0.67010E+08
         0.25049E+08
        -0.72440E+08
        -0.84725E+08
         0.17784E+08
         0.96610E+08
         0.66807E+08
         0.70677E+08
         0.37930E+08
         0.30493E+08
         0.19298E+08
        -0.27426E+06
         0.46695E+08
        -0.19547E+08
        -0.18776E+08
        -0.70003E+07
        -0.26706E+08
        -0.13619E+08
         0.67965E+08
         0.12481E+09
         0.19265E+08
         0.56312E+07
         0.19833E+09
         0.17326E+09
         0.10260E+08
         0.19586E+09
         0.15480E+09
         0.13352E+09
         0.51177E+08
         0.11699E+09
         0.58670E+08
         0.11277E+09
         0.40972E+08
        -0.12997E+09
        -0.95592E+06
         0.13107E+08
        -0.13784E+09
        -0.21882E+09
        -0.22159E+09
        -0.22677E+09
        -0.10094E+09
         0.91004E+08
        -0.38444E+08
        -0.15599E+09
        -0.12236E+09
        -0.50728E+08
        -0.86708E+08
        -0.19370E+08
         0.26445E+08
        -0.39921E+08
        -0.18090E+08
        -0.11563E+09
        -0.10265E+09
        -0.59416E+08
        -0.10258E+09
        -0.10693E+09
         0.13014E+09
         0.25729E+08
        -0.11193E+09
         0.87877E+08
         0.67379E+08
        -0.51564E+08
         0.63432E+08
         0.59799E+08
        -0.20883E+08
         0.82545E+07
         0.11442E+07
        -0.25163E+08
         0.47303E+08
        -0.83022E+08
         0.42201E+08
        -0.92416E+08
        -0.69368E+08
        -0.47013E+08
        -0.50260E+08
         0.69531E+08
         0.24525E+08
         0.69400E+08
         0.80059E+08
         0.64046E+08
         0.85089E+07
        -0.43046E+08
         0.64235E+08
         0.78378E+08
         0.10839E+09
         0.11485E+09
         0.36588E+08
         0.37423E+07
        -0.64871E+08
        -0.15423E+09
        -0.20876E+09
        -0.10563E+09
         0.44526E+08
         0.72303E+08
        -0.30967E+07
        -0.64734E+08
         0.70867E+08
         0.57729E+08
        -0.23399E+08
         0.11306E+09
         0.18426E+09
         0.21027E+09
         0.23974E+09
         0.25265E+09
         0.24992E+09
         0.23311E+09
         0.22390E+09
         0.16675E+09
         0.95507E+08
         0.40155E+08
        -0.11073E+08
        -0.50454E+08
        -0.10754E+09
        -0.11363E+09
        -0.16963E+09
        -0.23542E+09
        -0.25649E+09
        -0.25223E+09
        -0.23060E+09
        -0.20521E+09
        -0.16277E+09
        -0.11624E+09
        -0.70590E+08
         0.31506E+08
         0.52806E+08
         0.57875E+08
         0.11053E+08
        -0.29100E+07
        -0.41788E+08
         0.16825E+09
         0.15749E+09
        -0.91005E+08
         0.15413E+09
         0.21169E+09
         0.13698E+09
         0.12494E+09
         0.19011E+09
         0.15261E+09
        -0.90808E+08
        -0.74454E+08
        -0.14650E+08
        -0.39972E+08
        -0.12621E+08
        -0.86734E+08
        -0.10147E+08
        -0.12600E+09
        -0.16092E+09
         0.83580E+08
        -0.16493E+09
         0.19546E+09
         0.19491E+09
         0.12014E+09
         0.60036E+08
        -0.14870E+09
        -0.13895E+09
        -0.14237E+09
        -0.74081E+08
         0.88460E+08
         0.40639E+08
         0.30179E+08
         0.12578E+09
         0.18065E+09
         0.17192E+09
        -0.32479E+08
         0.46978E+08
         0.51985E+08
        -0.12006E+09
        -0.41300E+08
        -0.20448E+07
        -0.83176E+08
        -0.16057E+09
        -0.20429E+09
        -0.20173E+09
        -0.92498E+08
        -0.15592E+08
         0.16929E+09
        -0.99122E+08
        -0.18721E+09
         0.17028E+09
        -0.11157E+09
        -0.10245E+09
         0.49231E+08
        -0.23243E+08
        -0.20648E+08
        -0.16448E+09
        -0.76614E+08
         0.67584E+08
         0.57234E+08
         0.51203E+08
         0.47924E+08
         0.59227E+08
         0.56058E+08
         0.23217E+08
         0.36465E+08
        -0.18802E+09
        -0.12059E+08
         0.59407E+08
         0.16503E+09
        -0.55766E+08
         0.23559E+08
        -0.37583E+08
        -0.61674E+07
        -0.55508E+08
        -0.84335E+07
         0.34529E+07
         0.40309E+07
        -0.10525E+08
        -0.86790E+08
        -0.40439E+08
         0.10349E+08
         0.34408E+06
        -0.11352E+09
        -0.72961E+08
        -0.24415E+08
        -0.90802E+08
        -0.16001E+08
        -0.54633E+07
         0.13794E+07
        -0.42077E+07
         0.32855E+08
        -0.11997E+08
        -0.24264E+08
         0.10475E+08
         0.75152E+08
         0.23366E+08
        -0.85378E+07
         0.10316E+08
        -0.52274E+08
        -0.33057E+08
        -0.32814E+08
        -0.26289E+08
         0.25206E+06
         0.29007E+08
        -0.15035E+07
         0.29831E+08
        -0.42501E+07
        -0.56375E+08
        -0.39006E+08
        -0.16865E+08
        -0.21317E+08
         0.65039E+08
         0.86322E+08
        -0.33914E+08
        -0.10226E+08
         0.65543E+08
        -0.17087E+08
        -0.64430E+08
         0.81570E+08
         0.12393E+09
         0.11747E+09
         0.68678E+08
         0.37333E+08
         0.57508E+08
         0.31581E+08
        -0.52111E+08
         0.96720E+08
         0.15869E+09
         0.12648E+09
         0.14924E+09
         0.22053E+09
         0.21883E+09
         0.19995E+09
         0.17638E+09
         0.12357E+09
         0.81730E+08
         0.13252E+08
        -0.65532E+07
        -0.42302E+08
        -0.52445E+08
        -0.13302E+09
        -0.14679E+09
        -0.17506E+09
        -0.22854E+09
        -0.21694E+09
        -0.20153E+09
        -0.18723E+09
        -0.12127E+09
        -0.59979E+08
        -0.65330E+08
         0.35867E+08
         0.47509E+08
         0.64304E+08
         0.28620E+08
         0.28169E+08
        -0.41955E+08
         0.12621E+09
         0.12886E+09
        -0.16451E+08
         0.11401E+09
         0.17043E+09
         0.18629E+09
         0.16785E+09
         0.18014E+09
         0.18344E+09
        -0.64892E+08
        -0.43955E+08
        -0.23396E+08
        -0.46270E+08
        -0.97168E+07
        -0.12096E+09
         0.55241E+08
        -0.15272E+09
        -0.13062E+09
         0.48553E+08
        -0.11696E+09
         0.17043E+09
         0.13029E+09
         0.69960E+08
         0.29704E+08
        -0.12741E+09
        -0.14596E+09
        -0.12824E+09
        -0.76900E+08
         0.47811E+08
         0.43480E+08
         0.72083E+08
         0.17807E+09
         0.12770E+09
         0.12267E+09
         0.12205E+08
         0.19395E+08
         0.93674E+08
        -0.82115E+08
        -0.10921E+09
        -0.13598E+09
        -0.14187E+09
        -0.11129E+09
        -0.16597E+09
        -0.17693E+09
        -0.10236E+09
        -0.49751E+08
         0.47005E+08
        -0.11030E+09
        -0.75392E+08
         0.11526E+09
        -0.48187E+08
         0.10151E+08
         0.70366E+08
        -0.47492E+08
        -0.13028E+09
        -0.21569E+08
        -0.82663E+08
        -0.12738E+08
         0.32190E+08
         0.41455E+08
         0.17932E+07
         0.10066E+09
        -0.33331E+08
        -0.21411E+08
        -0.67299E+07
        -0.14742E+09
         0.40898E+08
         0.52312E+08
         0.25385E+08
        -0.91872E+08
         0.78595E+07
        -0.93314E+08
        -0.25519E+08
        -0.58561E+08
        -0.10920E+08
         0.11287E+08
        -0.19098E+08
        -0.15641E+08
        -0.78070E+08
        -0.86086E+08
        -0.23186E+07
        -0.86726E+08
        -0.10228E+09
        -0.11900E+09
        -0.87087E+08
        -0.13457E+09
        -0.16077E+09
         0.48978E+08
         0.11076E+08
         0.39174E+08
         0.90829E+08
        -0.83428E+07
         0.70776E+08
        -0.45328E+08
         0.24004E+08
         0.17619E+08
        -0.47674E+08
         0.30952E+08
        -0.14160E+09
        -0.98720E+08
        -0.28333E+08
        -0.72506E+07
         0.57630E+08
         0.12913E+09
         0.21715E+08
         0.53805E+08
        -0.22245E+08
        -0.42362E+08
        -0.88874E+08
        -0.12659E+09
        -0.11579E+09
        -0.90465E+08
        -0.41341E+07
         0.11390E+08
        -0.66751E+08
         0.72117E+08
         0.14116E+09
         0.16653E+09
         0.18534E+09
         0.16920E+09
         0.12693E+09
         0.97427E+08
         0.10820E+09
         0.77211E+08
         0.36599E+08
        -0.85222E+08
        -0.27199E+07
         0.31181E+08
        -0.10596E+08
        -0.34680E+07
         0.64596E+08
         0.16190E+09
         0.16579E+09
         0.10980E+09
         0.34292E+08
         0.36885E+08
        -0.33198E+08
         0.46505E+07
         0.21493E+08
         0.17552E+08
         0.46256E+08
         0.42864E+07
         0.79130E+08
        -0.15207E+09
        -0.79203E+08
        -0.13426E+09
         0.86697E+07
         0.77606E+08
        -0.34900E+08
         0.29516E+08
         0.17931E+08
         0.63502E+08
         0.37933E+08
         0.28653E+08
         0.78195E+07
        -0.23164E+08
         0.11854E+09
         0.55261E+08
         0.22016E+07
         0.49152E+08
         0.12612E+09
         0.86386E+08
         0.11418E+09
         0.12787E+09
         0.10622E+09
        -0.68197E+08
        -0.20604E+08
        -0.17045E+08
        -0.80297E+08
        -0.76152E+07
        -0.47567E+08
         0.94849E+08
        -0.67404E+08
        -0.13122E+09
         0.42928E+08
        -0.96947E+08
         0.13245E+09
         0.10168E+09
         0.18113E+08
         0.39594E+08
        -0.11114E+09
        -0.10181E+09
        -0.93305E+08
        -0.44676E+08
        -0.17219E+06
         0.21427E+08
         0.73917E+08
         0.10496E+09
         0.78621E+08
         0.11991E+08
        -0.22624E+08
        -0.17387E+08
         0.69088E+08
        -0.19003E+08
        -0.84435E+08
        -0.12341E+09
        -0.91237E+08
        -0.50572E+08
        -0.75982E+08
        -0.80826E+08
        -0.68041E+08
        -0.29618E+08
        -0.13623E+08
        -0.43259E+08
        -0.21417E+08
         0.73048E+08
         0.30877E+08
         0.48158E+08
         0.55950E+08
        -0.68431E+08
        -0.89666E+08
        -0.84637E+08
         0.19202E+08
         0.23392E+08
         0.25313E+08
         0.47694E+08
         0.80892E+08
         0.60852E+08
        -0.63249E+08
        -0.13503E+09
        -0.39871E+08
        -0.13806E+09
         0.25088E+08
        -0.34087E+07
        -0.58193E+08
        -0.39436E+08
        -0.39739E+08
        -0.27606E+08
        -0.42239E+08
        -0.92479E+08
        -0.23308E+08
         0.25353E+08
         0.11610E+08
         0.32693E+08
        -0.11585E+09
        -0.87374E+08
        -0.23055E+07
        -0.91128E+08
        -0.15923E+09
        -0.17326E+09
        -0.15794E+09
        -0.16658E+09
        -0.18572E+09
         0.11153E+09
         0.99116E+07
         0.54825E+08
         0.10802E+09
        -0.29878E+08
         0.12304E+08
        -0.37100E+08
         0.78267E+08
         0.10635E+09
        -0.95467E+08
         0.14612E+09
        -0.15779E+09
        -0.14890E+09
        -0.13368E+09
        -0.85637E+08
         0.11705E+09
         0.15594E+09
         0.82062E+08
         0.73351E+08
        -0.25885E+08
        -0.59721E+08
        -0.13221E+09
        -0.18602E+09
        -0.17955E+09
        -0.98917E+08
        -0.80005E+07
        -0.38598E+08
        -0.52631E+08
         0.13404E+09
         0.14496E+09
         0.16099E+09
         0.18328E+09
         0.18989E+09
         0.13801E+09
         0.10087E+09
         0.72977E+08
         0.63902E+08
        -0.65067E+08
        -0.53826E+08
        -0.15580E+08
        -0.17330E+08
        -0.39036E+08
        -0.20559E+08
         0.26919E+08
         0.18935E+08
         0.96489E+08
         0.50818E+08
        -0.32637E+08
        -0.47469E+07
        -0.25419E+08
         0.84291E+08
         0.13834E+08
         0.12408E+09
        -0.14905E+08
        -0.10753E+08
         0.18151E+09
         0.12785E+08
         0.50925E+08
        -0.62910E+07
        -0.23294E+08
         0.14325E+09
         0.33750E+08
         0.23028E+08
         0.46005E+08
         0.10559E+09
         0.68670E+08
         0.18820E+08
         0.38474E+08
        -0.41046E+08
         0.15862E+09
         0.68342E+08
         0.88817E+07
         0.17345E+08
         0.16503E+09
         0.10098E+09
         0.11098E+09
         0.11590E+09
         0.64810E+08
        -0.90189E+08
        -0.42981E+07
        -0.20152E+07
        -0.32247E+08
        -0.91520E+07
         0.15516E+07
         0.49432E+08
        -0.62383E+08
        -0.13800E+09
         0.26705E+08
        -0.13895E+09
         0.80575E+08
         0.10468E+09
         0.80514E+08
         0.43773E+08
        -0.12310E+09
        -0.10205E+09
        -0.70359E+08
        -0.54024E+08
         0.30474E+08
         0.25571E+08
         0.52106E+08
         0.44827E+08
         0.68448E+08
         0.71375E+08
         0.41884E+08
         0.40394E+08
         0.62390E+08
        -0.51677E+08
        -0.73327E+08
        -0.87383E+08
        -0.69781E+08
        -0.44412E+08
        -0.49988E+08
        -0.49580E+08
        -0.85120E+08
        -0.82353E+08
        -0.26313E+08
        -0.55190E+08
        -0.26820E+08
         0.44692E+08
         0.78420E+08
         0.47687E+08
         0.23196E+08
         0.31989E+08
        -0.39806E+08
        -0.72715E+08
        -0.40297E+08
         0.56987E+08
         0.75185E+08
         0.11297E+08
         0.10022E+09
        -0.50935E+08
        -0.34626E+08
        -0.14072E+09
        -0.81314E+08
        -0.16128E+09
        -0.72100E+08
        -0.96670E+08
        -0.24191E+08
         0.26619E+08
        -0.42226E+08
        -0.20171E+08
        -0.44576E+08
        -0.92914E+08
        -0.45278E+08
         0.42295E+08
        -0.25205E+08
         0.42832E+08
        -0.15322E+09
        -0.11348E+09
        -0.70959E+07
        -0.65921E+08
        -0.19592E+09
        -0.19702E+09
        -0.15486E+09
        -0.17629E+09
        -0.20051E+09
         0.58380E+08
        -0.75220E+07
         0.50814E+08
         0.55579E+08
        -0.28050E+08
         0.22831E+08
         0.36745E+07
         0.10473E+09
         0.93772E+08
        -0.91589E+08
         0.16248E+09
        -0.13842E+09
        -0.14117E+09
        -0.14271E+09
        -0.10822E+09
         0.14928E+09
         0.17566E+09
         0.10244E+09
         0.10456E+09
        -0.76183E+08
        -0.83662E+08
        -0.10858E+09
        -0.18587E+09
        -0.16060E+09
        -0.13487E+09
        -0.10467E+09
        -0.11235E+09
        -0.60874E+08
         0.16494E+09
         0.16464E+09
         0.16136E+09
         0.17863E+09
         0.18590E+09
         0.13918E+09
         0.11033E+09
         0.11464E+09
         0.11088E+09
        -0.18526E+08
         0.23442E+07
        -0.15573E+08
        -0.35459E+08
        -0.68871E+08
        -0.80148E+08
         0.49972E+07
        -0.62965E+08
        -0.22267E+08
         0.19354E+08
         0.79961E+08
         0.56752E+08
        -0.74157E+07
         0.53054E+08
         0.52855E+08
         0.13990E+09
         0.67159E+07
        -0.36591E+08
         0.18002E+09
         0.10903E+09
         0.14445E+09
         0.86734E+08
         0.15845E+08
         0.57218E+08
        -0.80869E+06
         0.41303E+07
         0.64017E+08
         0.95096E+08
         0.12449E+09
         0.28799E+08
         0.74670E+08
        -0.75053E+08
         0.16827E+09
         0.13287E+09
         0.40455E+08
         0.74452E+07
         0.20066E+09
         0.12407E+09
         0.71292E+08
         0.19390E+09
         0.87716E+08
        -0.68482E+08
         0.37390E+08
         0.41007E+08
         0.26074E+08
        -0.76765E+07
        -0.31882E+08
        -0.25192E+08
        -0.53415E+08
        -0.10588E+09
         0.17698E+08
        -0.12983E+09
         0.87050E+08
         0.89385E+08
         0.11791E+09
         0.49927E+08
        -0.14097E+09
        -0.12171E+09
        -0.11057E+09
        -0.11530E+09
         0.73653E+08
         0.60457E+08
         0.27026E+06
        -0.57244E+08
         0.58906E+08
         0.12403E+09
         0.11116E+09
         0.11730E+09
         0.44130E+08
        -0.52653E+08
        -0.11763E+09
        -0.13824E+09
        -0.91500E+08
        -0.44940E+08
        -0.65971E+08
        -0.11341E+09
        -0.13775E+09
        -0.13169E+09
        -0.95442E+08
        -0.10483E+09
         0.27890E+08
         0.13246E+09
         0.11289E+09
         0.84032E+08
         0.98637E+08
         0.85159E+08
         0.83027E+08
         0.16313E+08
        -0.88854E+08
         0.80864E+07
         0.50013E+08
         0.46227E+08
         0.27563E+08
        -0.69003E+08
        -0.71382E+08
        -0.14287E+09
        -0.69103E+08
        -0.20163E+09
        -0.14630E+09
        -0.11062E+09
        -0.59088E+08
         0.34427E+08
        -0.67896E+08
        -0.98512E+08
        -0.74184E+08
        -0.10716E+09
        -0.49633E+08
         0.58284E+08
        -0.22356E+08
         0.51572E+08
        -0.15034E+09
        -0.10656E+09
        -0.51853E+08
        -0.68597E+08
        -0.18174E+09
        -0.18814E+09
        -0.15003E+09
        -0.16980E+09
        -0.20068E+09
         0.20802E+08
        -0.23797E+08
         0.48109E+08
         0.56306E+08
         0.76345E+06
         0.56007E+08
         0.32909E+08
         0.10579E+09
         0.81582E+08
        -0.80025E+08
         0.14083E+09
        -0.14591E+09
        -0.13535E+09
        -0.14275E+09
        -0.87374E+08
         0.15336E+09
         0.18130E+09
         0.13557E+09
         0.12685E+09
        -0.66503E+08
        -0.83482E+08
        -0.11382E+09
        -0.19896E+09
        -0.16848E+09
        -0.14630E+09
        -0.13843E+09
        -0.11330E+09
        -0.40013E+08
         0.16049E+09
         0.17360E+09
         0.18364E+09
         0.19525E+09
         0.18356E+09
         0.15472E+09
         0.12985E+09
         0.12227E+09
         0.11440E+09
        -0.32688E+08
        -0.27250E+08
        -0.71941E+08
        -0.73599E+08
        -0.68953E+08
        -0.52021E+08
        -0.26182E+08
        -0.84619E+08
        -0.79632E+08
        -0.86840E+08
        -0.13055E+08
         0.55370E+08
         0.87906E+07
         0.88255E+07
         0.81423E+08
         0.87211E+08
         0.52617E+08
         0.25241E+08
         0.13591E+09
         0.14688E+09
         0.15553E+09
         0.14930E+09
         0.11398E+09
         0.69138E+08
         0.72314E+07
        -0.19027E+08
         0.15221E+09
         0.14553E+09
         0.10410E+09
         0.69029E+08
        -0.18541E+08
        -0.92470E+08
         0.13225E+09
         0.13711E+09
         0.14533E+09
         0.14424E+09
         0.43678E+08
        -0.41307E+08
        -0.79833E+07
         0.92587E+08
        -0.21449E+08
        -0.84726E+08
         0.62302E+08
         0.43757E+08
        -0.33161E+08
        -0.48994E+07
        -0.27060E+08
         0.37732E+08
         0.11716E+08
        -0.11716E+09
         0.57124E+08
        -0.63409E+08
         0.16077E+09
         0.10449E+09
         0.41921E+08
         0.74820E+07
        -0.15935E+09
        -0.94677E+08
        -0.17900E+09
        -0.12470E+09
        -0.20534E+08
         0.32737E+08
         0.29214E+08
        -0.85432E+07
         0.45117E+08
         0.10438E+09
         0.12722E+09
         0.59416E+08
         0.11316E+08
         0.54252E+08
        -0.14461E+09
        -0.16370E+09
        -0.10480E+09
        -0.89232E+08
        -0.14788E+09
        -0.14008E+09
        -0.11269E+09
        -0.10305E+09
        -0.32543E+08
        -0.10198E+09
         0.78749E+08
         0.99424E+08
         0.17189E+09
         0.17322E+09
         0.17365E+09
         0.13383E+09
         0.14524E+09
         0.83482E+08
         0.91842E+08
         0.32758E+08
         0.18514E+08
         0.26521E+08
        -0.34371E+08
        -0.42652E+08
        -0.11682E+09
        -0.13985E+09
        -0.97654E+08
        -0.15947E+09
        -0.15666E+09
        -0.14885E+09
        -0.72730E+08
         0.38041E+08
        -0.77229E+08
        -0.12943E+08
        -0.14360E+09
        -0.12609E+09
        -0.36638E+08
         0.39384E+08
         0.50063E+07
         0.44636E+08
        -0.14163E+09
        -0.11187E+09
        -0.11153E+09
        -0.10607E+09
        -0.17675E+09
        -0.18131E+09
        -0.15812E+09
        -0.17598E+09
        -0.19670E+09
         0.71678E+08
        -0.47956E+08
         0.83478E+08
         0.93793E+08
         0.54154E+07
         0.73169E+08
         0.15706E+08
         0.68423E+08
         0.68063E+08
        -0.94716E+08
         0.14800E+09
        -0.16003E+09
        -0.13152E+09
        -0.11951E+09
        -0.76625E+08
         0.18040E+09
         0.19410E+09
         0.16630E+09
         0.12470E+09
        -0.26948E+08
        -0.71058E+08
        -0.13044E+09
        -0.20172E+09
        -0.18402E+09
        -0.15896E+09
        -0.12830E+09
        -0.97097E+08
        -0.64292E+08
         0.13423E+09
         0.17925E+09
         0.19660E+09
         0.20539E+09
         0.20482E+09
         0.18303E+09
         0.14384E+09
         0.12443E+09
         0.99471E+08
        -0.31912E+08
        -0.44067E+08
        -0.35225E+08
        -0.63238E+08
        -0.89435E+08
        -0.10588E+09
        -0.10902E+09
        -0.14980E+09
        -0.13576E+09
        -0.79345E+08
        -0.11159E+09
        -0.23112E+08
        -0.11419E+08
         0.29998E+08
         0.58305E+08
         0.59844E+08
         0.94447E+08
         0.11629E+09
         0.16453E+09
         0.15934E+09
         0.18230E+09
         0.16893E+09
         0.10093E+09
         0.86850E+08
         0.41110E+08
        -0.26617E+07
         0.19186E+09
         0.16687E+09
         0.11441E+09
         0.36598E+08
        -0.45008E+08
        -0.77251E+08
         0.23360E+08
         0.18087E+09
         0.19421E+09
         0.18584E+09
        -0.16250E+09
        -0.74907E+08
        -0.29700E+08
        -0.56585E+08
        -0.11217E+09
        -0.11185E+09
         0.54195E+08
        -0.70545E+08
         0.55802E+08
         0.56773E+08
         0.33583E+08
         0.25371E+08
        -0.16319E+08
        -0.54499E+08
         0.11578E+09
         0.16476E+08
         0.14971E+09
         0.14262E+09
        -0.35636E+08
         0.89332E+08
        -0.19636E+09
        -0.25451E+08
        -0.19682E+09
        -0.10723E+09
        -0.80994E+08
        -0.76166E+08
         0.20475E+08
        -0.27426E+08
        -0.52432E+08
        -0.66889E+08
         0.66991E+08
         0.47202E+08
         0.14063E+08
         0.58124E+08
        -0.24552E+08
        -0.84436E+08
        -0.90587E+08
        -0.98910E+08
        -0.10823E+09
        -0.67443E+08
        -0.89559E+08
        -0.93874E+08
         0.24106E+08
         0.29915E+08
         0.50476E+08
         0.11294E+09
         0.16764E+09
         0.20803E+09
         0.20685E+09
         0.16391E+09
         0.15254E+09
         0.15387E+09
         0.13665E+09
         0.10779E+09
         0.43513E+08
        -0.20648E+08
        -0.49338E+08
        -0.85980E+08
        -0.13189E+09
        -0.15961E+09
        -0.13906E+09
        -0.13839E+09
        -0.14275E+09
        -0.10461E+09
        -0.66136E+08
         0.78708E+08
        -0.63782E+08
         0.22282E+08
        -0.14542E+09
        -0.14298E+09
        -0.24773E+08
         0.94486E+08
         0.86530E+07
         0.65391E+08
        -0.17411E+09
        -0.16702E+09
        -0.17280E+09
        -0.18940E+09
        -0.15321E+09
        -0.15038E+09
        -0.14854E+09
        -0.15512E+09
        -0.17319E+09
         0.14301E+09
        -0.10872E+09
         0.18723E+09
         0.89278E+08
         0.32707E+08
         0.56081E+08
         0.16387E+08
         0.10252E+09
         0.10099E+09
        -0.17563E+09
         0.16299E+09
        -0.15666E+09
        -0.15222E+09
        -0.15225E+09
        -0.74301E+08
         0.21335E+09
         0.19213E+09
         0.19734E+09
         0.13351E+09
        -0.51400E+08
        -0.88142E+08
        -0.14334E+09
        -0.18173E+09
        -0.15693E+09
        -0.15501E+09
        -0.14894E+09
        -0.10566E+09
        -0.40312E+08
         0.14497E+09
         0.16205E+09
         0.19346E+09
         0.21510E+09
         0.22185E+09
         0.20043E+09
         0.14569E+09
         0.90192E+08
         0.94077E+08
        -0.41994E+08
        -0.40448E+08
        -0.60192E+08
        -0.11368E+09
        -0.12623E+09
        -0.18867E+09
        -0.21366E+09
        -0.20730E+09
        -0.20141E+09
        -0.15799E+09
        -0.11229E+09
        -0.42448E+08
         0.28869E+08
         0.28298E+08
         0.63017E+08
         0.97267E+08
         0.68172E+08
         0.11459E+09
         0.20088E+09
         0.20426E+09
         0.19645E+09
         0.17480E+09
         0.16039E+09
         0.87304E+08
         0.52814E+08
         0.48960E+08
         0.10999E+09
         0.40105E+08
         0.92910E+08
         0.15754E+09
        -0.14909E+08
        -0.10014E+09
        -0.73608E+08
         0.17230E+09
         0.16683E+09
         0.11190E+09
        -0.16029E+09
        -0.10733E+09
        -0.60360E+08
        -0.10974E+09
        -0.12154E+09
        -0.28018E+08
         0.77056E+08
        -0.17297E+09
         0.98318E+08
         0.16531E+09
        -0.63118E+08
        -0.69469E+08
         0.16372E+08
        -0.19819E+08
         0.10685E+09
         0.21907E+06
        -0.53919E+08
        -0.83568E+07
         0.58392E+08
         0.18956E+09
        -0.12973E+09
        -0.67931E+08
        -0.18041E+09
        -0.12574E+09
        -0.64072E+08
        -0.37645E+08
         0.14064E+08
        -0.13924E+09
        -0.83228E+08
         0.12612E+08
         0.35802E+08
        -0.40518E+08
        -0.11058E+09
         0.24439E+08
        -0.10997E+09
        -0.12110E+08
        -0.86015E+08
        -0.99144E+08
        -0.17601E+09
        -0.21523E+09
        -0.24724E+08
         0.45865E+08
        -0.11802E+08
        -0.14569E+08
        -0.64642E+08
         0.31659E+08
         0.15326E+08
         0.17611E+09
         0.21717E+09
         0.15493E+09
         0.92228E+08
         0.11936E+09
         0.13365E+09
         0.80198E+08
         0.11662E+08
         0.19905E+08
        -0.27888E+08
        -0.56097E+08
        -0.52119E+07
        -0.38987E+08
         0.60023E+08
        -0.10980E+09
        -0.23690E+08
         0.10313E+09
         0.10961E+09
         0.91077E+08
         0.93440E+08
         0.26697E+08
         0.86762E+08
         0.60838E+08
        -0.60717E+07
        -0.24978E+08
         0.12017E+09
         0.25245E+08
        -0.13501E+09
         0.20141E+09
        -0.40760E+08
         0.15995E+09
        -0.22453E+09
        -0.21489E+09
        -0.19151E+09
        -0.18634E+09
        -0.23451E+09
        -0.17675E+09
        -0.80836E+08
        -0.19752E+09
         0.85038E+08
        -0.17768E+09
         0.64051E+08
         0.78343E+08
         0.14495E+08
         0.10740E+09
         0.12966E+09
         0.21741E+09
         0.87181E+08
        -0.71134E+08
        -0.18561E+09
        -0.11681E+09
         0.88265E+08
         0.11068E+09
         0.16048E+09
         0.12181E+09
         0.41668E+07
        -0.75952E+08
        -0.16328E+09
        -0.26018E+09
        -0.22141E+09
        -0.21715E+09
        -0.16514E+09
        -0.50342E+08
         0.19454E+08
         0.52673E+08
         0.59258E+08
         0.14650E+09
         0.18795E+09
         0.22537E+09
         0.10619E+09
         0.94549E+08
         0.13086E+09
        -0.13091E+09
        -0.57842E+07
         0.29222E+08
        -0.14707E+09
        -0.17710E+09
        -0.16517E+09
        -0.18145E+09
        -0.23239E+09
        -0.26298E+09
        -0.23906E+09
        -0.21196E+09
        -0.12328E+09
        -0.90079E+08
        -0.42084E+08
        -0.31539E+08
         0.73753E+08
         0.42751E+08
         0.10746E+09
         0.19577E+09
         0.23486E+09
         0.25220E+09
         0.24332E+09
         0.21825E+09
         0.16483E+09
         0.11718E+09
         0.15239E+09
         0.13010E+08
  
SCALARS                      stress_xz  double 1
LOOKUP_TABLE default
         0.74918E+08
         0.12877E+09
         0.88245E+08
         0.13431E+09
         0.11471E+02
         0.37094E+02
         0.17813E+02
         0.21149E+02
         0.18045E+09
         0.15364E+09
         0.47513E+02
         0.36719E+02
         0.11292E+08
         0.12860E+09
         0.40202E+02
         0.69228E+01
         0.28261E+08
        -0.22437E+08
         0.40372E+01
        -0.10127E+02
         0.88829E+08
         0.44725E+08
         0.66400E+08
         0.27210E+01
         0.98361E+01
         0.31436E+02
        -0.36924E+08
         0.17324E+08
        -0.11737E+02
        -0.11707E+01
        -0.66802E+08
        -0.10068E+09
         0.40319E+08
        -0.59431E+01
        -0.12645E+02
         0.82300E+01
        -0.30193E+08
        -0.16875E+09
        -0.38228E+02
        -0.38677E+02
        -0.15156E+09
        -0.16242E+09
        -0.36947E+02
        -0.30404E+02
        -0.29225E+08
        -0.21301E+09
        -0.32773E+02
        -0.46107E+02
        -0.10626E+09
        -0.23656E+02
        -0.13020E+09
        -0.26559E+02
        -0.68169E+06
        -0.19887E+02
        -0.66557E+08
        -0.17250E+02
        -0.13585E+09
        -0.98969E+07
        -0.24724E+02
        -0.33027E+02
         0.40527E+06
        -0.21242E+08
         0.80588E+01
        -0.30857E+01
         0.35804E+08
         0.21053E+01
         0.40450E+08
         0.20390E+02
         0.23380E+09
         0.15092E+09
         0.43101E+02
         0.44798E+02
         0.14819E+09
         0.27144E+02
         0.82365E+07
        -0.42942E+01
        -0.86092E+07
        -0.92148E+01
        -0.52497E+08
        -0.15358E+02
        -0.23548E+09
        -0.14639E+09
        -0.26470E+02
        -0.26264E+02
        -0.86598E+08
        -0.26745E+02
        -0.13877E+09
        -0.27582E+02
        -0.83132E+08
        -0.26786E+02
         0.21503E+07
        -0.35396E+08
        -0.15633E+02
         0.99799E+00
         0.32495E+08
         0.52714E+01
         0.84349E+07
         0.87818E+01
         0.15451E+09
         0.21431E+02
         0.99683E+08
         0.13932E+09
         0.42150E+02
         0.36508E+02
         0.13068E+09
         0.70462E+08
         0.35776E+02
         0.36483E+02
         0.40907E+08
         0.39271E+02
         0.13066E+09
         0.26942E+02
         0.82686E+08
         0.21775E+02
        -0.70116E+08
         0.69381E+01
         0.10365E+09
         0.80319E+00
        -0.50441E+08
        -0.33060E+01
        -0.11182E+09
        -0.76615E+01
         0.51678E+08
        -0.13761E+02
         0.65158E+07
        -0.18665E+02
        -0.21447E+08
        -0.22017E+02
        -0.14371E+09
        -0.21112E+02
        -0.20687E+09
        -0.23031E+02
        -0.78923E+08
        -0.27476E+02
        -0.36838E+08
        -0.30205E+02
        -0.16429E+09
        -0.27831E+02
        -0.17069E+09
        -0.20560E+02
        -0.76309E+08
        -0.52216E+01
         0.16640E+09
        -0.79814E+01
        -0.16123E+09
         0.45841E+01
        -0.15840E+09
         0.11170E+02
         0.19137E+09
         0.22177E+02
        -0.49379E+08
         0.22997E+02
         0.16534E+09
         0.33434E+02
         0.56919E+08
         0.33316E+02
         0.77863E+07
         0.10120E+09
        -0.22592E+09
        -0.10033E+09
         0.19442E+09
         0.34662E+08
         0.45179E+08
        -0.20548E+08
         0.63450E+07
         0.28504E+08
        -0.19745E+09
        -0.72207E+08
         0.31870E+08
         0.18983E+08
        -0.32093E+08
         0.27928E+08
         0.12003E+09
         0.13908E+08
         0.20188E+08
        -0.18646E+09
        -0.10730E+09
         0.30171E+08
        -0.44576E+08
        -0.90285E+08
        -0.16245E+09
        -0.19828E+08
        -0.18629E+08
        -0.17456E+08
         0.19215E+09
         0.32237E+08
         0.86382E+08
         0.35160E+08
         0.79055E+08
        -0.13494E+09
         0.15109E+09
         0.76383E+08
         0.20142E+09
         0.12897E+09
        -0.38508E+08
        -0.12723E+09
        -0.19308E+09
        -0.17306E+09
        -0.47193E+08
         0.15343E+08
        -0.28350E+08
        -0.44371E+08
        -0.28301E+08
        -0.18512E+09
        -0.71658E+08
         0.16175E+09
         0.13340E+09
        -0.42280E+08
         0.19222E+09
         0.25226E+09
        -0.89667E+08
         0.17387E+09
        -0.83474E+08
         0.75724E+08
        -0.93820E+06
        -0.52543E+08
        -0.38771E+08
        -0.56550E+08
        -0.14272E+09
        -0.22915E+09
        -0.25031E+09
        -0.20865E+09
        -0.18410E+09
        -0.17962E+09
        -0.14366E+09
        -0.14613E+09
        -0.10936E+09
         0.12493E+09
         0.52099E+08
         0.78651E+08
         0.48534E+08
         0.14768E+09
         0.13224E+09
         0.23428E+09
         0.15045E+09
         0.11477E+09
         0.10526E+09
         0.67215E+08
         0.19961E+09
         0.11521E+09
         0.42426E+08
         0.74704E+08
         0.40270E+08
        -0.38582E+08
         0.14248E+08
         0.11618E+09
         0.97762E+08
         0.96596E+08
         0.77659E+08
        -0.69091E+08
        -0.74789E+08
         0.71927E+08
        -0.16031E+09
        -0.96423E+08
        -0.18837E+09
        -0.18018E+09
        -0.11324E+09
        -0.20826E+09
        -0.11164E+09
        -0.11729E+09
        -0.12058E+08
        -0.72324E+08
        -0.75672E+08
        -0.77194E+08
         0.59805E+08
        -0.67360E+08
         0.87942E+08
         0.82443E+08
         0.22325E+09
         0.18228E+09
         0.13832E+09
        -0.16210E+08
        -0.81816E+08
        -0.13355E+09
        -0.17305E+09
        -0.14889E+09
        -0.16567E+09
        -0.36570E+08
        -0.12041E+09
        -0.11879E+09
        -0.64514E+08
         0.11099E+08
         0.19356E+08
         0.72182E+08
         0.13744E+09
         0.98172E+08
         0.83401E+08
         0.20068E+09
         0.13666E+09
         0.15125E+09
        -0.33857E+08
         0.18615E+09
        -0.88448E+08
        -0.22073E+08
         0.70904E+08
        -0.13782E+09
        -0.95065E+08
        -0.46529E+08
        -0.17034E+09
        -0.17810E+09
        -0.21382E+09
        -0.10765E+09
        -0.16736E+09
        -0.14858E+09
         0.45414E+08
         0.77094E+08
        -0.67740E+07
         0.44381E+08
         0.11256E+09
         0.19496E+09
         0.20417E+09
         0.17680E+09
        -0.65577E+08
        -0.13161E+09
        -0.22997E+09
        -0.12078E+09
        -0.64149E+08
        -0.20175E+09
        -0.11368E+09
        -0.60421E+07
         0.29158E+08
        -0.16982E+08
        -0.10824E+09
        -0.54308E+08
         0.30891E+08
         0.39764E+08
        -0.74588E+08
         0.52032E+08
         0.84795E+08
        -0.22944E+08
         0.17864E+09
         0.15181E+09
         0.54847E+08
         0.11382E+09
         0.30731E+08
         0.67514E+08
         0.72606E+08
         0.10687E+09
         0.19141E+08
         0.56859E+08
         0.12423E+09
         0.13668E+09
         0.12098E+09
         0.59951E+08
         0.41696E+08
        -0.18646E+09
         0.13028E+09
        -0.80146E+08
         0.31571E+07
         0.46377E+08
         0.57532E+08
        -0.17414E+08
        -0.14116E+09
         0.67224E+08
         0.12171E+09
         0.14618E+09
         0.27544E+08
        -0.48835E+08
        -0.29919E+08
         0.15838E+08
        -0.11663E+08
        -0.33969E+08
         0.63686E+08
        -0.16125E+09
         0.17719E+09
         0.22522E+09
         0.20038E+09
         0.16464E+09
         0.13717E+09
         0.10928E+09
         0.24522E+08
        -0.11520E+08
        -0.31630E+08
        -0.11552E+09
        -0.17652E+09
        -0.24018E+09
        -0.25134E+09
        -0.24286E+09
        -0.23785E+09
        -0.19517E+09
        -0.23665E+09
        -0.15165E+09
         0.36776E+08
         0.17314E+06
        -0.92025E+07
         0.62144E+07
         0.96394E+08
         0.21711E+09
         0.21937E+09
         0.20959E+09
         0.12963E+09
         0.11291E+09
         0.95813E+08
         0.17406E+09
         0.53407E+06
         0.67783E+08
         0.43423E+08
         0.97476E+08
         0.40607E+08
         0.69977E+07
         0.16998E+08
        -0.15219E+08
         0.48681E+08
         0.12512E+09
         0.31942E+08
        -0.93189E+08
        -0.10538E+09
         0.76926E+08
        -0.15733E+09
        -0.16309E+09
        -0.12152E+09
        -0.70260E+08
        -0.10686E+09
        -0.17645E+09
        -0.94177E+08
        -0.10638E+09
        -0.29452E+08
        -0.83002E+08
        -0.80839E+08
        -0.12732E+09
         0.15607E+08
        -0.37727E+08
         0.10809E+09
         0.11281E+09
         0.91049E+08
         0.51478E+08
         0.83560E+08
        -0.26346E+08
        -0.10732E+09
        -0.12606E+09
        -0.17362E+09
        -0.12947E+09
        -0.82978E+08
         0.62778E+07
        -0.86933E+08
        -0.12144E+09
        -0.36570E+08
         0.57395E+07
         0.61170E+08
         0.87137E+08
         0.10266E+09
         0.50992E+08
         0.21515E+09
         0.20168E+09
         0.23649E+09
         0.17644E+09
         0.14187E+09
         0.13346E+09
         0.26302E+08
        -0.34925E+08
        -0.94167E+08
        -0.12391E+09
        -0.11487E+09
        -0.21981E+09
        -0.21921E+09
        -0.25987E+09
        -0.23607E+09
        -0.18069E+09
        -0.23437E+09
        -0.18802E+09
         0.22716E+08
         0.25379E+08
         0.52541E+08
         0.28045E+08
         0.18915E+09
         0.10347E+09
         0.11161E+09
         0.10533E+09
        -0.68388E+08
        -0.11091E+09
        -0.19311E+09
        -0.19778E+09
        -0.38902E+08
        -0.14569E+09
        -0.43114E+08
         0.16679E+08
        -0.87137E+06
         0.35245E+08
        -0.24803E+08
         0.24115E+08
         0.54955E+08
         0.54970E+07
        -0.14721E+08
         0.83816E+08
         0.11310E+09
        -0.26653E+08
         0.21374E+09
         0.22531E+09
         0.27089E+08
         0.26409E+08
        -0.59683E+07
         0.10452E+09
         0.87901E+08
         0.85089E+08
         0.22931E+08
         0.54837E+08
         0.64847E+08
         0.14953E+09
         0.11801E+09
         0.91690E+08
         0.42426E+08
        -0.86645E+08
         0.16397E+09
         0.16524E+08
         0.99212E+07
        -0.12541E+08
        -0.43376E+07
         0.95360E+06
        -0.31801E+08
         0.97023E+07
         0.19447E+08
        -0.18036E+08
        -0.19279E+08
        -0.16576E+08
         0.39267E+08
         0.48829E+08
        -0.32793E+08
        -0.16763E+08
         0.84789E+08
        -0.73940E+08
         0.21636E+09
         0.23284E+09
         0.22774E+09
         0.17699E+09
         0.11815E+09
         0.64077E+08
         0.25802E+08
         0.30023E+08
        -0.10552E+09
        -0.11478E+09
        -0.18725E+09
        -0.23659E+09
        -0.24359E+09
        -0.25145E+09
        -0.22801E+09
        -0.19910E+09
        -0.21393E+09
        -0.18363E+09
        -0.90776E+08
        -0.19645E+08
         0.36017E+08
         0.15176E+08
         0.17138E+09
         0.23140E+09
         0.20506E+09
         0.21000E+09
         0.11690E+09
         0.15377E+09
         0.12247E+09
         0.15207E+09
         0.48778E+08
         0.98246E+08
         0.12311E+09
         0.10125E+09
         0.93371E+07
         0.47184E+07
         0.10540E+09
         0.45114E+08
         0.12920E+08
         0.92897E+08
         0.26788E+08
        -0.57717E+08
        -0.74676E+08
         0.42222E+08
        -0.69635E+08
        -0.12532E+09
        -0.15459E+09
        -0.13608E+09
        -0.20538E+08
        -0.75869E+08
        -0.76940E+08
        -0.30948E+08
        -0.78393E+07
        -0.92436E+08
        -0.84699E+08
        -0.11872E+09
         0.12419E+08
        -0.24443E+08
         0.65699E+08
         0.10700E+09
        -0.11926E+09
        -0.92314E+08
         0.47851E+08
        -0.60683E+08
         0.45501E+08
        -0.10979E+09
        -0.12433E+09
         0.45478E+08
        -0.36929E+08
         0.42176E+08
        -0.10413E+09
        -0.13857E+09
        -0.45421E+08
         0.18818E+08
         0.30444E+08
         0.18625E+08
         0.74607E+08
         0.85525E+08
        -0.50880E+07
         0.10325E+09
         0.12008E+09
         0.10783E+09
         0.34806E+08
         0.63856E+08
         0.71624E+08
        -0.89613E+08
        -0.11571E+09
        -0.76074E+08
        -0.72265E+08
        -0.13674E+09
        -0.79786E+08
        -0.10699E+09
        -0.14358E+09
        -0.76368E+08
        -0.16103E+09
        -0.31080E+08
         0.63529E+08
         0.72270E+08
         0.13218E+09
         0.17142E+09
         0.98600E+08
        -0.11042E+09
         0.38993E+08
         0.45946E+08
        -0.46608E+08
        -0.50655E+08
        -0.79076E+08
        -0.60925E+08
         0.24807E+08
        -0.52818E+08
        -0.55167E+08
        -0.34531E+08
         0.18803E+08
         0.52242E+08
        -0.56407E+08
         0.67787E+08
         0.11672E+09
        -0.19343E+08
         0.84807E+07
         0.48096E+08
         0.82904E+08
        -0.11157E+08
         0.85820E+08
         0.94737E+08
        -0.33065E+08
        -0.62699E+07
        -0.85531E+08
         0.70124E+08
         0.73352E+08
         0.67008E+08
         0.40776E+08
         0.52410E+08
         0.52274E+08
         0.80038E+08
         0.17642E+08
         0.44144E+08
        -0.23804E+08
        -0.58657E+08
         0.17485E+09
         0.80917E+08
         0.11664E+09
        -0.98531E+07
        -0.44790E+08
        -0.60252E+08
        -0.11002E+09
        -0.93219E+08
        -0.41952E+08
        -0.46344E+08
        -0.29996E+08
        -0.59412E+08
        -0.53220E+07
         0.34367E+08
        -0.98352E+06
         0.10900E+08
         0.15231E+09
         0.35049E+08
         0.24896E+09
         0.25427E+09
         0.22284E+09
         0.15921E+09
         0.14137E+09
         0.85889E+08
         0.44665E+08
        -0.14103E+08
        -0.91136E+08
        -0.12989E+09
        -0.18643E+09
        -0.24005E+09
        -0.24348E+09
        -0.24636E+09
        -0.23116E+09
        -0.20074E+09
        -0.21723E+09
        -0.17310E+09
        -0.99233E+08
        -0.26067E+08
         0.51894E+08
         0.92192E+08
         0.14643E+09
         0.19990E+09
         0.21008E+09
         0.23980E+09
         0.12258E+09
         0.13121E+09
         0.11190E+09
         0.11975E+09
         0.15968E+09
         0.21187E+09
         0.10637E+09
         0.83268E+08
         0.57577E+08
         0.87002E+07
         0.67436E+08
         0.88349E+08
         0.15997E+09
         0.49968E+08
        -0.66251E+07
        -0.60210E+08
        -0.11132E+09
         0.54785E+08
        -0.16128E+09
        -0.13335E+09
        -0.19132E+09
        -0.22732E+09
        -0.13968E+09
        -0.15759E+09
        -0.15103E+09
        -0.89589E+08
         0.80674E+07
        -0.96521E+08
        -0.16664E+09
        -0.15313E+09
        -0.64137E+07
        -0.42627E+08
         0.27479E+08
         0.15010E+09
         0.57679E+08
         0.78582E+08
         0.18593E+09
        -0.33575E+08
         0.25059E+08
        -0.12680E+09
        -0.66866E+08
        -0.14282E+09
        -0.17116E+09
        -0.81931E+08
        -0.82860E+08
        -0.12647E+09
        -0.32866E+08
         0.67916E+08
        -0.33276E+07
         0.25873E+08
         0.16290E+09
         0.20678E+09
        -0.88853E+07
        -0.10920E+09
        -0.11874E+09
        -0.43829E+08
        -0.50526E+05
        -0.82662E+07
        -0.27942E+08
        -0.83409E+08
        -0.95790E+08
         0.62075E+08
         0.13241E+09
         0.23612E+09
        -0.66706E+08
         0.62292E+08
        -0.90604E+08
         0.75137E+08
        -0.76034E+08
         0.13409E+09
         0.22426E+09
        -0.87458E+08
         0.19469E+09
         0.19036E+08
        -0.33836E+08
        -0.12738E+09
        -0.23257E+09
        -0.88439E+07
         0.20435E+08
        -0.22711E+08
        -0.44631E+08
        -0.11468E+07
        -0.49728E+08
        -0.54185E+08
        -0.24122E+08
         0.18462E+08
         0.55043E+07
        -0.15275E+07
         0.70216E+07
         0.22181E+08
        -0.60489E+08
         0.18220E+08
         0.98593E+08
         0.11297E+08
        -0.81636E+07
         0.13507E+08
         0.26939E+08
         0.27666E+08
         0.23420E+08
         0.16366E+08
         0.31900E+08
         0.38808E+08
         0.20254E+07
         0.49134E+08
        -0.12370E+08
         0.16167E+08
         0.47680E+08
         0.34485E+08
         0.19907E+08
         0.73134E+08
        -0.78445E+06
        -0.30778E+08
        -0.31730E+08
        -0.63926E+08
        -0.33778E+08
        -0.34364E+08
        -0.15761E+08
         0.20778E+08
        -0.94585E+08
        -0.19749E+08
         0.22807E+08
         0.39393E+08
         0.51122E+08
         0.18104E+08
         0.49159E+08
         0.16743E+08
        -0.17753E+08
        -0.91161E+08
        -0.51878E+08
        -0.65573E+08
         0.17960E+09
         0.21836E+09
         0.16228E+09
         0.12091E+09
         0.12433E+09
         0.38707E+08
         0.38843E+08
         0.76115E+07
        -0.64041E+08
        -0.12224E+09
        -0.14064E+09
        -0.15988E+09
        -0.19683E+09
        -0.20926E+09
        -0.14926E+09
        -0.13014E+09
        -0.16051E+09
        -0.11613E+09
        -0.67670E+08
        -0.31651E+08
         0.66493E+08
         0.56316E+08
         0.97165E+08
         0.16220E+09
         0.17696E+09
         0.18003E+09
         0.83151E+08
         0.89933E+08
         0.10545E+09
         0.68304E+08
         0.16277E+09
         0.15359E+09
         0.54084E+08
         0.69642E+08
         0.36995E+08
         0.17933E+08
         0.27513E+08
         0.55394E+08
         0.75142E+08
         0.24664E+08
        -0.30586E+07
        -0.47987E+08
        -0.81903E+08
         0.21833E+08
        -0.13617E+09
        -0.13146E+09
        -0.16507E+09
        -0.19285E+09
        -0.14643E+09
        -0.13679E+09
        -0.87389E+08
        -0.10865E+09
         0.10747E+08
        -0.41815E+08
        -0.11161E+09
        -0.12130E+09
        -0.17007E+08
        -0.50740E+08
         0.65018E+07
         0.10877E+09
         0.15504E+09
         0.13400E+09
         0.12902E+09
        -0.89331E+08
        -0.67641E+06
        -0.20349E+08
        -0.58714E+08
        -0.14299E+09
        -0.13039E+09
        -0.11725E+09
        -0.58795E+08
        -0.21548E+08
        -0.10583E+07
         0.11694E+07
        -0.37673E+07
         0.73375E+08
         0.15901E+09
         0.15833E+09
         0.74372E+08
         0.32438E+08
        -0.15449E+07
         0.36887E+08
         0.39178E+08
         0.31094E+07
        -0.10593E+08
        -0.85913E+08
         0.18932E+08
         0.43935E+08
         0.99925E+08
         0.92707E+08
         0.42663E+08
        -0.66553E+08
        -0.85145E+08
        -0.29561E+08
        -0.62082E+08
         0.30907E+08
         0.95045E+08
        -0.22952E+08
         0.11114E+09
         0.76379E+08
         0.42940E+08
         0.40245E+08
        -0.15247E+09
        -0.81205E+08
        -0.68804E+08
        -0.50796E+08
        -0.10274E+09
        -0.64589E+08
        -0.11004E+09
        -0.89536E+08
        -0.30598E+08
        -0.61288E+08
        -0.37789E+08
        -0.23158E+08
        -0.33099E+08
        -0.18339E+08
        -0.28615E+08
        -0.42939E+08
         0.16926E+08
         0.34517E+08
         0.45954E+08
        -0.26415E+08
         0.84415E+08
         0.12294E+09
         0.13988E+09
         0.12762E+09
         0.11896E+09
         0.75334E+08
         0.55148E+08
         0.67069E+08
        -0.15757E+08
         0.20213E+08
         0.10488E+09
         0.13494E+09
         0.60547E+08
         0.58555E+08
        -0.18059E+08
        -0.93383E+08
        -0.13433E+09
        -0.14088E+09
        -0.72483E+08
         0.53316E+08
         0.16245E+08
         0.20046E+08
         0.79609E+08
         0.84071E+08
         0.72282E+08
         0.11572E+09
         0.71514E+08
         0.17120E+07
         0.18700E+08
         0.45211E+08
        -0.42469E+08
        -0.12863E+09
        -0.96488E+08
        -0.82421E+08
        -0.58469E+08
         0.12142E+09
         0.19890E+08
        -0.17517E+08
        -0.12047E+09
        -0.39107E+08
         0.20304E+08
         0.36705E+08
        -0.19420E+08
        -0.76486E+08
        -0.11425E+08
        -0.11305E+09
        -0.14931E+09
        -0.91347E+08
         0.14950E+06
        -0.57866E+07
        -0.53238E+08
         0.67192E+08
         0.57128E+08
        -0.72044E+08
         0.17169E+08
        -0.87643E+08
         0.80914E+08
         0.67544E+08
        -0.22642E+07
         0.12324E+08
         0.45828E+08
         0.58050E+08
         0.86388E+08
         0.58023E+08
         0.11863E+09
         0.10973E+09
         0.50666E+08
         0.63979E+08
         0.33955E+08
         0.23133E+08
         0.71383E+08
        -0.24630E+07
        -0.34752E+08
         0.32026E+08
        -0.49894E+08
        -0.35501E+08
        -0.19565E+08
         0.24707E+08
        -0.10394E+09
        -0.12097E+09
        -0.10893E+09
        -0.95081E+08
        -0.70219E+08
        -0.98857E+08
        -0.34189E+08
        -0.97760E+08
        -0.31579E+08
        -0.35906E+08
        -0.52292E+08
        -0.10884E+09
        -0.26683E+08
        -0.54113E+08
         0.29946E+06
         0.48543E+08
         0.11167E+09
         0.89870E+08
         0.46305E+08
        -0.99227E+08
        -0.23667E+08
         0.46762E+08
        -0.38319E+08
        -0.88310E+08
        -0.10117E+09
        -0.60935E+08
        -0.52098E+08
        -0.18062E+08
         0.85663E+07
         0.96362E+07
         0.53176E+07
         0.31656E+08
         0.96719E+08
         0.10193E+09
         0.39849E+08
        -0.34516E+07
         0.59585E+08
         0.50256E+08
         0.59267E+08
         0.26074E+08
        -0.23950E+08
        -0.27205E+08
        -0.29859E+07
         0.19401E+08
         0.39658E+08
         0.87580E+08
         0.11410E+09
         0.45452E+08
        -0.10000E+09
        -0.82573E+08
        -0.10984E+09
        -0.58075E+08
         0.10238E+09
         0.20644E+08
         0.79090E+07
         0.66269E+08
         0.45677E+08
         0.37422E+08
        -0.73275E+07
        -0.25732E+08
        -0.10261E+09
        -0.11428E+09
        -0.15117E+09
        -0.14296E+09
        -0.16005E+09
        -0.17302E+09
        -0.11843E+09
        -0.90889E+08
        -0.38876E+08
        -0.10194E+08
        -0.93968E+08
        -0.71563E+08
        -0.95974E+08
        -0.35957E+08
         0.43608E+07
         0.32211E+08
         0.43514E+08
        -0.26721E+08
         0.12683E+09
         0.16477E+09
         0.18367E+09
         0.18793E+09
         0.16848E+09
         0.12747E+09
         0.71190E+08
         0.90393E+08
         0.33336E+08
         0.74390E+08
         0.12741E+09
         0.17362E+09
         0.64496E+08
         0.71160E+08
        -0.45474E+08
        -0.11869E+09
        -0.14239E+09
        -0.13183E+09
        -0.86431E+08
         0.55634E+08
         0.86176E+08
         0.62365E+08
         0.36015E+08
         0.14357E+09
         0.20195E+09
         0.14140E+09
         0.85599E+08
         0.32686E+08
         0.23393E+08
         0.84676E+07
        -0.59330E+08
        -0.95817E+08
        -0.95917E+08
        -0.13226E+09
        -0.97307E+08
         0.68140E+07
        -0.65370E+08
        -0.57511E+08
        -0.99001E+08
        -0.35274E+08
        -0.48757E+08
        -0.26801E+08
         0.32360E+08
        -0.42280E+07
         0.63145E+08
        -0.87101E+08
        -0.10617E+09
        -0.21981E+08
        -0.16578E+08
         0.45222E+08
         0.26107E+08
         0.89521E+08
         0.25882E+08
         0.17679E+08
        -0.20121E+08
        -0.79389E+08
         0.58300E+08
        -0.47544E+08
        -0.38114E+08
        -0.63555E+07
         0.23579E+08
         0.67423E+08
         0.83610E+08
         0.29841E+08
         0.13046E+09
         0.12408E+09
         0.63699E+08
         0.51297E+08
         0.23873E+08
         0.16191E+08
         0.42364E+08
        -0.18643E+08
         0.51223E+07
         0.12753E+08
        -0.48949E+08
        -0.44651E+08
        -0.63891E+07
         0.16172E+08
        -0.11961E+09
        -0.89651E+08
        -0.68394E+08
        -0.88388E+08
        -0.62605E+08
        -0.13674E+09
         0.48992E+07
        -0.12063E+09
        -0.22657E+08
        -0.66725E+07
        -0.55721E+08
        -0.85936E+08
        -0.18636E+08
        -0.69525E+08
         0.13981E+08
         0.33790E+08
         0.10554E+09
         0.66423E+08
         0.41127E+08
        -0.78616E+08
        -0.65314E+08
        -0.46022E+08
        -0.48392E+08
        -0.71007E+08
        -0.10836E+09
        -0.60174E+08
        -0.43100E+08
        -0.44341E+08
        -0.43324E+08
         0.17189E+07
         0.32990E+08
         0.37250E+08
         0.69022E+08
         0.85269E+08
         0.76528E+08
         0.77645E+08
         0.10213E+09
         0.75922E+08
         0.29748E+08
         0.40490E+08
        -0.33051E+08
        -0.74614E+07
        -0.47355E+08
        -0.38631E+08
         0.93032E+08
         0.45535E+08
         0.34744E+08
        -0.37101E+07
        -0.37502E+08
        -0.10093E+09
        -0.13347E+09
         0.23658E+08
         0.13646E+09
         0.38316E+08
         0.27531E+08
         0.26812E+08
         0.16700E+08
        -0.45128E+07
         0.41936E+08
         0.29083E+08
        -0.53362E+08
        -0.14021E+09
        -0.16582E+09
        -0.12824E+09
        -0.17775E+09
        -0.17578E+09
        -0.10218E+09
        -0.35125E+07
         0.11499E+08
         0.33745E+06
        -0.48943E+08
        -0.77459E+08
        -0.13374E+09
         0.79862E+07
        -0.22011E+08
         0.39271E+08
         0.15000E+08
        -0.59836E+07
         0.14642E+09
         0.14299E+09
         0.19714E+09
         0.20369E+09
         0.17689E+09
         0.15552E+09
         0.41728E+08
         0.98415E+08
         0.16735E+08
         0.85956E+08
         0.12071E+09
         0.13885E+09
         0.25620E+08
         0.77670E+08
        -0.69242E+08
        -0.11329E+09
        -0.16010E+09
        -0.15961E+09
        -0.15227E+09
         0.22743E+08
         0.10988E+09
         0.13513E+09
         0.11265E+09
         0.14836E+09
         0.19578E+09
         0.12849E+09
         0.10103E+09
         0.79063E+08
         0.61108E+08
         0.16098E+07
        -0.80523E+08
        -0.10737E+09
        -0.91425E+08
        -0.12094E+09
        -0.12105E+09
        -0.15147E+09
        -0.75443E+08
        -0.67205E+08
        -0.70616E+08
        -0.29106E+08
        -0.49603E+08
        -0.48250E+08
         0.16124E+08
        -0.41919E+08
        -0.19236E+08
        -0.51233E+07
         0.20751E+08
         0.86993E+08
         0.81060E+07
         0.62626E+08
         0.40527E+08
         0.97343E+08
         0.57249E+07
        -0.36344E+08
        -0.54906E+07
        -0.41449E+08
         0.51146E+08
        -0.86007E+08
        -0.13602E+09
        -0.14622E+09
        -0.24454E+08
         0.74507E+08
         0.93934E+08
         0.37502E+08
         0.14310E+09
         0.11568E+09
         0.25098E+08
        -0.30906E+08
         0.73017E+06
         0.29657E+07
        -0.20063E+08
        -0.41886E+07
         0.64206E+08
        -0.57563E+08
        -0.63901E+08
        -0.11150E+09
        -0.24414E+08
         0.39607E+08
        -0.16570E+09
        -0.96846E+08
        -0.69011E+08
        -0.18969E+08
        -0.35066E+08
        -0.14963E+09
         0.22542E+08
        -0.13391E+09
         0.19946E+07
        -0.11435E+08
        -0.96407E+08
        -0.58476E+08
        -0.55500E+07
        -0.93691E+08
         0.72384E+08
         0.55977E+08
         0.14925E+09
         0.11939E+09
         0.12633E+09
        -0.28794E+08
        -0.34885E+08
        -0.12580E+09
        -0.13429E+09
        -0.88182E+08
        -0.32082E+08
        -0.36709E+08
        -0.45599E+08
        -0.57896E+08
        -0.57414E+08
         0.34804E+08
         0.95211E+08
         0.72682E+08
         0.78169E+08
         0.81224E+08
         0.13711E+09
         0.13071E+09
         0.13793E+09
         0.86834E+08
         0.69713E+08
        -0.83804E+07
        -0.19288E+08
         0.84219E+07
        -0.44808E+08
         0.26330E+07
         0.49403E+08
        -0.61280E+07
        -0.86252E+08
        -0.13953E+09
        -0.16060E+09
        -0.16522E+09
        -0.15777E+09
        -0.64302E+08
         0.10325E+09
         0.28713E+08
         0.21118E+08
         0.56832E+08
         0.50274E+08
         0.30842E+08
         0.88094E+08
         0.13916E+09
        -0.18127E+08
        -0.14765E+09
        -0.17797E+09
        -0.13622E+09
        -0.17882E+09
        -0.15402E+09
        -0.92030E+08
         0.17260E+08
         0.58073E+08
         0.93767E+07
        -0.40273E+08
        -0.67215E+08
        -0.13859E+09
         0.31098E+07
        -0.27294E+08
         0.68548E+08
         0.21965E+08
         0.18021E+08
         0.14202E+09
         0.12184E+09
         0.20366E+09
         0.20456E+09
         0.18189E+09
         0.15671E+09
         0.25345E+08
         0.10628E+09
         0.12597E+08
         0.76223E+08
         0.11726E+09
         0.11650E+09
         0.13084E+08
         0.67421E+08
        -0.88527E+08
        -0.12826E+09
        -0.18279E+09
        -0.18233E+09
        -0.17003E+09
        -0.37434E+07
         0.81506E+08
         0.13120E+09
         0.13812E+09
         0.15943E+09
         0.18919E+09
         0.13565E+09
         0.10157E+09
         0.61571E+08
         0.34779E+08
        -0.12312E+08
        -0.89665E+08
        -0.12934E+09
        -0.11643E+09
        -0.11974E+09
        -0.14932E+09
        -0.16674E+09
        -0.90247E+08
        -0.99584E+08
        -0.89158E+08
        -0.37920E+08
        -0.53408E+08
        -0.24170E+08
        -0.10352E+08
         0.31167E+08
         0.82482E+08
         0.67574E+08
         0.49315E+08
         0.15941E+09
         0.65695E+08
         0.96061E+08
         0.75248E+07
         0.68232E+08
         0.41243E+08
        -0.14168E+08
         0.27674E+08
         0.20162E+08
        -0.39805E+08
        -0.94283E+08
        -0.19297E+09
        -0.18810E+09
         0.32286E+08
         0.70561E+08
         0.98292E+08
         0.12340E+09
         0.14099E+09
         0.14210E+09
         0.21027E+08
         0.20364E+08
        -0.38358E+08
        -0.46289E+08
         0.46547E+08
         0.13709E+07
        -0.23718E+08
        -0.12574E+08
        -0.42407E+08
        -0.15606E+09
        -0.14952E+09
         0.10404E+08
        -0.19216E+09
        -0.13646E+09
        -0.19843E+08
         0.28296E+08
         0.32771E+07
        -0.13560E+09
        -0.62855E+08
        -0.14678E+09
        -0.62240E+08
        -0.17440E+08
        -0.92798E+08
        -0.62996E+08
        -0.23791E+08
        -0.56213E+08
         0.52051E+08
         0.11812E+09
         0.12848E+09
         0.14526E+09
         0.14693E+09
        -0.98831E+08
         0.40722E+08
        -0.36235E+08
        -0.16062E+09
        -0.86811E+08
        -0.11020E+08
        -0.30893E+08
        -0.27038E+08
        -0.32495E+08
         0.46712E+08
         0.10273E+09
         0.86406E+08
         0.89802E+08
         0.12060E+09
         0.13484E+09
         0.56735E+08
         0.10489E+09
         0.11016E+09
         0.12171E+09
         0.35633E+08
         0.98596E+07
         0.44442E+08
        -0.17574E+08
        -0.40547E+08
        -0.46193E+08
        -0.63918E+08
        -0.76100E+08
        -0.15030E+09
        -0.17242E+09
        -0.18687E+09
        -0.18003E+09
        -0.15011E+09
        -0.97018E+08
        -0.60640E+08
         0.63319E+07
        -0.44702E+07
        -0.31070E+08
         0.14839E+09
         0.20996E+08
         0.64038E+08
         0.13825E+09
        -0.58276E+08
        -0.16301E+09
        -0.19784E+09
        -0.18427E+09
        -0.19592E+09
        -0.19646E+09
        -0.13852E+09
        -0.41240E+08
         0.95744E+08
         0.36080E+08
        -0.95674E+08
        -0.61753E+08
        -0.11961E+09
        -0.57439E+08
        -0.30471E+08
         0.72719E+08
         0.50496E+08
         0.19085E+08
         0.15622E+09
         0.14901E+09
         0.19761E+09
         0.20504E+09
         0.19776E+09
         0.18335E+09
         0.70281E+08
         0.11530E+09
         0.27139E+08
         0.87502E+08
         0.12093E+09
         0.13707E+09
         0.14402E+08
         0.44313E+08
        -0.75818E+08
        -0.15413E+09
        -0.18053E+09
        -0.18855E+09
        -0.15943E+09
         0.21606E+08
         0.76010E+08
         0.10378E+09
         0.14671E+09
         0.17926E+09
         0.19450E+09
         0.15551E+09
         0.91564E+08
         0.31244E+08
         0.13617E+07
        -0.26038E+08
        -0.90919E+08
        -0.14192E+09
        -0.14268E+09
        -0.16905E+09
        -0.80788E+08
        -0.12555E+09
        -0.11229E+09
        -0.13421E+09
        -0.80451E+08
        -0.19012E+08
        -0.20269E+08
        -0.21029E+08
         0.54601E+08
         0.46846E+08
         0.12707E+09
         0.10137E+09
         0.13122E+09
         0.17858E+09
         0.11209E+09
         0.95521E+08
         0.80345E+08
         0.97778E+08
         0.51142E+08
         0.28181E+08
        -0.14554E+06
        -0.28549E+08
        -0.11849E+08
        -0.10437E+09
        -0.15389E+09
        -0.18318E+09
         0.10615E+09
         0.58185E+08
         0.98164E+08
         0.17886E+09
         0.14175E+09
         0.16446E+09
        -0.51420E+07
         0.16532E+08
        -0.62627E+08
        -0.94787E+08
        -0.26399E+08
        -0.39325E+08
        -0.44000E+08
        -0.50489E+08
        -0.50161E+08
        -0.17565E+09
        -0.20579E+09
         0.46919E+08
        -0.14509E+09
        -0.16987E+09
         0.27197E+08
        -0.46454E+08
         0.71326E+08
        -0.65113E+08
        -0.17823E+09
        -0.14748E+09
        -0.10505E+09
        -0.11196E+09
         0.58622E+08
        -0.93496E+08
        -0.54676E+08
        -0.12802E+08
         0.37681E+08
         0.15702E+09
        -0.10978E+08
         0.30424E+08
         0.71779E+08
        -0.21912E+08
         0.28862E+08
        -0.69629E+07
        -0.56230E+08
         0.70495E+08
         0.39944E+08
         0.13513E+08
         0.39137E+08
        -0.80800E+07
         0.54145E+08
         0.92374E+08
         0.91533E+08
         0.10400E+09
         0.95351E+08
         0.13360E+09
         0.48582E+08
         0.10207E+09
         0.11633E+09
         0.13567E+09
         0.82320E+08
         0.50890E+08
         0.49830E+08
         0.34587E+08
        -0.95946E+08
        -0.12938E+09
        -0.13939E+09
        -0.17490E+09
        -0.17455E+09
        -0.13514E+09
        -0.16289E+09
        -0.15932E+09
        -0.13481E+09
        -0.98776E+08
        -0.10667E+09
        -0.62817E+08
        -0.70264E+07
        -0.35909E+06
         0.42813E+08
        -0.89929E+08
         0.62587E+07
         0.91115E+08
        -0.15725E+09
        -0.16688E+09
        -0.20187E+09
        -0.21463E+09
        -0.18755E+09
        -0.18774E+09
        -0.14294E+09
        -0.95873E+08
         0.10361E+09
         0.73917E+08
        -0.13182E+09
        -0.93142E+08
        -0.92982E+08
        -0.91706E+08
        -0.85621E+08
         0.10868E+09
         0.15746E+09
        -0.85341E+08
         0.18423E+09
         0.18834E+09
         0.17123E+09
         0.18848E+09
         0.16545E+09
         0.18647E+09
         0.78849E+08
         0.14753E+09
         0.47608E+08
         0.10036E+09
         0.13058E+09
         0.17643E+09
        -0.66451E+07
         0.85192E+08
        -0.10661E+09
        -0.18120E+09
        -0.18160E+09
        -0.16804E+09
        -0.11743E+09
         0.12531E+08
         0.99297E+08
         0.12735E+09
         0.14765E+09
         0.17613E+09
         0.19335E+09
         0.15561E+09
         0.12972E+09
         0.64923E+08
         0.16203E+08
        -0.21184E+08
        -0.71352E+08
        -0.13986E+09
        -0.16774E+09
        -0.18195E+09
        -0.20660E+09
        -0.20490E+09
        -0.18614E+09
        -0.12627E+09
        -0.11589E+09
        -0.21305E+08
         0.98747E+07
        -0.13616E+08
         0.16995E+08
         0.11914E+09
         0.16641E+09
         0.17650E+09
         0.20248E+09
         0.21326E+09
         0.19498E+09
         0.11457E+09
         0.92496E+08
         0.10856E+09
         0.51146E+08
         0.39388E+07
         0.16612E+08
        -0.55906E+08
        -0.80789E+08
        -0.10991E+09
        -0.14557E+09
        -0.17959E+09
         0.14279E+09
         0.16056E+08
         0.46859E+08
         0.56169E+08
         0.10003E+09
         0.15620E+09
        -0.10877E+09
         0.11398E+08
         0.37744E+08
        -0.87810E+08
        -0.90118E+08
         0.27046E+08
         0.84315E+08
        -0.82641E+08
        -0.44755E+07
        -0.88976E+08
        -0.20349E+09
         0.82134E+08
        -0.11163E+09
        -0.96214E+08
        -0.20729E+08
         0.42064E+08
         0.54908E+08
        -0.73167E+08
        -0.12416E+09
        -0.81012E+08
        -0.15435E+09
        -0.55263E+08
         0.90098E+08
         0.53031E+08
         0.15595E+08
        -0.94448E+08
         0.56778E+08
         0.10993E+09
        -0.45616E+08
        -0.10643E+09
         0.14701E+08
        -0.17457E+08
         0.31370E+07
         0.11182E+09
         0.40152E+08
         0.82100E+08
         0.38556E+08
        -0.53882E+07
        -0.16077E+08
        -0.35003E+08
         0.18198E+08
         0.13396E+09
         0.10330E+09
         0.81403E+07
         0.12876E+09
         0.19264E+09
         0.15864E+09
        -0.17288E+08
         0.10630E+09
         0.19785E+08
         0.12780E+09
         0.85254E+08
         0.10301E+08
         0.33754E+08
        -0.21512E+08
        -0.12250E+09
        -0.14319E+09
        -0.16065E+09
        -0.15849E+09
        -0.98726E+08
        -0.57213E+07
        -0.13967E+08
        -0.85572E+07
         0.69376E+08
         0.25413E+08
        -0.81818E+08
        -0.23074E+08
        -0.93800E+08
        -0.79641E+08
        -0.10145E+09
        -0.96079E+08
        -0.13652E+09
         0.11159E+09
        -0.15453E+09
        -0.23822E+08
        -0.16547E+09
        -0.14800E+09
         0.50303E+08
        -0.13928E+09
         0.46592E+08
         0.11369E+09
         0.11207E+09
        -0.10903E+09
        -0.79273E+08
        -0.88030E+08
         0.11947E+08
        -0.64112E+08
        -0.37809E+08
        -0.19163E+09
         0.80019E+08
         0.17264E+09
         0.10482E+09
         0.19181E+09
         0.24282E+09
         0.19068E+09
         0.19633E+09
        -0.14592E+09
         0.68990E+08
         0.11656E+09
         0.39591E+08
         0.17803E+09
         0.11965E+09
        -0.34106E+07
        -0.71496E+08
        -0.12869E+09
        -0.20245E+09
        -0.24251E+09
        -0.20958E+09
        -0.12249E+09
         0.26423E+08
         0.10118E+09
         0.12841E+09
         0.18552E+09
         0.21050E+09
         0.24769E+09
         0.18247E+09
         0.16833E+09
         0.10379E+09
         0.51505E+08
        -0.24748E+08
        -0.75034E+08
         0.22273E+08
        -0.17390E+09
        -0.13682E+09
        -0.24528E+09
        -0.25262E+09
        -0.18173E+09
        -0.12990E+09
        -0.10474E+09
        -0.10584E+09
        -0.58354E+08
         0.25583E+08
         0.11019E+09
         0.13185E+09
         0.21562E+09
         0.17633E+09
         0.23647E+09
         0.24410E+09
         0.16500E+09
         0.22394E+09
         0.10026E+09
         0.13512E+09
         0.81583E+08
         0.14877E+08
         0.12223E+08
        -0.99670E+08
        -0.97801E+08
        -0.19515E+09
        -0.19875E+09
        -0.23549E+09
  
SCALARS                      stress_xy  double 1
LOOKUP_TABLE default
        -0.92492E+07
        -0.23382E+08
        -0.27576E+08
        -0.20662E+06
        -0.83646E+01
        -0.41314E+02
        -0.47123E+02
         0.60373E+01
         0.38097E+08
         0.37164E+08
         0.24402E+00
         0.32551E+02
         0.41740E+07
        -0.14611E+08
        -0.19453E+02
         0.70722E+01
         0.31419E+08
         0.58763E+07
         0.11380E+02
         0.12904E+02
        -0.20530E+08
        -0.51041E+08
        -0.63369E+08
         0.10059E+02
        -0.13983E+02
        -0.35985E+02
         0.41716E+08
         0.82916E+07
         0.15668E+02
        -0.25589E+02
        -0.94824E+07
         0.23705E+08
         0.12354E+08
         0.78527E+01
         0.21645E+02
         0.70024E+01
         0.19133E+08
         0.21334E+08
        -0.88995E-01
         0.92084E+01
        -0.78619E+07
         0.45450E+08
        -0.26212E+02
        -0.13667E+02
         0.57965E+08
        -0.44312E+08
        -0.30517E+02
        -0.20370E+02
         0.31898E+08
         0.13173E+02
         0.97630E+07
        -0.23299E+02
         0.74773E+07
        -0.90315E+00
         0.35889E+08
        -0.14538E+01
         0.75425E+08
         0.29746E+08
         0.60818E+01
         0.34585E+01
        -0.20383E+08
        -0.22801E+08
         0.40239E+01
        -0.20924E+02
         0.22380E+08
         0.13050E+02
         0.54732E+08
         0.28638E+02
        -0.81022E+08
         0.49069E+08
        -0.18978E+02
        -0.51388E+02
        -0.48664E+08
        -0.47581E+02
         0.41351E+08
        -0.15690E+02
         0.39278E+08
         0.71767E+01
        -0.47464E+07
         0.15651E+02
        -0.28909E+07
         0.37349E+08
         0.23503E+02
         0.22442E+02
         0.33181E+08
         0.88785E+01
        -0.71039E+07
        -0.41351E+02
        -0.23581E+08
        -0.39618E+02
        -0.26502E+08
        -0.33641E+08
        -0.33737E+02
        -0.14578E+02
         0.51870E+08
         0.28980E+01
         0.79070E+08
         0.23228E+02
         0.15244E+09
         0.39990E+02
        -0.12052E+09
         0.76491E+08
         0.58623E+02
         0.38882E+02
         0.60686E+08
         0.60800E+08
        -0.12002E+02
        -0.12762E+02
        -0.17766E+08
        -0.27129E+02
        -0.12801E+09
        -0.37353E+02
         0.10262E+09
        -0.41513E+02
        -0.31569E+07
        -0.13506E+02
         0.48148E+08
        -0.11666E+02
        -0.42159E+08
         0.45419E+01
        -0.22671E+08
         0.16575E+02
        -0.61557E+07
         0.21466E+02
        -0.18821E+09
         0.15888E+02
         0.59184E+08
         0.26497E+02
         0.54629E+08
         0.13532E+02
        -0.82715E+07
        -0.18596E+01
        -0.92188E+07
        -0.14533E+02
        -0.23096E+09
        -0.24409E+02
        -0.17082E+09
        -0.29594E+02
         0.13336E+09
        -0.29277E+02
         0.11909E+09
        -0.41551E+00
        -0.73519E+08
        -0.37481E+02
         0.75063E+08
         0.64932E+01
         0.10960E+08
         0.22906E+02
        -0.14783E+09
         0.40534E+02
        -0.16799E+09
         0.29136E+02
         0.47919E+08
         0.48515E+02
        -0.14635E+09
         0.75124E+01
        -0.66548E+08
        -0.11256E+09
        -0.67498E+08
        -0.17148E+08
         0.49452E+08
        -0.91638E+08
         0.79865E+08
         0.14677E+08
         0.14504E+09
         0.67005E+08
         0.15944E+08
         0.15122E+09
         0.20299E+09
         0.23023E+08
         0.46873E+08
        -0.16540E+09
         0.12533E+09
         0.16147E+08
        -0.12695E+09
        -0.84283E+08
        -0.48518E+08
         0.28168E+08
         0.13195E+09
         0.16375E+08
         0.10152E+08
         0.52904E+08
        -0.70292E+08
        -0.12726E+09
        -0.45969E+07
        -0.96786E+07
        -0.12039E+09
         0.58369E+08
         0.20875E+09
         0.18565E+09
         0.10008E+09
         0.11124E+09
         0.14924E+09
        -0.17965E+08
        -0.28015E+08
        -0.15141E+09
        -0.86085E+08
        -0.13706E+09
        -0.45908E+08
         0.17497E+09
         0.12122E+09
         0.33390E+08
        -0.32172E+08
         0.43783E+08
        -0.34029E+08
        -0.10934E+09
        -0.12396E+09
        -0.15630E+09
         0.46438E+08
         0.22979E+08
        -0.45355E+08
         0.75615E+08
         0.85407E+08
        -0.14568E+08
        -0.89320E+07
        -0.91137E+07
        -0.27365E+07
        -0.44395E+08
        -0.56887E+08
        -0.29064E+08
         0.11132E+08
         0.48420E+08
        -0.39841E+08
        -0.40039E+08
         0.96613E+06
        -0.10960E+08
         0.18621E+08
        -0.41186E+08
        -0.16882E+09
        -0.16584E+08
         0.18557E+08
        -0.82196E+08
         0.10717E+09
        -0.90871E+08
        -0.71179E+06
        -0.62061E+08
        -0.47200E+08
         0.30989E+07
        -0.23033E+08
         0.15148E+08
        -0.40234E+08
         0.19183E+07
         0.24042E+08
         0.24522E+08
        -0.15889E+08
        -0.35762E+08
        -0.65206E+08
         0.17790E+08
         0.11041E+06
        -0.31574E+07
         0.25251E+08
         0.13834E+08
         0.22842E+07
         0.15945E+08
        -0.95949E+07
         0.20143E+08
        -0.52316E+08
        -0.44991E+08
         0.35664E+08
        -0.58824E+08
         0.18336E+07
         0.18693E+08
         0.64955E+08
         0.37886E+08
        -0.85022E+04
        -0.41645E+08
         0.31432E+08
         0.45995E+08
        -0.39255E+08
        -0.71934E+08
        -0.84905E+08
        -0.10326E+08
        -0.17547E+08
         0.34568E+08
         0.73713E+08
         0.63628E+08
         0.44264E+08
        -0.53419E+08
        -0.28831E+08
        -0.69813E+08
        -0.10660E+09
         0.83702E+06
         0.66210E+08
         0.14127E+09
         0.18296E+09
         0.11144E+09
         0.10101E+09
        -0.37715E+08
        -0.70779E+07
        -0.71691E+08
        -0.77950E+07
         0.16308E+07
        -0.84117E+08
         0.61978E+07
         0.13337E+09
        -0.21086E+08
         0.19625E+09
         0.23447E+08
         0.88769E+08
         0.74732E+07
        -0.84046E+07
        -0.13780E+09
        -0.15389E+09
        -0.62276E+08
        -0.68532E+08
        -0.54438E+08
        -0.32602E+08
         0.54999E+08
         0.79688E+08
         0.35053E+08
         0.10064E+09
        -0.33619E+08
         0.94501E+07
        -0.24693E+08
        -0.30820E+08
         0.25576E+08
         0.15060E+08
        -0.74007E+07
        -0.25980E+08
         0.21440E+08
         0.81650E+08
         0.38177E+07
        -0.20277E+08
         0.11092E+08
        -0.29659E+07
         0.22241E+08
         0.41689E+08
         0.26440E+08
         0.22309E+08
         0.92753E+07
         0.26485E+08
        -0.75858E+08
         0.78669E+08
        -0.22640E+08
         0.12706E+09
         0.32741E+08
        -0.11508E+07
         0.22029E+07
         0.17531E+08
         0.74152E+07
         0.29312E+08
         0.53339E+08
        -0.43721E+08
         0.15122E+08
         0.74262E+08
         0.44319E+08
         0.36278E+08
         0.10281E+09
         0.46408E+08
        -0.18868E+08
        -0.10111E+09
        -0.73549E+08
        -0.89338E+08
        -0.62464E+08
        -0.17076E+08
         0.72800E+08
         0.12182E+09
         0.74305E+08
        -0.61513E+08
        -0.98125E+08
        -0.22123E+08
        -0.10043E+09
        -0.18988E+09
        -0.16421E+09
        -0.41477E+08
        -0.18168E+08
        -0.11223E+08
        -0.13354E+08
         0.22267E+08
         0.29326E+08
        -0.85135E+07
        -0.17689E+08
        -0.49597E+08
        -0.51052E+08
        -0.35184E+08
        -0.34784E+08
        -0.44333E+08
         0.63125E+07
        -0.45606E+07
         0.68338E+08
         0.79300E+07
         0.54517E+08
        -0.42887E+08
        -0.75818E+08
         0.43190E+07
        -0.42747E+08
         0.96119E+07
         0.76473E+08
         0.88600E+07
        -0.26250E+08
        -0.23762E+08
        -0.99537E+08
        -0.79032E+08
         0.18479E+08
        -0.92876E+08
         0.52821E+08
        -0.87997E+08
        -0.19736E+08
         0.18444E+08
         0.33707E+08
        -0.71135E+08
        -0.21092E+09
        -0.21979E+09
        -0.10774E+08
         0.26324E+08
        -0.24095E+08
         0.23448E+08
         0.11957E+08
        -0.28960E+08
         0.11873E+06
         0.51650E+07
        -0.14076E+08
        -0.13607E+09
        -0.92342E+08
         0.75101E+08
        -0.11044E+09
         0.37782E+08
         0.80668E+08
         0.94187E+08
         0.86727E+08
        -0.35145E+08
        -0.90256E+08
         0.38714E+08
         0.73285E+08
        -0.16805E+09
        -0.14519E+09
        -0.19639E+09
        -0.14112E+06
         0.36860E+08
         0.81594E+08
         0.12806E+08
         0.65411E+08
         0.68682E+08
        -0.16285E+09
         0.24787E+08
         0.30662E+08
        -0.16307E+09
        -0.26663E+08
         0.73633E+08
         0.12170E+09
         0.16161E+09
         0.95047E+08
         0.54971E+08
        -0.63056E+08
         0.31934E+08
         0.14091E+08
         0.63621E+08
         0.52491E+08
         0.26531E+07
        -0.18535E+08
        -0.29933E+07
         0.67907E+07
        -0.54325E+08
         0.58519E+08
        -0.34279E+08
        -0.33962E+07
         0.50263E+07
         0.48202E+08
        -0.48139E+08
         0.60137E+08
        -0.72962E+08
        -0.57673E+08
         0.41819E+08
        -0.20242E+07
         0.12172E+08
         0.14978E+09
         0.14631E+09
        -0.34580E+08
         0.16367E+08
         0.39564E+08
         0.58611E+07
        -0.33251E+07
         0.43777E+07
        -0.12105E+08
         0.30897E+08
         0.19443E+08
         0.22108E+08
         0.19037E+07
         0.15160E+08
        -0.25663E+08
        -0.13095E+08
         0.23529E+08
         0.37590E+08
         0.21430E+08
         0.15240E+08
        -0.30711E+08
         0.37779E+08
        -0.25649E+08
         0.35731E+08
        -0.92377E+07
        -0.10779E+08
         0.23300E+08
         0.11799E+08
        -0.49117E+07
        -0.27510E+08
        -0.76549E+07
         0.49963E+08
         0.37874E+08
        -0.20594E+08
        -0.26545E+08
        -0.34321E+08
        -0.29381E+08
         0.13958E+07
         0.39656E+08
         0.51415E+08
         0.71871E+07
        -0.19723E+08
        -0.26892E+08
        -0.10090E+09
        -0.37138E+08
         0.63181E+07
        -0.28871E+08
         0.57091E+08
         0.10787E+08
        -0.51905E+08
        -0.17551E+08
        -0.15345E+08
        -0.86010E+08
        -0.14057E+09
        -0.10749E+09
         0.87275E+07
         0.53619E+08
        -0.26621E+08
         0.58240E+08
         0.14062E+09
         0.86688E+08
         0.14471E+08
        -0.33545E+08
        -0.73919E+08
        -0.99221E+08
        -0.93895E+08
        -0.44863E+08
        -0.68023E+08
        -0.29276E+08
         0.53083E+08
         0.13431E+09
         0.71296E+08
         0.64235E+08
        -0.10923E+07
        -0.10621E+08
        -0.46996E+08
        -0.75823E+08
        -0.40619E+08
        -0.51255E+08
        -0.65836E+07
        -0.66484E+07
        -0.31331E+08
        -0.68112E+08
        -0.67934E+08
         0.20693E+08
        -0.42148E+08
         0.93733E+08
        -0.87730E+08
        -0.50023E+08
         0.10354E+08
         0.38200E+08
        -0.78547E+08
        -0.39222E+08
        -0.15094E+09
        -0.51433E+08
         0.65934E+08
        -0.51345E+08
         0.32194E+08
        -0.14434E+08
        -0.47781E+08
         0.80277E+07
        -0.58770E+08
        -0.36830E+07
        -0.20214E+09
        -0.12412E+09
         0.97579E+08
        -0.13696E+09
         0.33998E+08
         0.12776E+09
         0.16283E+09
         0.11361E+09
        -0.49964E+08
        -0.14393E+09
         0.32999E+08
         0.12517E+09
        -0.15423E+09
        -0.19037E+09
        -0.21959E+09
         0.51972E+07
         0.12560E+09
         0.15566E+09
        -0.23533E+07
         0.13180E+09
         0.10148E+09
        -0.23401E+09
        -0.13655E+09
         0.32913E+08
        -0.67146E+08
         0.59341E+08
         0.11342E+09
         0.17846E+09
         0.23433E+09
         0.15768E+09
         0.28793E+08
         0.73629E+08
         0.14095E+09
        -0.73784E+08
         0.29472E+08
        -0.90041E+08
         0.45500E+08
        -0.31516E+08
        -0.61570E+08
        -0.24779E+08
        -0.20054E+09
        -0.30911E+08
        -0.77105E+08
        -0.72292E+08
         0.62015E+08
         0.15631E+08
        -0.39051E+07
         0.18502E+09
         0.44956E+08
        -0.28810E+08
        -0.30174E+08
        -0.11411E+09
        -0.12520E+09
         0.10203E+09
        -0.78667E+08
         0.95461E+08
        -0.22494E+08
         0.13346E+08
         0.34300E+08
         0.38168E+08
         0.19961E+08
        -0.10254E+08
         0.48788E+07
        -0.33873E+08
        -0.46387E+08
        -0.47164E+07
         0.42897E+07
         0.96193E+08
         0.15921E+09
        -0.21160E+08
         0.20194E+08
        -0.45944E+08
        -0.74217E+07
        -0.47065E+07
        -0.28123E+08
        -0.54223E+07
         0.10337E+08
        -0.13553E+08
         0.96534E+08
        -0.16872E+08
         0.30151E+08
        -0.20937E+08
         0.78843E+07
         0.74996E+07
        -0.41271E+08
         0.10222E+08
         0.56474E+07
         0.39273E+08
         0.21943E+07
        -0.11500E+08
         0.32694E+08
         0.11615E+09
         0.12743E+09
         0.17872E+08
        -0.41207E+08
        -0.15186E+09
        -0.16958E+09
        -0.11385E+09
        -0.21268E+08
         0.11234E+09
         0.14550E+09
         0.10141E+09
         0.80977E+08
         0.20622E+08
        -0.59123E+08
        -0.17984E+09
        -0.17802E+09
        -0.11306E+09
         0.41000E+07
         0.19522E+08
         0.54834E+08
         0.82323E+08
         0.58018E+08
         0.53231E+08
         0.24266E+08
        -0.37617E+08
        -0.56666E+08
        -0.34386E+08
        -0.79919E+08
        -0.24065E+08
        -0.48486E+08
        -0.11460E+08
         0.64118E+08
         0.88343E+08
         0.70702E+08
         0.10607E+09
         0.34365E+08
        -0.64547E+06
        -0.10489E+08
        -0.49904E+08
        -0.32742E+08
        -0.45538E+08
        -0.63548E+08
        -0.15479E+08
         0.15956E+08
         0.42574E+07
        -0.48147E+08
         0.36132E+07
        -0.51583E+08
         0.49107E+08
         0.16079E+08
         0.18196E+08
         0.16079E+08
        -0.20001E+08
        -0.51837E+07
        -0.10897E+09
        -0.10610E+09
        -0.84465E+07
        -0.11311E+09
         0.14421E+08
         0.42367E+08
        -0.32274E+08
         0.14962E+08
         0.57323E+07
        -0.65986E+08
        -0.11760E+08
        -0.10409E+09
        -0.46361E+08
        -0.15006E+08
        -0.55666E+08
        -0.16687E+08
         0.76191E+06
         0.38073E+08
         0.21052E+08
        -0.31331E+08
        -0.59743E+08
        -0.27090E+08
         0.40638E+08
        -0.13118E+09
        -0.19804E+09
        -0.15521E+09
         0.14118E+09
         0.10391E+09
         0.63648E+08
         0.14863E+09
         0.15413E+09
         0.92533E+08
        -0.19128E+09
        -0.18055E+09
        -0.74410E+08
        -0.26482E+08
         0.59143E+08
         0.76185E+08
         0.98448E+08
         0.11585E+09
         0.10928E+09
        -0.35414E+07
         0.91616E+08
         0.98755E+08
        -0.91371E+08
        -0.19100E+09
        -0.99318E+08
         0.54161E+08
        -0.44617E+08
         0.31924E+08
         0.13426E+09
         0.12668E+09
         0.12931E+08
         0.13742E+07
        -0.24031E+08
        -0.45062E+08
        -0.50810E+08
        -0.12722E+09
         0.18299E+09
        -0.89741E+08
        -0.56079E+08
        -0.33852E+08
         0.55282E+08
         0.57834E+08
         0.18167E+09
        -0.18364E+07
         0.89041E+08
         0.12436E+08
         0.58347E+08
         0.33883E+08
         0.98901E+07
        -0.19309E+08
        -0.50986E+08
         0.52591E+08
         0.14908E+08
        -0.21617E+08
        -0.31628E+08
         0.39215E+08
         0.11193E+09
         0.14170E+09
         0.15683E+08
         0.35354E+08
         0.16681E+08
        -0.19500E+08
        -0.62247E+07
         0.13698E+08
        -0.14158E+08
         0.97076E+08
         0.18049E+08
         0.14686E+09
         0.38738E+08
        -0.43718E+08
         0.43058E+08
         0.13910E+07
        -0.24393E+08
        -0.46784E+08
        -0.24694E+08
         0.11220E+08
         0.72899E+08
        -0.17176E+08
        -0.39497E+08
         0.95288E+08
         0.15176E+09
         0.17263E+09
         0.10702E+08
        -0.40054E+08
        -0.15184E+09
        -0.20028E+09
        -0.11764E+09
        -0.29008E+08
         0.17333E+09
         0.22287E+09
         0.18714E+09
         0.60792E+08
        -0.26972E+08
        -0.88682E+08
        -0.18078E+09
        -0.22406E+09
        -0.10767E+09
         0.83698E+08
         0.19734E+08
         0.11913E+09
         0.12578E+09
         0.11846E+09
         0.10809E+09
         0.30671E+08
        -0.23050E+08
        -0.94974E+08
        -0.10638E+09
        -0.12398E+09
        -0.14149E+09
        -0.84063E+08
        -0.34964E+07
         0.10557E+09
         0.15437E+09
         0.11005E+09
         0.13000E+09
         0.11343E+09
         0.15929E+08
        -0.19461E+08
        -0.10260E+09
        -0.10839E+09
        -0.10200E+09
        -0.11024E+09
        -0.73093E+08
        -0.25496E+08
        -0.53274E+08
        -0.60508E+08
         0.80326E+07
        -0.39275E+08
         0.92682E+08
        -0.19715E+08
        -0.17250E+08
         0.22107E+07
         0.10016E+08
        -0.45944E+08
        -0.72447E+08
        -0.10699E+09
        -0.56783E+08
        -0.11385E+09
        -0.48267E+07
         0.43367E+08
        -0.13744E+08
        -0.37853E+08
         0.75225E+07
        -0.85635E+08
        -0.26769E+08
        -0.78576E+08
        -0.73923E+08
         0.35557E+08
        -0.89105E+08
        -0.17003E+08
         0.12999E+08
         0.50143E+08
         0.22220E+08
        -0.10552E+08
        -0.82340E+08
         0.20973E+08
         0.10160E+09
        -0.92035E+08
        -0.14069E+09
        -0.17948E+09
        -0.79075E+07
         0.58621E+08
         0.13220E+09
         0.22424E+09
         0.11503E+09
         0.31372E+08
        -0.18345E+09
        -0.17342E+09
        -0.80709E+08
        -0.38987E+08
         0.33387E+08
         0.92252E+08
         0.11948E+09
         0.13105E+09
         0.13809E+09
        -0.67737E+08
         0.82571E+08
        -0.13153E+09
        -0.20270E+09
        -0.22418E+09
        -0.10457E+09
         0.68782E+07
         0.37305E+08
         0.13514E+09
         0.22155E+09
         0.19986E+09
         0.16932E+09
         0.10966E+09
        -0.54414E+07
        -0.55001E+08
        -0.10155E+09
        -0.21589E+09
        -0.21481E+09
        -0.76987E+08
        -0.95277E+08
         0.59295E+08
         0.15891E+09
         0.22962E+09
         0.19611E+09
         0.11081E+09
         0.87976E+08
         0.81937E+07
         0.68592E+08
         0.46422E+08
        -0.15937E+07
        -0.10238E+07
        -0.38186E+08
         0.58142E+08
         0.24209E+08
        -0.39744E+07
         0.10816E+07
         0.59295E+08
         0.74912E+08
         0.11180E+09
         0.48618E+08
         0.34923E+08
         0.14845E+08
        -0.53851E+07
        -0.30360E+07
         0.30231E+08
        -0.17362E+08
         0.72490E+08
         0.17106E+07
         0.13868E+09
         0.75703E+08
        -0.26300E+08
         0.60275E+08
         0.16460E+08
        -0.34278E+08
        -0.98950E+08
        -0.61977E+08
         0.70217E+07
         0.63115E+08
        -0.29401E+08
        -0.60232E+08
         0.29568E+08
         0.74655E+08
         0.12451E+09
        -0.12025E+08
        -0.73875E+08
        -0.14531E+09
        -0.17216E+09
        -0.13714E+09
        -0.74143E+08
         0.14513E+09
         0.12492E+09
         0.96862E+08
         0.33191E+08
        -0.16792E+08
        -0.60735E+08
        -0.69756E+08
        -0.64645E+08
        -0.52940E+08
         0.78566E+08
        -0.40794E+08
         0.16436E+09
         0.20743E+09
         0.15850E+09
         0.12943E+09
         0.22692E+08
        -0.73286E+08
        -0.12714E+09
        -0.16890E+09
        -0.22698E+09
        -0.15862E+09
        -0.15151E+09
        -0.36013E+08
         0.32300E+08
         0.14751E+09
         0.21686E+09
         0.19208E+09
         0.13395E+09
        -0.17573E+08
        -0.61218E+07
        -0.78746E+08
        -0.13479E+09
        -0.13153E+09
        -0.47217E+08
        -0.11563E+09
        -0.25209E+08
        -0.87151E+08
        -0.82341E+08
        -0.17908E+07
        -0.43747E+08
         0.59757E+08
        -0.69497E+08
        -0.84987E+07
        -0.52988E+07
         0.14112E+07
        -0.50509E+08
        -0.58254E+08
        -0.12133E+09
        -0.34580E+08
        -0.68611E+08
        -0.22499E+08
         0.14810E+08
        -0.43989E+07
        -0.59084E+08
         0.18577E+08
        -0.62706E+08
        -0.56382E+07
        -0.13424E+09
        -0.11248E+09
         0.32609E+08
        -0.11285E+09
        -0.47516E+07
         0.35173E+08
         0.11623E+09
         0.78280E+08
        -0.16592E+08
        -0.76473E+08
         0.36832E+08
         0.89294E+08
        -0.79291E+08
        -0.10484E+09
        -0.13678E+09
        -0.11210E+06
         0.83529E+08
         0.12893E+09
         0.17629E+09
         0.14780E+09
         0.63611E+08
        -0.17314E+09
        -0.14184E+09
        -0.80927E+08
        -0.34811E+08
         0.19983E+08
         0.73067E+08
         0.10956E+09
         0.13801E+09
         0.12556E+09
        -0.28164E+08
         0.12336E+09
        -0.14224E+09
        -0.21126E+09
        -0.21268E+09
        -0.12595E+09
        -0.29157E+08
         0.48366E+08
         0.15521E+09
         0.20655E+09
         0.22636E+09
         0.16985E+09
         0.93813E+08
         0.10535E+08
        -0.75681E+08
        -0.16118E+09
        -0.18284E+09
        -0.17181E+09
        -0.13196E+09
         0.19690E+08
         0.54586E+08
         0.95926E+08
         0.11912E+09
         0.10870E+09
         0.84387E+08
         0.10154E+09
        -0.12045E+07
         0.42041E+08
         0.36982E+08
         0.14753E+08
         0.52540E+07
        -0.30836E+08
         0.27688E+08
        -0.23918E+08
        -0.17845E+08
        -0.17804E+08
         0.18456E+08
         0.39019E+08
         0.54553E+08
        -0.28921E+07
         0.15945E+08
         0.99355E+07
        -0.16147E+08
         0.21214E+08
         0.90743E+07
        -0.55988E+07
         0.37017E+08
         0.12396E+07
         0.83869E+08
         0.68402E+08
         0.12611E+08
         0.64038E+08
         0.15187E+08
         0.36727E+08
        -0.10011E+08
         0.32915E+07
         0.26719E+08
         0.51682E+08
         0.12191E+07
        -0.28907E+08
         0.27190E+08
         0.43035E+08
         0.61321E+08
         0.13042E+08
         0.13434E+08
        -0.94646E+08
        -0.14431E+09
        -0.11121E+09
        -0.34154E+08
         0.66636E+08
         0.46089E+08
         0.38605E+08
         0.30615E+08
        -0.57339E+07
        -0.28615E+08
        -0.33645E+08
        -0.54001E+08
        -0.50747E+08
         0.37461E+08
         0.13477E+08
         0.45730E+08
         0.16846E+09
         0.16839E+09
         0.13955E+09
         0.57923E+08
        -0.90200E+08
        -0.17303E+09
        -0.19817E+09
        -0.21016E+09
        -0.17057E+09
        -0.11047E+09
         0.17853E+08
         0.12988E+09
         0.15058E+09
         0.18458E+09
         0.10750E+09
         0.17861E+08
        -0.19535E+08
        -0.86919E+08
        -0.85699E+08
        -0.80198E+08
        -0.13541E+09
        -0.11083E+09
        -0.10885E+09
        -0.33512E+08
        -0.94658E+08
        -0.73872E+08
         0.46724E+07
        -0.27414E+08
         0.76180E+08
        -0.67470E+08
         0.50617E+07
         0.31577E+07
         0.17065E+08
         0.12701E+08
        -0.18434E+08
        -0.95804E+08
         0.36517E+08
         0.81626E+07
        -0.46882E+08
         0.15442E+08
        -0.38694E+06
        -0.10877E+08
         0.26618E+08
        -0.33591E+08
        -0.79416E+07
        -0.87926E+08
        -0.70765E+08
         0.29730E+08
        -0.11552E+09
         0.47847E+07
         0.24532E+08
         0.72171E+08
         0.71562E+08
        -0.40032E+08
        -0.87127E+08
         0.42386E+08
         0.71980E+08
        -0.57250E+08
        -0.57958E+08
        -0.81114E+08
        -0.43348E+07
         0.28423E+08
         0.57480E+08
         0.84745E+08
         0.93746E+08
         0.72705E+08
        -0.11968E+09
        -0.75753E+08
        -0.46631E+08
        -0.32681E+08
         0.20782E+08
         0.75108E+08
         0.86858E+08
         0.10935E+09
         0.11367E+09
        -0.30792E+08
         0.14653E+08
        -0.58558E+08
        -0.17702E+09
        -0.18969E+09
        -0.15151E+09
        -0.92306E+08
         0.42445E+08
         0.15371E+09
         0.19199E+09
         0.19464E+09
         0.16399E+09
         0.85780E+08
        -0.73877E+08
        -0.12650E+09
        -0.16818E+09
        -0.12834E+09
        -0.14573E+09
        -0.74263E+08
         0.38284E+08
         0.86033E+08
         0.10246E+09
         0.13905E+09
         0.10002E+09
         0.12709E+09
         0.10591E+09
         0.23620E+08
         0.26273E+08
         0.20718E+08
         0.17916E+08
         0.45403E+07
        -0.35605E+08
         0.12329E+08
        -0.21405E+08
        -0.28909E+07
        -0.35014E+08
        -0.16347E+07
         0.80612E+07
         0.23394E+08
        -0.28755E+08
         0.55777E+07
         0.31554E+08
        -0.33424E+08
         0.41619E+08
         0.66082E+06
        -0.28301E+08
         0.24546E+08
         0.17717E+07
         0.38140E+08
         0.48941E+08
        -0.14673E+07
         0.47679E+08
        -0.14715E+08
         0.31965E+08
         0.27165E+08
         0.54166E+07
         0.26862E+08
         0.36462E+08
         0.48101E+07
        -0.26965E+08
         0.15708E+08
         0.10386E+08
         0.26417E+08
         0.11298E+06
         0.12556E+08
         0.64863E+06
        -0.68822E+08
        -0.28089E+08
        -0.97136E+07
         0.33591E+08
         0.36816E+08
         0.33577E+08
         0.20892E+08
        -0.18010E+07
        -0.23421E+08
        -0.42250E+08
        -0.83188E+08
        -0.62705E+08
         0.28546E+08
        -0.17509E+08
         0.41874E+08
         0.17118E+09
         0.15934E+09
         0.13181E+09
         0.75618E+08
        -0.25111E+08
        -0.13681E+09
        -0.19969E+09
        -0.19921E+09
        -0.19362E+09
        -0.64577E+08
         0.94619E+08
         0.14029E+09
         0.12010E+09
         0.16252E+09
         0.11361E+09
         0.64577E+08
        -0.47054E+08
        -0.97718E+08
        -0.13005E+09
        -0.11275E+09
        -0.15982E+09
        -0.13618E+09
        -0.99229E+08
        -0.50777E+08
        -0.73979E+08
        -0.52762E+08
        -0.12453E+08
        -0.43282E+07
         0.23804E+08
        -0.39737E+08
        -0.30262E+08
         0.83680E+06
         0.44668E+08
        -0.28235E+08
        -0.18044E+08
        -0.12465E+08
        -0.32445E+08
        -0.40248E+08
        -0.54938E+08
         0.39664E+08
        -0.44178E+08
         0.50072E+07
         0.42945E+08
        -0.65732E+08
        -0.15284E+08
        -0.65812E+08
        -0.38691E+08
         0.65118E+08
        -0.74417E+08
         0.42423E+08
         0.58505E+08
         0.35570E+08
         0.53641E+08
        -0.52088E+08
        -0.77474E+08
         0.65346E+07
         0.52178E+08
        -0.35557E+08
        -0.88872E+08
        -0.69845E+08
         0.38493E+07
         0.41915E+08
         0.32696E+08
         0.50643E+08
         0.51864E+08
         0.38229E+08
        -0.10337E+09
        -0.96187E+08
        -0.49836E+08
        -0.29384E+08
        -0.28713E+07
         0.28411E+08
         0.82157E+08
         0.98716E+08
         0.54045E+08
         0.10291E+07
         0.89050E+07
        -0.85833E+08
        -0.11599E+09
        -0.95986E+08
        -0.91644E+08
        -0.14755E+08
         0.24133E+08
         0.88664E+08
         0.19512E+09
         0.17502E+09
         0.18905E+09
         0.59042E+08
        -0.68383E+08
        -0.80346E+08
        -0.28247E+08
        -0.43404E+08
        -0.57399E+08
        -0.35829E+08
         0.26364E+08
         0.72819E+08
         0.96660E+08
         0.12429E+09
         0.15816E+09
         0.15078E+09
         0.49369E+08
         0.14556E+08
         0.14154E+08
         0.31530E+08
         0.90010E+07
         0.23765E+08
        -0.19164E+07
        -0.27557E+06
         0.15345E+08
        -0.14243E+08
        -0.20308E+08
         0.21344E+08
         0.93099E+07
        -0.79988E+07
         0.39122E+08
         0.30441E+08
         0.21725E+08
        -0.38702E+08
         0.15078E+08
         0.15017E+08
        -0.22530E+08
         0.27303E+08
         0.92520E+07
         0.18696E+08
         0.33839E+08
        -0.36296E+08
         0.34739E+08
         0.25246E+07
        -0.17630E+08
        -0.19277E+07
        -0.10456E+08
         0.26064E+08
         0.32825E+08
        -0.89349E+07
        -0.36673E+08
         0.26507E+08
         0.31106E+08
         0.17818E+08
         0.70643E+07
        -0.19824E+08
        -0.23188E+08
        -0.47328E+08
        -0.11505E+08
         0.39014E+07
         0.24624E+08
         0.41354E+08
         0.37626E+08
         0.19760E+08
         0.43641E+07
        -0.14896E+08
        -0.38190E+08
        -0.50382E+08
        -0.30316E+08
        -0.33816E+07
        -0.34584E+08
         0.38198E+08
         0.88826E+08
         0.79338E+08
         0.26713E+08
        -0.12576E+08
        -0.25420E+08
        -0.96863E+08
        -0.15499E+09
        -0.18594E+09
        -0.17172E+09
        -0.81757E+08
         0.38323E+08
         0.31831E+08
         0.39695E+08
         0.10458E+09
         0.78216E+08
         0.38061E+08
        -0.34432E+08
        -0.71592E+08
        -0.48748E+08
        -0.12269E+09
        -0.11655E+09
        -0.85688E+08
        -0.35188E+08
        -0.67524E+08
        -0.12273E+09
        -0.11146E+09
         0.49639E+07
        -0.75698E+08
        -0.11492E+06
        -0.29821E+08
        -0.57963E+08
        -0.39481E+08
         0.13881E+08
        -0.27791E+08
         0.79711E+08
         0.80087E+08
        -0.11123E+09
        -0.77267E+08
        -0.68427E+08
        -0.95996E+07
        -0.91895E+07
        -0.63270E+08
         0.21881E+08
        -0.21141E+08
        -0.36200E+08
         0.20987E+07
        -0.79181E+08
         0.10278E+09
        -0.12010E+09
        -0.73408E+07
         0.10844E+09
         0.11180E+09
         0.82324E+08
        -0.47173E+08
        -0.15061E+09
         0.55560E+08
         0.10396E+09
        -0.36359E+08
        -0.55374E+08
        -0.61796E+08
        -0.83488E+08
         0.35662E+08
         0.46227E+08
        -0.41458E+08
         0.54073E+08
        -0.91911E+07
        -0.80322E+08
        -0.70373E+08
        -0.15780E+08
        -0.81012E+08
        -0.27239E+08
         0.61850E+08
         0.82673E+08
         0.61791E+08
         0.58995E+08
         0.72563E+08
         0.71933E+07
         0.70531E+08
        -0.11382E+08
         0.14749E+08
         0.57250E+08
         0.49215E+08
         0.60782E+08
         0.62018E+08
         0.73504E+08
         0.50160E+08
         0.15826E+09
         0.52631E+08
         0.66408E+07
         0.13690E+08
         0.42269E+08
         0.37780E+08
         0.58692E+08
         0.56912E+08
         0.21579E+08
         0.11074E+08
         0.56093E+08
         0.75738E+08
         0.57439E+08
         0.10843E+09
         0.25841E+08
         0.23015E+08
         0.39253E+08
         0.42890E+08
         0.27971E+07
         0.32528E+08
         0.31458E+07
         0.94705E+07
         0.13962E+08
        -0.14465E+08
        -0.32361E+08
         0.73812E+07
        -0.26888E+08
        -0.31779E+08
         0.51315E+08
         0.33228E+08
         0.32537E+08
        -0.25910E+08
         0.10640E+08
         0.28631E+08
        -0.75513E+06
         0.21495E+08
         0.19938E+08
        -0.50264E+06
         0.17874E+08
        -0.33225E+08
         0.17793E+08
         0.33687E+08
         0.30501E+07
         0.24538E+06
        -0.42718E+07
         0.26745E+08
         0.30489E+08
        -0.12201E+08
        -0.31679E+08
         0.20737E+08
         0.24079E+08
         0.10633E+08
         0.46130E+08
         0.26449E+08
        -0.50769E+07
        -0.16560E+08
         0.10627E+08
         0.16667E+08
        -0.38595E+07
         0.69859E+07
         0.56578E+07
         0.24096E+08
         0.10261E+08
        -0.18387E+08
        -0.25091E+08
        -0.12324E+08
        -0.17720E+08
        -0.29714E+08
         0.82572E+07
        -0.42020E+08
        -0.33297E+07
        -0.18161E+08
        -0.36051E+08
        -0.13402E+08
        -0.69370E+07
        -0.71310E+08
        -0.89030E+08
        -0.89275E+08
        -0.92527E+08
        -0.76547E+08
         0.11013E+08
        -0.87640E+07
        -0.20764E+08
         0.11008E+08
         0.64874E+06
        -0.40981E+08
         0.21448E+07
         0.99175E+07
        -0.44838E+08
         0.27797E+08
         0.69668E+08
         0.16453E+08
        -0.43667E+07
        -0.37756E+08
        -0.10997E+09
        -0.75691E+08
         0.32301E+08
        -0.41079E+08
         0.37778E+08
        -0.73409E+08
        -0.69012E+08
         0.37171E+07
         0.19106E+08
         0.15400E+08
         0.87166E+08
         0.63656E+08
        -0.63478E+08
         0.10081E+08
        -0.64756E+08
         0.39203E+07
         0.85072E+07
        -0.77729E+08
        -0.57909E+07
        -0.49032E+08
        -0.10357E+08
         0.30069E+08
        -0.91822E+08
         0.29617E+08
        -0.13776E+09
         0.10018E+08
         0.96214E+07
         0.71352E+08
         0.65920E+08
        -0.57290E+08
        -0.12478E+09
         0.17190E+08
         0.77502E+08
        -0.77086E+07
        -0.55554E+08
        -0.98258E+07
        -0.59490E+08
        -0.28501E+08
        -0.86773E+08
        -0.85537E+08
        -0.23508E+07
         0.48006E+08
         0.29028E+08
         0.33112E+08
         0.42916E+08
        -0.28721E+08
        -0.18741E+08
         0.26757E+08
         0.67142E+08
         0.32652E+08
         0.48781E+08
         0.19792E+08
         0.30648E+07
         0.84602E+08
         0.71821E+08
         0.55066E+08
         0.20350E+08
         0.96902E+07
         0.13967E+08
        -0.92341E+07
        -0.77610E+07
        -0.24929E+08
        -0.15781E+08
        -0.40235E+08
         0.99747E+07
         0.37857E+08
         0.48733E+08
         0.57672E+08
         0.72392E+08
         0.27335E+08
        -0.72532E+07
        -0.50247E+07
        -0.24770E+08
        -0.69568E+07
        -0.10438E+09
        -0.89274E+08
        -0.19834E+08
         0.42370E+08
         0.12575E+08
        -0.14648E+08
        -0.32060E+07
        -0.28253E+08
         0.72353E+07
        -0.52403E+07
         0.10127E+09
        -0.22198E+08
        -0.31730E+08
        -0.28360E+08
        -0.39956E+08
        -0.43858E+08
        -0.36177E+08
        -0.24865E+08
         0.68453E+08
        -0.60955E+08
         0.36486E+08
        -0.24836E+08
        -0.43237E+08
        -0.39153E+07
        -0.41923E+07
        -0.38878E+06
         0.46930E+07
         0.32858E+08
        -0.44910E+07
         0.30166E+08
         0.10456E+09
         0.52763E+08
         0.11415E+08
        -0.21037E+08
        -0.15770E+08
        -0.19080E+08
         0.18042E+08
        -0.24438E+08
        -0.34656E+08
        -0.31997E+08
         0.80018E+07
         0.48025E+08
         0.48042E+08
         0.11277E+08
         0.18777E+08
         0.15412E+08
        -0.16373E+08
        -0.14552E+08
        -0.87319E+07
        -0.11471E+08
        -0.60696E+07
         0.80724E+07
         0.17972E+08
         0.56612E+08
         0.54782E+08
         0.25227E+08
         0.57902E+07
        -0.24306E+07
        -0.41485E+08
         0.23230E+08
         0.26446E+07
         0.64572E+08
         0.49460E+08
        -0.28868E+08
        -0.30705E+08
         0.65326E+06
        -0.83267E+07
         0.18285E+08
         0.16237E+08
        -0.42374E+07
        -0.36756E+08
        -0.31052E+08
        -0.62977E+08
        -0.26756E+08
        -0.19796E+08
         0.33243E+08
         0.44134E+08
        -0.13076E+08
         0.85212E+08
         0.35155E+08
         0.91281E+07
        -0.64081E+08
         0.47264E+08
         0.74857E+08
        -0.11581E+09
         0.28324E+08
         0.68594E+08
        -0.88517E+08
         0.98732E+08
        -0.72591E+08
         0.70600E+08
        -0.19726E+08
        -0.34081E+08
        -0.52843E+06
         0.11729E+09
         0.39720E+08
         0.10698E+09
         0.14382E+08
        -0.20060E+08
         0.70678E+08
         0.42803E+08
         0.90049E+08
         0.50806E+08
         0.89237E+07
        -0.35990E+08
        -0.28068E+08
        -0.65801E+08
         0.43064E+08
        -0.74758E+08
         0.50243E+08
        -0.16899E+08
         0.38651E+08
        -0.67084E+08
         0.12971E+08
        -0.61841E+08
         0.53713E+08
         0.15475E+09
         0.18216E+09
        -0.83850E+07
        -0.60631E+08
         0.43713E+08
        -0.91182E+08
        -0.50781E+08
        -0.99285E+07
        -0.98329E+08
         0.10582E+08
         0.11318E+09
         0.19901E+08
        -0.54053E+07
        -0.20187E+08
        -0.79129E+08
        -0.48093E+08
        -0.56286E+07
        -0.69046E+08
        -0.89861E+08
         0.89642E+08
         0.25652E+08
         0.26877E+07
        -0.26774E+07
         0.18126E+08
         0.17578E+08
        -0.48398E+08
        -0.88603E+08
        -0.46003E+08
        -0.43863E+08
        -0.59692E+08
        -0.37545E+08
         0.55798E+07
         0.12771E+09
         0.17428E+09
         0.10023E+09
         0.11377E+09
         0.99075E+08
         0.57643E+07
        -0.10201E+09
        -0.11992E+09
        -0.39172E+07
        -0.88608E+08
        -0.14925E+09
        -0.64446E+08
        -0.18698E+09
        -0.16179E+09
         0.17544E+09
         0.55019E+08
         0.23622E+09
        -0.74880E+08
        -0.29709E+08
         0.29469E+08
         0.45557E+08
        -0.81136E+08
        -0.36973E+08
         0.67307E+08
         0.16789E+08
         0.56268E+08
        -0.61123E+08
        -0.55283E+08
         0.69300E+08
        -0.69806E+08
         0.57906E+08
         0.27956E+07
         0.55252E+07
         0.32727E+08
         0.14174E+08
        -0.72346E+08
         0.66488E+08
         0.15592E+07
        -0.10605E+09
         0.52134E+08
         0.15428E+09
         0.42355E+08
        -0.82639E+08
         0.88566E+08
        -0.67808E+08
        -0.69685E+08
        -0.44793E+08
         0.57659E+08
        -0.25409E+07
        -0.61559E+08
         0.46711E+07
        -0.47452E+08
        -0.64221E+08
        -0.56049E+08
         0.37593E+08
        -0.16498E+09
        -0.80491E+08
        -0.91105E+08
         0.93768E+08
         0.29527E+08
        -0.68017E+06
         0.62644E+08
        -0.14290E+09
        -0.81548E+08
        -0.94039E+07
        -0.99473E+06
        -0.10551E+09
        -0.10017E+09
        -0.10518E+09
         0.53516E+08
         0.60856E+07
         0.18593E+08
         0.81862E+08
        -0.42690E+08
         0.14494E+09
         0.72398E+08
         0.62897E+08
        -0.10263E+08
        -0.10389E+09
        -0.18489E+09
        -0.93865E+07
         0.59512E+06
         0.61892E+07
        -0.19679E+08
         0.44207E+08
         0.41863E+08
         0.10878E+09
         0.32681E+08
        -0.17510E+08
  
SCALARS                      strain_xx  double 1
LOOKUP_TABLE default
         0.95571E+00
         0.79392E+00
         0.64106E+00
         0.83150E+00
         0.25932E-08
         0.20261E-08
         0.15149E-08
         0.23675E-08
         0.35378E+00
         0.47503E+00
        -0.18503E-09
         0.62525E-09
         0.74288E+00
         0.89024E+00
         0.16415E-08
         0.19462E-08
         0.10798E+01
         0.97857E+00
         0.28522E-08
         0.21328E-08
         0.72298E+00
         0.66386E+00
         0.66583E+00
         0.89944E-09
         0.79258E-09
         0.98377E-09
         0.85964E+00
         0.81793E+00
         0.11915E-08
         0.12874E-08
         0.91923E+00
         0.85101E+00
         0.10660E+01
         0.23297E-08
         0.21135E-08
         0.31014E-08
         0.61073E+00
         0.64830E+00
         0.13352E-08
         0.12208E-08
         0.61151E+00
         0.61378E+00
         0.88613E-09
         0.72184E-09
         0.61953E+00
         0.63472E+00
         0.12671E-08
         0.11697E-08
         0.83450E+00
         0.16692E-08
         0.71646E+00
         0.16089E-08
         0.91787E+00
         0.16162E-08
         0.82558E+00
         0.14691E-08
         0.70045E+00
         0.67898E+00
         0.87067E-09
         0.11735E-08
         0.98709E+00
         0.83082E+00
         0.28502E-08
         0.17368E-08
         0.99493E+00
         0.28698E-08
         0.78150E+00
         0.17393E-08
         0.29567E+00
         0.46722E+00
        -0.76886E-10
         0.14221E-09
         0.62617E+00
         0.13257E-08
         0.83655E+00
         0.13493E-08
         0.75243E+00
         0.85417E-09
         0.60115E+00
         0.45192E-09
         0.50055E+00
         0.58854E+00
         0.16117E-09
         0.38849E-09
         0.63390E+00
         0.56857E-09
         0.60759E+00
         0.11944E-08
         0.62493E+00
         0.88303E-09
         0.70463E+00
         0.83388E+00
         0.10839E-08
         0.16841E-08
         0.88533E+00
         0.22622E-08
         0.84439E+00
         0.18449E-08
         0.63917E+00
         0.97669E-09
         0.47130E+00
         0.48626E+00
         0.44536E-10
         0.59145E-09
         0.20746E-01
        -0.44497E-01
        -0.84016E-10
        -0.37249E-09
         0.38480E-01
        -0.69482E-09
         0.25873E+00
         0.25909E-09
         0.46678E+00
         0.24106E-09
         0.54863E+00
         0.41085E-09
         0.71009E+00
         0.68253E-09
         0.63580E+00
         0.54723E-09
         0.45622E+00
         0.28597E-09
         0.34580E+00
         0.10161E-09
         0.26999E+00
         0.11989E-09
         0.61556E-01
        -0.91889E-10
        -0.62481E-01
        -0.21262E-09
        -0.14878E+00
        -0.30841E-09
        -0.41270E-01
        -0.26351E-09
         0.18130E+00
        -0.94143E-10
         0.39920E+00
         0.11958E-09
         0.37912E+00
         0.39909E-09
         0.66234E+00
         0.91650E-09
         0.75620E+00
         0.10404E-08
         0.60253E+00
         0.83565E-09
         0.55955E+00
         0.59371E-09
         0.42832E+00
         0.17580E-09
         0.30816E+00
         0.60805E-09
         0.11519E+00
        -0.23218E-09
         0.12113E+00
        -0.24259E-09
         0.91470E+00
         0.67547E+00
         0.48894E+00
         0.74232E+00
         0.24570E+00
         0.31833E+00
         0.66503E+00
         0.83148E+00
         0.10241E+01
         0.93041E+00
         0.60594E+00
         0.52093E+00
         0.55356E+00
         0.72632E+00
         0.63961E+00
         0.84493E+00
         0.82743E+00
         0.10489E+01
         0.56197E+00
         0.58238E+00
         0.42104E+00
         0.41149E+00
         0.42793E+00
         0.51033E+00
         0.80253E+00
         0.58604E+00
         0.81457E+00
         0.72185E+00
         0.55013E+00
         0.58385E+00
         0.88006E+00
         0.67167E+00
         0.90008E+00
         0.64287E+00
         0.22662E+00
         0.33479E+00
         0.49072E+00
         0.68519E+00
         0.60269E+00
         0.45698E+00
         0.37754E+00
         0.41871E+00
         0.42771E+00
         0.44205E+00
         0.46311E+00
         0.52461E+00
         0.66941E+00
         0.74687E+00
         0.69750E+00
         0.51357E+00
         0.37128E+00
         0.35440E+00
         0.12440E+00
         0.23559E-01
         0.10046E+00
         0.22583E+00
         0.37070E+00
         0.36331E+00
         0.56603E+00
         0.53621E+00
         0.37217E+00
         0.28238E+00
         0.23735E+00
         0.64252E-01
         0.58968E-01
         0.26992E-01
         0.52759E-01
         0.16020E+00
         0.30015E+00
         0.26272E+00
         0.45328E+00
         0.58502E+00
         0.54127E+00
         0.47773E+00
         0.33231E+00
         0.23779E+00
         0.86344E-01
         0.67527E-01
         0.80534E+00
         0.58549E+00
         0.39837E+00
         0.67541E+00
         0.27031E-01
         0.15667E+00
         0.59234E+00
         0.72015E+00
         0.84675E+00
         0.79404E+00
         0.54155E+00
         0.45360E+00
         0.45856E+00
         0.63179E+00
         0.56905E+00
         0.73923E+00
         0.76620E+00
         0.88052E+00
         0.52272E+00
         0.56353E+00
         0.23912E+00
         0.24781E+00
         0.24469E+00
         0.42410E+00
         0.73018E+00
         0.51369E+00
         0.70368E+00
         0.63537E+00
         0.46776E+00
         0.53641E+00
         0.76205E+00
         0.58518E+00
         0.76844E+00
         0.56624E+00
        -0.51271E-01
         0.10845E+00
         0.31846E+00
         0.60845E+00
         0.52129E+00
         0.35235E+00
         0.22312E+00
         0.25572E+00
         0.26040E+00
         0.30644E+00
         0.34934E+00
         0.42247E+00
         0.59485E+00
         0.67145E+00
         0.61199E+00
         0.40459E+00
         0.20869E+00
         0.19409E+00
        -0.28410E+00
        -0.39415E+00
        -0.28538E+00
        -0.64390E-02
         0.22917E+00
         0.25872E+00
         0.49701E+00
         0.47423E+00
         0.27965E+00
         0.13169E+00
         0.48078E-01
        -0.19146E+00
        -0.25689E+00
        -0.31426E+00
        -0.27411E+00
        -0.15264E+00
         0.68049E-01
         0.99018E-01
         0.31416E+00
         0.50208E+00
         0.48835E+00
         0.39243E+00
         0.14495E+00
         0.20285E-01
        -0.22063E+00
        -0.33872E+00
         0.60930E+00
         0.43898E+00
         0.31415E+00
         0.50571E+00
         0.10156E+00
         0.16524E+00
         0.44395E+00
         0.54639E+00
         0.66167E+00
         0.61728E+00
         0.40036E+00
         0.33762E+00
         0.36087E+00
         0.46631E+00
         0.38773E+00
         0.55335E+00
         0.57154E+00
         0.69976E+00
         0.37889E+00
         0.41018E+00
         0.23049E+00
         0.23100E+00
         0.23173E+00
         0.31825E+00
         0.54524E+00
         0.36337E+00
         0.53141E+00
         0.46796E+00
         0.34366E+00
         0.39448E+00
         0.57971E+00
         0.40929E+00
         0.59941E+00
         0.42017E+00
         0.39271E-01
         0.13419E+00
         0.27548E+00
         0.42306E+00
         0.37049E+00
         0.26591E+00
         0.19701E+00
         0.22309E+00
         0.23555E+00
         0.25079E+00
         0.25015E+00
         0.28790E+00
         0.41848E+00
         0.49026E+00
         0.44436E+00
         0.30301E+00
         0.19227E+00
         0.18582E+00
        -0.13744E+00
        -0.21486E+00
        -0.17321E+00
         0.29274E-01
         0.17785E+00
         0.18808E+00
         0.33344E+00
         0.32172E+00
         0.21354E+00
         0.12948E+00
         0.10522E+00
        -0.91188E-01
        -0.15953E+00
        -0.19876E+00
        -0.20495E+00
        -0.15031E+00
         0.41885E-01
         0.91315E-01
         0.22523E+00
         0.37195E+00
         0.36967E+00
         0.29700E+00
         0.12955E+00
         0.88715E-01
        -0.10059E+00
        -0.20669E+00
         0.54037E+00
         0.39954E+00
         0.27522E+00
         0.49542E+00
        -0.10239E-01
         0.86777E-01
         0.40296E+00
         0.46033E+00
         0.49250E+00
         0.47657E+00
         0.36210E+00
         0.30582E+00
         0.30092E+00
         0.40129E+00
         0.34727E+00
         0.46950E+00
         0.54027E+00
         0.53549E+00
         0.39513E+00
         0.44951E+00
         0.13164E+00
         0.14102E+00
         0.12004E+00
         0.28514E+00
         0.49304E+00
         0.32455E+00
         0.43475E+00
         0.39597E+00
         0.27819E+00
         0.38599E+00
         0.47201E+00
         0.34304E+00
         0.48501E+00
         0.36642E+00
        -0.11017E+00
         0.10562E-01
         0.17595E+00
         0.36202E+00
         0.30195E+00
         0.17739E+00
         0.74110E-01
         0.10036E+00
         0.12715E+00
         0.16562E+00
         0.18511E+00
         0.21785E+00
         0.35125E+00
         0.42641E+00
         0.36539E+00
         0.21348E+00
         0.85120E-01
         0.93833E-01
        -0.33992E+00
        -0.37237E+00
        -0.30150E+00
        -0.63405E-01
         0.11306E+00
         0.17989E+00
         0.28925E+00
         0.28638E+00
         0.18499E+00
         0.55182E-01
         0.30220E-02
        -0.14369E+00
        -0.24912E+00
        -0.28570E+00
        -0.28687E+00
        -0.24393E+00
        -0.59742E-01
         0.66467E-01
         0.15614E+00
         0.31618E+00
         0.34223E+00
         0.23651E+00
         0.28702E-01
        -0.41414E-01
        -0.21124E+00
        -0.35590E+00
         0.19965E+00
         0.23301E+00
         0.22146E+00
         0.24182E+00
         0.16005E+00
         0.18318E+00
         0.21664E+00
         0.18103E+00
         0.15055E+00
         0.17453E+00
         0.18923E+00
         0.18933E+00
         0.22019E+00
         0.17741E+00
         0.17042E+00
         0.18748E+00
         0.20179E+00
         0.19822E+00
         0.23041E+00
         0.25343E+00
         0.18908E+00
         0.20023E+00
         0.17225E+00
         0.19559E+00
         0.19956E+00
         0.17274E+00
         0.18775E+00
         0.18646E+00
         0.18316E+00
         0.22755E+00
         0.20607E+00
         0.16242E+00
         0.23101E+00
         0.22024E+00
         0.11081E+00
         0.14309E+00
         0.19261E+00
         0.16821E+00
         0.15936E+00
         0.14757E+00
         0.14340E+00
         0.17154E+00
         0.19277E+00
         0.16834E+00
         0.15105E+00
         0.14531E+00
         0.18171E+00
         0.21752E+00
         0.19896E+00
         0.16745E+00
         0.15255E+00
         0.17459E+00
        -0.19705E-01
        -0.28237E-02
        -0.18954E-01
         0.57492E-01
         0.13472E+00
         0.15428E+00
         0.17355E+00
         0.17321E+00
         0.14506E+00
         0.12439E+00
         0.13652E+00
         0.76921E-01
        -0.31161E-01
        -0.45774E-01
        -0.30827E-01
         0.75196E-02
         0.94463E-01
         0.18017E+00
         0.14453E+00
         0.21240E+00
         0.22990E+00
         0.17367E+00
         0.10454E+00
         0.10373E+00
         0.45081E-01
        -0.20367E-01
         0.21739E+00
         0.16468E+00
         0.10656E+00
         0.16876E+00
         0.46764E-01
         0.75796E-01
         0.20167E+00
         0.23582E+00
         0.25220E+00
         0.24152E+00
         0.20158E+00
         0.19213E+00
         0.18132E+00
         0.21555E+00
         0.19224E+00
         0.21914E+00
         0.21807E+00
         0.23617E+00
         0.14114E+00
         0.14302E+00
         0.56231E-01
         0.62256E-01
         0.75609E-01
         0.12402E+00
         0.19336E+00
         0.16324E+00
         0.20625E+00
         0.17726E+00
         0.13015E+00
         0.13446E+00
         0.20995E+00
         0.17438E+00
         0.21302E+00
         0.16207E+00
         0.55423E-02
         0.37063E-01
         0.11265E+00
         0.17692E+00
         0.15927E+00
         0.11884E+00
         0.81230E-01
         0.83500E-01
         0.70220E-01
         0.12040E+00
         0.15172E+00
         0.15657E+00
         0.17236E+00
         0.19545E+00
         0.17691E+00
         0.12797E+00
         0.80425E-01
         0.83446E-01
        -0.72229E-01
        -0.41959E-01
        -0.39891E-01
         0.45885E-01
         0.11373E+00
         0.16794E+00
         0.18711E+00
         0.18793E+00
         0.16775E+00
         0.10320E+00
         0.73443E-01
         0.64680E-01
        -0.87830E-02
         0.91524E-02
         0.30935E-01
         0.57940E-01
         0.81229E-01
         0.18942E+00
         0.16525E+00
         0.19017E+00
         0.21607E+00
         0.17981E+00
         0.82737E-01
         0.44111E-01
         0.17441E-01
        -0.52130E-01
        -0.94207E-02
         0.80083E-01
         0.12800E+00
         0.48290E-01
         0.22573E+00
         0.20601E+00
         0.55294E-01
        -0.57944E-02
        -0.44057E-01
        -0.27260E-01
         0.40012E-01
         0.85138E-01
         0.13294E+00
         0.54728E-02
         0.36766E-01
        -0.13474E-01
        -0.19387E-01
        -0.44702E-01
         0.67990E-01
         0.64310E-01
         0.18556E+00
         0.19520E+00
         0.17550E+00
         0.92488E-01
        -0.14709E-01
         0.56811E-01
        -0.87816E-02
         0.14350E-01
         0.86272E-01
         0.69755E-01
        -0.24281E-01
         0.41942E-01
        -0.59018E-02
         0.82569E-01
         0.23275E+00
         0.18684E+00
         0.16400E+00
         0.25440E-01
         0.57043E-01
         0.11965E+00
         0.18097E+00
         0.19019E+00
         0.19380E+00
         0.15737E+00
         0.14429E+00
         0.12472E+00
         0.54840E-01
         0.23777E-01
         0.49656E-01
         0.11721E+00
         0.17779E+00
         0.19230E+00
         0.26847E+00
         0.30121E+00
         0.24310E+00
         0.19708E+00
         0.16402E+00
         0.13980E+00
         0.10567E+00
         0.11661E+00
         0.14946E+00
         0.18745E+00
         0.24397E+00
         0.29013E+00
         0.24117E+00
         0.26776E+00
         0.28319E+00
         0.28252E+00
         0.23154E+00
         0.25310E+00
         0.17631E+00
         0.12582E+00
         0.12574E+00
         0.14982E+00
         0.17169E+00
         0.22020E+00
         0.26164E+00
         0.25235E+00
         0.12439E+00
         0.10773E+00
         0.79192E-01
         0.10016E+00
         0.10297E+00
         0.10846E+00
         0.13090E+00
         0.14081E+00
         0.14728E+00
         0.13609E+00
         0.13686E+00
         0.14248E+00
         0.13551E+00
         0.13552E+00
         0.13138E+00
         0.13558E+00
         0.12277E+00
         0.13377E+00
         0.89690E-01
         0.86729E-01
         0.89139E-01
         0.96983E-01
         0.10032E+00
         0.94666E-01
         0.10692E+00
         0.11874E+00
         0.11845E+00
         0.10903E+00
         0.11259E+00
         0.95320E-01
         0.12104E+00
         0.13134E+00
         0.11434E+00
         0.10388E+00
         0.10553E+00
         0.89184E-01
         0.11318E+00
         0.11711E+00
         0.12222E+00
         0.12617E+00
         0.12855E+00
         0.12660E+00
         0.10852E+00
         0.12306E+00
         0.15004E+00
         0.15669E+00
         0.12603E+00
         0.10842E+00
         0.10978E+00
         0.11354E+00
         0.11628E+00
         0.11586E+00
         0.13615E+00
         0.13759E+00
         0.13166E+00
         0.11933E+00
         0.12075E+00
         0.14770E+00
         0.14263E+00
         0.14738E+00
         0.16285E+00
         0.13992E+00
         0.14217E+00
         0.15825E+00
         0.13413E+00
         0.15461E+00
         0.14943E+00
         0.15717E+00
         0.12475E+00
         0.18080E+00
         0.17822E+00
         0.14337E+00
         0.13761E+00
         0.15428E+00
         0.13037E+00
         0.13412E+00
         0.15102E+00
         0.11059E+00
        -0.32696E-01
         0.24249E-01
         0.58809E-01
         0.52047E-02
         0.13985E+00
         0.11750E+00
         0.38752E-02
        -0.40862E-01
        -0.62378E-01
        -0.54470E-01
        -0.55492E-03
         0.32954E-01
         0.56399E-01
        -0.26778E-01
         0.60055E-02
        -0.39291E-01
        -0.41196E-01
        -0.44283E-01
         0.21741E-01
         0.24534E-01
         0.12008E+00
         0.12967E+00
         0.10670E+00
         0.35810E-01
        -0.29194E-01
         0.59257E-02
        -0.30571E-01
        -0.47881E-02
         0.48956E-01
         0.35024E-01
        -0.30664E-01
         0.90061E-02
        -0.22392E-01
         0.23623E-01
         0.16566E+00
         0.12384E+00
         0.93122E-01
         0.34067E-03
         0.27177E-01
         0.72206E-01
         0.12497E+00
         0.13016E+00
         0.13124E+00
         0.81157E-01
         0.71809E-01
         0.73809E-01
         0.26164E-01
        -0.61876E-02
         0.83472E-02
         0.55133E-01
         0.10644E+00
         0.11073E+00
         0.23886E+00
         0.24692E+00
         0.20872E+00
         0.16399E+00
         0.10742E+00
         0.74456E-01
         0.60863E-01
         0.66834E-01
         0.10098E+00
         0.14129E+00
         0.19457E+00
         0.22218E+00
         0.23223E+00
         0.24988E+00
         0.23690E+00
         0.22067E+00
         0.15982E+00
         0.13203E+00
         0.11317E+00
         0.68343E-01
         0.52369E-01
         0.94867E-01
         0.12147E+00
         0.16727E+00
         0.20853E+00
         0.21301E+00
         0.12880E+00
         0.92848E-01
         0.65490E-01
         0.98788E-01
         0.62578E-01
         0.65868E-01
         0.11164E+00
         0.13828E+00
         0.15204E+00
         0.14208E+00
         0.12062E+00
         0.11420E+00
         0.95247E-01
         0.12996E+00
         0.11937E+00
         0.13792E+00
         0.13324E+00
         0.14390E+00
         0.93480E-01
         0.91977E-01
         0.69294E-01
         0.73652E-01
         0.77083E-01
         0.88702E-01
         0.12218E+00
         0.10874E+00
         0.12518E+00
         0.11752E+00
         0.10256E+00
         0.95520E-01
         0.12726E+00
         0.12028E+00
         0.12114E+00
         0.92083E-01
         0.69089E-01
         0.65110E-01
         0.80044E-01
         0.11161E+00
         0.11283E+00
         0.10369E+00
         0.94333E-01
         0.93158E-01
         0.82672E-01
         0.91532E-01
         0.10948E+00
         0.12073E+00
         0.11345E+00
         0.10332E+00
         0.99616E-01
         0.89897E-01
         0.79552E-01
         0.72503E-01
         0.93364E-01
         0.85906E-01
         0.92172E-01
         0.92108E-01
         0.87873E-01
         0.10849E+00
         0.12369E+00
         0.11543E+00
         0.11875E+00
         0.11130E+00
         0.10857E+00
         0.11253E+00
         0.11141E+00
         0.10944E+00
         0.97503E-01
         0.97763E-01
         0.86440E-01
         0.10415E+00
         0.12737E+00
         0.11149E+00
         0.93701E-01
         0.10770E+00
         0.10202E+00
         0.97346E-01
         0.91058E-01
         0.73345E-01
        -0.23757E-01
         0.96939E-02
         0.29429E-01
         0.11332E-02
         0.64328E-01
         0.53196E-01
        -0.41832E-02
        -0.26999E-01
        -0.38407E-01
        -0.29380E-01
        -0.56674E-02
         0.10698E-01
         0.21682E-01
        -0.15658E-01
         0.33715E-02
        -0.21807E-01
        -0.17727E-01
        -0.28865E-01
         0.21679E-01
         0.25683E-01
         0.65293E-01
         0.70142E-01
         0.55543E-01
         0.24416E-01
        -0.92699E-02
         0.35435E-02
        -0.12415E-01
         0.41804E-02
         0.32753E-01
         0.29682E-01
        -0.15469E-01
         0.23509E-02
        -0.10801E-01
         0.10665E-01
         0.76332E-01
         0.58361E-01
         0.42476E-01
         0.49265E-02
         0.18925E-01
         0.39426E-01
         0.60841E-01
         0.68205E-01
         0.72224E-01
         0.37800E-01
         0.28082E-01
         0.27680E-01
         0.11800E-01
         0.51632E-03
         0.60410E-02
         0.24088E-01
         0.44107E-01
         0.47211E-01
         0.10804E+00
         0.10716E+00
         0.89282E-01
         0.69586E-01
         0.49732E-01
         0.33594E-01
         0.30236E-01
         0.34340E-01
         0.47923E-01
         0.62499E-01
         0.84217E-01
         0.10061E+00
         0.10594E+00
         0.98741E-01
         0.95461E-01
         0.89173E-01
         0.64241E-01
         0.44257E-01
         0.39725E-01
         0.30827E-01
         0.27279E-01
         0.37532E-01
         0.46939E-01
         0.66634E-01
         0.83833E-01
         0.94854E-01
         0.13151E+00
         0.84632E-01
         0.53959E-01
         0.95286E-01
         0.30222E-01
         0.42160E-01
         0.10644E+00
         0.14198E+00
         0.16111E+00
         0.14909E+00
         0.11370E+00
         0.10067E+00
         0.83731E-01
         0.12830E+00
         0.10759E+00
         0.14050E+00
         0.13579E+00
         0.14516E+00
         0.85497E-01
         0.81876E-01
         0.41669E-01
         0.42212E-01
         0.54319E-01
         0.80910E-01
         0.12275E+00
         0.10555E+00
         0.12676E+00
         0.11329E+00
         0.87599E-01
         0.83986E-01
         0.12857E+00
         0.11437E+00
         0.11916E+00
         0.86400E-01
         0.25617E-01
         0.36321E-01
         0.59852E-01
         0.10822E+00
         0.10446E+00
         0.84042E-01
         0.64958E-01
         0.62297E-01
         0.51284E-01
         0.73106E-01
         0.87481E-01
         0.94168E-01
         0.10359E+00
         0.10545E+00
         0.97796E-01
         0.75979E-01
         0.53971E-01
         0.49630E-01
         0.14224E-01
         0.61830E-02
         0.30432E-01
         0.50070E-01
         0.67343E-01
         0.88695E-01
         0.92969E-01
         0.91152E-01
         0.94053E-01
         0.74337E-01
         0.59059E-01
         0.46576E-01
         0.36477E-01
         0.34805E-01
         0.33047E-01
         0.38815E-01
         0.49399E-01
         0.64560E-01
         0.83324E-01
         0.85627E-01
         0.85041E-01
         0.85478E-01
         0.62939E-01
         0.41989E-01
         0.26841E-01
         0.10366E-01
        -0.27539E-01
         0.14946E-02
         0.20879E-01
        -0.26485E-02
         0.44101E-01
         0.35148E-01
        -0.11344E-01
        -0.28957E-01
        -0.37420E-01
        -0.27190E-01
        -0.14510E-01
        -0.29699E-02
         0.95154E-02
        -0.19628E-01
        -0.62583E-02
        -0.27137E-01
        -0.22197E-01
        -0.31892E-01
         0.96020E-02
         0.10776E-01
         0.43286E-01
         0.45168E-01
         0.36116E-01
         0.13913E-01
        -0.15868E-01
        -0.38268E-02
        -0.15481E-01
        -0.76376E-02
         0.13501E-01
         0.12187E-01
        -0.18214E-01
        -0.64103E-02
        -0.14021E-01
         0.37182E-02
         0.52503E-01
         0.40468E-01
         0.26667E-01
        -0.16689E-02
         0.44184E-02
         0.18233E-01
         0.36535E-01
         0.42650E-01
         0.45806E-01
         0.21628E-01
         0.11388E-01
         0.87818E-02
         0.11704E-02
        -0.27544E-02
         0.12135E-03
         0.11663E-01
         0.25637E-01
         0.29054E-01
         0.71102E-01
         0.65924E-01
         0.56823E-01
         0.39048E-01
         0.28851E-01
         0.15173E-01
         0.10371E-01
         0.17264E-01
         0.23731E-01
         0.29549E-01
         0.46347E-01
         0.59208E-01
         0.63920E-01
         0.62910E-01
         0.56365E-01
         0.49323E-01
         0.34357E-01
         0.21163E-01
         0.14460E-01
         0.12482E-01
         0.13198E-01
         0.15881E-01
         0.25290E-01
         0.38666E-01
         0.47659E-01
         0.55788E-01
         0.11517E+00
         0.75301E-01
         0.49694E-01
         0.84412E-01
         0.22209E-01
         0.32878E-01
         0.94107E-01
         0.12341E+00
         0.13880E+00
         0.12721E+00
         0.98546E-01
         0.85498E-01
         0.72004E-01
         0.10948E+00
         0.91371E-01
         0.11891E+00
         0.11427E+00
         0.12631E+00
         0.70459E-01
         0.67264E-01
         0.30703E-01
         0.32411E-01
         0.40603E-01
         0.66384E-01
         0.10338E+00
         0.88477E-01
         0.10612E+00
         0.95859E-01
         0.73606E-01
         0.68733E-01
         0.11238E+00
         0.96778E-01
         0.10578E+00
         0.75575E-01
         0.16079E-01
         0.30735E-01
         0.50875E-01
         0.91085E-01
         0.88251E-01
         0.72677E-01
         0.52532E-01
         0.46880E-01
         0.38598E-01
         0.58520E-01
         0.71720E-01
         0.78315E-01
         0.89044E-01
         0.93319E-01
         0.86224E-01
         0.65292E-01
         0.43369E-01
         0.39114E-01
        -0.49729E-02
        -0.73461E-02
         0.14265E-01
         0.35484E-01
         0.52491E-01
         0.71293E-01
         0.75891E-01
         0.72436E-01
         0.76066E-01
         0.59888E-01
         0.37354E-01
         0.29252E-01
         0.18503E-01
         0.17535E-01
         0.15944E-01
         0.25550E-01
         0.35908E-01
         0.51251E-01
         0.69164E-01
         0.73311E-01
         0.71239E-01
         0.67125E-01
         0.49612E-01
         0.29640E-01
         0.17633E-01
         0.67016E-02
        -0.39031E-01
        -0.10176E-01
         0.88699E-02
        -0.13553E-01
         0.32150E-01
         0.22919E-01
        -0.22161E-01
        -0.43304E-01
        -0.55642E-01
        -0.43519E-01
        -0.26735E-01
        -0.13068E-01
        -0.12960E-02
        -0.35091E-01
        -0.19645E-01
        -0.40274E-01
        -0.34111E-01
        -0.49102E-01
        -0.43872E-03
         0.15643E-02
         0.29736E-01
         0.30530E-01
         0.21857E-01
         0.31115E-02
        -0.26221E-01
        -0.14636E-01
        -0.30763E-01
        -0.20671E-01
        -0.14875E-02
         0.53397E-03
        -0.34206E-01
        -0.20955E-01
        -0.28572E-01
        -0.56830E-02
         0.42331E-01
         0.29121E-01
         0.13448E-01
        -0.17989E-01
        -0.12713E-01
         0.20326E-02
         0.19576E-01
         0.22833E-01
         0.27750E-01
         0.88086E-02
        -0.19073E-02
        -0.64085E-02
        -0.14723E-01
        -0.17378E-01
        -0.11945E-01
         0.35829E-02
         0.18594E-01
         0.19529E-01
         0.64728E-01
         0.56558E-01
         0.49797E-01
         0.30449E-01
         0.17367E-01
         0.47911E-02
        -0.17833E-02
        -0.22396E-02
         0.17625E-02
         0.15358E-01
         0.35771E-01
         0.42788E-01
         0.45303E-01
         0.49173E-01
         0.45587E-01
         0.36361E-01
         0.23038E-01
         0.11246E-01
         0.12729E-03
        -0.30812E-02
        -0.82590E-03
         0.38314E-02
         0.19330E-01
         0.32492E-01
         0.37570E-01
         0.45551E-01
         0.90410E-01
         0.63584E-01
         0.46729E-01
         0.70983E-01
         0.22620E-01
         0.29723E-01
         0.73295E-01
         0.94489E-01
         0.10293E+00
         0.96527E-01
         0.76218E-01
         0.66543E-01
         0.55689E-01
         0.86646E-01
         0.74048E-01
         0.95654E-01
         0.88590E-01
         0.96698E-01
         0.62350E-01
         0.57287E-01
         0.28107E-01
         0.29900E-01
         0.35627E-01
         0.59326E-01
         0.78019E-01
         0.75393E-01
         0.83152E-01
         0.72312E-01
         0.56402E-01
         0.55027E-01
         0.87952E-01
         0.76952E-01
         0.84239E-01
         0.62655E-01
         0.17001E-01
         0.29880E-01
         0.42884E-01
         0.70778E-01
         0.65160E-01
         0.55190E-01
         0.41208E-01
         0.37489E-01
         0.33499E-01
         0.50483E-01
         0.57850E-01
         0.59132E-01
         0.67597E-01
         0.73549E-01
         0.71091E-01
         0.54761E-01
         0.35354E-01
         0.32840E-01
        -0.32965E-02
        -0.29627E-02
         0.11181E-01
         0.27687E-01
         0.40272E-01
         0.56487E-01
         0.62374E-01
         0.56155E-01
         0.51477E-01
         0.41827E-01
         0.24707E-01
         0.19465E-01
         0.16505E-01
         0.14225E-01
         0.10563E-01
         0.18851E-01
         0.31203E-01
         0.41254E-01
         0.50097E-01
         0.55107E-01
         0.57976E-01
         0.56067E-01
         0.39026E-01
         0.21412E-01
         0.16691E-01
         0.10179E-01
        -0.44541E-01
        -0.15657E-01
        -0.10309E-02
        -0.23131E-01
         0.20572E-01
         0.12295E-01
        -0.28158E-01
        -0.51783E-01
        -0.61356E-01
        -0.52317E-01
        -0.36056E-01
        -0.23002E-01
        -0.77079E-02
        -0.45803E-01
        -0.29763E-01
        -0.45636E-01
        -0.41602E-01
        -0.53730E-01
        -0.91905E-02
        -0.73944E-02
         0.19693E-01
         0.18693E-01
         0.12338E-01
        -0.59944E-02
        -0.32394E-01
        -0.22618E-01
        -0.39091E-01
        -0.25531E-01
        -0.88295E-02
        -0.80683E-02
        -0.39244E-01
        -0.27728E-01
        -0.36314E-01
        -0.16694E-01
         0.30639E-01
         0.17789E-01
         0.56391E-02
        -0.25985E-01
        -0.19479E-01
        -0.61549E-02
         0.62848E-02
         0.78635E-02
         0.13407E-01
        -0.99906E-03
        -0.11775E-01
        -0.14863E-01
        -0.21163E-01
        -0.24617E-01
        -0.21410E-01
        -0.68321E-02
         0.95913E-02
         0.10053E-01
         0.53552E-01
         0.43619E-01
         0.37626E-01
         0.14915E-01
         0.28846E-02
        -0.89142E-02
        -0.13869E-01
        -0.13661E-01
        -0.11261E-01
         0.21366E-02
         0.19826E-01
         0.26702E-01
         0.27649E-01
         0.32536E-01
         0.33563E-01
         0.29660E-01
         0.15507E-01
         0.11401E-02
        -0.83353E-02
        -0.87837E-02
        -0.88358E-02
        -0.61559E-02
         0.11694E-01
         0.26990E-01
         0.30084E-01
         0.32694E-01
         0.76633E-01
         0.58137E-01
         0.42111E-01
         0.58231E-01
         0.25023E-01
         0.31244E-01
         0.65186E-01
         0.79829E-01
         0.84594E-01
         0.73891E-01
         0.64309E-01
         0.54605E-01
         0.51099E-01
         0.70519E-01
         0.58910E-01
         0.77778E-01
         0.67521E-01
         0.77473E-01
         0.53417E-01
         0.47823E-01
         0.32919E-01
         0.34997E-01
         0.38339E-01
         0.53685E-01
         0.57110E-01
         0.63714E-01
         0.63089E-01
         0.56137E-01
         0.50856E-01
         0.48605E-01
         0.68358E-01
         0.63441E-01
         0.63954E-01
         0.51746E-01
         0.19650E-01
         0.29797E-01
         0.43456E-01
         0.57109E-01
         0.54732E-01
         0.48451E-01
         0.37620E-01
         0.39700E-01
         0.38714E-01
         0.46267E-01
         0.49435E-01
         0.49672E-01
         0.54816E-01
         0.55522E-01
         0.53510E-01
         0.46512E-01
         0.35226E-01
         0.33497E-01
         0.47128E-02
         0.65492E-02
         0.14340E-01
         0.27284E-01
         0.33087E-01
         0.46317E-01
         0.47825E-01
         0.43531E-01
         0.47415E-01
         0.33668E-01
         0.18703E-01
         0.15398E-01
         0.17313E-01
         0.21720E-01
         0.18061E-01
         0.21874E-01
         0.27717E-01
         0.36378E-01
         0.42487E-01
         0.45553E-01
         0.46061E-01
         0.43231E-01
         0.35815E-01
         0.25096E-01
         0.18390E-01
         0.13413E-01
        -0.50854E-01
        -0.17530E-01
        -0.53366E-03
        -0.28969E-01
         0.18916E-01
         0.10442E-01
        -0.28925E-01
        -0.53816E-01
        -0.69901E-01
        -0.62754E-01
        -0.30263E-01
        -0.20097E-01
        -0.12180E-01
        -0.45024E-01
        -0.29483E-01
        -0.48063E-01
        -0.48480E-01
        -0.56157E-01
        -0.12163E-01
        -0.93371E-02
         0.19165E-01
         0.20772E-01
         0.10388E-01
        -0.75350E-02
        -0.35723E-01
        -0.24181E-01
        -0.48435E-01
        -0.27527E-01
        -0.45570E-02
        -0.55188E-02
        -0.41336E-01
        -0.29491E-01
        -0.40785E-01
        -0.24229E-01
         0.26851E-01
         0.17573E-01
         0.40731E-02
        -0.32986E-01
        -0.21895E-01
        -0.50192E-02
         0.23547E-02
         0.66092E-02
         0.15225E-01
        -0.39774E-02
        -0.15715E-01
        -0.19243E-01
        -0.25942E-01
        -0.30415E-01
        -0.26715E-01
        -0.12737E-01
         0.49612E-02
         0.67097E-02
         0.40022E-01
         0.35439E-01
         0.28940E-01
         0.10405E-01
        -0.70417E-03
        -0.12222E-01
        -0.16137E-01
        -0.12044E-01
        -0.10009E-01
        -0.27861E-02
         0.12028E-01
         0.16710E-01
         0.22248E-01
         0.31057E-01
         0.25522E-01
         0.21028E-01
         0.10003E-01
        -0.57066E-02
        -0.14840E-01
        -0.18636E-01
        -0.18514E-01
        -0.10314E-01
         0.57832E-02
         0.22549E-01
         0.31977E-01
         0.31013E-01
         0.60023E-01
         0.48420E-01
         0.35140E-01
         0.49480E-01
         0.27313E-01
         0.29606E-01
         0.54053E-01
         0.55242E-01
         0.57156E-01
         0.47096E-01
         0.45699E-01
         0.43365E-01
         0.50647E-01
         0.41450E-01
         0.37073E-01
         0.46079E-01
         0.38334E-01
         0.53989E-01
         0.48563E-01
         0.41133E-01
         0.47051E-01
         0.51621E-01
         0.47489E-01
         0.53440E-01
         0.33492E-01
         0.51602E-01
         0.38820E-01
         0.39678E-01
         0.46587E-01
         0.41416E-01
         0.44437E-01
         0.45391E-01
         0.45843E-01
         0.40790E-01
         0.28920E-01
         0.33721E-01
         0.44217E-01
         0.38856E-01
         0.43977E-01
         0.47975E-01
         0.52714E-01
         0.59420E-01
         0.58042E-01
         0.48964E-01
         0.44606E-01
         0.39963E-01
         0.39619E-01
         0.38769E-01
         0.34796E-01
         0.29999E-01
         0.27608E-01
         0.30672E-01
         0.27454E-01
         0.26398E-01
         0.34424E-01
         0.43432E-01
         0.44337E-01
         0.42690E-01
         0.37317E-01
         0.32059E-01
         0.39658E-01
         0.36596E-01
         0.31846E-01
         0.36597E-01
         0.36508E-01
         0.38907E-01
         0.40425E-01
         0.39612E-01
         0.38229E-01
         0.34061E-01
         0.30816E-01
         0.35705E-01
         0.37049E-01
         0.32071E-01
         0.26017E-01
         0.29176E-01
         0.30779E-01
         0.26014E-01
        -0.82148E-01
        -0.15699E-01
         0.20085E-01
        -0.25343E-01
         0.42351E-01
         0.34516E-01
        -0.20978E-01
        -0.62874E-01
        -0.11765E+00
        -0.68868E-01
        -0.19664E-01
        -0.10633E-01
        -0.83614E-02
        -0.39617E-01
        -0.20205E-01
        -0.48446E-01
        -0.32592E-01
        -0.11078E+00
         0.14588E-01
         0.18164E-01
         0.15764E-02
         0.11520E-01
        -0.86427E-02
         0.70696E-02
        -0.20164E-01
        -0.80865E-02
        -0.39925E-01
        -0.17891E-01
        -0.30036E-02
         0.58725E-02
        -0.63301E-01
        -0.33817E-01
        -0.52304E-01
        -0.13383E-02
         0.36921E-01
         0.27046E-01
         0.47114E-02
        -0.27241E-01
        -0.20996E-01
        -0.12908E-02
        -0.32890E-03
        -0.72828E-02
         0.53820E-02
        -0.83688E-02
        -0.18353E-01
        -0.19103E-01
        -0.23910E-01
        -0.34829E-01
        -0.31334E-01
        -0.19949E-02
         0.20257E-01
         0.26632E-01
         0.30121E-01
         0.54229E-01
         0.18455E-01
         0.52486E-02
        -0.18461E-01
        -0.21549E-01
        -0.18864E-01
        -0.14600E-01
        -0.19003E-01
        -0.79622E-02
        -0.10439E-01
        -0.12049E-01
         0.19563E-01
         0.24202E-01
         0.35406E-01
         0.12902E-01
         0.74598E-03
        -0.21443E-01
        -0.23170E-01
        -0.15389E-01
        -0.22558E-01
        -0.16059E-01
         0.48988E-02
         0.25877E-01
         0.31169E-01
         0.42109E-01
         0.30489E-01
         0.37525E-01
         0.83514E-01
         0.62792E-01
         0.11229E+00
         0.11232E+00
         0.15377E-01
         0.16962E-01
         0.27599E-01
         0.19302E-01
         0.14521E-01
         0.15436E-01
         0.25800E-01
         0.17250E-01
         0.19682E-01
         0.35241E-01
         0.35548E-01
         0.30450E-01
         0.37483E-01
         0.48694E-01
         0.85268E-01
         0.83679E-01
         0.77495E-01
         0.38668E-01
         0.35549E-01
         0.29548E-01
         0.19461E-01
         0.29456E-01
         0.30452E-01
         0.46354E-01
         0.17259E-01
         0.20014E-01
         0.17872E-01
         0.37759E-01
         0.86406E-01
         0.69681E-01
         0.50560E-01
         0.19068E-01
         0.24275E-01
         0.25404E-01
         0.27271E-01
         0.45839E-01
         0.71584E-01
         0.54820E-01
         0.24927E-01
         0.78483E-02
         0.62388E-02
         0.39598E-02
         0.19309E-01
         0.49390E-01
         0.70949E-01
         0.79887E-01
         0.91211E-01
         0.12610E+00
         0.80216E-01
         0.59040E-01
         0.27857E-01
         0.14871E-01
         0.21917E-01
         0.21017E-01
         0.28221E-01
         0.53939E-01
         0.55878E-01
         0.82412E-01
         0.88566E-01
         0.10585E+00
         0.11081E+00
         0.96938E-01
         0.73033E-01
         0.53630E-01
         0.17734E-01
         0.15397E-01
         0.23791E-01
         0.43187E-01
         0.66488E-01
         0.74053E-01
         0.11529E+00
         0.14166E+00
         0.27205E-01
         0.15973E+00
         0.11246E+00
         0.10476E+00
         0.11410E+00
         0.14462E+00
         0.25116E-01
        -0.14160E+00
        -0.26388E+00
        -0.33890E+00
        -0.45189E-01
        -0.19824E-01
         0.87021E-01
        -0.14613E+00
        -0.94546E-01
        -0.76965E-01
        -0.12765E+00
        -0.47879E-01
         0.20324E+00
         0.22761E+00
         0.35002E+00
         0.46413E+00
         0.19795E+00
         0.17013E+00
        -0.10053E+00
        -0.90814E-02
        -0.21877E+00
        -0.19754E-01
         0.20330E+00
         0.23266E+00
         0.25159E-03
        -0.20990E-01
        -0.48524E-01
         0.42034E-01
         0.13592E+00
         0.11985E+00
         0.15451E+00
        -0.76054E-01
         0.36771E-02
         0.11587E+00
         0.16003E+00
         0.24862E+00
         0.41150E+00
         0.46765E-01
        -0.12760E-01
        -0.56767E-01
        -0.74920E-01
        -0.39091E-01
        -0.97806E-02
         0.56186E-01
         0.11343E+00
         0.15559E+00
         0.12128E+00
         0.11831E+00
         0.98634E-01
         0.40056E-01
         0.12220E+00
         0.48879E-01
        -0.10377E+00
        -0.54959E-01
        -0.32251E-01
        -0.15713E-01
         0.10514E+00
         0.85008E-01
         0.22347E+00
         0.33947E+00
         0.25587E+00
         0.82096E-01
        -0.40283E-02
         0.10867E-01
        -0.70399E-01
        -0.11530E+00
        -0.28204E-01
        -0.47631E-01
         0.80761E-01
         0.82420E-01
         0.15498E+00
         0.17801E+00
  
SCALARS                      strain_yy  double 1
LOOKUP_TABLE default
         0.93282E+00
         0.78929E+00
         0.89400E+00
         0.10213E+01
         0.22749E-08
         0.19672E-08
         0.24213E-08
         0.33061E-08
         0.83988E+00
         0.85275E+00
         0.17721E-08
         0.22631E-08
         0.65587E+00
         0.61912E+00
         0.12506E-08
         0.13888E-08
         0.10360E+01
         0.71604E+00
         0.22144E-08
         0.14272E-08
         0.59740E+00
         0.57547E+00
         0.65190E+00
         0.94979E-09
         0.82102E-09
         0.16051E-08
         0.56112E+00
         0.56100E+00
         0.83564E-09
         0.77319E-09
         0.95117E+00
         0.10236E+01
         0.10061E+01
         0.25042E-08
         0.20952E-08
         0.29789E-08
         0.90887E+00
         0.96635E+00
         0.14905E-08
         0.17904E-08
         0.79122E+00
         0.88614E+00
         0.10367E-08
         0.12235E-08
         0.70627E+00
         0.80812E+00
         0.86071E-09
         0.14573E-08
         0.84052E+00
         0.15270E-08
         0.78291E+00
         0.15268E-08
         0.61703E+00
         0.11023E-08
         0.69099E+00
         0.10703E-08
         0.77377E+00
         0.88072E+00
         0.96442E-09
         0.16555E-08
         0.69063E+00
         0.61210E+00
         0.15383E-08
         0.95119E-09
         0.78090E+00
         0.20107E-08
         0.86437E+00
         0.23601E-08
         0.72296E+00
         0.70841E+00
         0.13733E-08
         0.14087E-08
         0.69262E+00
         0.12218E-08
         0.61175E+00
         0.58940E-09
         0.64956E+00
         0.46777E-09
         0.64272E+00
         0.35342E-09
         0.59652E+00
         0.74334E+00
         0.35587E-09
         0.71244E-09
         0.84346E+00
         0.11189E-08
         0.66430E+00
         0.72027E-09
         0.48529E+00
         0.54177E-09
         0.25795E+00
         0.35053E+00
        -0.25431E-09
         0.36467E-11
         0.47333E+00
         0.30615E-09
         0.51717E+00
         0.50751E-09
         0.58074E+00
         0.56693E-09
         0.61762E+00
         0.79591E+00
         0.78412E-09
         0.19409E-08
         0.62275E+00
         0.69743E+00
         0.86932E-09
         0.10319E-08
         0.50164E+00
         0.82887E-09
         0.47545E+00
         0.22391E-09
         0.16651E+00
         0.81837E-10
        -0.19015E+00
        -0.62752E-09
        -0.33833E+00
        -0.35561E-09
        -0.24372E+00
        -0.41823E-09
         0.75723E-01
        -0.18147E-09
         0.23183E+00
        -0.92611E-10
         0.35897E+00
         0.16171E-09
         0.52426E+00
         0.28764E-09
         0.60236E+00
         0.43065E-09
         0.67602E+00
         0.48933E-09
         0.61139E+00
         0.44762E-09
         0.52843E+00
         0.36006E-09
         0.38455E+00
         0.23589E-09
         0.22115E+00
        -0.24280E-09
         0.11241E-02
        -0.41461E-09
         0.18517E-02
        -0.17080E-09
         0.10341E+00
        -0.29291E-09
         0.17441E+00
        -0.20098E-09
         0.27530E+00
         0.59475E-10
         0.44904E+00
         0.17129E-09
         0.56095E+00
         0.51671E-09
         0.62994E+00
         0.99795E-09
         0.88145E+00
         0.62571E+00
         0.77126E+00
         0.95783E+00
         0.70857E+00
         0.71468E+00
         0.45187E+00
         0.55234E+00
         0.10028E+01
         0.71146E+00
         0.41796E+00
         0.38448E+00
         0.40460E+00
         0.42667E+00
         0.37362E+00
         0.92384E+00
         0.98160E+00
         0.10336E+01
         0.84805E+00
         0.88287E+00
         0.66743E+00
         0.76493E+00
         0.57475E+00
         0.70150E+00
         0.80757E+00
         0.65607E+00
         0.47400E+00
         0.53400E+00
         0.55800E+00
         0.78104E+00
         0.56693E+00
         0.46516E+00
         0.67078E+00
         0.72699E+00
         0.56735E+00
         0.54360E+00
         0.48813E+00
         0.36778E+00
         0.39159E+00
         0.36916E+00
         0.36205E+00
         0.54106E+00
         0.69262E+00
         0.50765E+00
         0.36774E+00
         0.23080E+00
         0.23261E+00
         0.25871E+00
         0.31420E+00
         0.39427E+00
         0.46033E+00
         0.64791E+00
         0.43544E+00
         0.56856E+00
         0.36564E+00
         0.35894E+00
         0.13029E+00
        -0.59905E-04
        -0.53419E-01
        -0.21383E-01
         0.11673E+00
         0.12494E+00
         0.20448E+00
         0.41227E+00
         0.51239E+00
         0.58176E+00
         0.49313E+00
         0.41291E+00
         0.29429E+00
         0.19256E+00
         0.13666E+00
         0.89368E-01
         0.98906E-01
         0.16889E+00
         0.17838E+00
         0.29669E+00
         0.48134E+00
         0.53476E+00
         0.78629E+00
         0.57995E+00
         0.68677E+00
         0.80786E+00
         0.63794E+00
         0.64010E+00
         0.40526E+00
         0.57712E+00
         0.85809E+00
         0.73070E+00
         0.35104E+00
         0.22469E+00
         0.26124E+00
         0.42482E+00
         0.21149E+00
         0.80055E+00
         0.83542E+00
         0.87327E+00
         0.72529E+00
         0.75796E+00
         0.58928E+00
         0.68310E+00
         0.47165E+00
         0.60241E+00
         0.76062E+00
         0.55867E+00
         0.49296E+00
         0.52008E+00
         0.51437E+00
         0.70346E+00
         0.51595E+00
         0.34836E+00
         0.61075E+00
         0.63435E+00
         0.50384E+00
         0.46704E+00
         0.38225E+00
         0.20519E+00
         0.23890E+00
         0.23701E+00
         0.23978E+00
         0.47599E+00
         0.63239E+00
         0.34896E+00
         0.14647E+00
        -0.49044E-01
        -0.16971E-01
         0.55712E-01
         0.15394E+00
         0.25214E+00
         0.31431E+00
         0.55447E+00
         0.36553E+00
         0.49896E+00
         0.26514E+00
         0.17468E+00
        -0.81066E-01
        -0.17728E+00
        -0.24391E+00
        -0.27691E+00
        -0.16082E+00
        -0.75795E-01
         0.47730E-01
         0.28457E+00
         0.45224E+00
         0.53212E+00
         0.40548E+00
         0.27636E+00
         0.58974E-01
        -0.12891E+00
        -0.19233E+00
        -0.31079E+00
        -0.30856E+00
        -0.17747E+00
        -0.10560E+00
         0.74816E-01
         0.33933E+00
         0.46685E+00
         0.60334E+00
         0.40350E+00
         0.50141E+00
         0.64260E+00
         0.45785E+00
         0.47837E+00
         0.26235E+00
         0.36515E+00
         0.68547E+00
         0.49770E+00
         0.25280E+00
         0.22825E+00
         0.20415E+00
         0.27677E+00
         0.22578E+00
         0.60634E+00
         0.67362E+00
         0.69779E+00
         0.55505E+00
         0.59547E+00
         0.43330E+00
         0.50401E+00
         0.35950E+00
         0.44287E+00
         0.55786E+00
         0.41552E+00
         0.31287E+00
         0.34916E+00
         0.35420E+00
         0.52003E+00
         0.39015E+00
         0.28717E+00
         0.45793E+00
         0.47846E+00
         0.35546E+00
         0.33542E+00
         0.26818E+00
         0.19859E+00
         0.20160E+00
         0.18434E+00
         0.17604E+00
         0.33276E+00
         0.45596E+00
         0.28729E+00
         0.15336E+00
         0.33003E-01
         0.63690E-01
         0.99570E-01
         0.14880E+00
         0.19900E+00
         0.23026E+00
         0.41260E+00
         0.27343E+00
         0.36058E+00
         0.22693E+00
         0.11938E+00
        -0.55225E-01
        -0.92676E-01
        -0.15425E+00
        -0.14637E+00
        -0.57470E-01
         0.10830E-01
         0.52313E-01
         0.19047E+00
         0.34928E+00
         0.39469E+00
         0.29652E+00
         0.21458E+00
         0.37631E-01
        -0.13330E+00
        -0.78505E-01
        -0.15734E+00
        -0.21519E+00
        -0.12005E+00
        -0.62459E-01
         0.32142E-01
         0.24023E+00
         0.37369E+00
         0.50895E+00
         0.36895E+00
         0.42370E+00
         0.50789E+00
         0.39753E+00
         0.41435E+00
         0.25818E+00
         0.43801E+00
         0.53989E+00
         0.55887E+00
         0.22198E+00
         0.11699E+00
         0.10919E+00
         0.30672E+00
         0.11893E+00
         0.53362E+00
         0.51775E+00
         0.56480E+00
         0.46130E+00
         0.47669E+00
         0.36856E+00
         0.42210E+00
         0.29583E+00
         0.38639E+00
         0.52135E+00
         0.37200E+00
         0.37349E+00
         0.35901E+00
         0.30672E+00
         0.44833E+00
         0.40051E+00
         0.22880E+00
         0.44783E+00
         0.41011E+00
         0.30482E+00
         0.27627E+00
         0.19595E+00
         0.98674E-01
         0.11087E+00
         0.95865E-01
         0.87769E-01
         0.26011E+00
         0.38834E+00
         0.18857E+00
         0.18675E-01
        -0.12784E+00
        -0.79825E-01
        -0.10958E-01
         0.63385E-01
         0.10431E+00
         0.12269E+00
         0.32790E+00
         0.24657E+00
         0.31008E+00
         0.18959E+00
         0.28889E-01
        -0.13683E+00
        -0.16809E+00
        -0.19420E+00
        -0.20095E+00
        -0.14187E+00
        -0.40981E-01
        -0.60411E-03
         0.11847E+00
         0.30858E+00
         0.33958E+00
         0.25148E+00
         0.14909E+00
        -0.50928E-01
        -0.28143E+00
        -0.25335E+00
        -0.36542E+00
        -0.41936E+00
        -0.30082E+00
        -0.19060E+00
        -0.83425E-01
         0.14267E+00
         0.33563E+00
         0.18772E+00
         0.16842E+00
         0.18833E+00
         0.24384E+00
         0.20638E+00
         0.23488E+00
         0.17022E+00
         0.18239E+00
         0.18386E+00
         0.19117E+00
         0.21172E+00
         0.21193E+00
         0.16046E+00
         0.23224E+00
         0.21634E+00
         0.21645E+00
         0.19787E+00
         0.23545E+00
         0.20783E+00
         0.21364E+00
         0.19278E+00
         0.20461E+00
         0.20469E+00
         0.20794E+00
         0.19933E+00
         0.22972E+00
         0.23041E+00
         0.20141E+00
         0.16990E+00
         0.20417E+00
         0.25770E+00
         0.22238E+00
         0.24912E+00
         0.23295E+00
         0.16953E+00
         0.16865E+00
         0.15910E+00
         0.19474E+00
         0.17911E+00
         0.14294E+00
         0.10931E+00
         0.15156E+00
         0.19803E+00
         0.19687E+00
         0.14015E+00
         0.80780E-01
         0.12768E+00
         0.15251E+00
         0.14839E+00
         0.13714E+00
         0.11968E+00
         0.20183E+00
         0.18002E+00
         0.20080E+00
         0.18057E+00
         0.10040E+00
         0.81684E-01
         0.91967E-01
         0.22097E-01
        -0.55223E-02
         0.38022E-01
         0.13821E+00
         0.11496E+00
         0.97422E-01
         0.20907E+00
         0.21297E+00
         0.17901E+00
         0.15360E+00
         0.52634E-01
        -0.77898E-01
        -0.21745E-01
        -0.76526E-01
        -0.11237E+00
        -0.56402E-01
         0.28306E-02
         0.57495E-02
         0.98250E-01
         0.22975E+00
         0.24091E+00
         0.17925E+00
         0.20572E+00
         0.24031E+00
         0.20550E+00
         0.20912E+00
         0.11628E+00
         0.17192E+00
         0.25566E+00
         0.20910E+00
         0.90577E-01
         0.74398E-01
         0.76408E-01
         0.10801E+00
         0.62904E-01
         0.21926E+00
         0.24816E+00
         0.23994E+00
         0.21988E+00
         0.22433E+00
         0.18682E+00
         0.19753E+00
         0.17007E+00
         0.18045E+00
         0.21537E+00
         0.16090E+00
         0.12925E+00
         0.14416E+00
         0.14870E+00
         0.20460E+00
         0.15038E+00
         0.10615E+00
         0.16464E+00
         0.18164E+00
         0.17627E+00
         0.16417E+00
         0.12655E+00
         0.57769E-01
         0.74807E-01
         0.93334E-01
         0.98031E-01
         0.13894E+00
         0.18496E+00
         0.12838E+00
         0.33092E-01
        -0.42414E-01
         0.16338E-02
         0.36087E-01
         0.47266E-01
         0.63776E-01
         0.74668E-01
         0.16062E+00
         0.18808E+00
         0.18471E+00
         0.18053E+00
         0.93920E-01
         0.67403E-01
         0.45177E-01
        -0.21563E-01
        -0.75652E-02
         0.65094E-02
         0.94096E-01
         0.11292E+00
         0.10341E+00
         0.19962E+00
         0.20253E+00
         0.17697E+00
         0.14383E+00
         0.61047E-01
        -0.10669E+00
        -0.11257E+00
        -0.13850E+00
        -0.14578E+00
        -0.95319E-01
        -0.43895E-02
         0.81268E-02
         0.74404E-01
         0.19805E+00
        -0.67161E-02
         0.42061E-01
         0.29018E-01
         0.78711E-03
         0.54039E-01
         0.55103E-01
         0.87785E-01
         0.41870E-01
        -0.39609E-01
         0.11232E-01
         0.14170E+00
         0.22694E+00
         0.16993E+00
         0.12195E+00
         0.22837E+00
        -0.10368E-01
        -0.42517E-01
        -0.30954E-01
         0.75895E-02
        -0.19448E-01
         0.52601E-01
         0.20517E-01
         0.11291E+00
         0.61060E-01
        -0.31684E-02
         0.91210E-01
         0.10337E+00
         0.86426E-01
         0.76247E-01
         0.10252E-01
         0.94273E-01
         0.14802E+00
         0.55732E-01
         0.53205E-01
         0.83016E-01
         0.92911E-01
         0.12408E+00
         0.20905E+00
         0.18885E+00
         0.16998E+00
         0.14831E+00
         0.83939E-01
         0.39867E-01
         0.16522E+00
         0.18787E+00
         0.21268E+00
         0.22873E+00
         0.21853E+00
         0.17328E+00
         0.13964E+00
         0.11762E+00
         0.76819E-01
         0.13966E+00
         0.93585E-01
         0.17713E+00
         0.18088E+00
         0.24715E+00
         0.28618E+00
         0.24579E+00
         0.24953E+00
         0.23951E+00
         0.27426E+00
         0.22811E+00
         0.13277E+00
         0.13364E+00
         0.12183E+00
         0.12886E+00
         0.15263E+00
         0.17435E+00
         0.16389E+00
         0.21474E+00
         0.22529E+00
         0.22167E+00
         0.20578E+00
         0.22532E+00
         0.15017E+00
         0.93606E-01
         0.11160E+00
         0.14022E+00
         0.12960E+00
         0.13725E+00
         0.13171E+00
         0.12350E+00
         0.10839E+00
         0.10469E+00
         0.10965E+00
         0.13866E+00
         0.11391E+00
         0.93378E-01
         0.11048E+00
         0.11013E+00
         0.85886E-01
         0.10520E+00
         0.12103E+00
         0.13634E+00
         0.12663E+00
         0.13175E+00
         0.12286E+00
         0.12681E+00
         0.11506E+00
         0.12687E+00
         0.12105E+00
         0.12238E+00
         0.10701E+00
         0.87279E-01
         0.10775E+00
         0.12927E+00
         0.12563E+00
         0.91365E-01
         0.84259E-01
         0.97097E-01
         0.10775E+00
         0.13790E+00
         0.13640E+00
         0.12349E+00
         0.10692E+00
         0.11326E+00
         0.13481E+00
         0.14301E+00
         0.12793E+00
         0.11668E+00
         0.11814E+00
         0.83486E-01
         0.72802E-01
         0.92072E-01
         0.10938E+00
         0.10532E+00
         0.11148E+00
         0.11625E+00
         0.10623E+00
         0.15471E+00
         0.11693E+00
         0.16488E+00
         0.12666E+00
         0.14311E+00
         0.14067E+00
         0.10697E+00
         0.14458E+00
         0.12489E+00
         0.14900E+00
         0.15936E+00
         0.12823E+00
         0.14496E+00
         0.14094E+00
         0.14127E+00
         0.12817E+00
         0.11711E+00
         0.76850E-01
         0.75363E-01
         0.90132E-01
         0.10635E+00
         0.94910E-01
         0.14087E+00
         0.12914E+00
         0.10748E+00
         0.12153E+00
        -0.39708E-01
         0.53920E-02
         0.54245E-02
        -0.25655E-01
         0.14227E-01
         0.44525E-02
         0.39036E-01
         0.36391E-02
        -0.67511E-01
        -0.23827E-01
         0.76698E-01
         0.13902E+00
         0.97666E-01
         0.65556E-01
         0.15220E+00
        -0.35089E-01
        -0.57014E-01
        -0.50766E-01
        -0.23046E-01
        -0.34470E-01
         0.15970E-01
        -0.27708E-02
         0.44112E-01
         0.12012E-01
        -0.28154E-01
         0.29357E-01
         0.51318E-01
         0.38914E-01
         0.37076E-01
        -0.11290E-01
         0.36160E-01
         0.70849E-01
         0.15388E-01
         0.11248E-01
         0.43966E-01
         0.43340E-01
         0.57893E-01
         0.14860E+00
         0.13036E+00
         0.11392E+00
         0.10502E+00
         0.47361E-01
         0.89381E-02
         0.81038E-01
         0.11851E+00
         0.16883E+00
         0.15898E+00
         0.14021E+00
         0.10823E+00
         0.88494E-01
         0.81795E-01
         0.31611E-01
         0.75987E-01
         0.42029E-01
         0.10268E+00
         0.12720E+00
         0.19917E+00
         0.24517E+00
         0.24615E+00
         0.25600E+00
         0.22885E+00
         0.20354E+00
         0.17599E+00
         0.10585E+00
         0.73800E-01
         0.68184E-01
         0.74970E-01
         0.91113E-01
         0.14857E+00
         0.20157E+00
         0.24202E+00
         0.24909E+00
         0.24004E+00
         0.19389E+00
         0.18391E+00
         0.13994E+00
         0.87092E-01
         0.61971E-01
         0.13730E+00
         0.12258E+00
         0.12767E+00
         0.12866E+00
         0.10778E+00
         0.97920E-01
         0.10071E+00
         0.11612E+00
         0.13953E+00
         0.12009E+00
         0.79972E-01
         0.69707E-01
         0.81257E-01
         0.82206E-01
         0.73022E-01
         0.13079E+00
         0.14115E+00
         0.13201E+00
         0.12722E+00
         0.12734E+00
         0.11106E+00
         0.11275E+00
         0.96670E-01
         0.11044E+00
         0.12855E+00
         0.98394E-01
         0.88752E-01
         0.10519E+00
         0.12052E+00
         0.12885E+00
         0.86735E-01
         0.67274E-01
         0.97205E-01
         0.10277E+00
         0.11357E+00
         0.10907E+00
         0.94736E-01
         0.83917E-01
         0.91197E-01
         0.10628E+00
         0.11497E+00
         0.11319E+00
         0.11111E+00
         0.83026E-01
         0.58966E-01
         0.53898E-01
         0.55701E-01
         0.68338E-01
         0.75098E-01
         0.85676E-01
         0.96132E-01
         0.96250E-01
         0.11387E+00
         0.89345E-01
         0.11471E+00
         0.92631E-01
         0.99906E-01
         0.97140E-01
         0.97604E-01
         0.11877E+00
         0.10588E+00
         0.10908E+00
         0.11884E+00
         0.10698E+00
         0.10995E+00
         0.11331E+00
         0.11122E+00
         0.93565E-01
         0.92232E-01
         0.87765E-01
         0.86556E-01
         0.86342E-01
         0.92464E-01
         0.81158E-01
         0.10173E+00
         0.10521E+00
         0.95891E-01
         0.95651E-01
        -0.26770E-01
         0.15471E-02
         0.31642E-03
        -0.16319E-01
         0.90343E-02
         0.69829E-02
         0.24443E-01
         0.46868E-02
        -0.42167E-01
        -0.10119E-01
         0.48720E-01
         0.74284E-01
         0.50405E-01
         0.44300E-01
         0.84212E-01
        -0.22241E-01
        -0.33269E-01
        -0.34801E-01
        -0.15760E-01
        -0.15311E-01
         0.81477E-02
         0.83209E-02
         0.16046E-01
         0.37988E-02
        -0.11370E-01
         0.16643E-01
         0.35179E-01
         0.25766E-01
         0.22055E-01
        -0.65170E-03
         0.21598E-01
         0.38557E-01
         0.88289E-02
         0.54394E-02
         0.18590E-01
         0.16305E-01
         0.25195E-01
         0.79781E-01
         0.66904E-01
         0.55576E-01
         0.48045E-01
         0.24642E-01
         0.13118E-01
         0.35397E-01
         0.54939E-01
         0.75223E-01
         0.70762E-01
         0.62312E-01
         0.48275E-01
         0.35612E-01
         0.33297E-01
         0.16948E-01
         0.28945E-01
         0.24959E-01
         0.39905E-01
         0.55075E-01
         0.81026E-01
         0.10127E+00
         0.11471E+00
         0.11920E+00
         0.11216E+00
         0.94100E-01
         0.72349E-01
         0.48065E-01
         0.40877E-01
         0.35189E-01
         0.30098E-01
         0.37837E-01
         0.64155E-01
         0.85990E-01
         0.10633E+00
         0.11424E+00
         0.10934E+00
         0.87336E-01
         0.68360E-01
         0.52394E-01
         0.38218E-01
         0.33135E-01
         0.14106E+00
         0.11629E+00
         0.12201E+00
         0.12708E+00
         0.10509E+00
         0.97722E-01
         0.87662E-01
         0.10912E+00
         0.15030E+00
         0.12010E+00
         0.62218E-01
         0.44214E-01
         0.63259E-01
         0.65088E-01
         0.41490E-01
         0.13165E+00
         0.14723E+00
         0.13494E+00
         0.12813E+00
         0.12818E+00
         0.10410E+00
         0.10785E+00
         0.86892E-01
         0.10480E+00
         0.12652E+00
         0.88454E-01
         0.75502E-01
         0.92248E-01
         0.10432E+00
         0.12195E+00
         0.76315E-01
         0.53066E-01
         0.90939E-01
         0.96412E-01
         0.99337E-01
         0.94576E-01
         0.80842E-01
         0.50390E-01
         0.61738E-01
         0.77438E-01
         0.85941E-01
         0.97579E-01
         0.10485E+00
         0.65174E-01
         0.37016E-01
         0.19768E-01
         0.22126E-01
         0.35824E-01
         0.50445E-01
         0.63671E-01
         0.71203E-01
         0.85592E-01
         0.85942E-01
         0.84120E-01
         0.77686E-01
         0.61926E-01
         0.51136E-01
         0.39042E-01
         0.37389E-01
         0.45843E-01
         0.39618E-01
         0.49960E-01
         0.71519E-01
         0.80191E-01
         0.90090E-01
         0.87747E-01
         0.84277E-01
         0.72057E-01
         0.57338E-01
         0.38392E-01
         0.21436E-01
         0.14149E-01
         0.17553E-01
         0.23358E-01
         0.41843E-01
         0.58767E-01
         0.67691E-01
         0.81485E-01
        -0.28681E-01
        -0.72453E-02
        -0.86024E-02
        -0.21045E-01
         0.16091E-02
         0.53818E-03
         0.11017E-01
        -0.54572E-02
        -0.37228E-01
        -0.13912E-01
         0.32803E-01
         0.53082E-01
         0.33815E-01
         0.28233E-01
         0.57053E-01
        -0.27367E-01
        -0.32609E-01
        -0.34303E-01
        -0.21805E-01
        -0.20005E-01
        -0.23993E-02
        -0.28352E-02
         0.70809E-02
        -0.63473E-02
        -0.18129E-01
         0.65875E-02
         0.20189E-01
         0.96881E-02
         0.25343E-02
        -0.13335E-01
         0.10717E-01
         0.28402E-01
        -0.68781E-03
        -0.26510E-02
         0.70816E-02
         0.64199E-02
         0.14414E-01
         0.50059E-01
         0.41211E-01
         0.31256E-01
         0.23528E-01
         0.75695E-02
         0.61499E-03
         0.23656E-01
         0.40693E-01
         0.50959E-01
         0.47857E-01
         0.38937E-01
         0.28511E-01
         0.20338E-01
         0.17521E-01
         0.59397E-02
         0.12909E-01
         0.15427E-01
         0.15948E-01
         0.25893E-01
         0.42945E-01
         0.61693E-01
         0.67576E-01
         0.65327E-01
         0.63901E-01
         0.56833E-01
         0.40896E-01
         0.27120E-01
         0.21843E-01
         0.15353E-01
         0.14984E-01
         0.19323E-01
         0.31856E-01
         0.46109E-01
         0.58317E-01
         0.62508E-01
         0.56207E-01
         0.45082E-01
         0.36705E-01
         0.30179E-01
         0.19452E-01
         0.15384E-01
         0.12575E+00
         0.99960E-01
         0.10406E+00
         0.11229E+00
         0.91044E-01
         0.86238E-01
         0.73727E-01
         0.92713E-01
         0.13542E+00
         0.10403E+00
         0.49897E-01
         0.31485E-01
         0.51677E-01
         0.51553E-01
         0.27499E-01
         0.11277E+00
         0.12856E+00
         0.12037E+00
         0.11014E+00
         0.11026E+00
         0.89960E-01
         0.92162E-01
         0.74942E-01
         0.88325E-01
         0.10959E+00
         0.74465E-01
         0.60571E-01
         0.76756E-01
         0.87846E-01
         0.10319E+00
         0.63681E-01
         0.45930E-01
         0.76926E-01
         0.84207E-01
         0.84205E-01
         0.80811E-01
         0.69773E-01
         0.35200E-01
         0.46407E-01
         0.61317E-01
         0.68614E-01
         0.80788E-01
         0.87735E-01
         0.55610E-01
         0.32398E-01
         0.14981E-01
         0.17295E-01
         0.26886E-01
         0.38693E-01
         0.52075E-01
         0.58755E-01
         0.74261E-01
         0.73452E-01
         0.71873E-01
         0.63806E-01
         0.50839E-01
         0.37042E-01
         0.19864E-01
         0.15429E-01
         0.26389E-01
         0.21034E-01
         0.34133E-01
         0.50929E-01
         0.60118E-01
         0.70459E-01
         0.70808E-01
         0.69251E-01
         0.59133E-01
         0.42071E-01
         0.21059E-01
         0.39881E-02
        -0.29094E-02
         0.26976E-02
         0.12191E-01
         0.26867E-01
         0.43367E-01
         0.54600E-01
         0.65568E-01
        -0.40997E-01
        -0.20563E-01
        -0.25529E-01
        -0.35298E-01
        -0.14967E-01
        -0.12866E-01
        -0.83126E-03
        -0.16476E-01
        -0.50593E-01
        -0.24389E-01
         0.20091E-01
         0.37280E-01
         0.20468E-01
         0.16326E-01
         0.40981E-01
        -0.38932E-01
        -0.46889E-01
        -0.45639E-01
        -0.32420E-01
        -0.32369E-01
        -0.12661E-01
        -0.16398E-01
        -0.21883E-02
        -0.17217E-01
        -0.28963E-01
        -0.68872E-02
         0.80027E-02
        -0.37478E-02
        -0.12516E-01
        -0.26317E-01
        -0.22762E-02
         0.15101E-01
        -0.12761E-01
        -0.13763E-01
        -0.97889E-02
        -0.78393E-02
         0.30813E-02
         0.32949E-01
         0.22505E-01
         0.11645E-01
         0.46253E-02
        -0.91608E-02
        -0.15255E-01
         0.10764E-01
         0.29412E-01
         0.42751E-01
         0.38219E-01
         0.28486E-01
         0.19053E-01
         0.12965E-01
         0.10724E-01
        -0.38573E-02
        -0.17806E-02
        -0.37467E-03
         0.35732E-02
         0.16384E-01
         0.33157E-01
         0.46153E-01
         0.50387E-01
         0.51423E-01
         0.47176E-01
         0.40467E-01
         0.25248E-01
         0.89697E-02
         0.28801E-02
         0.25534E-03
         0.24894E-02
         0.82026E-02
         0.17376E-01
         0.35236E-01
         0.51844E-01
         0.51473E-01
         0.45790E-01
         0.39699E-01
         0.32714E-01
         0.26889E-01
         0.13063E-01
         0.10332E-02
         0.10056E+00
         0.81870E-01
         0.82229E-01
         0.90173E-01
         0.71840E-01
         0.70539E-01
         0.64526E-01
         0.79777E-01
         0.10372E+00
         0.85227E-01
         0.46710E-01
         0.27154E-01
         0.42996E-01
         0.49133E-01
         0.23392E-01
         0.87369E-01
         0.97834E-01
         0.94555E-01
         0.87104E-01
         0.86758E-01
         0.72696E-01
         0.72498E-01
         0.61320E-01
         0.69991E-01
         0.86088E-01
         0.59783E-01
         0.53783E-01
         0.62703E-01
         0.68586E-01
         0.80338E-01
         0.52719E-01
         0.39091E-01
         0.63538E-01
         0.69847E-01
         0.65092E-01
         0.63982E-01
         0.56737E-01
         0.29209E-01
         0.37213E-01
         0.46813E-01
         0.52107E-01
         0.62829E-01
         0.67731E-01
         0.45834E-01
         0.28437E-01
         0.16304E-01
         0.18621E-01
         0.25973E-01
         0.34011E-01
         0.43483E-01
         0.48231E-01
         0.61772E-01
         0.56293E-01
         0.57175E-01
         0.50451E-01
         0.40598E-01
         0.29544E-01
         0.12686E-01
         0.40646E-02
         0.14668E-01
         0.15322E-01
         0.21993E-01
         0.35171E-01
         0.44626E-01
         0.52745E-01
         0.56326E-01
         0.56572E-01
         0.50086E-01
         0.34106E-01
         0.17613E-01
         0.83164E-02
         0.27066E-02
         0.76975E-02
         0.12481E-01
         0.19363E-01
         0.32395E-01
         0.44557E-01
         0.54662E-01
        -0.45914E-01
        -0.25936E-01
        -0.31358E-01
        -0.41737E-01
        -0.21277E-01
        -0.19117E-01
        -0.66889E-02
        -0.19654E-01
        -0.58770E-01
        -0.30153E-01
         0.10427E-01
         0.21282E-01
         0.80168E-02
         0.83549E-02
         0.24922E-01
        -0.44864E-01
        -0.54924E-01
        -0.53618E-01
        -0.40179E-01
        -0.39832E-01
        -0.21072E-01
        -0.24190E-01
        -0.93686E-02
        -0.22964E-01
        -0.34958E-01
        -0.12244E-01
         0.65015E-04
        -0.11600E-01
        -0.18994E-01
        -0.31191E-01
        -0.91369E-02
         0.67884E-02
        -0.19851E-01
        -0.22016E-01
        -0.18528E-01
        -0.17555E-01
        -0.73909E-02
         0.18349E-01
         0.86646E-02
        -0.10450E-02
        -0.54430E-02
        -0.15942E-01
        -0.22178E-01
         0.40808E-02
         0.20345E-01
         0.34192E-01
         0.29561E-01
         0.21411E-01
         0.13143E-01
         0.50732E-02
         0.15943E-02
        -0.11819E-01
        -0.11084E-01
        -0.75577E-02
        -0.53398E-02
         0.65108E-02
         0.19947E-01
         0.29732E-01
         0.32182E-01
         0.35059E-01
         0.31841E-01
         0.24333E-01
         0.13596E-01
        -0.21823E-02
        -0.99916E-02
        -0.94442E-02
        -0.69478E-02
        -0.55901E-03
         0.92239E-02
         0.28592E-01
         0.47988E-01
         0.45942E-01
         0.38478E-01
         0.33142E-01
         0.25062E-01
         0.16787E-01
         0.36194E-02
        -0.58655E-02
         0.79881E-01
         0.69464E-01
         0.68345E-01
         0.69579E-01
         0.56809E-01
         0.54408E-01
         0.56170E-01
         0.63344E-01
         0.79035E-01
         0.64534E-01
         0.46550E-01
         0.36051E-01
         0.43259E-01
         0.46760E-01
         0.34821E-01
         0.73067E-01
         0.72592E-01
         0.72912E-01
         0.69569E-01
         0.62385E-01
         0.57131E-01
         0.54641E-01
         0.52532E-01
         0.61496E-01
         0.63644E-01
         0.57043E-01
         0.49770E-01
         0.56092E-01
         0.59589E-01
         0.61671E-01
         0.46574E-01
         0.39382E-01
         0.50863E-01
         0.53375E-01
         0.52412E-01
         0.54150E-01
         0.51100E-01
         0.37462E-01
         0.42984E-01
         0.46770E-01
         0.46464E-01
         0.55255E-01
         0.55454E-01
         0.45087E-01
         0.30040E-01
         0.18441E-01
         0.21908E-01
         0.29277E-01
         0.34973E-01
         0.38883E-01
         0.40518E-01
         0.47968E-01
         0.43119E-01
         0.45889E-01
         0.41951E-01
         0.36031E-01
         0.26714E-01
         0.18920E-01
         0.15508E-01
         0.17183E-01
         0.10830E-01
         0.16753E-01
         0.24803E-01
         0.38836E-01
         0.45924E-01
         0.45661E-01
         0.47131E-01
         0.39494E-01
         0.29812E-01
         0.19453E-01
         0.11412E-01
         0.91282E-02
         0.14921E-01
         0.20939E-01
         0.24193E-01
         0.31134E-01
         0.37034E-01
         0.45391E-01
        -0.51451E-01
        -0.30400E-01
        -0.35329E-01
        -0.46661E-01
        -0.26637E-01
        -0.26089E-01
        -0.64658E-02
        -0.16991E-01
        -0.70644E-01
        -0.34217E-01
         0.12466E-01
         0.18836E-01
         0.53780E-02
         0.14357E-01
         0.23437E-01
        -0.47064E-01
        -0.65058E-01
        -0.59343E-01
        -0.40075E-01
        -0.44047E-01
        -0.21285E-01
        -0.29477E-01
        -0.11745E-01
        -0.22728E-01
        -0.44642E-01
        -0.12723E-01
         0.69606E-02
        -0.11950E-01
        -0.22827E-01
        -0.35844E-01
        -0.90055E-02
         0.64720E-02
        -0.21574E-01
        -0.25998E-01
        -0.24122E-01
        -0.25499E-01
        -0.15107E-01
         0.23736E-01
         0.13391E-01
        -0.40022E-02
        -0.92795E-02
        -0.16090E-01
        -0.25261E-01
         0.28179E-03
         0.16760E-01
         0.29012E-01
         0.26701E-01
         0.19359E-01
         0.11266E-01
         0.30093E-02
        -0.18478E-02
        -0.17975E-01
        -0.17087E-01
        -0.16988E-01
        -0.12294E-01
         0.20738E-03
         0.15979E-01
         0.18399E-01
         0.17355E-01
         0.27463E-01
         0.25948E-01
         0.14585E-01
         0.46131E-02
        -0.16767E-02
        -0.11166E-01
        -0.15787E-01
        -0.87953E-02
        -0.25978E-02
         0.65554E-02
         0.22987E-01
         0.36980E-01
         0.42241E-01
         0.36552E-01
         0.32284E-01
         0.23607E-01
         0.12833E-01
        -0.25034E-02
        -0.13683E-01
         0.48709E-01
         0.51873E-01
         0.46490E-01
         0.47208E-01
         0.36325E-01
         0.34996E-01
         0.50872E-01
         0.39897E-01
         0.46402E-01
         0.37345E-01
         0.52163E-01
         0.52622E-01
         0.54805E-01
         0.46625E-01
         0.53272E-01
         0.53904E-01
         0.39790E-01
         0.53755E-01
         0.42630E-01
         0.32624E-01
         0.39159E-01
         0.35270E-01
         0.44606E-01
         0.47297E-01
         0.39607E-01
         0.49900E-01
         0.48175E-01
         0.55928E-01
         0.55650E-01
         0.38071E-01
         0.41686E-01
         0.39773E-01
         0.39852E-01
         0.38097E-01
         0.36702E-01
         0.45011E-01
         0.53442E-01
         0.56569E-01
         0.63699E-01
         0.65707E-01
         0.55656E-01
         0.47749E-01
         0.39121E-01
         0.45646E-01
         0.36234E-01
         0.28398E-01
         0.28235E-01
         0.29630E-01
         0.28762E-01
         0.30027E-01
         0.30642E-01
         0.33235E-01
         0.29661E-01
         0.30940E-01
         0.35570E-01
         0.47030E-01
         0.48816E-01
         0.41030E-01
         0.32869E-01
         0.35592E-01
         0.33622E-01
         0.38925E-01
         0.34140E-01
         0.33937E-01
         0.38664E-01
         0.34222E-01
         0.35261E-01
         0.34803E-01
         0.35266E-01
         0.33186E-01
         0.28470E-01
         0.25384E-01
         0.33045E-01
         0.32693E-01
         0.34175E-01
         0.26634E-01
         0.27967E-01
         0.35137E-01
        -0.80221E-01
        -0.32930E-01
        -0.59418E-01
        -0.65230E-01
        -0.37904E-01
        -0.18178E-01
         0.21427E-01
         0.39374E-02
        -0.10319E+00
        -0.22462E-01
         0.24887E-01
         0.84170E-03
         0.13819E-01
         0.29766E-01
         0.46478E-02
        -0.53167E-01
        -0.77235E-01
        -0.89470E-01
        -0.37826E-01
        -0.42209E-01
        -0.24668E-01
        -0.28230E-01
        -0.45025E-02
        -0.71475E-02
        -0.29574E-01
         0.72707E-03
         0.20416E-01
        -0.10563E-02
        -0.81242E-02
        -0.22018E-01
         0.23706E-01
         0.24186E-01
         0.76475E-02
        -0.86482E-02
        -0.33218E-01
        -0.26795E-01
        -0.38769E-02
         0.14182E-01
        -0.19868E-02
        -0.17047E-01
        -0.46025E-02
        -0.48665E-02
        -0.19265E-01
         0.14395E-02
         0.17299E-01
         0.28549E-01
         0.38171E-01
         0.45385E-01
         0.35495E-01
         0.12419E-01
         0.17022E-02
        -0.33377E-02
        -0.24395E-01
        -0.28926E-01
        -0.14554E-01
        -0.62092E-02
         0.10669E-01
         0.23812E-01
         0.24251E-01
         0.17860E-01
         0.14374E-01
        -0.59546E-02
         0.39006E-03
        -0.65348E-02
        -0.19583E-01
        -0.16615E-01
        -0.30852E-01
        -0.74221E-02
         0.31657E-02
         0.19072E-01
         0.26306E-01
         0.29496E-01
         0.41876E-01
         0.30936E-01
         0.14987E-01
        -0.63904E-02
        -0.53529E-02
        -0.17602E-01
         0.44522E-01
         0.39295E-01
         0.83578E-02
         0.13275E-01
         0.53441E-02
         0.21048E-01
         0.32313E-01
         0.45250E-01
         0.28816E-01
         0.51088E-01
         0.32361E-01
         0.69244E-01
         0.71960E-01
         0.42370E-01
         0.65804E-01
         0.31579E-01
         0.27129E-01
         0.27967E-01
         0.23103E-01
         0.22151E-01
         0.14880E-01
         0.12140E-01
         0.15321E-01
         0.17289E-01
         0.34852E-01
         0.29151E-01
         0.61457E-01
         0.43252E-01
         0.30244E-01
         0.26380E-01
         0.71069E-01
         0.49899E-01
         0.74506E-01
         0.42666E-01
         0.36479E-02
         0.13733E-01
         0.52544E-01
         0.78958E-01
         0.70723E-01
         0.43729E-01
         0.40931E-01
         0.39494E-01
         0.24342E-01
         0.35534E-01
         0.49862E-01
         0.61141E-01
         0.76442E-01
         0.10725E+00
         0.11135E+00
         0.76777E-01
         0.52587E-01
         0.32550E-01
         0.12118E-01
         0.17024E-01
         0.31638E-01
         0.64037E-01
         0.96724E-01
         0.95816E-01
         0.85436E-01
         0.82727E-01
         0.89223E-01
         0.73227E-01
         0.44630E-01
         0.38351E-01
         0.20972E-01
         0.18368E-01
         0.24854E-01
         0.27386E-01
         0.43095E-01
         0.64168E-01
         0.66164E-01
         0.84978E-01
         0.10008E+00
         0.11140E+00
         0.83707E-01
         0.55708E-01
         0.42756E-01
         0.28240E-01
        -0.40823E-01
        -0.42065E-01
         0.23188E-01
        -0.25121E-01
        -0.25057E-01
        -0.66046E-01
         0.68555E-02
        -0.34156E-02
        -0.18619E+00
        -0.50604E-01
         0.21612E+00
         0.28438E+00
         0.84874E-01
         0.21557E+00
         0.39574E+00
        -0.20939E-02
        -0.32911E+00
        -0.35594E-01
        -0.14913E+00
        -0.30790E+00
        -0.52077E-01
        -0.13691E+00
         0.47846E-01
         0.18495E-01
        -0.19300E+00
         0.14518E+00
         0.16985E+00
         0.10718E+00
         0.82840E-01
        -0.20205E+00
         0.10110E+00
         0.18054E+00
         0.22092E-01
        -0.25169E-02
        -0.45601E-01
        -0.25635E-01
        -0.22609E-01
         0.44457E+00
         0.37324E+00
         0.23935E+00
         0.11164E+00
         0.38442E-01
        -0.76750E-01
         0.14043E+00
         0.15494E+00
         0.17670E+00
         0.17944E+00
         0.16166E+00
         0.17267E+00
         0.10582E+00
         0.48827E-01
        -0.22868E-01
        -0.92118E-01
        -0.61754E-01
        -0.67929E-01
         0.14412E-01
        -0.14533E-01
         0.16902E+00
         0.26787E+00
         0.30633E+00
         0.30873E+00
         0.19625E+00
        -0.86261E-01
        -0.39952E-01
        -0.43389E-02
        -0.89941E-01
        -0.67255E-02
         0.10903E-01
         0.35789E-01
         0.21199E-01
         0.17638E+00
         0.21138E+00
         0.20946E+00
         0.26464E+00
         0.18120E+00
         0.34028E-01
        -0.11402E-01
        -0.47835E-01
  
SCALARS                      strain_zz  double 1
LOOKUP_TABLE default
        -0.18823E+01
        -0.15792E+01
        -0.15341E+01
        -0.18459E+01
        -0.22008E-08
        -0.21134E-08
        -0.18288E-08
        -0.18979E-08
        -0.11896E+01
        -0.13262E+01
        -0.14576E-08
        -0.14753E-08
        -0.13981E+01
        -0.14965E+01
        -0.23034E-08
        -0.24396E-08
        -0.21089E+01
        -0.16935E+01
        -0.21370E-08
        -0.22822E-08
        -0.13203E+01
        -0.12365E+01
        -0.13155E+01
        -0.22320E-08
        -0.17269E-08
        -0.17837E-08
        -0.14195E+01
        -0.13770E+01
        -0.22690E-08
        -0.16234E-08
        -0.18633E+01
        -0.18654E+01
        -0.20678E+01
        -0.20482E-08
        -0.21029E-08
        -0.19573E-08
        -0.15200E+01
        -0.16090E+01
        -0.19463E-08
        -0.18857E-08
        -0.14000E+01
        -0.14963E+01
        -0.13948E-08
        -0.12573E-08
        -0.13266E+01
        -0.14414E+01
        -0.14715E-08
        -0.18672E-08
        -0.16650E+01
        -0.21273E-08
        -0.14898E+01
        -0.19233E-08
        -0.15296E+01
        -0.20718E-08
        -0.15119E+01
        -0.19021E-08
        -0.14681E+01
        -0.15632E+01
        -0.17362E-08
        -0.18628E-08
        -0.16721E+01
        -0.14430E+01
        -0.17762E-08
        -0.17688E-08
        -0.17708E+01
        -0.17580E-08
        -0.16432E+01
        -0.17540E-08
        -0.10164E+01
        -0.11724E+01
        -0.13950E-08
        -0.15737E-08
        -0.13173E+01
        -0.17016E-08
        -0.14466E+01
        -0.14005E-08
        -0.14022E+01
        -0.13283E-08
        -0.12426E+01
        -0.13302E-08
        -0.11001E+01
        -0.13283E+01
        -0.11919E-08
        -0.12904E-08
        -0.14758E+01
        -0.12430E-08
        -0.12710E+01
        -0.15330E-08
        -0.11097E+01
        -0.14998E-08
        -0.95764E+00
        -0.11849E+01
        -0.13615E-08
        -0.14398E-08
        -0.13575E+01
        -0.13893E-08
        -0.13602E+01
        -0.13943E-08
        -0.12164E+01
        -0.14271E-08
        -0.10873E+01
        -0.12810E+01
        -0.13266E-08
        -0.14489E-08
        -0.64768E+00
        -0.65392E+00
        -0.93828E-09
        -0.85413E-09
        -0.54079E+00
        -0.94128E-09
        -0.73380E+00
        -0.94419E-09
        -0.63475E+00
        -0.94660E-09
        -0.35876E+00
        -0.87590E-09
        -0.37226E+00
        -0.75312E-09
        -0.39404E+00
        -0.67010E-09
        -0.53215E+00
        -0.68006E-09
        -0.57832E+00
        -0.74805E-09
        -0.63039E+00
        -0.77196E-09
        -0.58637E+00
        -0.67627E-09
        -0.53961E+00
        -0.57713E-09
        -0.52675E+00
        -0.56563E-09
        -0.56929E+00
        -0.64797E-09
        -0.70771E+00
        -0.75562E-09
        -0.78257E+00
        -0.82696E-09
        -0.60167E+00
        -0.88458E-09
        -0.66690E+00
        -0.92007E-09
        -0.75897E+00
        -0.83362E-09
        -0.70415E+00
        -0.74180E-09
        -0.73502E+00
        -0.75249E-09
        -0.70517E+00
        -0.81844E-09
        -0.76262E+00
        -0.86981E-09
        -0.67414E+00
        -0.83142E-09
        -0.75443E+00
        -0.79475E-09
        -0.17972E+01
        -0.12937E+01
        -0.12752E+01
        -0.16983E+01
        -0.94107E+00
        -0.10388E+01
        -0.11262E+01
        -0.13687E+01
        -0.20319E+01
        -0.16426E+01
        -0.10361E+01
        -0.89982E+00
        -0.96038E+00
        -0.11598E+01
        -0.10067E+01
        -0.17668E+01
        -0.18045E+01
        -0.20755E+01
        -0.14151E+01
        -0.14649E+01
        -0.10821E+01
        -0.11730E+01
        -0.10038E+01
        -0.11992E+01
        -0.16105E+01
        -0.12427E+01
        -0.12847E+01
        -0.12470E+01
        -0.11105E+01
        -0.13610E+01
        -0.14423E+01
        -0.11404E+01
        -0.15794E+01
        -0.13667E+01
        -0.79183E+00
        -0.86943E+00
        -0.97404E+00
        -0.10561E+01
        -0.99203E+00
        -0.82987E+00
        -0.73197E+00
        -0.96197E+00
        -0.11171E+01
        -0.95501E+00
        -0.82160E+00
        -0.73722E+00
        -0.91204E+00
        -0.10026E+01
        -0.99969E+00
        -0.92392E+00
        -0.81707E+00
        -0.99881E+00
        -0.57424E+00
        -0.60123E+00
        -0.47271E+00
        -0.59562E+00
        -0.50351E+00
        -0.37058E+00
        -0.51703E+00
        -0.51712E+00
        -0.49144E+00
        -0.41056E+00
        -0.44709E+00
        -0.47977E+00
        -0.57524E+00
        -0.61518E+00
        -0.55139E+00
        -0.57631E+00
        -0.59814E+00
        -0.46452E+00
        -0.60920E+00
        -0.66986E+00
        -0.64738E+00
        -0.65330E+00
        -0.51158E+00
        -0.54100E+00
        -0.57850E+00
        -0.60099E+00
        -0.15911E+01
        -0.11492E+01
        -0.10878E+01
        -0.14770E+01
        -0.65436E+00
        -0.79492E+00
        -0.98697E+00
        -0.12960E+01
        -0.16938E+01
        -0.15238E+01
        -0.88857E+00
        -0.67605E+00
        -0.72728E+00
        -0.10464E+01
        -0.78147E+00
        -0.15403E+01
        -0.15883E+01
        -0.17503E+01
        -0.12490E+01
        -0.13182E+01
        -0.82512E+00
        -0.93101E+00
        -0.72676E+00
        -0.99827E+00
        -0.14933E+01
        -0.10552E+01
        -0.11844E+01
        -0.11449E+01
        -0.97766E+00
        -0.12344E+01
        -0.12625E+01
        -0.93849E+00
        -0.13743E+01
        -0.11996E+01
        -0.45551E+00
        -0.57001E+00
        -0.70634E+00
        -0.81847E+00
        -0.76330E+00
        -0.58718E+00
        -0.46247E+00
        -0.73576E+00
        -0.88874E+00
        -0.66858E+00
        -0.49420E+00
        -0.36188E+00
        -0.57685E+00
        -0.74099E+00
        -0.75921E+00
        -0.65657E+00
        -0.51337E+00
        -0.74648E+00
        -0.89612E-01
        -0.10996E+00
         0.19388E-01
        -0.17043E+00
        -0.14548E+00
        -0.85720E-01
        -0.25550E+00
        -0.19768E+00
        -0.11975E+00
        -0.60569E-01
        -0.98297E-01
        -0.95376E-01
        -0.19848E+00
        -0.22036E+00
        -0.13477E+00
        -0.12119E+00
        -0.12394E+00
         0.29787E-01
        -0.13724E+00
        -0.18825E+00
        -0.17559E+00
        -0.21642E+00
        -0.41064E-01
        -0.10042E+00
        -0.12040E+00
        -0.13147E+00
        -0.12136E+01
        -0.84184E+00
        -0.81734E+00
        -0.11520E+01
        -0.55196E+00
        -0.64761E+00
        -0.70478E+00
        -0.91748E+00
        -0.13566E+01
        -0.11224E+01
        -0.64896E+00
        -0.56504E+00
        -0.56984E+00
        -0.73789E+00
        -0.61958E+00
        -0.11612E+01
        -0.12507E+01
        -0.13995E+01
        -0.93642E+00
        -0.10057E+01
        -0.66382E+00
        -0.73667E+00
        -0.59311E+00
        -0.76427E+00
        -0.11074E+01
        -0.78330E+00
        -0.83965E+00
        -0.81396E+00
        -0.70075E+00
        -0.91141E+00
        -0.96851E+00
        -0.70411E+00
        -0.10606E+01
        -0.90133E+00
        -0.40073E+00
        -0.47301E+00
        -0.54488E+00
        -0.62674E+00
        -0.57534E+00
        -0.45816E+00
        -0.37074E+00
        -0.55759E+00
        -0.69612E+00
        -0.53469E+00
        -0.40096E+00
        -0.31995E+00
        -0.48243E+00
        -0.59176E+00
        -0.58976E+00
        -0.50537E+00
        -0.41687E+00
        -0.59506E+00
        -0.13882E+00
        -0.15899E+00
        -0.60189E-01
        -0.15383E+00
        -0.12845E+00
        -0.10067E+00
        -0.18301E+00
        -0.17842E+00
        -0.16143E+00
        -0.14524E+00
        -0.16287E+00
        -0.10618E+00
        -0.19389E+00
        -0.20238E+00
        -0.98274E-01
        -0.72220E-01
        -0.86844E-01
         0.33915E-01
        -0.15866E+00
        -0.21820E+00
        -0.16117E+00
        -0.18373E+00
        -0.72931E-01
        -0.13265E+00
        -0.15054E+00
        -0.16888E+00
        -0.10580E+01
        -0.75867E+00
        -0.69347E+00
        -0.10001E+01
        -0.37837E+00
        -0.50182E+00
        -0.64805E+00
        -0.89405E+00
        -0.10126E+01
        -0.10315E+01
        -0.58458E+00
        -0.42220E+00
        -0.41837E+00
        -0.70818E+00
        -0.46166E+00
        -0.10031E+01
        -0.10509E+01
        -0.11001E+01
        -0.85166E+00
        -0.92244E+00
        -0.49603E+00
        -0.56348E+00
        -0.42264E+00
        -0.66013E+00
        -0.10214E+01
        -0.68223E+00
        -0.80171E+00
        -0.74441E+00
        -0.57908E+00
        -0.82748E+00
        -0.86082E+00
        -0.56612E+00
        -0.92830E+00
        -0.77146E+00
        -0.20247E+00
        -0.28905E+00
        -0.37068E+00
        -0.45958E+00
        -0.41611E+00
        -0.27168E+00
        -0.16438E+00
        -0.36074E+00
        -0.51521E+00
        -0.36571E+00
        -0.20073E+00
        -0.90899E-01
        -0.27329E+00
        -0.42322E+00
        -0.42535E+00
        -0.31743E+00
        -0.20700E+00
        -0.41986E+00
         0.94241E-01
         0.60359E-01
         0.11133E+00
         0.33788E-01
         0.23888E-01
        -0.13319E-01
        -0.99536E-01
        -0.86342E-01
        -0.44349E-01
        -0.15711E-01
        -0.49209E-02
         0.23922E-01
        -0.61454E-01
        -0.55467E-01
         0.31232E-01
         0.96061E-01
         0.11301E+00
         0.21435E+00
         0.91736E-01
         0.51009E-01
         0.78986E-01
         0.62852E-01
         0.16310E+00
         0.12126E+00
         0.70534E-01
         0.17012E-01
        -0.38192E+00
        -0.40415E+00
        -0.41308E+00
        -0.48630E+00
        -0.36349E+00
        -0.42203E+00
        -0.38883E+00
        -0.37218E+00
        -0.34781E+00
        -0.37234E+00
        -0.39582E+00
        -0.39866E+00
        -0.37859E+00
        -0.40046E+00
        -0.39367E+00
        -0.40973E+00
        -0.39834E+00
        -0.43882E+00
        -0.44047E+00
        -0.46629E+00
        -0.38099E+00
        -0.40189E+00
        -0.37081E+00
        -0.40303E+00
        -0.41109E+00
        -0.40153E+00
        -0.40698E+00
        -0.38546E+00
        -0.34901E+00
        -0.42573E+00
        -0.46133E+00
        -0.39254E+00
        -0.47979E+00
        -0.45721E+00
        -0.27911E+00
        -0.31138E+00
        -0.34984E+00
        -0.36576E+00
        -0.34139E+00
        -0.29263E+00
        -0.25842E+00
        -0.32755E+00
        -0.39156E+00
        -0.36178E+00
        -0.29251E+00
        -0.22350E+00
        -0.30278E+00
        -0.36898E+00
        -0.34801E+00
        -0.30361E+00
        -0.26743E+00
        -0.37160E+00
        -0.16848E+00
        -0.20288E+00
        -0.16442E+00
        -0.16571E+00
        -0.22165E+00
        -0.25436E+00
        -0.19656E+00
        -0.17131E+00
        -0.18790E+00
        -0.26777E+00
        -0.25309E+00
        -0.17890E+00
        -0.18321E+00
        -0.17387E+00
        -0.15350E+00
        -0.17245E+00
        -0.15331E+00
        -0.10660E+00
        -0.13090E+00
        -0.14309E+00
        -0.12401E+00
        -0.12275E+00
        -0.11317E+00
        -0.12042E+00
        -0.15294E+00
        -0.21352E+00
        -0.45587E+00
        -0.34717E+00
        -0.30725E+00
        -0.40862E+00
        -0.25041E+00
        -0.28830E+00
        -0.32128E+00
        -0.40591E+00
        -0.49128E+00
        -0.44264E+00
        -0.29476E+00
        -0.26332E+00
        -0.26123E+00
        -0.32755E+00
        -0.25301E+00
        -0.43226E+00
        -0.45066E+00
        -0.47792E+00
        -0.36264E+00
        -0.37654E+00
        -0.24083E+00
        -0.25579E+00
        -0.25208E+00
        -0.30604E+00
        -0.40615E+00
        -0.31809E+00
        -0.34374E+00
        -0.32184E+00
        -0.27463E+00
        -0.34224E+00
        -0.35605E+00
        -0.27993E+00
        -0.37357E+00
        -0.34360E+00
        -0.18470E+00
        -0.20592E+00
        -0.23820E+00
        -0.23144E+00
        -0.23405E+00
        -0.21289E+00
        -0.17863E+00
        -0.22374E+00
        -0.25591E+00
        -0.25645E+00
        -0.18630E+00
        -0.11208E+00
        -0.17581E+00
        -0.23864E+00
        -0.22598E+00
        -0.19121E+00
        -0.15553E+00
        -0.24208E+00
        -0.11724E+00
        -0.14573E+00
        -0.14179E+00
        -0.13922E+00
        -0.18255E+00
        -0.21449E+00
        -0.17188E+00
        -0.18186E+00
        -0.17805E+00
        -0.19806E+00
        -0.19052E+00
        -0.16893E+00
        -0.19487E+00
        -0.21474E+00
        -0.21221E+00
        -0.19993E+00
        -0.14310E+00
        -0.82767E-01
        -0.59258E-01
        -0.51670E-01
        -0.68772E-01
        -0.85057E-01
        -0.80575E-01
        -0.58575E-01
        -0.91838E-01
        -0.14727E+00
         0.14535E-01
        -0.11892E+00
        -0.16007E+00
        -0.46634E-01
        -0.27968E+00
        -0.26045E+00
        -0.13771E+00
        -0.37793E-01
         0.69993E-01
         0.10044E-01
        -0.17562E+00
        -0.31170E+00
        -0.30230E+00
        -0.11857E+00
        -0.26853E+00
         0.14471E-01
         0.52418E-01
         0.75861E-01
        -0.72141E-01
        -0.38193E-01
        -0.23381E+00
        -0.21744E+00
        -0.28429E+00
        -0.14756E+00
         0.75887E-02
        -0.14419E+00
        -0.83298E-01
        -0.92752E-01
        -0.15699E+00
        -0.68009E-01
        -0.68880E-01
        -0.19514E+00
        -0.44605E-01
        -0.13922E+00
        -0.30724E+00
        -0.27949E+00
        -0.28296E+00
        -0.23845E+00
        -0.24759E+00
        -0.29181E+00
        -0.33730E+00
        -0.27855E+00
        -0.23216E+00
        -0.31762E+00
        -0.33011E+00
        -0.33157E+00
        -0.28061E+00
        -0.23765E+00
        -0.22314E+00
        -0.25584E+00
        -0.28966E+00
        -0.26377E+00
        -0.41522E+00
        -0.39710E+00
        -0.42257E+00
        -0.38420E+00
        -0.41444E+00
        -0.42895E+00
        -0.35076E+00
        -0.36813E+00
        -0.39113E+00
        -0.46485E+00
        -0.46920E+00
        -0.42478E+00
        -0.37835E+00
        -0.39362E+00
        -0.41579E+00
        -0.44161E+00
        -0.41079E+00
        -0.42009E+00
        -0.39904E+00
        -0.35658E+00
        -0.35245E+00
        -0.36062E+00
        -0.39955E+00
        -0.37823E+00
        -0.36065E+00
        -0.36955E+00
        -0.26228E+00
        -0.23725E+00
        -0.21878E+00
        -0.23485E+00
        -0.22552E+00
        -0.21928E+00
        -0.24152E+00
        -0.25015E+00
        -0.27104E+00
        -0.24453E+00
        -0.23944E+00
        -0.25635E+00
        -0.24992E+00
        -0.22674E+00
        -0.23500E+00
        -0.24907E+00
        -0.24465E+00
        -0.25849E+00
        -0.22405E+00
        -0.21944E+00
        -0.22043E+00
        -0.21243E+00
        -0.23917E+00
        -0.22147E+00
        -0.22774E+00
        -0.22479E+00
        -0.21277E+00
        -0.22150E+00
        -0.24144E+00
        -0.22707E+00
        -0.21400E+00
        -0.21929E+00
        -0.21249E+00
        -0.21682E+00
        -0.24219E+00
        -0.23616E+00
        -0.24034E+00
        -0.22252E+00
        -0.24027E+00
        -0.26341E+00
        -0.26890E+00
        -0.25771E+00
        -0.23062E+00
        -0.24565E+00
        -0.23575E+00
        -0.22856E+00
        -0.22603E+00
        -0.22312E+00
        -0.21864E+00
        -0.22910E+00
        -0.23267E+00
        -0.22219E+00
        -0.29321E+00
        -0.25570E+00
        -0.29018E+00
        -0.24710E+00
        -0.26214E+00
        -0.28880E+00
        -0.25257E+00
        -0.29365E+00
        -0.28781E+00
        -0.28995E+00
        -0.30386E+00
        -0.28807E+00
        -0.27872E+00
        -0.29674E+00
        -0.29090E+00
        -0.28098E+00
        -0.24175E+00
        -0.25761E+00
        -0.25539E+00
        -0.23117E+00
        -0.24329E+00
        -0.24872E+00
        -0.27010E+00
        -0.26361E+00
        -0.25862E+00
        -0.23264E+00
         0.65843E-01
        -0.26961E-01
        -0.62627E-01
         0.21065E-01
        -0.15074E+00
        -0.12018E+00
        -0.41389E-01
         0.33300E-01
         0.11803E+00
         0.75358E-01
        -0.73628E-01
        -0.16415E+00
        -0.14883E+00
        -0.40546E-01
        -0.15538E+00
         0.62982E-01
         0.89990E-01
         0.92720E-01
        -0.95036E-03
         0.92087E-02
        -0.12533E+00
        -0.12179E+00
        -0.14030E+00
        -0.43043E-01
         0.50691E-01
        -0.35490E-01
        -0.18577E-01
        -0.32117E-01
        -0.86867E-01
        -0.20448E-01
        -0.52643E-02
        -0.81607E-01
         0.93442E-02
        -0.37436E-01
        -0.20064E+00
        -0.16414E+00
        -0.14455E+00
        -0.14997E+00
        -0.15425E+00
        -0.18487E+00
        -0.23102E+00
        -0.17662E+00
        -0.13434E+00
        -0.15309E+00
        -0.18784E+00
        -0.23369E+00
        -0.17751E+00
        -0.12903E+00
        -0.11469E+00
        -0.13526E+00
        -0.17772E+00
        -0.13803E+00
        -0.32131E+00
        -0.29373E+00
        -0.31750E+00
        -0.29374E+00
        -0.31147E+00
        -0.32618E+00
        -0.30802E+00
        -0.32475E+00
        -0.33182E+00
        -0.34766E+00
        -0.36835E+00
        -0.32984E+00
        -0.31189E+00
        -0.32271E+00
        -0.31983E+00
        -0.31865E+00
        -0.31447E+00
        -0.33672E+00
        -0.36339E+00
        -0.32526E+00
        -0.29586E+00
        -0.29271E+00
        -0.31105E+00
        -0.31819E+00
        -0.29934E+00
        -0.27855E+00
        -0.26173E+00
        -0.21560E+00
        -0.19851E+00
        -0.22766E+00
        -0.17181E+00
        -0.16814E+00
        -0.21400E+00
        -0.24535E+00
        -0.28816E+00
        -0.26061E+00
        -0.20725E+00
        -0.19356E+00
        -0.18515E+00
        -0.21413E+00
        -0.19651E+00
        -0.25801E+00
        -0.26887E+00
        -0.27432E+00
        -0.21938E+00
        -0.22217E+00
        -0.19343E+00
        -0.19463E+00
        -0.18654E+00
        -0.20328E+00
        -0.25132E+00
        -0.20812E+00
        -0.21889E+00
        -0.22582E+00
        -0.22196E+00
        -0.22303E+00
        -0.21656E+00
        -0.19141E+00
        -0.22194E+00
        -0.19884E+00
        -0.18392E+00
        -0.18507E+00
        -0.18318E+00
        -0.19745E+00
        -0.20782E+00
        -0.21446E+00
        -0.21339E+00
        -0.21085E+00
        -0.20023E+00
        -0.18228E+00
        -0.17872E+00
        -0.17970E+00
        -0.17611E+00
        -0.17528E+00
        -0.18121E+00
        -0.18340E+00
        -0.17862E+00
        -0.17181E+00
        -0.20242E+00
        -0.17220E+00
        -0.19746E+00
        -0.18090E+00
        -0.18279E+00
        -0.19885E+00
        -0.22114E+00
        -0.23346E+00
        -0.22357E+00
        -0.21807E+00
        -0.22507E+00
        -0.21734E+00
        -0.21830E+00
        -0.21913E+00
        -0.20218E+00
        -0.18588E+00
        -0.17444E+00
        -0.18522E+00
        -0.20621E+00
        -0.19444E+00
        -0.18331E+00
        -0.18589E+00
        -0.19398E+00
        -0.19941E+00
        -0.18208E+00
        -0.16686E+00
         0.39693E-01
        -0.10171E-01
        -0.27963E-01
         0.12604E-01
        -0.70597E-01
        -0.56312E-01
        -0.24166E-01
         0.12149E-01
         0.76965E-01
         0.37817E-01
        -0.42494E-01
        -0.75930E-01
        -0.63589E-01
        -0.30433E-01
        -0.77672E-01
         0.29822E-01
         0.46355E-01
         0.59103E-01
        -0.11116E-01
        -0.13442E-01
        -0.58377E-01
        -0.67619E-01
        -0.61337E-01
        -0.27467E-01
         0.14973E-01
        -0.22337E-01
        -0.23393E-01
        -0.32875E-01
        -0.57403E-01
        -0.33817E-01
        -0.83697E-02
        -0.38671E-01
         0.38283E-02
        -0.15971E-01
        -0.90834E-01
        -0.68234E-01
        -0.55459E-01
        -0.81612E-01
        -0.84651E-01
        -0.88927E-01
        -0.10139E+00
        -0.89089E-01
        -0.81364E-01
        -0.61424E-01
        -0.73085E-01
        -0.95221E-01
        -0.78292E-01
        -0.59055E-01
        -0.47744E-01
        -0.52270E-01
        -0.71141E-01
        -0.60274E-01
        -0.14389E+00
        -0.13451E+00
        -0.13680E+00
        -0.13159E+00
        -0.13664E+00
        -0.14336E+00
        -0.15028E+00
        -0.15702E+00
        -0.16098E+00
        -0.16044E+00
        -0.16268E+00
        -0.15027E+00
        -0.15169E+00
        -0.14223E+00
        -0.13622E+00
        -0.13342E+00
        -0.13562E+00
        -0.14087E+00
        -0.15447E+00
        -0.15201E+00
        -0.13750E+00
        -0.12949E+00
        -0.12427E+00
        -0.12505E+00
        -0.12654E+00
        -0.13081E+00
        -0.26448E+00
        -0.20264E+00
        -0.17992E+00
        -0.22380E+00
        -0.13420E+00
        -0.14303E+00
        -0.19325E+00
        -0.24056E+00
        -0.31040E+00
        -0.26866E+00
        -0.17938E+00
        -0.15225E+00
        -0.15457E+00
        -0.19766E+00
        -0.15839E+00
        -0.25794E+00
        -0.28242E+00
        -0.27911E+00
        -0.21343E+00
        -0.21447E+00
        -0.16062E+00
        -0.16155E+00
        -0.15181E+00
        -0.18680E+00
        -0.24507E+00
        -0.19324E+00
        -0.20788E+00
        -0.20370E+00
        -0.19084E+00
        -0.20068E+00
        -0.20449E+00
        -0.17112E+00
        -0.21464E+00
        -0.18694E+00
        -0.12501E+00
        -0.14132E+00
        -0.15344E+00
        -0.16344E+00
        -0.16656E+00
        -0.16911E+00
        -0.16219E+00
        -0.16597E+00
        -0.16007E+00
        -0.14961E+00
        -0.13823E+00
        -0.12110E+00
        -0.13112E+00
        -0.14451E+00
        -0.15441E+00
        -0.14607E+00
        -0.12702E+00
        -0.13728E+00
        -0.94962E-01
        -0.90194E-01
        -0.97419E-01
        -0.10333E+00
        -0.11207E+00
        -0.12019E+00
        -0.12521E+00
        -0.13455E+00
        -0.13300E+00
        -0.12088E+00
        -0.12018E+00
        -0.12555E+00
        -0.12285E+00
        -0.11634E+00
        -0.10773E+00
        -0.10364E+00
        -0.99319E-01
        -0.91103E-01
        -0.94024E-01
        -0.93828E-01
        -0.10217E+00
        -0.10424E+00
        -0.94591E-01
        -0.96026E-01
        -0.88920E-01
        -0.89765E-01
         0.46893E-01
         0.89610E-02
        -0.89484E-02
         0.26352E-01
        -0.46411E-01
        -0.32652E-01
        -0.16679E-02
         0.24175E-01
         0.67914E-01
         0.38319E-01
        -0.16055E-01
        -0.43430E-01
        -0.35281E-01
        -0.53136E-02
        -0.42043E-01
         0.38360E-01
         0.50416E-01
         0.61952E-01
         0.11134E-01
         0.13392E-01
        -0.27764E-01
        -0.34139E-01
        -0.32069E-01
        -0.46097E-02
         0.27823E-01
        -0.38757E-02
         0.11388E-03
        -0.54840E-02
        -0.18945E-01
         0.63288E-04
         0.65766E-02
        -0.18248E-01
         0.18448E-01
         0.16119E-02
        -0.59463E-01
        -0.41467E-01
        -0.29093E-01
        -0.43158E-01
        -0.43966E-01
        -0.44044E-01
        -0.50993E-01
        -0.43894E-01
        -0.42011E-01
        -0.34032E-01
        -0.40930E-01
        -0.52938E-01
        -0.44111E-01
        -0.32486E-01
        -0.23699E-01
        -0.27977E-01
        -0.40668E-01
        -0.32705E-01
        -0.85368E-01
        -0.78651E-01
        -0.79408E-01
        -0.72693E-01
        -0.77158E-01
        -0.82664E-01
        -0.82643E-01
        -0.86071E-01
        -0.89066E-01
        -0.89651E-01
        -0.95219E-01
        -0.89242E-01
        -0.88893E-01
        -0.83631E-01
        -0.80619E-01
        -0.76796E-01
        -0.74045E-01
        -0.77916E-01
        -0.82931E-01
        -0.79971E-01
        -0.68319E-01
        -0.64400E-01
        -0.68326E-01
        -0.71805E-01
        -0.70232E-01
        -0.72625E-01
        -0.23468E+00
        -0.18037E+00
        -0.15721E+00
        -0.20394E+00
        -0.11056E+00
        -0.12174E+00
        -0.17014E+00
        -0.20788E+00
        -0.26396E+00
        -0.22734E+00
        -0.15257E+00
        -0.12328E+00
        -0.13088E+00
        -0.16495E+00
        -0.12566E+00
        -0.21732E+00
        -0.23774E+00
        -0.24357E+00
        -0.18206E+00
        -0.18472E+00
        -0.13161E+00
        -0.13191E+00
        -0.12742E+00
        -0.16021E+00
        -0.20914E+00
        -0.16473E+00
        -0.17371E+00
        -0.17179E+00
        -0.15878E+00
        -0.17341E+00
        -0.17671E+00
        -0.14708E+00
        -0.18706E+00
        -0.16321E+00
        -0.98265E-01
        -0.11632E+00
        -0.13064E+00
        -0.13231E+00
        -0.13695E+00
        -0.13615E+00
        -0.12682E+00
        -0.13310E+00
        -0.13257E+00
        -0.12429E+00
        -0.11383E+00
        -0.98734E-01
        -0.11244E+00
        -0.12509E+00
        -0.12828E+00
        -0.11877E+00
        -0.10169E+00
        -0.11407E+00
        -0.69622E-01
        -0.68380E-01
        -0.71405E-01
        -0.79162E-01
        -0.84232E-01
        -0.85546E-01
        -0.87703E-01
        -0.94662E-01
        -0.96121E-01
        -0.90941E-01
        -0.86807E-01
        -0.85596E-01
        -0.86660E-01
        -0.83359E-01
        -0.78858E-01
        -0.76253E-01
        -0.69496E-01
        -0.64651E-01
        -0.62804E-01
        -0.64633E-01
        -0.72875E-01
        -0.75242E-01
        -0.71445E-01
        -0.71880E-01
        -0.69221E-01
        -0.68864E-01
         0.75698E-01
         0.36187E-01
         0.19170E-01
         0.55144E-01
        -0.17888E-01
        -0.48104E-02
         0.27686E-01
         0.51888E-01
         0.92886E-01
         0.61214E-01
         0.12237E-01
        -0.17997E-01
        -0.10997E-01
         0.21821E-01
        -0.15085E-01
         0.66762E-01
         0.70932E-01
         0.89529E-01
         0.31628E-01
         0.35062E-01
        -0.72358E-02
        -0.60220E-02
        -0.92215E-02
         0.21377E-01
         0.52362E-01
         0.26446E-01
         0.28385E-01
         0.26558E-01
         0.14109E-01
         0.30234E-01
         0.41127E-01
         0.10188E-01
         0.45089E-01
         0.20086E-01
        -0.34707E-01
        -0.20745E-01
        -0.89832E-02
        -0.88835E-02
        -0.67620E-02
        -0.13288E-01
        -0.23644E-01
        -0.11164E-01
        -0.47872E-02
        -0.10903E-01
        -0.20964E-01
        -0.34074E-01
        -0.20428E-01
        -0.60669E-02
        -0.44290E-02
        -0.17235E-01
        -0.29673E-01
        -0.14168E-01
        -0.57514E-01
        -0.52969E-01
        -0.56393E-01
        -0.51827E-01
        -0.55787E-01
        -0.56959E-01
        -0.51958E-01
        -0.53274E-01
        -0.51108E-01
        -0.57515E-01
        -0.58606E-01
        -0.55019E-01
        -0.51691E-01
        -0.55482E-01
        -0.53538E-01
        -0.53299E-01
        -0.48769E-01
        -0.51367E-01
        -0.58862E-01
        -0.50726E-01
        -0.45422E-01
        -0.46749E-01
        -0.53132E-01
        -0.57873E-01
        -0.53155E-01
        -0.50975E-01
        -0.18585E+00
        -0.15115E+00
        -0.13128E+00
        -0.16795E+00
        -0.94447E-01
        -0.10634E+00
        -0.14613E+00
        -0.16798E+00
        -0.19128E+00
        -0.17388E+00
        -0.13006E+00
        -0.10087E+00
        -0.10781E+00
        -0.13700E+00
        -0.10156E+00
        -0.17308E+00
        -0.17446E+00
        -0.18733E+00
        -0.14693E+00
        -0.14836E+00
        -0.10943E+00
        -0.11192E+00
        -0.10779E+00
        -0.13688E+00
        -0.16372E+00
        -0.14200E+00
        -0.14242E+00
        -0.14001E+00
        -0.12548E+00
        -0.14202E+00
        -0.14700E+00
        -0.12089E+00
        -0.15220E+00
        -0.13303E+00
        -0.79007E-01
        -0.92042E-01
        -0.10475E+00
        -0.10603E+00
        -0.10602E+00
        -0.10067E+00
        -0.91328E-01
        -0.10117E+00
        -0.10999E+00
        -0.10447E+00
        -0.90075E-01
        -0.75347E-01
        -0.87925E-01
        -0.10359E+00
        -0.10615E+00
        -0.94765E-01
        -0.81148E-01
        -0.95526E-01
        -0.56956E-01
        -0.56246E-01
        -0.61178E-01
        -0.63934E-01
        -0.64209E-01
        -0.63543E-01
        -0.63470E-01
        -0.68982E-01
        -0.63098E-01
        -0.64175E-01
        -0.64144E-01
        -0.62859E-01
        -0.65425E-01
        -0.64146E-01
        -0.63247E-01
        -0.61712E-01
        -0.58076E-01
        -0.56769E-01
        -0.54618E-01
        -0.56082E-01
        -0.65480E-01
        -0.65266E-01
        -0.58760E-01
        -0.57401E-01
        -0.57340E-01
        -0.58249E-01
         0.83166E-01
         0.45943E-01
         0.34680E-01
         0.69248E-01
         0.24434E-02
         0.12477E-01
         0.44662E-01
         0.65314E-01
         0.10510E+00
         0.74400E-01
         0.35611E-01
         0.80357E-02
         0.86052E-02
         0.41466E-01
         0.99019E-02
         0.81743E-01
         0.84840E-01
         0.10412E+00
         0.45427E-01
         0.48097E-01
         0.10669E-01
         0.15418E-01
         0.58981E-02
         0.36966E-01
         0.66890E-01
         0.42969E-01
         0.43112E-01
         0.42024E-01
         0.30432E-01
         0.43977E-01
         0.56120E-01
         0.25777E-01
         0.60790E-01
         0.37735E-01
        -0.12859E-01
        -0.11591E-02
         0.55830E-02
         0.12885E-01
         0.13465E-01
         0.72775E-02
        -0.32926E-02
         0.82880E-02
         0.16840E-01
         0.37185E-02
        -0.54266E-02
        -0.19374E-01
        -0.79057E-02
         0.47776E-02
         0.82456E-02
        -0.93509E-03
        -0.12159E-01
         0.31709E-02
        -0.39852E-01
        -0.35847E-01
        -0.31826E-01
        -0.25048E-01
        -0.27701E-01
        -0.28301E-01
        -0.21715E-01
        -0.22345E-01
        -0.25250E-01
        -0.26131E-01
        -0.31772E-01
        -0.24721E-01
        -0.22401E-01
        -0.29967E-01
        -0.31064E-01
        -0.36275E-01
        -0.31025E-01
        -0.32158E-01
        -0.42695E-01
        -0.36676E-01
        -0.29367E-01
        -0.28963E-01
        -0.35252E-01
        -0.40948E-01
        -0.36278E-01
        -0.33343E-01
        -0.14964E+00
        -0.13204E+00
        -0.11461E+00
        -0.12954E+00
        -0.84245E-01
        -0.88994E-01
        -0.13260E+00
        -0.13716E+00
        -0.14972E+00
        -0.12915E+00
        -0.12336E+00
        -0.10059E+00
        -0.10207E+00
        -0.12065E+00
        -0.10102E+00
        -0.14474E+00
        -0.12802E+00
        -0.15092E+00
        -0.11917E+00
        -0.11124E+00
        -0.10077E+00
        -0.10040E+00
        -0.99207E-01
        -0.12313E+00
        -0.12174E+00
        -0.12937E+00
        -0.11557E+00
        -0.11737E+00
        -0.11381E+00
        -0.11514E+00
        -0.12343E+00
        -0.10926E+00
        -0.11967E+00
        -0.10504E+00
        -0.73100E-01
        -0.85485E-01
        -0.96966E-01
        -0.99530E-01
        -0.99281E-01
        -0.94730E-01
        -0.83140E-01
        -0.95555E-01
        -0.10120E+00
        -0.95630E-01
        -0.83300E-01
        -0.69156E-01
        -0.76726E-01
        -0.82768E-01
        -0.86614E-01
        -0.83816E-01
        -0.75312E-01
        -0.82849E-01
        -0.49163E-01
        -0.50335E-01
        -0.54318E-01
        -0.60305E-01
        -0.57690E-01
        -0.55629E-01
        -0.59928E-01
        -0.60806E-01
        -0.55397E-01
        -0.51462E-01
        -0.44136E-01
        -0.55117E-01
        -0.59074E-01
        -0.61750E-01
        -0.60318E-01
        -0.54973E-01
        -0.55274E-01
        -0.52075E-01
        -0.50414E-01
        -0.58624E-01
        -0.61508E-01
        -0.63766E-01
        -0.59258E-01
        -0.53639E-01
        -0.53984E-01
        -0.53414E-01
         0.92395E-01
         0.52906E-01
         0.42111E-01
         0.75328E-01
         0.10009E-01
         0.18537E-01
         0.45010E-01
         0.68140E-01
         0.12509E+00
         0.86775E-01
         0.31823E-01
         0.10020E-01
         0.12540E-01
         0.37803E-01
         0.12261E-01
         0.91253E-01
         0.10288E+00
         0.11411E+00
         0.48626E-01
         0.52664E-01
         0.12861E-01
         0.17424E-01
         0.81317E-02
         0.38032E-01
         0.78272E-01
         0.44773E-01
         0.43944E-01
         0.43704E-01
         0.32071E-01
         0.47009E-01
         0.56687E-01
         0.29063E-01
         0.65081E-01
         0.48703E-01
        -0.11814E-02
         0.93682E-02
         0.13829E-01
         0.13185E-01
         0.11514E-01
         0.10004E-01
         0.50781E-02
         0.11193E-01
         0.16746E-01
         0.64685E-02
         0.10253E-02
        -0.79650E-02
         0.42483E-03
         0.79833E-02
         0.13485E-01
         0.10286E-01
        -0.10722E-02
         0.13472E-01
        -0.21433E-01
        -0.21276E-01
        -0.18128E-01
        -0.13929E-01
        -0.16262E-01
        -0.15710E-01
        -0.43417E-02
        -0.14823E-01
        -0.18614E-01
        -0.12657E-01
        -0.17685E-01
        -0.15013E-01
        -0.15200E-01
        -0.19380E-01
        -0.21735E-01
        -0.23886E-01
        -0.16657E-01
        -0.21040E-01
        -0.25462E-01
        -0.18255E-01
        -0.17601E-01
        -0.19923E-01
        -0.29765E-01
        -0.39730E-01
        -0.27940E-01
        -0.21019E-01
        -0.10235E+00
        -0.10558E+00
        -0.88528E-01
        -0.98082E-01
        -0.64645E-01
        -0.65319E-01
        -0.11374E+00
        -0.92784E-01
        -0.89345E-01
        -0.74191E-01
        -0.11049E+00
        -0.10657E+00
        -0.11331E+00
        -0.96733E-01
        -0.96634E-01
        -0.99574E-01
        -0.69969E-01
        -0.11206E+00
        -0.91588E-01
        -0.77310E-01
        -0.93679E-01
        -0.92586E-01
        -0.10013E+00
        -0.10688E+00
        -0.68668E-01
        -0.10790E+00
        -0.92845E-01
        -0.97596E-01
        -0.10540E+00
        -0.83356E-01
        -0.93265E-01
        -0.91922E-01
        -0.86050E-01
        -0.78032E-01
        -0.66137E-01
        -0.79273E-01
        -0.99214E-01
        -0.99296E-01
        -0.10998E+00
        -0.11619E+00
        -0.11467E+00
        -0.11337E+00
        -0.10381E+00
        -0.97578E-01
        -0.81618E-01
        -0.67451E-01
        -0.68735E-01
        -0.66882E-01
        -0.60089E-01
        -0.58058E-01
        -0.60611E-01
        -0.67030E-01
        -0.61020E-01
        -0.56182E-01
        -0.71070E-01
        -0.88528E-01
        -0.90163E-01
        -0.75889E-01
        -0.67659E-01
        -0.68208E-01
        -0.73490E-01
        -0.72397E-01
        -0.63366E-01
        -0.67081E-01
        -0.73247E-01
        -0.70956E-01
        -0.72734E-01
        -0.69818E-01
        -0.72547E-01
        -0.66420E-01
        -0.58900E-01
        -0.67605E-01
        -0.70083E-01
        -0.67433E-01
        -0.61426E-01
        -0.48977E-01
        -0.59174E-01
        -0.58310E-01
         0.15916E+00
         0.45613E-01
         0.46319E-01
         0.92487E-01
        -0.46593E-02
        -0.14644E-01
         0.92496E-02
         0.58956E-01
         0.20393E+00
         0.75750E-01
         0.66624E-02
         0.14119E-01
         0.34104E-02
         0.21281E-01
         0.18387E-01
         0.10010E+00
         0.10660E+00
         0.20042E+00
         0.24607E-01
         0.26351E-01
         0.26603E-01
         0.22832E-01
         0.16408E-01
         0.12557E-01
         0.46348E-01
         0.16586E-01
         0.26727E-01
         0.22777E-01
         0.14130E-01
         0.18316E-01
         0.46280E-01
         0.11802E-01
         0.46061E-01
         0.34498E-02
        -0.46905E-02
         0.19091E-02
        -0.13452E-04
         0.20121E-01
         0.24646E-01
         0.20347E-01
         0.14990E-01
         0.18631E-01
         0.21774E-01
         0.64371E-02
         0.36634E-02
        -0.82883E-02
        -0.12787E-01
        -0.12001E-01
        -0.64817E-02
        -0.10408E-01
        -0.15580E-01
        -0.17443E-01
        -0.49244E-02
        -0.22571E-01
        -0.80225E-03
        -0.34375E-03
         0.50904E-02
        -0.56955E-02
        -0.62545E-02
        -0.42015E-02
         0.48650E-02
         0.11352E-01
         0.60272E-02
         0.15006E-01
        -0.20150E-02
        -0.10025E-01
        -0.62843E-02
        -0.69386E-02
        -0.43136E-02
         0.29514E-02
        -0.61277E-02
        -0.10431E-01
        -0.15898E-01
        -0.15549E-01
        -0.14631E-01
        -0.28503E-01
        -0.24292E-01
        -0.28864E-01
        -0.66666E-01
        -0.81624E-01
        -0.10528E+00
        -0.71763E-01
        -0.11257E+00
        -0.13879E+00
        -0.63208E-01
        -0.47918E-01
        -0.54505E-01
        -0.49410E-01
        -0.65431E-01
        -0.86206E-01
        -0.10180E+00
        -0.80262E-01
        -0.83441E-01
        -0.58653E-01
        -0.54597E-01
        -0.57263E-01
        -0.65335E-01
        -0.75406E-01
        -0.99673E-01
        -0.96962E-01
        -0.94301E-01
        -0.71195E-01
        -0.58880E-01
        -0.73090E-01
        -0.10024E+00
        -0.74608E-01
        -0.60791E-01
        -0.79827E-01
        -0.95021E-01
        -0.79699E-01
        -0.96911E-01
        -0.83314E-01
        -0.78942E-01
        -0.75589E-01
        -0.10005E+00
        -0.98226E-01
        -0.95303E-01
        -0.73067E-01
        -0.77761E-01
        -0.90129E-01
        -0.10090E+00
        -0.81623E-01
        -0.77851E-01
        -0.69094E-01
        -0.76741E-01
        -0.10016E+00
        -0.13182E+00
        -0.11850E+00
        -0.11036E+00
        -0.11506E+00
        -0.11868E+00
        -0.14570E+00
        -0.12022E+00
        -0.12463E+00
        -0.12453E+00
        -0.10582E+00
        -0.11161E+00
        -0.10396E+00
        -0.12010E+00
        -0.12387E+00
        -0.97596E-01
        -0.11723E+00
        -0.10928E+00
        -0.12548E+00
        -0.13690E+00
        -0.12433E+00
        -0.11973E+00
        -0.11909E+00
        -0.85100E-01
        -0.11120E+00
        -0.13170E+00
        -0.15599E+00
        -0.15678E+00
        -0.14022E+00
        -0.15921E+00
        -0.16822E+00
         0.98106E-02
        -0.11265E+00
        -0.14024E+00
        -0.74431E-01
        -0.72155E-01
        -0.82874E-01
        -0.58820E-01
         0.16358E+00
         0.43107E+00
         0.38384E+00
        -0.16649E+00
        -0.26041E+00
        -0.15876E+00
        -0.51405E-01
        -0.30044E+00
         0.85758E-01
         0.44914E+00
         0.87066E-01
        -0.52895E-01
         0.88552E-01
        -0.29359E+00
        -0.32460E+00
        -0.23992E+00
        -0.18503E+00
         0.29858E+00
        -0.15423E+00
         0.45621E-01
        -0.85950E-01
        -0.27382E+00
        -0.35944E-01
        -0.10073E+00
        -0.15301E+00
         0.16580E-01
        -0.37950E-01
        -0.92284E-01
        -0.10468E+00
        -0.11704E+00
        -0.36323E+00
        -0.36763E+00
        -0.35572E+00
        -0.26398E+00
        -0.28441E+00
        -0.32470E+00
        -0.17021E+00
        -0.13750E+00
        -0.11308E+00
        -0.10605E+00
        -0.11532E+00
        -0.15569E+00
        -0.16361E+00
        -0.14685E+00
        -0.13291E+00
        -0.18464E-01
        -0.60184E-01
        -0.22438E-01
        -0.55960E-01
        -0.10887E+00
        -0.21867E+00
        -0.15851E+00
        -0.24889E+00
        -0.27390E+00
        -0.17891E+00
        -0.17252E-01
        -0.44542E-01
        -0.21811E+00
        -0.24700E+00
        -0.24594E+00
        -0.93192E-01
        -0.32807E-01
        -0.31543E-01
        -0.10479E+00
        -0.88309E-01
        -0.17913E+00
        -0.21441E+00
        -0.25712E+00
        -0.11958E+00
        -0.13769E+00
        -0.12531E+00
  
SCALARS                      strain_yz  double 1
LOOKUP_TABLE default
         0.81394E-01
         0.21867E+00
         0.10052E-01
        -0.17533E+00
         0.10749E-09
         0.51865E-11
         0.36296E-09
        -0.28599E-09
        -0.47515E-02
        -0.10890E+00
        -0.16091E-09
        -0.62786E-09
         0.39697E+00
         0.33681E+00
         0.13937E-08
         0.93708E-09
         0.26980E-01
         0.28836E+00
        -0.13947E-09
         0.54252E-09
         0.47538E+00
         0.57396E+00
         0.44258E+00
         0.17267E-08
         0.15032E-08
         0.10070E-08
         0.49817E+00
         0.70999E+00
         0.17783E-08
         0.13608E-08
        -0.46990E+00
        -0.31130E-01
        -0.46493E+00
        -0.73575E-09
         0.11366E-09
        -0.43252E-09
        -0.26668E+00
        -0.56929E-01
         0.28249E-10
         0.27950E-09
        -0.22735E+00
        -0.78792E-01
        -0.15652E-09
         0.94768E-10
        -0.25603E+00
        -0.33622E+00
        -0.60907E-09
        -0.73826E-09
         0.18641E+00
         0.56085E-09
        -0.43103E+00
        -0.63742E-09
         0.43436E+00
         0.11883E-08
         0.31617E+00
         0.10845E-08
         0.22012E+00
         0.67148E-01
         0.45368E-09
         0.43239E-09
        -0.60742E+00
        -0.62912E+00
        -0.80934E-09
        -0.88855E-09
        -0.51521E+00
        -0.74597E-09
        -0.38889E+00
        -0.42083E-09
         0.53544E-01
         0.13588E+00
         0.12248E-09
         0.65062E-09
         0.25748E+00
         0.10429E-08
         0.71079E+00
         0.10188E-08
         0.57766E+00
         0.92226E-09
         0.42539E+00
         0.80789E-09
         0.32695E+00
         0.19614E+00
         0.60613E-09
         0.29563E-09
         0.41056E-01
         0.11016E-09
        -0.34168E+00
        -0.10407E-08
        -0.53391E+00
        -0.97377E-09
        -0.64227E+00
        -0.68857E+00
        -0.13433E-08
        -0.12831E-08
        -0.62114E+00
        -0.11387E-08
        -0.51310E+00
        -0.11366E-08
        -0.39756E+00
        -0.11878E-08
        -0.32614E+00
        -0.24902E+00
        -0.95791E-09
        -0.38412E-09
         0.75009E-01
        -0.40269E-01
         0.15539E-09
        -0.27619E-10
         0.16740E+00
         0.48120E-09
         0.20631E+00
         0.97533E-09
         0.52211E+00
         0.11574E-08
         0.60870E+00
         0.12860E-08
         0.74047E+00
         0.10107E-08
         0.71253E+00
         0.87325E-09
         0.62675E+00
         0.78012E-09
         0.35026E+00
         0.73428E-09
         0.18329E+00
         0.48435E-09
        -0.56660E-01
         0.30912E-09
        -0.74520E-01
         0.12748E-09
        -0.65338E-01
         0.40743E-10
        -0.10806E+00
        -0.11434E-09
        -0.18015E+00
        -0.37365E-09
        -0.31454E+00
        -0.65183E-09
        -0.39783E+00
        -0.98975E-09
        -0.51862E+00
        -0.11646E-08
        -0.60249E+00
        -0.10627E-08
        -0.63468E+00
        -0.10177E-08
        -0.51483E+00
        -0.10091E-08
        -0.28205E+00
        -0.97275E-09
        -0.19975E+00
        -0.88568E-09
        -0.85825E-01
        -0.65965E-09
        -0.51299E-01
        -0.21830E-09
         0.58348E-01
         0.12104E+00
        -0.91422E-02
        -0.10511E+00
        -0.26370E-01
        -0.37833E-01
         0.12765E+00
         0.20489E+00
        -0.19264E-01
         0.15006E+00
         0.30577E-01
        -0.27088E-01
        -0.17163E-01
         0.50247E-01
         0.30037E-01
        -0.27842E+00
        -0.39254E-01
        -0.21467E+00
        -0.14018E+00
        -0.68853E-01
        -0.14109E+00
        -0.83988E-01
        -0.90887E-01
        -0.18311E+00
         0.63849E-01
        -0.22558E+00
         0.59463E-01
         0.40400E-01
         0.20056E-02
        -0.20137E-02
        -0.37462E+00
        -0.27080E+00
        -0.32234E+00
        -0.21915E+00
        -0.10071E-01
        -0.18737E-01
        -0.29285E-01
         0.46912E-01
        -0.13286E-01
        -0.40447E-01
         0.24552E-01
        -0.20893E-02
        -0.42192E-01
        -0.84206E-01
        -0.14320E+00
        -0.16716E+00
        -0.20567E+00
        -0.19969E+00
        -0.17591E+00
        -0.12887E+00
        -0.13453E+00
        -0.88517E-01
         0.32060E-01
        -0.45360E-01
        -0.16707E-01
        -0.10727E+00
         0.47049E-01
         0.15983E+00
         0.31944E+00
         0.29013E+00
         0.18468E+00
         0.85154E-02
         0.80955E-01
        -0.39940E-01
        -0.67406E-01
        -0.94840E-01
        -0.92790E-01
         0.29035E-01
         0.42375E-02
        -0.63703E-01
        -0.48974E-01
        -0.91692E-01
        -0.97896E-01
        -0.90557E-01
        -0.35698E-02
        -0.86387E-01
        -0.33451E-01
         0.13806E-01
         0.95518E-01
         0.29894E+00
         0.61088E-01
        -0.16035E+00
        -0.26955E-01
        -0.13609E+00
         0.46073E+00
         0.38733E+00
        -0.29623E-01
         0.27167E+00
         0.45438E+00
         0.42828E+00
         0.43005E+00
         0.43492E+00
         0.47329E+00
        -0.34031E+00
        -0.62060E-01
        -0.28391E+00
        -0.18181E+00
        -0.31411E-01
        -0.22040E+00
        -0.34527E-01
        -0.31376E+00
        -0.34441E+00
         0.17782E+00
        -0.44489E+00
         0.40951E+00
         0.36499E+00
         0.29082E+00
         0.12855E+00
        -0.58977E+00
        -0.55502E+00
        -0.49380E+00
        -0.35788E+00
         0.10318E+00
         0.19228E+00
         0.31525E+00
         0.48213E+00
         0.41051E+00
         0.34130E+00
         0.32700E+00
         0.24437E+00
         0.10193E+00
        -0.40758E+00
        -0.46704E+00
        -0.48890E+00
        -0.58538E+00
        -0.62671E+00
        -0.56749E+00
        -0.43788E+00
        -0.37153E+00
        -0.26278E+00
         0.13230E+00
        -0.64854E-01
         0.21806E+00
         0.22258E+00
         0.32973E+00
         0.36035E+00
         0.38000E+00
         0.46649E+00
         0.38726E+00
         0.24160E+00
         0.21230E+00
         0.77873E-01
         0.31579E-01
        -0.84673E-01
        -0.16582E+00
        -0.11967E+00
        -0.20499E+00
        -0.27143E+00
        -0.36799E+00
        -0.51577E+00
        -0.48041E+00
        -0.44198E+00
        -0.32606E+00
        -0.28500E+00
        -0.15408E+00
        -0.95185E-01
         0.12012E+00
         0.16671E+00
         0.38570E-01
        -0.75880E-01
        -0.21239E-02
        -0.83000E-01
         0.22102E+00
         0.24551E+00
         0.57665E-01
         0.20359E+00
         0.15763E+00
         0.19283E+00
         0.23381E+00
         0.14588E+00
         0.18947E+00
        -0.17778E+00
        -0.61041E-02
        -0.12589E+00
        -0.81538E-01
        -0.13703E-03
        -0.12125E+00
        -0.82707E-02
        -0.16674E+00
        -0.16721E+00
         0.13612E+00
        -0.20087E+00
         0.15997E+00
         0.15810E+00
         0.14218E+00
         0.92105E-01
        -0.29520E+00
        -0.24957E+00
        -0.25393E+00
        -0.17884E+00
         0.10416E+00
         0.14018E+00
         0.18181E+00
         0.20687E+00
         0.16672E+00
         0.16768E+00
         0.23471E+00
         0.16295E+00
         0.73228E-01
        -0.22005E+00
        -0.28467E+00
        -0.35404E+00
        -0.35950E+00
        -0.34671E+00
        -0.29239E+00
        -0.24851E+00
        -0.26590E+00
        -0.17288E+00
         0.17079E+00
        -0.35839E-01
         0.34060E+00
         0.35103E+00
         0.48976E+00
         0.52658E+00
         0.53814E+00
         0.55322E+00
         0.49840E+00
         0.42578E+00
         0.39783E+00
         0.26049E+00
         0.13002E+00
        -0.39231E-01
        -0.17698E+00
        -0.20701E+00
        -0.33396E+00
        -0.43691E+00
        -0.44192E+00
        -0.58907E+00
        -0.55828E+00
        -0.46079E+00
        -0.40732E+00
        -0.33982E+00
        -0.25971E+00
        -0.13661E+00
         0.25729E-01
         0.23110E+00
         0.70527E-01
        -0.95999E-01
         0.80378E-02
        -0.14158E+00
         0.41325E+00
         0.24062E+00
        -0.71905E-01
         0.82028E-01
         0.45134E+00
         0.48444E+00
         0.48174E+00
         0.39885E+00
         0.50051E+00
        -0.15551E+00
        -0.70109E-01
        -0.79674E-01
        -0.13912E+00
        -0.15539E-01
        -0.17458E+00
         0.98252E-02
        -0.29988E+00
        -0.27750E+00
         0.90372E-01
        -0.33512E+00
         0.35116E+00
         0.34258E+00
         0.33745E+00
         0.14340E+00
        -0.37682E+00
        -0.42480E+00
        -0.30062E+00
        -0.26499E+00
         0.15837E+00
         0.24568E+00
         0.36045E+00
         0.52617E+00
         0.49185E+00
         0.45130E+00
         0.44409E+00
         0.33682E+00
         0.16932E+00
        -0.41068E+00
        -0.48756E+00
        -0.54582E+00
        -0.57018E+00
        -0.57355E+00
        -0.50101E+00
        -0.44102E+00
        -0.42003E+00
        -0.29063E+00
         0.20466E+00
        -0.25017E-01
         0.43529E+00
         0.53470E+00
         0.67733E+00
         0.67115E+00
         0.63925E+00
         0.67455E+00
         0.66649E+00
         0.57469E+00
         0.49217E+00
         0.37729E+00
         0.20839E+00
        -0.16905E-01
        -0.23131E+00
        -0.34758E+00
        -0.47754E+00
        -0.62666E+00
        -0.62008E+00
        -0.74484E+00
        -0.77303E+00
        -0.69356E+00
        -0.62699E+00
        -0.46917E+00
        -0.36367E+00
        -0.19575E+00
         0.12690E-02
         0.10019E+00
         0.47195E-01
        -0.21751E-01
         0.34625E-01
        -0.11097E+00
         0.22893E+00
         0.82809E-01
         0.49721E-02
         0.17602E-01
         0.27974E+00
         0.41344E+00
         0.40126E+00
         0.20243E+00
         0.41302E+00
        -0.31257E-01
        -0.15627E-01
         0.31881E-01
        -0.76019E-01
        -0.21681E-02
        -0.13592E+00
         0.15703E-01
        -0.22599E+00
        -0.16298E+00
         0.51310E-01
        -0.16278E+00
         0.16965E+00
         0.18271E+00
         0.21713E+00
         0.10764E+00
        -0.14088E+00
        -0.25360E+00
        -0.93436E-01
        -0.12554E+00
         0.16458E+00
         0.19895E+00
         0.28880E+00
         0.40908E+00
         0.37522E+00
         0.36693E+00
         0.41063E+00
         0.29129E+00
         0.14624E+00
        -0.31612E+00
        -0.45710E+00
        -0.57308E+00
        -0.49687E+00
        -0.42656E+00
        -0.36271E+00
        -0.35878E+00
        -0.38904E+00
        -0.24503E+00
         0.24731E+00
        -0.16275E-02
         0.47029E+00
         0.61746E+00
         0.74713E+00
         0.73098E+00
         0.71785E+00
         0.73297E+00
         0.74574E+00
         0.70529E+00
         0.62385E+00
         0.46882E+00
         0.21394E+00
        -0.15203E-01
        -0.22493E+00
        -0.39431E+00
        -0.57750E+00
        -0.79473E+00
        -0.76432E+00
        -0.86822E+00
        -0.90568E+00
        -0.79389E+00
        -0.72551E+00
        -0.55763E+00
        -0.43283E+00
        -0.23267E+00
         0.48087E-01
         0.13772E+00
         0.66442E-01
        -0.40937E-01
         0.44885E-01
        -0.11253E+00
         0.27975E+00
         0.18218E+00
         0.18031E-02
         0.88302E-01
         0.32588E+00
         0.42240E+00
         0.41024E+00
         0.28431E+00
         0.42663E+00
        -0.12399E+00
        -0.43689E-01
        -0.53525E-01
        -0.13137E+00
        -0.19645E-01
        -0.16121E+00
        -0.52552E-02
        -0.24480E+00
        -0.21631E+00
         0.72430E-01
        -0.22515E+00
         0.25346E+00
         0.24499E+00
         0.25898E+00
         0.11195E+00
        -0.22020E+00
        -0.29116E+00
        -0.19062E+00
        -0.17888E+00
         0.16324E+00
         0.19418E+00
         0.29112E+00
         0.43421E+00
         0.41779E+00
         0.39975E+00
         0.42144E+00
         0.30601E+00
         0.13872E+00
        -0.31750E+00
        -0.43854E+00
        -0.53933E+00
        -0.47891E+00
        -0.43217E+00
        -0.39249E+00
        -0.38966E+00
        -0.39382E+00
        -0.25068E+00
         0.21882E+00
         0.99948E-02
         0.39625E+00
         0.59967E+00
         0.73196E+00
         0.75164E+00
         0.79253E+00
         0.77567E+00
         0.75618E+00
         0.65961E+00
         0.57785E+00
         0.46759E+00
         0.20954E+00
        -0.26041E-01
        -0.23432E+00
        -0.39878E+00
        -0.55522E+00
        -0.74675E+00
        -0.72380E+00
        -0.81133E+00
        -0.87395E+00
        -0.79160E+00
        -0.69152E+00
        -0.54018E+00
        -0.43954E+00
        -0.22936E+00
        -0.28636E-01
         0.10268E-01
         0.41706E-01
         0.37463E-01
         0.63425E-01
        -0.53189E-01
         0.69379E-01
        -0.16258E-01
        -0.10199E-01
        -0.55513E-01
         0.99288E-01
         0.25226E+00
         0.24843E+00
         0.50525E-01
         0.26101E+00
         0.35117E-01
        -0.83308E-02
         0.94920E-01
        -0.27697E-01
        -0.12943E-01
        -0.10607E+00
        -0.33019E-03
        -0.14905E+00
        -0.86996E-01
        -0.29784E-01
        -0.62367E-01
         0.40348E-01
         0.59094E-01
         0.11542E+00
         0.36050E-01
        -0.50033E-02
        -0.12329E+00
         0.24662E-01
        -0.23576E-01
         0.13592E+00
         0.10960E+00
         0.16448E+00
         0.27899E+00
         0.26652E+00
         0.26456E+00
         0.32343E+00
         0.22413E+00
         0.10190E+00
        -0.19354E+00
        -0.33338E+00
        -0.47156E+00
        -0.33926E+00
        -0.23582E+00
        -0.20992E+00
        -0.24479E+00
        -0.29258E+00
        -0.15894E+00
         0.21321E+00
         0.20950E-01
         0.31745E+00
         0.52172E+00
         0.62050E+00
         0.68104E+00
         0.76799E+00
         0.73712E+00
         0.68783E+00
         0.59123E+00
         0.52586E+00
         0.41849E+00
         0.16921E+00
        -0.24396E-01
        -0.18390E+00
        -0.33656E+00
        -0.50222E+00
        -0.70956E+00
        -0.74289E+00
        -0.77290E+00
        -0.75895E+00
        -0.68887E+00
        -0.61506E+00
        -0.52325E+00
        -0.39912E+00
        -0.20955E+00
         0.65445E-01
         0.11112E+00
         0.73495E-01
        -0.17372E-01
         0.63724E-01
        -0.65493E-01
         0.21832E+00
         0.19615E+00
         0.71820E-02
         0.13444E+00
         0.24056E+00
         0.24963E+00
         0.24249E+00
         0.24597E+00
         0.26977E+00
        -0.15560E+00
        -0.17206E-01
        -0.75523E-01
        -0.10647E+00
        -0.51908E-02
        -0.11492E+00
        -0.16690E-02
        -0.15432E+00
        -0.18234E+00
         0.96604E-01
        -0.19741E+00
         0.23671E+00
         0.20734E+00
         0.18345E+00
         0.96586E-01
        -0.21382E+00
        -0.22545E+00
        -0.18459E+00
        -0.14284E+00
         0.11072E+00
         0.84978E-01
         0.14889E+00
         0.28952E+00
         0.28081E+00
         0.24210E+00
         0.24302E+00
         0.19238E+00
         0.92772E-01
        -0.17544E+00
        -0.26394E+00
        -0.33481E+00
        -0.28677E+00
        -0.25083E+00
        -0.25023E+00
        -0.24911E+00
        -0.24777E+00
        -0.16944E+00
         0.14442E+00
         0.21797E-01
         0.17747E+00
         0.34149E+00
         0.39524E+00
         0.42845E+00
         0.48610E+00
         0.45051E+00
         0.43482E+00
         0.33376E+00
         0.29098E+00
         0.24400E+00
         0.98147E-01
        -0.10365E-01
        -0.10401E+00
        -0.20605E+00
        -0.29734E+00
        -0.40803E+00
        -0.44200E+00
        -0.47061E+00
        -0.48189E+00
        -0.45048E+00
        -0.37837E+00
        -0.33845E+00
        -0.28159E+00
        -0.14810E+00
        -0.28500E-01
        -0.32639E-01
         0.16501E-01
         0.29694E-01
         0.51466E-01
        -0.75456E-02
        -0.92081E-02
        -0.31418E-01
        -0.11968E-01
        -0.55993E-01
        -0.15224E-01
         0.17958E-01
         0.36425E-01
        -0.24732E-01
         0.38133E-01
         0.24413E-01
         0.23943E-02
         0.54196E-01
         0.47783E-02
        -0.84404E-02
        -0.29322E-01
         0.74824E-03
        -0.16919E-01
        -0.20030E-01
        -0.38670E-01
         0.93796E-02
        -0.25856E-01
        -0.19143E-01
         0.88063E-02
        -0.83611E-03
         0.23113E-01
         0.18259E-02
         0.24371E-01
         0.75340E-02
         0.46285E-01
        -0.12160E-01
        -0.34650E-03
         0.62564E-01
         0.62603E-01
         0.53285E-01
         0.91829E-01
         0.64746E-01
         0.24092E-01
        -0.41158E-02
        -0.71092E-01
        -0.14256E+00
        -0.68885E-01
        -0.13100E-01
        -0.18419E-01
        -0.48698E-01
        -0.85731E-01
        -0.52284E-01
         0.75233E-01
        -0.58190E-02
         0.87613E-01
         0.21113E+00
         0.21174E+00
         0.22863E+00
         0.33794E+00
         0.30556E+00
         0.29692E+00
         0.23053E+00
         0.18623E+00
         0.15226E+00
         0.55408E-01
         0.55901E-02
        -0.46702E-01
        -0.11226E+00
        -0.19784E+00
        -0.27421E+00
        -0.30339E+00
        -0.33461E+00
        -0.30218E+00
        -0.26388E+00
        -0.19661E+00
        -0.17332E+00
        -0.14463E+00
        -0.93288E-01
         0.51871E-01
         0.71982E-01
         0.45351E-01
        -0.16727E-01
         0.43682E-01
        -0.32009E-01
         0.14341E+00
         0.14443E+00
         0.17615E-01
         0.10509E+00
         0.14139E+00
         0.10003E+00
         0.11057E+00
         0.16038E+00
         0.12758E+00
        -0.12667E+00
        -0.49653E-02
        -0.68544E-01
        -0.75543E-01
        -0.54362E-02
        -0.67051E-01
         0.11458E-01
        -0.72569E-01
        -0.12780E+00
         0.72889E-01
        -0.13209E+00
         0.16336E+00
         0.13867E+00
         0.10280E+00
         0.57142E-01
        -0.16912E+00
        -0.13859E+00
        -0.14886E+00
        -0.98519E-01
         0.36261E-01
         0.85222E-02
         0.52200E-01
         0.14565E+00
         0.14052E+00
         0.10904E+00
         0.10179E+00
         0.89372E-01
         0.49876E-01
        -0.61558E-01
        -0.10525E+00
        -0.11897E+00
        -0.11032E+00
        -0.99729E-01
        -0.10751E+00
        -0.99722E-01
        -0.95355E-01
        -0.85337E-01
         0.28267E-01
        -0.11389E-01
         0.35734E-01
         0.12949E+00
         0.12041E+00
         0.11608E+00
         0.18340E+00
         0.12946E+00
         0.13082E+00
         0.93020E-01
         0.69906E-01
         0.66486E-01
         0.21982E-01
         0.95334E-02
        -0.17823E-01
        -0.48227E-01
        -0.95336E-01
        -0.11523E+00
        -0.10108E+00
        -0.14547E+00
        -0.15204E+00
        -0.14771E+00
        -0.96262E-01
        -0.76882E-01
        -0.77564E-01
        -0.53530E-01
        -0.30942E-01
        -0.40080E-01
        -0.65468E-03
         0.25291E-01
         0.29255E-01
         0.59303E-02
        -0.36696E-01
        -0.53017E-01
        -0.76862E-02
        -0.76856E-01
        -0.64273E-01
        -0.75007E-01
        -0.37669E-01
        -0.73296E-01
        -0.69807E-01
         0.45134E-01
         0.50361E-02
         0.58379E-01
         0.27656E-01
        -0.85895E-02
         0.18928E-02
         0.74678E-02
         0.26934E-01
         0.10545E-01
        -0.61535E-01
         0.44463E-01
        -0.76268E-01
        -0.67049E-01
        -0.42927E-01
        -0.30352E-01
         0.43915E-01
         0.54063E-01
         0.36500E-01
         0.28375E-01
         0.13754E-02
        -0.43805E-01
        -0.47458E-01
        -0.48702E-01
        -0.37214E-01
        -0.35035E-01
        -0.28538E-03
        -0.26309E-03
        -0.75824E-02
         0.61976E-01
         0.38888E-01
         0.23189E-01
         0.50515E-01
         0.65480E-01
         0.48414E-01
         0.33003E-01
         0.84889E-02
        -0.61670E-03
         0.70098E-02
        -0.76881E-02
         0.53129E-02
         0.52459E-01
         0.41722E-01
         0.32234E-01
         0.74621E-01
         0.47737E-01
         0.68217E-01
         0.34736E-01
         0.12298E-01
         0.31116E-01
         0.81938E-02
         0.12034E-01
         0.83843E-02
        -0.47753E-02
        -0.41877E-01
        -0.59092E-01
        -0.19467E-01
        -0.66868E-01
        -0.67450E-01
        -0.51523E-01
        -0.15585E-01
        -0.27776E-02
        -0.26589E-01
        -0.20506E-01
         0.43016E-01
         0.69005E-01
         0.37015E-01
        -0.14059E-01
         0.28261E-01
        -0.24525E-01
         0.12731E+00
         0.12022E+00
         0.22136E-01
         0.80485E-01
         0.11540E+00
         0.57346E-01
         0.77433E-01
         0.12965E+00
         0.76808E-01
        -0.10049E+00
         0.78523E-03
        -0.48560E-01
        -0.61541E-01
        -0.98630E-02
        -0.49324E-01
         0.56179E-02
        -0.49395E-01
        -0.10784E+00
         0.55739E-01
        -0.11060E+00
         0.12568E+00
         0.10341E+00
         0.72874E-01
         0.37624E-01
        -0.14573E+00
        -0.11202E+00
        -0.12827E+00
        -0.81774E-01
         0.12813E-01
         0.13091E-02
         0.36522E-01
         0.92561E-01
         0.88160E-01
         0.64907E-01
         0.62479E-01
         0.58053E-01
         0.25529E-01
        -0.37395E-01
        -0.66596E-01
        -0.57245E-01
        -0.62615E-01
        -0.64971E-01
        -0.74453E-01
        -0.62118E-01
        -0.56352E-01
        -0.59105E-01
        -0.68325E-02
        -0.20588E-01
         0.10573E-01
         0.62461E-01
         0.67970E-01
         0.57547E-01
         0.81612E-01
         0.35711E-01
         0.46702E-01
         0.21487E-01
         0.36152E-02
         0.26987E-01
         0.68762E-02
         0.10240E-01
        -0.16467E-02
        -0.13033E-01
        -0.43232E-01
        -0.60854E-01
        -0.77166E-02
        -0.54192E-01
        -0.62328E-01
        -0.59978E-01
        -0.43435E-01
        -0.22761E-01
        -0.42785E-01
        -0.27755E-01
        -0.41203E-01
        -0.45051E-01
        -0.64982E-02
         0.25825E-01
         0.22470E-01
         0.10600E-01
        -0.49478E-01
        -0.64002E-01
        -0.15993E-01
        -0.86023E-01
        -0.82846E-01
        -0.10899E+00
        -0.69101E-01
        -0.88019E-01
        -0.99059E-01
         0.55581E-01
         0.37672E-02
         0.62807E-01
         0.31897E-01
        -0.78557E-02
         0.44392E-02
         0.78248E-02
         0.42563E-01
         0.24540E-01
        -0.72941E-01
         0.63071E-01
        -0.94268E-01
        -0.87833E-01
        -0.68514E-01
        -0.48547E-01
         0.56584E-01
         0.67110E-01
         0.47870E-01
         0.35576E-01
        -0.74631E-02
        -0.47122E-01
        -0.61686E-01
        -0.83453E-01
        -0.69791E-01
        -0.54319E-01
        -0.19006E-01
        -0.25428E-01
        -0.20850E-01
         0.83848E-01
         0.58270E-01
         0.48150E-01
         0.67262E-01
         0.78891E-01
         0.61368E-01
         0.45365E-01
         0.22468E-01
         0.10956E-01
        -0.33604E-02
        -0.50885E-02
        -0.30637E-02
         0.15515E-01
         0.21891E-02
        -0.15860E-01
         0.19561E-01
        -0.75951E-02
         0.91305E-02
         0.56295E-02
        -0.60697E-03
         0.18534E-01
         0.43606E-04
         0.12318E-01
         0.14825E-01
         0.19475E-01
        -0.49516E-02
        -0.24243E-01
         0.34807E-01
        -0.64034E-02
        -0.83419E-02
        -0.62301E-03
         0.58747E-02
         0.21126E-01
        -0.10407E-01
        -0.65845E-02
         0.49927E-01
         0.78689E-01
         0.43147E-01
        -0.11710E-01
         0.26682E-01
        -0.27277E-01
         0.13487E+00
         0.13399E+00
         0.23172E-01
         0.93211E-01
         0.11923E+00
         0.54509E-01
         0.73582E-01
         0.13352E+00
         0.68363E-01
        -0.98432E-01
         0.31394E-03
        -0.45415E-01
        -0.59651E-01
        -0.93873E-02
        -0.48182E-01
         0.11484E-02
        -0.50686E-01
        -0.10619E+00
         0.58350E-01
        -0.11094E+00
         0.12580E+00
         0.10389E+00
         0.72502E-01
         0.33991E-01
        -0.14406E+00
        -0.11689E+00
        -0.12459E+00
        -0.83650E-01
         0.18111E-01
         0.12154E-01
         0.39413E-01
         0.79548E-01
         0.81847E-01
         0.68681E-01
         0.64886E-01
         0.58531E-01
         0.22779E-01
        -0.42116E-01
        -0.74276E-01
        -0.65453E-01
        -0.71643E-01
        -0.74403E-01
        -0.81692E-01
        -0.67321E-01
        -0.59461E-01
        -0.61440E-01
        -0.11270E-02
        -0.18462E-01
         0.21182E-01
         0.60180E-01
         0.73017E-01
         0.64291E-01
         0.85945E-01
         0.52661E-01
         0.55588E-01
         0.26835E-01
        -0.14701E-02
         0.28810E-01
         0.61520E-02
         0.26077E-02
        -0.21789E-02
        -0.19383E-01
        -0.47884E-01
        -0.71211E-01
        -0.17983E-01
        -0.59222E-01
        -0.69095E-01
        -0.66241E-01
        -0.52783E-01
        -0.23395E-01
        -0.42666E-01
        -0.25871E-01
        -0.48477E-01
        -0.52145E-01
        -0.11343E-01
         0.30336E-01
         0.15044E-01
         0.13258E-01
        -0.64306E-01
        -0.72102E-01
        -0.28024E-01
        -0.89610E-01
        -0.10096E+00
        -0.13218E+00
        -0.89613E-01
        -0.99645E-01
        -0.12172E+00
         0.60116E-01
        -0.92596E-03
         0.67865E-01
         0.36505E-01
        -0.25613E-02
         0.14638E-01
         0.83964E-02
         0.55247E-01
         0.35995E-01
        -0.77580E-01
         0.80371E-01
        -0.10414E+00
        -0.10255E+00
        -0.86535E-01
        -0.54455E-01
         0.76777E-01
         0.90000E-01
         0.61172E-01
         0.45906E-01
        -0.15667E-01
        -0.52774E-01
        -0.71602E-01
        -0.10877E+00
        -0.96319E-01
        -0.77754E-01
        -0.39550E-01
        -0.43021E-01
        -0.30834E-01
         0.10211E+00
         0.77583E-01
         0.62257E-01
         0.85056E-01
         0.95450E-01
         0.72151E-01
         0.53576E-01
         0.34237E-01
         0.22750E-01
        -0.54782E-02
        -0.31284E-02
        -0.11482E-01
        -0.51272E-02
        -0.23084E-01
        -0.34037E-01
         0.20904E-02
        -0.29226E-01
        -0.15458E-01
        -0.11443E-01
        -0.64079E-02
         0.16914E-01
        -0.29198E-02
         0.85125E-02
         0.18287E-01
         0.24183E-01
         0.90920E-02
        -0.12328E-01
         0.34778E-01
         0.56238E-02
         0.16169E-01
         0.23616E-01
         0.20005E-01
         0.33192E-01
         0.22054E-02
         0.93300E-04
         0.57641E-01
         0.89353E-01
         0.51661E-01
        -0.59418E-02
         0.25747E-01
        -0.33303E-01
         0.14730E+00
         0.14917E+00
         0.21966E-01
         0.10864E+00
         0.13397E+00
         0.67901E-01
         0.82353E-01
         0.15181E+00
         0.81903E-01
        -0.10407E+00
        -0.12393E-02
        -0.41906E-01
        -0.66557E-01
        -0.40265E-02
        -0.55889E-01
         0.31116E-02
        -0.63114E-01
        -0.11572E+00
         0.71280E-01
        -0.11820E+00
         0.14512E+00
         0.11877E+00
         0.81247E-01
         0.45099E-01
        -0.14958E+00
        -0.12338E+00
        -0.13104E+00
        -0.91528E-01
         0.22225E-01
         0.23544E-01
         0.51166E-01
         0.89643E-01
         0.92685E-01
         0.77518E-01
         0.67728E-01
         0.62065E-01
         0.28719E-01
        -0.52684E-01
        -0.83911E-01
        -0.79873E-01
        -0.85091E-01
        -0.89627E-01
        -0.10034E+00
        -0.86057E-01
        -0.71574E-01
        -0.69858E-01
         0.23780E-02
        -0.19428E-01
         0.28834E-01
         0.65018E-01
         0.71090E-01
         0.80858E-01
         0.10926E+00
         0.62451E-01
         0.65145E-01
         0.36757E-01
         0.75251E-02
         0.26318E-01
         0.65843E-02
         0.26556E-02
        -0.97945E-02
        -0.31533E-01
        -0.65278E-01
        -0.87045E-01
        -0.44545E-01
        -0.83780E-01
        -0.83162E-01
        -0.78767E-01
        -0.67259E-01
        -0.32066E-01
        -0.46020E-01
        -0.31317E-01
        -0.61300E-01
        -0.65466E-01
        -0.18017E-01
         0.27026E-01
         0.11667E-01
         0.13729E-01
        -0.82098E-01
        -0.86093E-01
        -0.35620E-01
        -0.97002E-01
        -0.12647E+00
        -0.15997E+00
        -0.10595E+00
        -0.12121E+00
        -0.15280E+00
         0.70904E-01
        -0.19015E-02
         0.69436E-01
         0.47012E-01
        -0.26235E-02
         0.21789E-01
         0.66610E-02
         0.67612E-01
         0.51528E-01
        -0.81586E-01
         0.91576E-01
        -0.11364E+00
        -0.10745E+00
        -0.93790E-01
        -0.57241E-01
         0.86080E-01
         0.97992E-01
         0.71658E-01
         0.54639E-01
        -0.22968E-01
        -0.62182E-01
        -0.82174E-01
        -0.12469E+00
        -0.10122E+00
        -0.88556E-01
        -0.56920E-01
        -0.50849E-01
        -0.32837E-01
         0.11239E+00
         0.88426E-01
         0.76678E-01
         0.98013E-01
         0.11007E+00
         0.89697E-01
         0.69263E-01
         0.47767E-01
         0.30562E-01
        -0.17211E-01
        -0.87445E-02
        -0.28718E-01
        -0.16518E-01
        -0.34733E-01
        -0.45091E-01
        -0.79988E-02
        -0.42617E-01
        -0.21868E-01
        -0.17431E-01
        -0.24313E-01
         0.76190E-02
        -0.70990E-02
         0.23076E-02
         0.16888E-01
         0.26956E-01
         0.19255E-01
         0.91335E-02
         0.54470E-01
         0.23805E-01
         0.37763E-01
         0.43352E-01
         0.34912E-01
         0.45515E-01
         0.97185E-02
        -0.96528E-03
         0.57098E-01
         0.96099E-01
         0.52781E-01
        -0.61578E-02
         0.26251E-01
        -0.34285E-01
         0.16451E+00
         0.15997E+00
         0.15813E-01
         0.10339E+00
         0.15202E+00
         0.87756E-01
         0.10034E+00
         0.16766E+00
         0.10493E+00
        -0.10566E+00
        -0.32826E-02
        -0.37440E-01
        -0.70671E-01
        -0.16862E-02
        -0.59210E-01
         0.70761E-02
        -0.77397E-01
        -0.12824E+00
         0.66218E-01
        -0.13144E+00
         0.15075E+00
         0.11795E+00
         0.88844E-01
         0.51997E-01
        -0.14915E+00
        -0.13505E+00
        -0.12578E+00
        -0.92009E-01
         0.23059E-01
         0.27440E-01
         0.62945E-01
         0.11152E+00
         0.10663E+00
         0.88433E-01
         0.80807E-01
         0.72870E-01
         0.35839E-01
        -0.72045E-01
        -0.10240E+00
        -0.93643E-01
        -0.93702E-01
        -0.92192E-01
        -0.10275E+00
        -0.91491E-01
        -0.76707E-01
        -0.74151E-01
         0.57822E-03
        -0.22886E-01
         0.35047E-01
         0.79691E-01
         0.94980E-01
         0.12509E+00
         0.16488E+00
         0.95822E-01
         0.80025E-01
         0.54337E-01
         0.24596E-01
         0.33500E-01
         0.14821E-01
         0.24051E-02
        -0.19002E-01
        -0.44261E-01
        -0.88233E-01
        -0.10592E+00
        -0.52421E-01
        -0.91033E-01
        -0.96330E-01
        -0.95091E-01
        -0.80291E-01
        -0.38085E-01
        -0.47768E-01
        -0.32577E-01
        -0.79643E-01
        -0.96623E-01
        -0.36583E-01
         0.24178E-01
         0.80739E-02
         0.25191E-01
        -0.12130E+00
        -0.11935E+00
        -0.40437E-01
        -0.12929E+00
        -0.17463E+00
        -0.20508E+00
        -0.14784E+00
        -0.17210E+00
        -0.20308E+00
         0.10419E+00
        -0.54501E-02
         0.82373E-01
         0.67337E-01
        -0.12101E-01
         0.34298E-01
         0.54319E-02
         0.85004E-01
         0.81022E-01
        -0.11643E+00
         0.13148E+00
        -0.16592E+00
        -0.15585E+00
        -0.13375E+00
        -0.85723E-01
         0.12323E+00
         0.14458E+00
         0.10106E+00
         0.85185E-01
        -0.33098E-01
        -0.86352E-01
        -0.11878E+00
        -0.17787E+00
        -0.15022E+00
        -0.13144E+00
        -0.88518E-01
        -0.78281E-01
        -0.50087E-01
         0.14460E+00
         0.13486E+00
         0.13079E+00
         0.15157E+00
         0.15790E+00
         0.13610E+00
         0.11956E+00
         0.95648E-01
         0.62229E-01
        -0.24150E-01
        -0.80769E-02
        -0.50185E-01
        -0.45332E-01
        -0.59630E-01
        -0.63189E-01
        -0.26108E-01
        -0.66914E-01
        -0.38917E-01
        -0.34300E-01
        -0.41512E-01
        -0.28351E-02
        -0.72281E-02
         0.75537E-02
         0.17931E-01
         0.32395E-01
         0.39248E-01
         0.44585E-01
         0.10614E+00
         0.86575E-01
         0.92291E-01
         0.92479E-01
         0.81659E-01
         0.90973E-01
         0.38953E-01
         0.98488E-02
         0.57065E-01
         0.10434E+00
         0.60110E-01
        -0.13309E-01
         0.31602E-01
        -0.42195E-01
         0.17032E+00
         0.14653E+00
         0.22499E-01
         0.86592E-01
         0.15800E+00
         0.11220E+00
         0.12741E+00
         0.15879E+00
         0.12117E+00
        -0.93232E-01
         0.83187E-02
        -0.36559E-01
        -0.57887E-01
         0.28768E-02
        -0.55044E-01
         0.63234E-02
        -0.85541E-01
        -0.12604E+00
         0.58952E-01
        -0.14107E+00
         0.14392E+00
         0.12000E+00
         0.97371E-01
         0.53738E-01
        -0.17470E+00
        -0.16873E+00
        -0.14401E+00
        -0.11365E+00
         0.29765E-01
         0.37107E-01
         0.82460E-01
         0.13767E+00
         0.14352E+00
         0.12050E+00
         0.11998E+00
         0.98032E-01
         0.43384E-01
        -0.95765E-01
        -0.13803E+00
        -0.12982E+00
        -0.13334E+00
        -0.12516E+00
        -0.11476E+00
        -0.96409E-01
        -0.87163E-01
        -0.95088E-01
         0.69573E-02
        -0.13079E-01
         0.42719E-01
         0.12078E+00
         0.15255E+00
         0.18752E+00
         0.22283E+00
         0.13569E+00
         0.13633E+00
         0.12695E+00
         0.84048E-01
         0.72459E-01
         0.23635E-01
        -0.19442E-02
        -0.30131E-01
        -0.71337E-01
        -0.12423E+00
        -0.13588E+00
        -0.75226E-01
        -0.11131E+00
        -0.12314E+00
        -0.10510E+00
        -0.69680E-01
        -0.22329E-01
        -0.43539E-01
        -0.28252E-01
        -0.14833E+00
        -0.20973E+00
        -0.62546E-01
         0.85817E-01
         0.24464E-01
         0.72368E-01
        -0.22771E+00
        -0.22078E+00
        -0.82288E-01
        -0.22815E+00
        -0.23960E+00
        -0.26338E+00
        -0.24164E+00
        -0.23752E+00
        -0.25758E+00
         0.19246E+00
        -0.16818E-01
         0.20135E+00
         0.10258E+00
        -0.77482E-02
         0.66697E-01
        -0.25074E-02
         0.14388E+00
         0.13070E+00
        -0.17320E+00
         0.19385E+00
        -0.24385E+00
        -0.22100E+00
        -0.16236E+00
        -0.97753E-01
         0.25812E+00
         0.23193E+00
         0.24059E+00
         0.17257E+00
        -0.56767E-01
        -0.15228E+00
        -0.22698E+00
        -0.24611E+00
        -0.22027E+00
        -0.17688E+00
        -0.12452E+00
        -0.11355E+00
        -0.81286E-01
         0.21129E+00
         0.20899E+00
         0.21948E+00
         0.26554E+00
         0.29788E+00
         0.26685E+00
         0.20880E+00
         0.16827E+00
         0.12758E+00
        -0.47749E-01
        -0.41058E-02
        -0.10451E+00
        -0.14496E+00
        -0.19546E+00
        -0.18222E+00
        -0.12240E+00
        -0.15238E+00
        -0.15205E+00
        -0.10919E+00
        -0.67569E-01
        -0.26938E-01
        -0.18318E-01
         0.14930E-01
         0.51382E-01
         0.92517E-01
         0.13371E+00
         0.15029E+00
         0.19990E+00
         0.19888E+00
         0.22416E+00
         0.25253E+00
         0.23593E+00
         0.19000E+00
         0.11517E+00
         0.56202E-01
         0.66301E-01
         0.12182E+00
         0.89838E-01
         0.88976E-02
         0.50168E-01
        -0.87711E-01
         0.17624E+00
         0.13656E+00
         0.86427E-02
         0.11172E+00
         0.19056E+00
         0.20643E+00
         0.24054E+00
         0.21999E+00
         0.23072E+00
        -0.75634E-01
         0.23215E-01
        -0.28888E-01
        -0.64386E-01
         0.24145E-02
        -0.10008E+00
        -0.83966E-02
        -0.14768E+00
        -0.15394E+00
         0.10416E+00
        -0.18177E+00
         0.25061E+00
         0.19917E+00
         0.14308E+00
         0.81547E-01
        -0.25403E+00
        -0.23037E+00
        -0.25028E+00
        -0.20156E+00
         0.38236E-01
         0.46292E-01
         0.16534E+00
         0.27278E+00
         0.26004E+00
         0.18725E+00
         0.15722E+00
         0.15327E+00
         0.77587E-01
        -0.17010E+00
        -0.19489E+00
        -0.16108E+00
        -0.19383E+00
        -0.25665E+00
        -0.29185E+00
        -0.23625E+00
        -0.17525E+00
        -0.17392E+00
         0.26965E-01
        -0.46606E-02
         0.48560E-01
         0.15660E+00
         0.18326E+00
         0.15227E+00
         0.22540E+00
         0.16360E+00
         0.13146E+00
         0.73692E-01
         0.52313E-01
         0.85992E-01
         0.29266E-01
         0.91750E-02
        -0.28038E-01
        -0.72557E-01
        -0.11068E+00
        -0.14477E+00
        -0.89900E-01
        -0.18410E+00
        -0.23080E+00
        -0.21740E+00
        -0.12511E+00
        -0.58307E-01
        -0.89264E-01
        -0.76403E-01
        -0.32684E+00
        -0.34709E+00
        -0.12419E+00
         0.64812E-01
         0.22375E-01
         0.18485E+00
        -0.78781E+00
        -0.89974E+00
        -0.28352E+00
        -0.10059E+01
        -0.10451E+01
        -0.92553E+00
        -0.66278E+00
        -0.11380E+01
        -0.10017E+01
         0.64709E+00
        -0.26944E-02
         0.26677E+00
         0.47732E+00
        -0.45060E-01
         0.31097E+00
         0.34580E-01
         0.37483E+00
         0.53246E+00
        -0.87798E+00
         0.62565E+00
        -0.12221E+01
        -0.11388E+01
        -0.83535E+00
        -0.66008E+00
         0.57423E+00
         0.60212E+00
         0.53942E+00
         0.47050E+00
        -0.19018E+00
        -0.30618E+00
        -0.40348E+00
        -0.99120E+00
        -0.91302E+00
        -0.76780E+00
        -0.49905E+00
        -0.36945E+00
        -0.27345E+00
         0.45891E+00
         0.55549E+00
         0.73298E+00
         0.71855E+00
         0.70568E+00
         0.73367E+00
         0.72418E+00
         0.59926E+00
         0.37525E+00
        -0.25535E+00
         0.76853E-02
        -0.40843E+00
        -0.52827E+00
        -0.65371E+00
        -0.77177E+00
        -0.83119E+00
        -0.11206E+01
        -0.98995E+00
        -0.78437E+00
        -0.51499E+00
        -0.34291E+00
        -0.21579E+00
         0.43996E-01
         0.25354E+00
         0.34474E+00
         0.52458E+00
         0.71677E+00
         0.98244E+00
         0.10473E+01
         0.10861E+01
         0.94210E+00
         0.91623E+00
         0.73878E+00
         0.45853E+00
         0.28693E+00
  
SCALARS                      strain_xz  double 1
LOOKUP_TABLE default
         0.40465E+00
         0.51264E+00
         0.69844E+00
         0.51759E+00
         0.38138E-09
         0.12333E-08
         0.59223E-09
         0.70315E-09
         0.77156E+00
         0.66940E+00
         0.15797E-08
         0.12208E-08
         0.33774E+00
         0.19825E+00
         0.13366E-08
         0.23017E-09
         0.13144E+00
        -0.32873E-01
         0.13423E-09
        -0.33672E-09
         0.24235E+00
         0.25418E+00
         0.34618E+00
         0.90467E-10
         0.32703E-09
         0.10452E-08
         0.14165E+00
         0.11915E+00
        -0.39022E-09
        -0.38924E-10
        -0.22914E+00
        -0.31088E+00
         0.33024E+00
        -0.19760E-09
        -0.42041E-09
         0.27363E-09
        -0.57557E+00
        -0.55780E+00
        -0.12710E-08
        -0.12859E-08
        -0.58535E+00
        -0.68443E+00
        -0.12284E-08
        -0.10109E-08
        -0.46418E+00
        -0.51604E+00
        -0.10897E-08
        -0.15330E-08
        -0.27805E+00
        -0.78653E-09
        -0.37537E+00
        -0.88305E-09
        -0.54738E-01
        -0.66120E-09
        -0.18831E+00
        -0.57354E-09
        -0.37733E+00
        -0.46780E+00
        -0.82201E-09
        -0.10981E-08
         0.31039E-01
        -0.16101E+00
         0.26794E-09
        -0.10259E-09
         0.22076E+00
         0.69996E-10
         0.38131E+00
         0.67792E-09
         0.71943E+00
         0.67738E+00
         0.14330E-08
         0.14895E-08
         0.56299E+00
         0.90247E-09
        -0.87332E-01
        -0.14278E-09
        -0.20512E+00
        -0.30637E-09
        -0.36392E+00
        -0.51063E-09
        -0.48503E+00
        -0.59338E+00
        -0.88009E-09
        -0.87324E-09
        -0.67835E+00
        -0.88920E-09
        -0.36331E+00
        -0.91704E-09
        -0.22733E+00
        -0.89057E-09
        -0.13611E+00
        -0.63632E-01
        -0.51977E-09
         0.33181E-10
         0.34257E-01
         0.17526E-09
         0.15882E+00
         0.29198E-09
         0.29997E+00
         0.71254E-09
         0.37026E+00
         0.51948E+00
         0.14014E-08
         0.12138E-08
         0.62923E+00
         0.65658E+00
         0.11895E-08
         0.12130E-08
         0.47200E+00
         0.13057E-08
         0.50254E+00
         0.89576E-09
         0.25603E+00
         0.72398E-09
         0.17169E+00
         0.23068E-09
         0.68455E-01
         0.26705E-10
        -0.25918E-01
        -0.10992E-09
        -0.30846E-01
        -0.25473E-09
        -0.13814E+00
        -0.45752E-09
        -0.32128E+00
        -0.62057E-09
        -0.50496E+00
        -0.73203E-09
        -0.72244E+00
        -0.70194E-09
        -0.74945E+00
        -0.76574E-09
        -0.64824E+00
        -0.91351E-09
        -0.55352E+00
        -0.10043E-08
        -0.35320E+00
        -0.92532E-09
        -0.19301E+00
        -0.68359E-09
        -0.14411E+00
        -0.17361E-09
         0.92763E-01
        -0.26537E-09
         0.64204E-01
         0.15241E-09
         0.87645E-01
         0.37139E-09
         0.14632E+00
         0.73733E-09
         0.26795E+00
         0.76461E-09
         0.46465E+00
         0.11116E-08
         0.61582E+00
         0.11077E-08
         0.13621E+00
         0.20831E+00
         0.29977E+00
         0.24238E+00
         0.28223E+00
         0.21593E+00
         0.67003E-01
         0.91853E-01
         0.87299E-01
         0.14593E-01
         0.82977E-01
         0.82343E-01
        -0.15554E-02
         0.11414E+00
         0.78263E-01
        -0.15999E+00
        -0.18523E+00
         0.15516E+00
        -0.30029E+00
        -0.24010E+00
        -0.16876E+00
        -0.17089E+00
        -0.13461E+00
        -0.26334E+00
        -0.13910E+00
        -0.20558E+00
         0.22618E-01
        -0.62773E-01
        -0.74366E-01
        -0.14896E+00
         0.35374E-01
        -0.70265E-01
         0.13030E+00
         0.15133E+00
         0.22797E+00
         0.20800E+00
         0.15854E+00
        -0.20762E-01
        -0.52209E-01
        -0.59656E-01
        -0.33895E-01
        -0.22524E-01
        -0.10427E+00
        -0.82581E-01
        -0.40026E-01
        -0.28355E-01
         0.52505E-02
         0.28609E-01
         0.56772E-01
         0.74157E-01
         0.34008E-01
         0.97604E-01
         0.20963E+00
         0.20191E+00
         0.10210E+00
         0.12101E+00
        -0.76876E-01
         0.11878E+00
         0.12241E+00
        -0.47381E-01
        -0.40797E-01
        -0.91662E-01
        -0.68174E-01
        -0.72242E-01
        -0.20524E+00
        -0.19001E+00
        -0.97554E-01
        -0.33136E-01
         0.48613E-01
         0.36809E-01
        -0.10574E+00
         0.59248E-01
         0.79333E-02
         0.45017E-01
         0.78631E-01
         0.24177E-01
         0.83897E-01
         0.16002E+00
         0.24191E+00
         0.41707E+00
         0.54272E+00
         0.44194E+00
         0.60555E+00
         0.55423E+00
         0.25162E+00
         0.16716E+00
         0.85608E-01
        -0.11117E-01
         0.21253E+00
         0.24413E+00
         0.22354E+00
         0.15270E+00
         0.13571E+00
        -0.22319E+00
        -0.25853E+00
         0.21554E+00
        -0.51382E+00
        -0.49285E+00
        -0.58741E+00
        -0.57044E+00
        -0.55300E+00
        -0.52618E+00
        -0.27017E+00
        -0.38305E+00
        -0.40259E-01
        -0.22096E+00
        -0.35458E+00
        -0.43989E+00
         0.18015E-01
        -0.20300E+00
         0.22282E+00
         0.36907E+00
         0.53398E+00
         0.52139E+00
         0.44438E+00
        -0.77578E-01
        -0.21502E+00
        -0.30093E+00
        -0.32328E+00
        -0.40331E+00
        -0.50362E+00
        -0.41555E+00
        -0.27625E+00
        -0.18953E+00
        -0.61634E-01
         0.63579E-01
         0.19207E+00
         0.30364E+00
         0.34842E+00
         0.45607E+00
         0.43036E+00
         0.46953E+00
         0.36537E+00
         0.34232E+00
         0.74339E-01
         0.25131E+00
         0.18101E+00
        -0.85082E-01
        -0.16244E+00
        -0.23088E+00
        -0.21326E+00
        -0.27444E+00
        -0.38374E+00
        -0.40882E+00
        -0.34269E+00
        -0.31012E+00
        -0.23732E+00
        -0.22272E+00
        -0.26372E+00
         0.29794E-01
         0.21995E-01
         0.13872E+00
         0.25791E+00
         0.30243E+00
         0.39263E+00
         0.46888E+00
         0.96569E-01
         0.13236E+00
         0.19982E+00
         0.17615E+00
         0.31545E+00
         0.25564E+00
         0.42000E-01
         0.71518E-01
         0.52024E-01
         0.10770E-01
         0.85800E-01
         0.14515E+00
         0.73297E-01
         0.10300E+00
         0.92424E-01
        -0.16213E+00
        -0.16262E+00
         0.13024E+00
        -0.23498E+00
        -0.21829E+00
        -0.27703E+00
        -0.26317E+00
        -0.27766E+00
        -0.24344E+00
        -0.14891E+00
        -0.19206E+00
         0.18492E-02
        -0.10700E+00
        -0.14367E+00
        -0.18089E+00
        -0.26227E-02
        -0.10920E+00
         0.13678E+00
         0.15583E+00
         0.34825E+00
         0.28978E+00
         0.22010E+00
        -0.47377E-01
        -0.12536E+00
        -0.18452E+00
        -0.20190E+00
        -0.16060E+00
        -0.21192E+00
        -0.20736E+00
        -0.17208E+00
        -0.16954E+00
        -0.54658E-01
         0.45782E-01
         0.12965E+00
         0.17906E+00
         0.20899E+00
         0.22485E+00
         0.50625E+00
         0.56771E+00
         0.50975E+00
         0.39838E+00
         0.19880E+00
         0.28516E+00
         0.14329E+00
        -0.91738E-01
        -0.23862E+00
        -0.39857E+00
        -0.37722E+00
        -0.46769E+00
        -0.52701E+00
        -0.52961E+00
        -0.48129E+00
        -0.47395E+00
        -0.37894E+00
        -0.36137E+00
        -0.32453E+00
        -0.22650E-01
         0.36495E-01
         0.17387E+00
         0.32200E+00
         0.35055E+00
         0.50154E+00
         0.53755E+00
         0.11889E+00
         0.31640E+00
         0.39367E+00
         0.25275E+00
         0.52377E+00
         0.47516E+00
         0.22120E+00
         0.13239E+00
         0.62943E-01
         0.25186E-01
         0.21303E+00
         0.24203E+00
         0.24335E+00
         0.14677E+00
         0.12109E+00
        -0.12858E+00
        -0.47347E-01
         0.11181E+00
        -0.32584E+00
        -0.31275E+00
        -0.49772E+00
        -0.51132E+00
        -0.47404E+00
        -0.38139E+00
        -0.13619E+00
        -0.28854E+00
        -0.32368E-01
        -0.21104E+00
        -0.36039E+00
        -0.34178E+00
        -0.12936E-01
        -0.19086E+00
         0.18806E+00
         0.31053E+00
         0.55482E+00
         0.51144E+00
         0.42271E+00
        -0.90164E-01
        -0.25028E+00
        -0.39004E+00
        -0.44688E+00
        -0.45128E+00
        -0.49258E+00
        -0.37944E+00
        -0.30862E+00
        -0.26978E+00
        -0.12217E+00
         0.59714E-01
         0.24330E+00
         0.36311E+00
         0.42620E+00
         0.45699E+00
         0.65771E+00
         0.74595E+00
         0.68039E+00
         0.52497E+00
         0.35442E+00
         0.33938E+00
         0.14513E+00
        -0.11856E+00
        -0.32034E+00
        -0.50274E+00
        -0.49240E+00
        -0.64023E+00
        -0.70966E+00
        -0.69812E+00
        -0.68782E+00
        -0.67333E+00
        -0.57838E+00
        -0.52698E+00
        -0.38213E+00
        -0.89967E-01
         0.64893E-01
         0.27347E+00
         0.47533E+00
         0.50920E+00
         0.67134E+00
         0.74082E+00
        -0.80184E-02
         0.11299E+00
         0.18749E+00
         0.34749E-01
         0.41266E+00
         0.33715E+00
         0.79446E-01
         0.44305E-01
         0.20449E-01
         0.30977E-01
         0.13435E+00
         0.20496E+00
         0.18052E+00
         0.97708E-01
         0.11034E+00
        -0.51158E-01
        -0.43247E-02
         0.35290E-01
        -0.13251E+00
        -0.12329E+00
        -0.34508E+00
        -0.34937E+00
        -0.34553E+00
        -0.19825E+00
        -0.42442E-01
        -0.15224E+00
        -0.71923E-02
        -0.11783E+00
        -0.21528E+00
        -0.15463E+00
        -0.71898E-02
        -0.12652E+00
         0.94293E-01
         0.15883E+00
         0.50661E+00
         0.41911E+00
         0.31997E+00
        -0.70570E-01
        -0.19832E+00
        -0.33672E+00
        -0.41229E+00
        -0.34469E+00
        -0.34672E+00
        -0.31009E+00
        -0.29106E+00
        -0.28218E+00
        -0.12746E+00
         0.44329E-01
         0.19318E+00
         0.30757E+00
         0.39322E+00
         0.35253E+00
         0.77532E+00
         0.87801E+00
         0.77518E+00
         0.61063E+00
         0.42305E+00
         0.32232E+00
         0.11440E+00
        -0.11450E+00
        -0.33988E+00
        -0.59842E+00
        -0.60967E+00
        -0.74493E+00
        -0.76967E+00
        -0.79582E+00
        -0.80864E+00
        -0.81746E+00
        -0.73477E+00
        -0.62012E+00
        -0.41776E+00
        -0.13377E+00
         0.97812E-01
         0.32178E+00
         0.54290E+00
         0.57549E+00
         0.73224E+00
         0.83164E+00
         0.12612E+00
         0.21783E+00
         0.29105E+00
         0.18421E+00
         0.44037E+00
         0.38080E+00
         0.15557E+00
         0.11796E+00
         0.17071E-01
         0.27973E-01
         0.17186E+00
         0.21636E+00
         0.21564E+00
         0.11937E+00
         0.10809E+00
        -0.11498E+00
        -0.65211E-01
         0.59387E-01
        -0.20560E+00
        -0.19170E+00
        -0.38602E+00
        -0.40066E+00
        -0.36037E+00
        -0.24356E+00
        -0.76985E-01
        -0.19419E+00
        -0.11468E-01
        -0.14123E+00
        -0.27003E+00
        -0.21744E+00
        -0.25241E-01
        -0.15324E+00
         0.11579E+00
         0.23534E+00
         0.50235E+00
         0.43426E+00
         0.34322E+00
        -0.70404E-01
        -0.20468E+00
        -0.36637E+00
        -0.45067E+00
        -0.39474E+00
        -0.39789E+00
        -0.31831E+00
        -0.29143E+00
        -0.27880E+00
        -0.14560E+00
         0.33947E-01
         0.20114E+00
         0.32848E+00
         0.41742E+00
         0.39171E+00
         0.69462E+00
         0.79836E+00
         0.69927E+00
         0.58219E+00
         0.43646E+00
         0.31595E+00
         0.12310E+00
        -0.10683E+00
        -0.32491E+00
        -0.57071E+00
        -0.59219E+00
        -0.70977E+00
        -0.75994E+00
        -0.78390E+00
        -0.78792E+00
        -0.75752E+00
        -0.68967E+00
        -0.54912E+00
        -0.36852E+00
        -0.16487E+00
         0.10022E+00
         0.34773E+00
         0.54180E+00
         0.56255E+00
         0.68772E+00
         0.76752E+00
        -0.24138E-01
         0.22356E-01
         0.83480E-01
        -0.39669E-01
         0.25948E+00
         0.19441E+00
         0.11930E-01
         0.24767E-01
         0.13546E-01
         0.36940E-01
         0.77774E-01
         0.13791E+00
         0.10579E+00
         0.64772E-01
         0.73483E-01
         0.18997E-01
         0.72852E-01
        -0.26355E-02
        -0.13408E-01
         0.12601E-01
        -0.24036E+00
        -0.24312E+00
        -0.23164E+00
        -0.78745E-01
         0.45024E-01
        -0.62986E-01
         0.28092E-02
        -0.49129E-01
        -0.11487E+00
        -0.22599E-01
        -0.74584E-02
        -0.74963E-01
         0.15421E-01
         0.44062E-01
         0.35328E+00
         0.27545E+00
         0.20116E+00
        -0.61939E-01
        -0.14329E+00
        -0.25248E+00
        -0.33545E+00
        -0.25080E+00
        -0.24151E+00
        -0.20740E+00
        -0.19878E+00
        -0.22136E+00
        -0.11371E+00
         0.21974E-01
         0.12507E+00
         0.20378E+00
         0.30035E+00
         0.22750E+00
         0.64487E+00
         0.68107E+00
         0.61087E+00
         0.52487E+00
         0.40637E+00
         0.26914E+00
         0.86908E-01
        -0.10460E+00
        -0.26537E+00
        -0.48985E+00
        -0.53761E+00
        -0.63446E+00
        -0.72148E+00
        -0.73249E+00
        -0.72407E+00
        -0.66726E+00
        -0.61092E+00
        -0.45776E+00
        -0.33445E+00
        -0.17001E+00
         0.10246E+00
         0.29838E+00
         0.47072E+00
         0.53700E+00
         0.58902E+00
         0.63942E+00
         0.16713E+00
         0.18023E+00
         0.22560E+00
         0.17107E+00
         0.25962E+00
         0.23802E+00
         0.12715E+00
         0.12751E+00
         0.32148E-01
        -0.80982E-02
         0.12630E+00
         0.12335E+00
         0.12292E+00
         0.85822E-01
         0.53095E-01
        -0.99066E-01
        -0.10616E+00
         0.79196E-01
        -0.19794E+00
        -0.18919E+00
        -0.26602E+00
        -0.27242E+00
        -0.22373E+00
        -0.19685E+00
        -0.11127E+00
        -0.15630E+00
        -0.30022E-01
        -0.11910E+00
        -0.19831E+00
        -0.18703E+00
        -0.22373E-01
        -0.98806E-01
         0.85718E-01
         0.16728E+00
         0.28472E+00
         0.26927E+00
         0.21310E+00
        -0.54566E-01
        -0.11874E+00
        -0.21935E+00
        -0.26795E+00
        -0.24310E+00
        -0.26251E+00
        -0.17486E+00
        -0.13859E+00
        -0.14550E+00
        -0.94129E-01
         0.79605E-02
         0.11301E+00
         0.19415E+00
         0.26135E+00
         0.24565E+00
         0.36766E+00
         0.41228E+00
         0.36199E+00
         0.32929E+00
         0.25711E+00
         0.16131E+00
         0.49908E-01
        -0.65258E-01
        -0.15321E+00
        -0.28906E+00
        -0.29955E+00
        -0.34198E+00
        -0.42001E+00
        -0.40808E+00
        -0.41487E+00
        -0.38577E+00
        -0.35794E+00
        -0.24068E+00
        -0.18392E+00
        -0.12249E+00
         0.53501E-01
         0.19129E+00
         0.30260E+00
         0.33967E+00
         0.36241E+00
         0.41848E+00
        -0.27402E-01
        -0.34520E-01
        -0.14487E-01
        -0.64173E-01
         0.44667E-01
         0.16309E-01
        -0.29918E-01
         0.99017E-02
        -0.88427E-02
         0.68455E-02
         0.19532E-01
         0.22159E-01
        -0.26087E-01
         0.30038E-01
         0.18162E-01
         0.22091E-01
         0.42866E-01
        -0.54557E-02
         0.32079E-01
         0.47687E-01
        -0.30750E-01
        -0.42794E-01
        -0.13095E-01
         0.17551E-01
         0.38004E-01
         0.10175E-01
         0.35581E-02
        -0.43072E-03
        -0.49454E-02
         0.39677E-01
         0.67857E-02
         0.37863E-03
        -0.53090E-02
        -0.22157E-01
         0.82927E-01
         0.57998E-01
         0.19922E-01
        -0.25112E-01
        -0.29268E-01
        -0.65797E-01
        -0.94627E-01
        -0.43762E-01
        -0.44556E-01
        -0.45428E-02
        -0.92854E-02
        -0.48299E-01
        -0.35586E-01
         0.41668E-02
         0.24578E-01
         0.30528E-01
         0.70636E-01
         0.38194E-01
         0.20504E+00
         0.24646E+00
         0.21561E+00
         0.20800E+00
         0.14386E+00
         0.67898E-01
         0.60111E-02
        -0.48825E-01
        -0.83524E-01
        -0.17880E+00
        -0.18581E+00
        -0.23443E+00
        -0.27741E+00
        -0.25382E+00
        -0.26364E+00
        -0.23611E+00
        -0.23747E+00
        -0.12110E+00
        -0.82405E-01
        -0.60952E-01
         0.50172E-01
         0.92220E-01
         0.14180E+00
         0.17288E+00
         0.19283E+00
         0.25570E+00
         0.11526E+00
         0.12852E+00
         0.15736E+00
         0.12416E+00
         0.12209E+00
         0.11058E+00
         0.80059E-01
         0.79583E-01
         0.12793E-01
        -0.21004E-01
         0.79238E-01
         0.56985E-01
         0.38924E-01
         0.50662E-01
         0.23630E-01
        -0.80365E-01
        -0.89489E-01
         0.61697E-01
        -0.13946E+00
        -0.14209E+00
        -0.12416E+00
        -0.14596E+00
        -0.81655E-01
        -0.12104E+00
        -0.85648E-01
        -0.10309E+00
        -0.29250E-01
        -0.73679E-01
        -0.11539E+00
        -0.13247E+00
        -0.10809E-01
        -0.49067E-01
         0.61400E-01
         0.10411E+00
         0.11010E+00
         0.12972E+00
         0.10051E+00
        -0.36351E-01
        -0.51624E-01
        -0.96924E-01
        -0.11362E+00
        -0.11634E+00
        -0.14331E+00
        -0.52662E-01
        -0.24273E-01
        -0.30381E-01
        -0.38076E-01
        -0.14816E-02
         0.51428E-01
         0.82239E-01
         0.97176E-01
         0.10324E+00
         0.73386E-01
         0.11275E+00
         0.96757E-01
         0.11421E+00
         0.79436E-01
         0.35264E-01
        -0.34086E-02
        -0.30093E-01
        -0.34086E-01
        -0.76821E-01
        -0.62238E-01
        -0.97959E-01
        -0.12208E+00
        -0.10971E+00
        -0.13877E+00
        -0.11461E+00
        -0.12151E+00
        -0.42338E-01
        -0.17480E-01
        -0.25787E-01
         0.25632E-01
         0.51661E-01
         0.72726E-01
         0.75301E-01
         0.86383E-01
         0.12806E+00
        -0.61109E-01
        -0.57436E-01
        -0.47432E-01
        -0.78987E-01
        -0.33023E-01
        -0.46058E-01
        -0.53290E-01
        -0.26660E-01
        -0.19465E-01
         0.27022E-02
        -0.98442E-02
        -0.11109E-01
        -0.68102E-01
         0.28899E-02
        -0.86305E-03
         0.21433E-01
         0.54450E-01
        -0.18471E-01
         0.65389E-01
         0.88427E-01
         0.72377E-01
         0.64895E-01
         0.73465E-01
         0.51264E-01
         0.65644E-01
         0.26577E-01
         0.11018E-01
         0.40260E-01
         0.50995E-01
         0.86055E-01
         0.11681E-01
         0.16787E-01
        -0.16848E-01
        -0.48700E-01
        -0.29803E-01
        -0.30777E-01
        -0.45498E-01
        -0.36220E-02
         0.20270E-01
         0.67939E-02
         0.70764E-02
         0.45527E-01
         0.52952E-01
         0.61855E-01
         0.44570E-01
         0.65102E-02
        -0.96100E-02
        -0.11307E-02
        -0.73713E-02
        -0.25275E-01
        -0.21403E-01
        -0.37152E-01
        -0.34432E-02
         0.40350E-01
         0.32399E-01
         0.44588E-01
         0.66881E-02
         0.26717E-02
        -0.16754E-01
        -0.18270E-01
        -0.52102E-02
        -0.37921E-01
         0.28653E-02
        -0.43472E-01
        -0.41970E-01
        -0.21583E-01
        -0.50308E-01
        -0.46951E-01
        -0.65076E-01
        -0.97132E-03
         0.48303E-02
        -0.77651E-02
         0.14302E-01
         0.98852E-02
         0.14142E-01
        -0.14947E-02
         0.18525E-01
         0.53265E-01
         0.77603E-01
         0.11086E+00
         0.12946E+00
         0.10258E+00
         0.87960E-01
         0.82761E-01
         0.67201E-01
         0.52305E-01
         0.58685E-02
        -0.20377E-01
         0.63600E-01
         0.41592E-01
         0.21332E-01
         0.35938E-01
         0.15119E-01
        -0.75048E-01
        -0.69016E-01
         0.45585E-01
        -0.11939E+00
        -0.11368E+00
        -0.78755E-01
        -0.94284E-01
        -0.49042E-01
        -0.10700E+00
        -0.59784E-01
        -0.96813E-01
        -0.24498E-01
        -0.50119E-01
        -0.80803E-01
        -0.97919E-01
        -0.85693E-02
        -0.47461E-01
         0.53985E-01
         0.85348E-01
         0.63506E-01
         0.86270E-01
         0.71181E-01
        -0.25466E-01
        -0.31716E-01
        -0.66467E-01
        -0.70628E-01
        -0.73466E-01
        -0.93379E-01
        -0.32755E-01
        -0.12453E-01
        -0.16641E-01
        -0.27193E-01
         0.20941E-02
         0.41222E-01
         0.57193E-01
         0.55266E-01
         0.66856E-01
         0.14289E-01
         0.54209E-01
         0.43487E-01
         0.56386E-01
         0.29998E-01
         0.23647E-01
        -0.60417E-02
        -0.17239E-01
        -0.14097E-01
        -0.33196E-01
         0.76568E-02
        -0.39229E-01
        -0.41107E-01
        -0.42169E-01
        -0.71761E-01
        -0.62846E-01
        -0.74034E-01
        -0.13525E-01
         0.46806E-02
         0.49675E-02
         0.16807E-01
         0.26032E-01
         0.40504E-01
         0.24050E-01
         0.39633E-01
         0.59035E-01
        -0.78741E-01
        -0.74141E-01
        -0.67359E-01
        -0.93821E-01
        -0.52836E-01
        -0.64504E-01
        -0.62528E-01
        -0.35795E-01
        -0.18254E-01
        -0.27150E-02
        -0.15448E-01
        -0.18732E-01
        -0.82562E-01
        -0.16322E-02
        -0.25304E-02
         0.26009E-01
         0.59371E-01
        -0.24651E-01
         0.77070E-01
         0.10075E+00
         0.97502E-01
         0.92545E-01
         0.97903E-01
         0.61370E-01
         0.70600E-01
         0.31516E-01
         0.10427E-01
         0.56986E-01
         0.72737E-01
         0.10308E+00
         0.10731E-01
         0.21260E-01
        -0.24133E-01
        -0.55759E-01
        -0.47667E-01
        -0.50290E-01
        -0.65609E-01
         0.24136E-02
         0.37878E-01
         0.30021E-01
         0.24844E-01
         0.67203E-01
         0.83908E-01
         0.76859E-01
         0.53157E-01
         0.15648E-01
        -0.15975E-02
        -0.35468E-02
        -0.15645E-01
        -0.31580E-01
        -0.33919E-01
        -0.51945E-01
        -0.25015E-01
         0.43714E-02
         0.32898E-02
         0.69871E-02
        -0.14726E-01
        -0.18664E-02
        -0.20154E-01
        -0.13417E-01
        -0.24760E-03
        -0.27125E-01
         0.21251E-01
        -0.11449E-01
        -0.64042E-02
         0.65492E-02
        -0.59203E-02
         0.90662E-03
        -0.20942E-01
         0.13369E-01
         0.36439E-02
        -0.18343E-02
         0.17428E-02
        -0.22165E-02
         0.18761E-02
        -0.21096E-01
        -0.38546E-02
         0.85280E-02
         0.88962E-01
         0.11800E+00
         0.12846E+00
         0.10506E+00
         0.91348E-01
         0.89211E-01
         0.74950E-01
         0.60324E-01
         0.16119E-01
        -0.17339E-01
         0.62043E-01
         0.37510E-01
         0.28463E-01
         0.35700E-01
         0.11661E-01
        -0.80380E-01
        -0.80309E-01
         0.48544E-01
        -0.12940E+00
        -0.12011E+00
        -0.77992E-01
        -0.87126E-01
        -0.52482E-01
        -0.11677E+00
        -0.66639E-01
        -0.10560E+00
        -0.18520E-01
        -0.45537E-01
        -0.81936E-01
        -0.99090E-01
        -0.71964E-02
        -0.53270E-01
         0.56127E-01
         0.89626E-01
         0.66839E-01
         0.86182E-01
         0.76257E-01
        -0.19053E-01
        -0.29124E-01
        -0.70494E-01
        -0.70648E-01
        -0.66367E-01
        -0.81163E-01
        -0.40819E-01
        -0.22000E-01
        -0.25319E-01
        -0.29512E-01
         0.56737E-02
         0.45033E-01
         0.62670E-01
         0.62318E-01
         0.74631E-01
         0.29083E-01
         0.64738E-01
         0.57392E-01
         0.67548E-01
         0.41953E-01
         0.28694E-01
        -0.67288E-02
        -0.99441E-02
        -0.18210E-01
        -0.42063E-01
         0.91965E-02
        -0.45825E-01
        -0.54324E-01
        -0.52303E-01
        -0.72058E-01
        -0.65294E-01
        -0.80388E-01
        -0.20458E-01
        -0.65249E-02
         0.33002E-02
         0.16519E-01
         0.27347E-01
         0.47160E-01
         0.31365E-01
         0.51121E-01
         0.65219E-01
        -0.82105E-01
        -0.90037E-01
        -0.85964E-01
        -0.10062E+00
        -0.67853E-01
        -0.70551E-01
        -0.68505E-01
        -0.33549E-01
        -0.15559E-01
        -0.69643E-02
        -0.19153E-01
        -0.27377E-01
        -0.94826E-01
        -0.63154E-03
        -0.41814E-02
         0.35608E-01
         0.59437E-01
        -0.29583E-01
         0.83294E-01
         0.10313E+00
         0.10620E+00
         0.10664E+00
         0.10912E+00
         0.71528E-01
         0.65113E-01
         0.41397E-01
         0.94310E-02
         0.61860E-01
         0.90349E-01
         0.11162E+00
         0.11912E-01
         0.29225E-01
        -0.34179E-01
        -0.61076E-01
        -0.66649E-01
        -0.73591E-01
        -0.86821E-01
         0.69950E-02
         0.49704E-01
         0.53450E-01
         0.49857E-01
         0.91084E-01
         0.10509E+00
         0.84449E-01
         0.58394E-01
         0.22692E-01
         0.71390E-02
        -0.25542E-02
        -0.24329E-01
        -0.40517E-01
        -0.39837E-01
        -0.54571E-01
        -0.35983E-01
        -0.17651E-01
        -0.79678E-02
        -0.85442E-02
        -0.25147E-01
        -0.89213E-02
        -0.21551E-01
        -0.12424E-01
         0.35807E-02
        -0.12639E-01
         0.31380E-01
         0.35433E-02
         0.14027E-01
         0.30524E-01
         0.10805E-01
         0.17738E-01
        -0.67772E-02
         0.22687E-01
         0.82203E-02
        -0.20351E-02
        -0.10496E-02
        -0.77686E-02
        -0.68615E-02
        -0.35559E-01
        -0.28458E-01
        -0.22382E-01
         0.99187E-01
         0.12375E+00
         0.13698E+00
         0.11205E+00
         0.10949E+00
         0.10881E+00
         0.83751E-01
         0.70358E-01
         0.24966E-01
        -0.14256E-01
         0.67857E-01
         0.44735E-01
         0.40342E-01
         0.38645E-01
         0.14606E-01
        -0.83732E-01
        -0.84051E-01
         0.46499E-01
        -0.13746E+00
        -0.12985E+00
        -0.92126E-01
        -0.97326E-01
        -0.64891E-01
        -0.12562E+00
        -0.78278E-01
        -0.11396E+00
        -0.20977E-01
        -0.54940E-01
        -0.93849E-01
        -0.11083E+00
        -0.11616E-01
        -0.58057E-01
         0.54496E-01
         0.10024E+00
         0.84570E-01
         0.96529E-01
         0.84512E-01
        -0.20577E-01
        -0.31760E-01
        -0.73875E-01
        -0.79458E-01
        -0.75373E-01
        -0.87791E-01
        -0.53836E-01
        -0.33613E-01
        -0.31153E-01
        -0.28940E-01
         0.76469E-02
         0.49426E-01
         0.73512E-01
         0.80542E-01
         0.95530E-01
         0.53018E-01
         0.77226E-01
         0.72591E-01
         0.69109E-01
         0.46674E-01
         0.30242E-01
         0.28146E-02
        -0.88991E-02
        -0.16786E-01
        -0.37621E-01
        -0.99296E-02
        -0.52886E-01
        -0.64294E-01
        -0.61566E-01
        -0.89905E-01
        -0.83780E-01
        -0.92136E-01
        -0.36337E-01
        -0.16275E-01
        -0.16997E-02
         0.17570E-01
         0.35861E-01
         0.59824E-01
         0.46186E-01
         0.59222E-01
         0.71150E-01
        -0.81671E-01
        -0.90064E-01
        -0.90269E-01
        -0.10397E+00
        -0.80118E-01
        -0.77496E-01
        -0.76877E-01
        -0.38945E-01
        -0.20263E-01
        -0.10306E-01
        -0.31509E-01
        -0.39823E-01
        -0.10142E+00
        -0.48413E-02
        -0.67882E-02
         0.46028E-01
         0.59318E-01
        -0.34371E-01
         0.98862E-01
         0.10859E+00
         0.12348E+00
         0.11428E+00
         0.12994E+00
         0.92878E-01
         0.60240E-01
         0.60194E-01
         0.10251E-01
         0.58667E-01
         0.91351E-01
         0.11156E+00
         0.15023E-01
         0.40455E-01
        -0.41709E-01
        -0.71859E-01
        -0.85646E-01
        -0.86328E-01
        -0.89641E-01
         0.80414E-02
         0.48624E-01
         0.59677E-01
         0.62456E-01
         0.98786E-01
         0.10833E+00
         0.10153E+00
         0.69068E-01
         0.30311E-01
         0.12134E-01
        -0.28130E-02
        -0.31175E-01
        -0.53822E-01
        -0.53015E-01
        -0.64421E-01
        -0.54702E-01
        -0.30437E-01
        -0.28563E-01
        -0.23250E-01
        -0.32209E-01
        -0.16604E-01
        -0.18439E-01
        -0.41622E-02
         0.67972E-02
        -0.12373E-02
         0.39161E-01
         0.89826E-02
         0.19842E-01
         0.42575E-01
         0.25153E-01
         0.34170E-01
         0.45152E-02
         0.25080E-01
         0.15756E-01
         0.49721E-03
         0.11810E-02
        -0.77774E-02
        -0.17523E-01
        -0.48276E-01
        -0.45107E-01
        -0.37101E-01
         0.96499E-01
         0.13121E+00
         0.14796E+00
         0.10409E+00
         0.12075E+00
         0.11378E+00
         0.90103E-01
         0.72491E-01
         0.26748E-01
        -0.11980E-01
         0.76902E-01
         0.57398E-01
         0.56358E-01
         0.43707E-01
         0.18132E-01
        -0.82430E-01
        -0.71507E-01
         0.45436E-01
        -0.14042E+00
        -0.12312E+00
        -0.10773E+00
        -0.10890E+00
        -0.82431E-01
        -0.13623E+00
        -0.70686E-01
        -0.12186E+00
        -0.23167E-01
        -0.61342E-01
        -0.10059E+00
        -0.10745E+00
        -0.12312E-01
        -0.60812E-01
         0.52630E-01
         0.99153E-01
         0.10005E+00
         0.11803E+00
         0.10593E+00
        -0.25625E-01
        -0.40565E-01
        -0.83883E-01
        -0.91742E-01
        -0.91026E-01
        -0.10286E+00
        -0.67364E-01
        -0.41645E-01
        -0.34133E-01
        -0.29042E-01
         0.69235E-02
         0.50052E-01
         0.80266E-01
         0.93144E-01
         0.10427E+00
         0.56333E-01
         0.85330E-01
         0.84495E-01
         0.93677E-01
         0.73610E-01
         0.52204E-01
         0.13273E-01
        -0.84119E-02
        -0.24694E-01
        -0.49848E-01
        -0.25675E-01
        -0.77611E-01
        -0.89098E-01
        -0.84870E-01
        -0.12387E+00
        -0.10749E+00
        -0.10551E+00
        -0.47863E-01
        -0.18467E-01
         0.31975E-02
         0.21166E-01
         0.37544E-01
         0.68071E-01
         0.58492E-01
         0.71774E-01
         0.84069E-01
        -0.10620E+00
        -0.12712E+00
        -0.13665E+00
        -0.13662E+00
        -0.13434E+00
        -0.13348E+00
        -0.10819E+00
        -0.59607E-01
        -0.35755E-01
        -0.73412E-02
        -0.57273E-01
        -0.58936E-01
        -0.13191E+00
        -0.18227E-01
        -0.17635E-01
         0.60661E-01
         0.74946E-01
        -0.45415E-01
         0.14988E+00
         0.16050E+00
         0.17892E+00
         0.17029E+00
         0.17395E+00
         0.13877E+00
         0.88554E-01
         0.91427E-01
         0.27890E-01
         0.92890E-01
         0.13136E+00
         0.15915E+00
         0.23396E-01
         0.60967E-01
        -0.49967E-01
        -0.10608E+00
        -0.13824E+00
        -0.13710E+00
        -0.13239E+00
         0.20017E-01
         0.76528E-01
         0.88284E-01
         0.97748E-01
         0.14543E+00
         0.16010E+00
         0.13356E+00
         0.93076E-01
         0.47462E-01
         0.23505E-01
        -0.54107E-02
        -0.50434E-01
        -0.90786E-01
        -0.10510E+00
        -0.12162E+00
        -0.98405E-01
        -0.74007E-01
        -0.74322E-01
        -0.60230E-01
        -0.51625E-01
        -0.19468E-01
        -0.11825E-01
        -0.22050E-02
         0.13808E-01
         0.56705E-02
         0.64354E-01
         0.29961E-01
         0.38409E-01
         0.68142E-01
         0.45820E-01
         0.57226E-01
         0.27434E-01
         0.46984E-01
         0.24223E-01
         0.36057E-02
        -0.60897E-02
        -0.29789E-01
        -0.47039E-01
        -0.95858E-01
        -0.96612E-01
        -0.82942E-01
         0.94348E-01
         0.15809E+00
         0.18293E+00
         0.13138E+00
         0.14808E+00
         0.14200E+00
         0.98690E-01
         0.59915E-01
         0.99038E-02
        -0.25669E-01
         0.76794E-01
         0.61161E-01
         0.78375E-01
         0.40016E-01
         0.16555E-01
        -0.75317E-01
        -0.52115E-01
         0.47262E-01
        -0.13267E+00
        -0.10713E+00
        -0.11946E+00
        -0.12492E+00
        -0.99608E-01
        -0.14295E+00
        -0.66592E-01
        -0.12886E+00
        -0.26509E-01
        -0.73403E-01
        -0.11021E+00
        -0.95524E-01
        -0.12768E-01
        -0.69831E-01
         0.67128E-01
         0.12396E+00
         0.12876E+00
         0.15797E+00
         0.14706E+00
        -0.27567E-01
        -0.58023E-01
        -0.11892E+00
        -0.13481E+00
        -0.11496E+00
        -0.12156E+00
        -0.84765E-01
        -0.52894E-01
        -0.49133E-01
        -0.42762E-01
         0.96886E-02
         0.63400E-01
         0.88296E-01
         0.95245E-01
         0.12289E+00
         0.66297E-01
         0.10125E+00
         0.10661E+00
         0.13250E+00
         0.10359E+00
         0.59144E-01
         0.10415E-01
        -0.15248E-02
        -0.44845E-01
        -0.10303E+00
        -0.89788E-01
        -0.15434E+00
        -0.14418E+00
        -0.11395E+00
        -0.15611E+00
        -0.14600E+00
        -0.15081E+00
        -0.70974E-01
        -0.33042E-01
        -0.13650E-01
         0.18850E-01
         0.30953E-01
         0.44108E-01
         0.41293E-01
         0.80966E-01
         0.10551E+00
        -0.20423E+00
        -0.24136E+00
        -0.29513E+00
        -0.30599E+00
        -0.28681E+00
        -0.28923E+00
        -0.17755E+00
        -0.10030E+00
        -0.24285E-01
         0.23743E-01
        -0.10456E+00
        -0.95833E-01
        -0.18732E+00
        -0.45252E-01
        -0.39061E-01
         0.12438E+00
         0.17242E+00
        -0.10671E+00
         0.22256E+00
         0.24632E+00
         0.24875E+00
         0.24425E+00
         0.24720E+00
         0.20655E+00
         0.15796E+00
         0.16302E+00
         0.36332E-01
         0.12209E+00
         0.18108E+00
         0.23555E+00
         0.27718E-01
         0.11020E+00
        -0.11671E+00
        -0.21957E+00
        -0.26889E+00
        -0.26289E+00
        -0.22828E+00
         0.21878E-01
         0.10359E+00
         0.13171E+00
         0.14643E+00
         0.20979E+00
         0.23677E+00
         0.21397E+00
         0.15615E+00
         0.77582E-01
         0.35119E-01
        -0.21756E-01
        -0.10691E+00
        -0.18302E+00
        -0.20669E+00
        -0.24006E+00
        -0.23013E+00
        -0.23662E+00
        -0.19599E+00
        -0.19611E+00
        -0.16563E+00
        -0.70163E-01
        -0.18782E-01
         0.14374E-01
         0.41778E-01
         0.49576E-01
         0.77155E-01
         0.87430E-01
         0.13796E+00
         0.18773E+00
         0.16694E+00
         0.15867E+00
         0.11956E+00
         0.10387E+00
         0.49084E-01
         0.57812E-02
        -0.29343E-01
        -0.97101E-01
        -0.14403E+00
        -0.19914E+00
        -0.22467E+00
        -0.24850E+00
         0.92235E-01
         0.16825E+00
         0.23549E+00
         0.15660E+00
         0.25171E+00
         0.28422E+00
         0.99540E-01
         0.66838E-01
         0.63611E-02
        -0.27246E-01
         0.91470E-01
         0.95667E-01
         0.12735E+00
         0.55309E-01
         0.48582E-01
        -0.78805E-01
        -0.82059E-01
         0.28172E-01
        -0.19012E+00
        -0.19041E+00
        -0.25787E+00
        -0.28509E+00
        -0.21656E+00
        -0.20671E+00
        -0.93903E-01
        -0.17754E+00
        -0.41937E-01
        -0.10631E+00
        -0.15929E+00
        -0.17513E+00
        -0.31939E-01
        -0.11468E+00
         0.99385E-01
         0.19424E+00
         0.16105E+00
         0.17182E+00
         0.17853E+00
        -0.42053E-01
        -0.11363E+00
        -0.15462E+00
        -0.16453E+00
        -0.22725E+00
        -0.28671E+00
        -0.17999E+00
        -0.10515E+00
        -0.56657E-01
        -0.58486E-01
         0.47316E-02
         0.13157E+00
         0.19452E+00
         0.20456E+00
         0.24085E+00
         0.12739E+00
         0.20411E+00
         0.16990E+00
         0.16846E+00
         0.12240E+00
         0.53666E-01
         0.97858E-02
        -0.91396E-02
        -0.41824E-01
        -0.74573E-01
        -0.33801E-01
        -0.12989E+00
        -0.15278E+00
        -0.14586E+00
        -0.15840E+00
        -0.15322E+00
        -0.14145E+00
        -0.47500E-01
        -0.22654E-01
        -0.31426E-01
         0.31420E-01
         0.68191E-01
         0.86728E-01
         0.81890E-01
         0.15700E+00
         0.23521E+00
        -0.62833E+00
        -0.61438E+00
        -0.51988E+00
        -0.55610E+00
        -0.70750E+00
        -0.68794E+00
        -0.54828E+00
        -0.39520E+00
        -0.10538E+00
         0.11383E+00
        -0.37974E+00
        -0.37650E+00
        -0.50540E+00
        -0.17387E+00
        -0.15689E+00
         0.49638E+00
         0.81018E+00
        -0.15751E+00
         0.10520E+01
         0.12668E+01
         0.10467E+01
         0.11673E+01
         0.77041E+00
         0.79985E+00
         0.92721E+00
         0.48494E+00
         0.20541E+00
         0.75058E+00
         0.88329E+00
         0.12293E+01
         0.10603E+00
         0.20557E+00
        -0.21324E+00
        -0.60752E+00
        -0.82011E+00
        -0.63908E+00
        -0.52631E+00
         0.13674E+00
         0.42479E+00
         0.54814E+00
         0.60476E+00
         0.75461E+00
         0.10018E+01
         0.48674E+00
         0.35746E+00
         0.30940E+00
         0.12224E+00
        -0.63613E-01
        -0.28239E+00
        -0.50993E+00
        -0.67656E+00
        -0.76582E+00
        -0.10167E+01
        -0.98184E+00
        -0.83838E+00
        -0.61014E+00
        -0.37349E+00
        -0.33209E+00
        -0.18968E+00
         0.12026E+00
         0.39908E+00
         0.51436E+00
         0.61925E+00
         0.71572E+00
         0.10220E+01
         0.10450E+01
         0.89682E+00
         0.73981E+00
         0.55471E+00
         0.51527E+00
         0.35835E+00
         0.97371E-01
        -0.12149E+00
        -0.47170E+00
        -0.66270E+00
        -0.84462E+00
        -0.90346E+00
        -0.89641E+00
  
SCALARS                      strain_xy  double 1
LOOKUP_TABLE default
        -0.16273E+00
        -0.31945E+00
        -0.23436E+00
         0.13179E-01
        -0.27811E-09
        -0.13736E-08
        -0.15668E-08
         0.20073E-09
        -0.52945E-01
         0.23260E+00
         0.81131E-11
         0.10822E-08
        -0.15626E+00
        -0.34329E-01
        -0.64678E-09
         0.23514E-09
         0.49603E-01
         0.18321E+00
         0.37836E-09
         0.42903E-09
        -0.40393E-01
        -0.96973E-01
        -0.23489E+00
         0.33446E-09
        -0.46492E-09
        -0.11964E-08
        -0.37281E-01
        -0.13969E+00
         0.52094E-09
        -0.85079E-09
        -0.11851E+00
         0.13683E+00
         0.10055E-01
         0.26109E-09
         0.71966E-09
         0.23282E-09
        -0.14104E+00
         0.89244E-01
        -0.29589E-11
         0.30616E-09
        -0.22181E+00
         0.37080E-02
        -0.87150E-09
        -0.45439E-09
        -0.34422E+00
        -0.28165E+00
        -0.10146E-08
        -0.67726E-09
         0.27987E+00
         0.43796E-09
        -0.25301E+00
        -0.77464E-09
         0.84613E-01
        -0.30028E-10
         0.18189E+00
        -0.48335E-10
         0.22296E+00
         0.21795E+00
         0.20221E-09
         0.11499E-09
        -0.33243E-01
        -0.20508E+00
         0.13379E-09
        -0.69567E-09
         0.10910E+00
         0.43387E-09
         0.27675E+00
         0.95217E-09
        -0.25757E+00
        -0.42082E+00
        -0.63097E-09
        -0.17085E-08
        -0.44268E+00
        -0.15820E-08
        -0.22945E-01
        -0.52166E-09
         0.13033E+00
         0.23861E-09
         0.25112E+00
         0.52037E-09
         0.41945E+00
         0.37486E+00
         0.78142E-09
         0.74615E-09
         0.20521E+00
         0.29519E-09
        -0.41844E+00
        -0.13748E-08
        -0.40779E+00
        -0.13172E-08
        -0.36072E+00
        -0.20788E+00
        -0.11217E-08
        -0.48470E-09
         0.17152E-01
         0.96352E-10
         0.20190E+00
         0.77228E-09
         0.40323E+00
         0.13296E-08
         0.57870E+00
         0.46220E+00
         0.19491E-08
         0.12927E-08
        -0.29978E+00
        -0.80776E-01
        -0.39903E-09
        -0.42430E-09
        -0.47087E+00
        -0.90200E-09
        -0.60247E+00
        -0.12419E-08
        -0.49989E+00
        -0.13802E-08
        -0.31534E+00
        -0.44904E-09
        -0.20268E+00
        -0.38786E-09
         0.11827E+00
         0.15101E-09
         0.41070E+00
         0.55110E-09
         0.61234E+00
         0.71369E-09
         0.71191E+00
         0.52826E-09
         0.78667E+00
         0.88099E-09
         0.44606E+00
         0.44990E-09
        -0.16645E-02
        -0.61829E-10
        -0.31340E+00
        -0.48321E-09
        -0.50183E+00
        -0.81156E-09
        -0.64390E+00
        -0.98393E-09
        -0.51049E+00
        -0.97342E-09
        -0.39524E+00
        -0.13815E-10
        -0.40500E+00
        -0.12462E-08
         0.13588E-01
         0.21589E-09
         0.37180E+00
         0.76160E-09
         0.61943E+00
         0.13477E-08
         0.70094E+00
         0.96873E-09
         0.70936E+00
         0.16130E-08
         0.26344E+00
         0.24977E-09
        -0.17848E+00
        -0.38335E+00
        -0.27594E+00
         0.22323E-01
        -0.71610E-01
         0.20940E+00
        -0.25506E+00
        -0.93620E-01
         0.44952E-01
         0.17145E+00
        -0.16391E+00
        -0.15657E+00
        -0.27288E+00
        -0.83112E-01
        -0.12090E+00
        -0.12725E+00
         0.11297E+00
         0.69744E-02
        -0.16654E+00
         0.74560E-01
        -0.21969E+00
         0.26481E-01
        -0.33100E+00
        -0.29524E+00
         0.28252E+00
        -0.29022E+00
         0.12139E+00
         0.27466E+00
         0.32262E+00
         0.25974E+00
        -0.54377E-01
        -0.24477E+00
         0.16730E+00
         0.35049E+00
        -0.28432E+00
        -0.41713E+00
        -0.45147E+00
         0.50988E-01
         0.22476E+00
         0.30319E+00
         0.34451E+00
         0.36573E+00
         0.25231E+00
        -0.38985E+00
        -0.36729E+00
        -0.30328E+00
        -0.17170E+00
         0.46127E-01
         0.25093E+00
         0.38479E+00
         0.46715E+00
         0.42476E+00
        -0.29057E+00
        -0.30795E-01
        -0.46742E+00
        -0.53288E+00
        -0.40493E+00
        -0.28450E+00
        -0.10624E+00
         0.10961E+00
         0.29554E+00
         0.41789E+00
         0.43419E+00
         0.61176E+00
         0.38938E+00
         0.21803E-01
        -0.25526E+00
        -0.42724E+00
        -0.55852E+00
        -0.44086E+00
        -0.32192E+00
        -0.21341E+00
         0.35541E-01
         0.30490E+00
         0.45783E+00
         0.51613E+00
         0.54335E+00
         0.27707E+00
        -0.65622E-01
        -0.23505E+00
        -0.17313E+00
         0.22212E-01
        -0.50931E-01
         0.18745E+00
        -0.17289E+00
        -0.22859E-01
         0.52156E-01
         0.10168E+00
        -0.14523E+00
        -0.21366E+00
        -0.28786E+00
        -0.65261E-01
        -0.12881E+00
        -0.43728E-01
         0.71868E-01
         0.73254E-02
        -0.98630E-01
         0.34524E-01
        -0.21348E+00
         0.45448E-02
        -0.33884E+00
        -0.22389E+00
         0.13860E+00
        -0.20683E+00
         0.67781E-01
         0.16731E+00
         0.23319E+00
         0.15004E+00
        -0.32390E-01
        -0.19533E+00
         0.94639E-01
         0.23211E+00
        -0.26986E+00
        -0.37157E+00
        -0.41175E+00
         0.62411E-01
         0.23961E+00
         0.33601E+00
         0.39555E+00
         0.34571E+00
         0.20651E+00
        -0.39862E+00
        -0.37543E+00
        -0.32722E+00
        -0.16597E+00
         0.50727E-01
         0.23043E+00
         0.36603E+00
         0.47355E+00
         0.38688E+00
        -0.33565E+00
        -0.39250E-01
        -0.50964E+00
        -0.54871E+00
        -0.47811E+00
        -0.32224E+00
        -0.90012E-01
         0.12550E+00
         0.37059E+00
         0.51228E+00
         0.51754E+00
         0.58702E+00
         0.35047E+00
        -0.97909E-02
        -0.31244E+00
        -0.49584E+00
        -0.63112E+00
        -0.50640E+00
        -0.40254E+00
        -0.20060E+00
         0.81468E-01
         0.33942E+00
         0.52879E+00
         0.56754E+00
         0.54199E+00
         0.27290E+00
        -0.11178E+00
        -0.21676E+00
        -0.14202E+00
         0.22206E-01
        -0.36369E-01
         0.13138E+00
        -0.17792E+00
        -0.82057E-01
         0.27577E-01
         0.89192E-01
        -0.15510E+00
        -0.16233E+00
        -0.20367E+00
        -0.86944E-01
        -0.99112E-01
        -0.60501E-01
         0.63478E-01
         0.19421E-01
        -0.11467E+00
         0.35624E-01
        -0.15712E+00
         0.86804E-02
        -0.22003E+00
        -0.19349E+00
         0.17200E+00
        -0.18381E+00
         0.74523E-01
         0.18042E+00
         0.20360E+00
         0.16474E+00
        -0.41757E-01
        -0.15759E+00
         0.97411E-01
         0.20473E+00
        -0.16797E+00
        -0.22916E+00
        -0.26531E+00
         0.54755E-01
         0.18728E+00
         0.22783E+00
         0.21940E+00
         0.22240E+00
         0.15744E+00
        -0.25387E+00
        -0.22574E+00
        -0.19201E+00
        -0.11280E+00
         0.41684E-01
         0.16249E+00
         0.24518E+00
         0.30626E+00
         0.26025E+00
        -0.22608E+00
        -0.31718E-01
        -0.30522E+00
        -0.33048E+00
        -0.34245E+00
        -0.23650E+00
        -0.32521E-01
         0.10627E+00
         0.22900E+00
         0.30139E+00
         0.27772E+00
         0.36214E+00
         0.21333E+00
        -0.78547E-02
        -0.23214E+00
        -0.34397E+00
        -0.44821E+00
        -0.33536E+00
        -0.22464E+00
        -0.10299E+00
         0.11063E+00
         0.24333E+00
         0.35944E+00
         0.38492E+00
         0.36889E+00
         0.18839E+00
         0.40611E-01
        -0.38601E-01
        -0.41545E-01
        -0.26806E-01
        -0.16636E-01
         0.83424E-01
        -0.37747E-01
         0.52978E-01
         0.26003E-01
         0.12942E-01
        -0.74243E-01
        -0.15820E+00
        -0.16706E+00
        -0.23890E-01
        -0.85888E-01
         0.77394E-01
         0.18215E-01
        -0.29622E-01
         0.19175E-01
         0.13365E-01
        -0.10308E+00
         0.71938E-02
        -0.18321E+00
        -0.64034E-01
        -0.43373E-01
        -0.56644E-01
         0.17556E-01
         0.30251E-01
         0.86826E-01
         0.21277E-01
        -0.16325E-01
        -0.97594E-01
        -0.16315E-01
         0.51228E-01
        -0.12624E+00
        -0.16080E+00
        -0.19079E+00
         0.43606E-01
         0.15534E+00
         0.22461E+00
         0.24988E+00
         0.19361E+00
         0.11243E+00
        -0.22068E+00
        -0.21010E+00
        -0.20241E+00
        -0.10918E+00
         0.38985E-01
         0.11879E+00
         0.18654E+00
         0.27072E+00
         0.18699E+00
        -0.20906E+00
        -0.34198E-01
        -0.26715E+00
        -0.31684E+00
        -0.34414E+00
        -0.26016E+00
        -0.63037E-01
         0.76588E-01
         0.21928E+00
         0.32250E+00
         0.30985E+00
         0.31688E+00
         0.14151E+00
        -0.47895E-01
        -0.23224E+00
        -0.33490E+00
        -0.41250E+00
        -0.32975E+00
        -0.24164E+00
        -0.11157E+00
         0.11160E+00
         0.25310E+00
         0.37306E+00
         0.39831E+00
         0.32031E+00
         0.17401E+00
         0.21046E-01
         0.48420E-01
         0.24761E-01
        -0.40838E-01
        -0.82280E-02
        -0.18104E-01
         0.52580E-01
         0.31216E-01
         0.44090E-03
        -0.19595E-01
         0.63444E-02
        -0.22357E-01
         0.24383E-01
        -0.12787E-01
        -0.30765E-01
         0.70134E-01
        -0.54995E-02
        -0.98319E-02
         0.38523E-01
        -0.33439E-02
        -0.10119E-01
        -0.27554E-02
        -0.61956E-03
         0.33742E-01
        -0.58836E-01
         0.32204E-01
        -0.19519E-01
        -0.43961E-01
        -0.52183E-01
        -0.31575E-01
        -0.11519E-01
        -0.69779E-02
        -0.45837E-01
        -0.47382E-01
         0.93605E-02
         0.44246E-01
         0.38950E-01
        -0.65181E-03
         0.11905E-01
         0.26540E-02
        -0.99319E-02
        -0.12937E-01
         0.30810E-02
         0.49986E-02
         0.13414E-01
        -0.87908E-02
        -0.87260E-02
         0.17273E-01
        -0.72133E-02
        -0.16600E-01
         0.20903E-01
        -0.12522E-01
        -0.62650E-01
        -0.31788E-01
        -0.14509E-01
        -0.57243E-01
        -0.73805E-01
        -0.62372E-01
         0.17253E-01
         0.34803E-01
         0.23551E-01
         0.26147E-01
         0.43251E-02
         0.44293E-01
        -0.59629E-02
        -0.30143E-01
        -0.60331E-01
        -0.71070E-01
        -0.10760E+00
        -0.43678E-01
        -0.36357E-01
         0.64759E-02
         0.98910E-01
         0.86694E-01
         0.85633E-01
         0.11993E+00
         0.74721E-01
         0.46653E-01
        -0.96008E-02
        -0.36451E-01
         0.21078E-03
         0.44879E-02
        -0.10546E-01
         0.14280E-01
        -0.56780E-01
        -0.14009E-01
        -0.12051E-01
         0.21612E-01
        -0.61135E-01
        -0.71949E-01
        -0.78625E-01
        -0.25393E-01
        -0.38594E-01
        -0.20137E-01
        -0.86515E-02
        -0.31999E-02
        -0.23768E-01
         0.86252E-02
        -0.47838E-01
        -0.70528E-02
        -0.81155E-01
        -0.69387E-01
         0.28962E-01
        -0.73952E-01
         0.29407E-01
         0.46234E-01
         0.58177E-01
         0.33397E-01
        -0.18650E-01
        -0.61784E-01
         0.14245E-01
         0.42241E-01
        -0.16702E-01
        -0.71588E-02
        -0.55904E-01
         0.21723E-02
         0.36451E-01
         0.78532E-01
         0.89061E-01
         0.58845E-01
         0.22328E-01
        -0.84219E-01
        -0.52052E-01
        -0.50953E-01
        -0.35894E-01
         0.20547E-01
         0.40696E-01
         0.65427E-01
         0.10058E+00
         0.53176E-01
        -0.60508E-01
        -0.40217E-01
         0.10617E-01
        -0.91857E-01
        -0.10024E+00
        -0.65651E-01
        -0.93872E-02
         0.70723E-02
         0.12350E-01
         0.51027E-01
         0.76217E-01
         0.20972E-01
        -0.42684E-01
        -0.37493E-01
        -0.44393E-01
        -0.60750E-01
        -0.10301E+00
        -0.30761E-01
        -0.50105E-01
        -0.45262E-01
         0.55612E-01
         0.77723E-01
         0.83203E-01
         0.15147E+00
         0.79381E-01
         0.49441E-01
         0.30875E-01
         0.10474E+00
         0.70200E-01
        -0.24186E-01
        -0.27599E-02
        -0.71414E-01
         0.10752E+00
         0.33097E-01
        -0.27462E-01
        -0.19068E-01
         0.79349E-01
         0.11215E+00
         0.16634E+00
         0.21771E-01
         0.33993E-01
         0.18884E-01
        -0.37132E-01
        -0.26923E-01
         0.45240E-01
        -0.16326E-01
         0.77028E-01
        -0.50555E-02
         0.14866E+00
         0.95151E-01
        -0.64890E-01
         0.85011E-01
        -0.18361E-01
        -0.83566E-01
        -0.12974E+00
        -0.80703E-01
        -0.89186E-02
         0.69625E-01
        -0.70025E-01
        -0.96865E-01
         0.82720E-01
         0.16202E+00
         0.18193E+00
        -0.33984E-01
        -0.10806E+00
        -0.16178E+00
        -0.17672E+00
        -0.14572E+00
        -0.86020E-01
         0.18432E+00
         0.19347E+00
         0.15028E+00
         0.69553E-01
        -0.69862E-02
        -0.99373E-01
        -0.15379E+00
        -0.14510E+00
        -0.12340E+00
         0.57184E-01
        -0.21076E-01
         0.20845E+00
         0.16081E+00
         0.16327E+00
         0.12934E+00
         0.74774E-01
        -0.33987E-01
        -0.17397E+00
        -0.23922E+00
        -0.23443E+00
        -0.22855E+00
        -0.15724E+00
        -0.56221E-02
         0.11205E+00
         0.18455E+00
         0.19633E+00
         0.24695E+00
         0.15457E+00
         0.71967E-01
         0.32357E-01
        -0.10604E+00
        -0.18853E+00
        -0.12625E+00
        -0.14710E+00
        -0.58864E-01
        -0.23622E-01
        -0.30896E-01
        -0.15877E-01
         0.44708E-02
        -0.17446E-01
         0.49000E-02
        -0.29402E-01
        -0.19459E-01
        -0.12254E-01
         0.14621E-01
        -0.18516E-01
        -0.47788E-02
        -0.20058E-01
        -0.59475E-02
        -0.56774E-04
        -0.16212E-01
         0.90878E-02
         0.78926E-03
        -0.21329E-01
         0.12252E-01
        -0.14029E-01
        -0.22669E-02
        -0.25474E-01
        -0.50733E-01
         0.38870E-01
        -0.53561E-01
         0.25595E-01
         0.32350E-01
         0.36250E-01
         0.31928E-01
        -0.15910E-01
        -0.31607E-01
         0.10038E-01
         0.37026E-01
         0.81885E-03
         0.15993E-01
        -0.94977E-02
        -0.73311E-03
        -0.10437E-01
         0.21298E-03
         0.18012E-01
         0.15221E-01
        -0.20205E-02
        -0.20767E-01
         0.14486E-01
         0.24035E-01
        -0.55881E-02
        -0.31606E-02
        -0.39569E-03
         0.35358E-02
         0.18564E-01
         0.28849E-01
         0.21763E-01
         0.23347E-02
         0.94995E-01
         0.25796E-01
         0.19012E-01
         0.36155E-01
         0.20081E-01
        -0.22319E-01
        -0.58608E-01
        -0.65651E-01
        -0.30077E-01
        -0.84860E-01
        -0.74204E-01
        -0.72048E-02
         0.29452E-01
         0.49743E-01
         0.41967E-01
         0.10927E+00
         0.66225E-01
         0.12324E-01
         0.20361E-01
        -0.35183E-01
        -0.73133E-01
        -0.26084E-01
        -0.58380E-01
        -0.69357E-02
         0.18521E-01
         0.72529E-01
         0.29146E-01
        -0.26236E-01
        -0.61948E-02
        -0.46723E-01
         0.90589E-01
         0.31739E-01
        -0.43912E-02
        -0.19597E-01
         0.76249E-01
         0.10307E+00
         0.13421E+00
         0.23855E-01
         0.34336E-01
         0.34005E-01
        -0.56097E-02
        -0.10361E-01
         0.35819E-01
        -0.96863E-02
         0.66095E-01
        -0.23434E-02
         0.12836E+00
         0.74784E-01
        -0.51322E-01
         0.70369E-01
        -0.26100E-01
        -0.77648E-01
        -0.10297E+00
        -0.62788E-01
        -0.28331E-02
         0.55185E-01
        -0.45688E-01
        -0.56604E-01
         0.60761E-01
         0.10854E+00
         0.13570E+00
        -0.33129E-01
        -0.96795E-01
        -0.13811E+00
        -0.13989E+00
        -0.11275E+00
        -0.70632E-01
         0.14976E+00
         0.14794E+00
         0.12096E+00
         0.44969E-01
        -0.19813E-01
        -0.76441E-01
        -0.11134E+00
        -0.10985E+00
        -0.74359E-01
         0.88656E-01
         0.19004E-01
         0.17539E+00
         0.16203E+00
         0.16056E+00
         0.13739E+00
         0.66150E-01
        -0.43182E-01
        -0.14596E+00
        -0.21583E+00
        -0.22053E+00
        -0.20877E+00
        -0.12241E+00
         0.44527E-02
         0.10098E+00
         0.18250E+00
         0.19767E+00
         0.22916E+00
         0.16113E+00
         0.66608E-01
         0.13818E-01
        -0.11062E+00
        -0.19257E+00
        -0.16550E+00
        -0.16065E+00
        -0.63308E-01
        -0.20026E-01
        -0.42254E-01
        -0.29375E-01
         0.47044E-02
        -0.14335E-01
         0.24746E-01
        -0.40769E-01
        -0.14687E-01
        -0.83900E-03
         0.16642E-01
        -0.27459E-01
        -0.25684E-01
        -0.55197E-01
        -0.80961E-02
        -0.10380E-01
        -0.11607E-01
         0.17265E-01
         0.60051E-02
        -0.28146E-01
         0.15601E-01
        -0.25478E-01
         0.48614E-02
        -0.46835E-01
        -0.60596E-01
         0.41703E-01
        -0.58278E-01
         0.22157E-01
         0.40830E-01
         0.56177E-01
         0.42056E-01
        -0.36057E-02
        -0.37647E-01
         0.23309E-01
         0.50047E-01
        -0.23186E-01
        -0.29632E-01
        -0.52412E-01
         0.21760E-02
         0.18168E-01
         0.43881E-01
         0.65205E-01
         0.51037E-01
         0.22197E-01
        -0.59470E-01
        -0.42435E-01
        -0.19694E-01
        -0.18607E-01
         0.72234E-03
         0.24257E-01
         0.43055E-01
         0.58158E-01
         0.60896E-01
        -0.19641E-02
         0.10541E-01
         0.14916E-01
        -0.19381E-01
        -0.26809E-01
         0.39869E-02
         0.57759E-02
        -0.13224E-01
        -0.88051E-02
         0.98223E-02
         0.29470E-01
        -0.18549E-01
        -0.19442E-01
        -0.19340E-02
        -0.51752E-03
         0.72189E-02
        -0.96133E-02
         0.10619E-01
         0.14470E-01
        -0.57012E-02
         0.51083E-02
        -0.47657E-02
        -0.55675E-02
         0.18023E-01
        -0.88086E-02
         0.82427E-02
         0.17429E-01
         0.48427E-01
         0.21549E-01
        -0.76276E-02
         0.17971E-02
        -0.18736E-01
         0.58030E-01
         0.18560E-01
         0.98879E-03
        -0.19209E-01
         0.45557E-01
         0.55097E-01
         0.75108E-01
         0.10760E-01
         0.16421E-01
         0.24349E-01
        -0.62841E-02
         0.22316E-02
         0.19439E-01
        -0.10671E-01
         0.34706E-01
        -0.18844E-02
         0.75607E-01
         0.49117E-01
        -0.39552E-01
         0.48907E-01
        -0.24036E-01
        -0.52918E-01
        -0.65799E-01
        -0.44761E-01
         0.10583E-01
         0.38380E-01
        -0.19302E-01
        -0.32556E-01
         0.30685E-01
         0.54160E-01
         0.72628E-01
        -0.18182E-01
        -0.50980E-01
        -0.72143E-01
        -0.68433E-01
        -0.60832E-01
        -0.37650E-01
         0.81297E-01
         0.66811E-01
         0.54248E-01
         0.27589E-01
        -0.45542E-02
        -0.33893E-01
        -0.52158E-01
        -0.52151E-01
        -0.33927E-01
         0.41753E-01
         0.11742E-01
         0.72373E-01
         0.81872E-01
         0.77680E-01
         0.55758E-01
         0.26264E-01
        -0.20001E-01
        -0.68427E-01
        -0.89308E-01
        -0.92684E-01
        -0.79312E-01
        -0.35844E-01
         0.32897E-02
         0.32314E-01
         0.80390E-01
         0.98543E-01
         0.85830E-01
         0.65739E-01
         0.32857E-01
         0.21096E-02
        -0.47617E-01
        -0.76782E-01
        -0.74689E-01
        -0.66547E-01
        -0.30026E-01
        -0.20713E-01
        -0.54940E-01
        -0.30301E-01
         0.14226E-01
        -0.88667E-02
         0.32480E-01
        -0.57252E-01
        -0.20064E-01
         0.15669E-03
         0.19669E-01
        -0.38418E-01
        -0.39079E-01
        -0.75477E-01
        -0.91525E-02
        -0.10545E-01
        -0.22093E-01
         0.13029E-01
         0.93521E-02
        -0.31106E-01
         0.17647E-01
        -0.29842E-01
         0.97978E-02
        -0.65426E-01
        -0.65039E-01
         0.47329E-01
        -0.62387E-01
         0.26758E-01
         0.52992E-01
         0.70582E-01
         0.51613E-01
        -0.95112E-03
        -0.41037E-01
         0.32897E-01
         0.56751E-01
        -0.36148E-01
        -0.52043E-01
        -0.76245E-01
         0.13669E-01
         0.41083E-01
         0.68288E-01
         0.84608E-01
         0.69520E-01
         0.38432E-01
        -0.81077E-01
        -0.69083E-01
        -0.47424E-01
        -0.23588E-01
         0.91079E-02
         0.41474E-01
         0.65111E-01
         0.77322E-01
         0.68574E-01
        -0.31463E-01
         0.50097E-02
        -0.42553E-01
        -0.70597E-01
        -0.76594E-01
        -0.34000E-01
        -0.84147E-02
         0.84223E-02
         0.48266E-01
         0.75200E-01
         0.82990E-01
         0.47892E-01
         0.20097E-01
         0.23060E-02
        -0.24748E-01
        -0.49999E-01
        -0.72529E-01
        -0.65511E-01
        -0.41547E-01
        -0.19851E-01
         0.11186E-01
         0.37890E-01
         0.57564E-01
         0.72962E-01
         0.53562E-01
         0.34708E-01
         0.17143E-01
         0.41234E-01
         0.18161E-01
        -0.20379E-02
         0.14624E-02
        -0.16768E-01
         0.47541E-01
         0.11396E-01
         0.92084E-03
        -0.16566E-01
         0.36418E-01
         0.46255E-01
         0.64684E-01
         0.71049E-02
         0.15079E-01
         0.14967E-01
        -0.10392E-01
         0.28505E-02
         0.17572E-01
        -0.90242E-02
         0.29585E-01
        -0.14894E-02
         0.62458E-01
         0.47403E-01
        -0.30379E-01
         0.45309E-01
        -0.16965E-01
        -0.35478E-01
        -0.49019E-01
        -0.32427E-01
         0.74644E-02
         0.31027E-01
        -0.12136E-01
        -0.24501E-01
         0.20943E-01
         0.38330E-01
         0.58303E-01
        -0.75320E-02
        -0.30737E-01
        -0.53285E-01
        -0.58939E-01
        -0.49536E-01
        -0.27576E-01
         0.65667E-01
         0.49085E-01
         0.33727E-01
         0.18250E-01
        -0.17871E-02
        -0.21952E-01
        -0.37291E-01
        -0.43680E-01
        -0.32126E-01
         0.24373E-01
         0.57435E-02
         0.37274E-01
         0.50646E-01
         0.53853E-01
         0.37225E-01
         0.16066E-01
        -0.10038E-01
        -0.42020E-01
        -0.63453E-01
        -0.68061E-01
        -0.50811E-01
        -0.24887E-01
        -0.57018E-03
         0.22669E-01
         0.50778E-01
         0.56280E-01
         0.45228E-01
         0.32922E-01
         0.18152E-01
         0.45156E-03
        -0.28846E-01
        -0.52679E-01
        -0.58134E-01
        -0.41072E-01
        -0.18363E-01
        -0.18563E-01
        -0.52288E-01
        -0.24772E-01
         0.14173E-01
        -0.34664E-02
         0.30011E-01
        -0.55965E-01
        -0.20216E-01
         0.60663E-03
         0.21174E-01
        -0.34778E-01
        -0.35398E-01
        -0.69197E-01
        -0.53752E-02
        -0.53902E-02
        -0.23055E-01
         0.11724E-01
         0.51792E-02
        -0.24521E-01
         0.15360E-01
        -0.29471E-01
         0.55451E-02
        -0.61120E-01
        -0.53774E-01
         0.46996E-01
        -0.54416E-01
         0.27439E-01
         0.52316E-01
         0.65089E-01
         0.46323E-01
        -0.63397E-02
        -0.40409E-01
         0.27993E-01
         0.51142E-01
        -0.30471E-01
        -0.49704E-01
        -0.71900E-01
         0.15715E-01
         0.40049E-01
         0.65253E-01
         0.73749E-01
         0.57987E-01
         0.32398E-01
        -0.72558E-01
        -0.60911E-01
        -0.44989E-01
        -0.24012E-01
         0.84132E-02
         0.41237E-01
         0.63758E-01
         0.70793E-01
         0.58775E-01
        -0.33220E-01
        -0.24943E-02
        -0.50662E-01
        -0.69191E-01
        -0.69824E-01
        -0.37795E-01
        -0.19688E-01
         0.84877E-02
         0.49887E-01
         0.74155E-01
         0.87121E-01
         0.51941E-01
         0.24976E-01
        -0.30401E-02
        -0.31537E-01
        -0.58023E-01
        -0.79199E-01
        -0.61571E-01
        -0.43321E-01
        -0.21467E-01
         0.91704E-02
         0.45289E-01
         0.70456E-01
         0.76182E-01
         0.60464E-01
         0.31598E-01
         0.19560E-01
         0.39081E-01
         0.20549E-01
         0.58964E-03
         0.42028E-02
        -0.18425E-01
         0.42677E-01
         0.12446E-01
         0.34567E-02
        -0.15758E-01
         0.32426E-01
         0.41678E-01
         0.60555E-01
         0.52492E-02
         0.12892E-01
         0.17311E-01
        -0.10696E-01
         0.38500E-02
         0.18113E-01
        -0.13228E-01
         0.24027E-01
        -0.55430E-02
         0.53614E-01
         0.47009E-01
        -0.33335E-01
         0.46955E-01
        -0.21390E-01
        -0.37982E-01
        -0.46849E-01
        -0.33849E-01
         0.87761E-02
         0.32944E-01
        -0.10275E-01
        -0.23763E-01
         0.25184E-01
         0.39330E-01
         0.56350E-01
        -0.10891E-01
        -0.32086E-01
        -0.51117E-01
        -0.60469E-01
        -0.47140E-01
        -0.25899E-01
         0.62461E-01
         0.52753E-01
         0.37094E-01
         0.19421E-01
        -0.20309E-02
        -0.22678E-01
        -0.39267E-01
        -0.49282E-01
        -0.37439E-01
         0.28035E-01
         0.35306E-02
         0.41137E-01
         0.57552E-01
         0.60549E-01
         0.39009E-01
         0.14311E-01
        -0.43113E-02
        -0.36992E-01
        -0.65673E-01
        -0.79824E-01
        -0.51736E-01
        -0.17166E-01
         0.46426E-02
         0.22551E-01
         0.41908E-01
         0.50688E-01
         0.49028E-01
         0.35572E-01
         0.17456E-01
        -0.74846E-02
        -0.36065E-01
        -0.58036E-01
        -0.65997E-01
        -0.44423E-01
        -0.22529E-01
        -0.11753E-01
        -0.39091E-01
        -0.19450E-01
         0.75777E-02
        -0.16861E-02
         0.23140E-01
        -0.40544E-01
        -0.91410E-02
         0.45386E-03
         0.19307E-01
        -0.25839E-01
        -0.31834E-01
        -0.54920E-01
         0.80403E-03
        -0.35970E-02
        -0.15912E-01
         0.74576E-02
        -0.29106E-03
        -0.15003E-01
         0.13209E-01
        -0.22017E-01
         0.72718E-02
        -0.50271E-01
        -0.40349E-01
         0.32214E-01
        -0.40999E-01
         0.26598E-01
         0.40166E-01
         0.46620E-01
         0.33913E-01
        -0.57789E-02
        -0.30365E-01
         0.17493E-01
         0.35453E-01
        -0.23378E-01
        -0.40009E-01
        -0.56881E-01
         0.16458E-01
         0.33296E-01
         0.49939E-01
         0.56070E-01
         0.44876E-01
         0.27748E-01
        -0.58688E-01
        -0.46500E-01
        -0.32691E-01
        -0.17941E-01
         0.49214E-02
         0.30535E-01
         0.49713E-01
         0.56713E-01
         0.44923E-01
        -0.27381E-01
        -0.29369E-02
        -0.42030E-01
        -0.52877E-01
        -0.54464E-01
        -0.37525E-01
        -0.17759E-01
         0.48851E-02
         0.32580E-01
         0.61632E-01
         0.73549E-01
         0.43679E-01
         0.17381E-01
        -0.37873E-02
        -0.28001E-01
        -0.52045E-01
        -0.68816E-01
        -0.50503E-01
        -0.31046E-01
        -0.17072E-01
         0.36414E-02
         0.37029E-01
         0.62918E-01
         0.67885E-01
         0.50442E-01
         0.23337E-01
         0.16469E-01
         0.36139E-01
         0.22315E-01
         0.96326E-03
         0.65599E-02
        -0.15090E-01
         0.39403E-01
         0.12769E-01
         0.18997E-02
        -0.14895E-01
         0.32608E-01
         0.39538E-01
         0.53516E-01
         0.83687E-02
         0.13452E-01
         0.17515E-01
        -0.97647E-02
         0.23614E-02
         0.19026E-01
        -0.13918E-01
         0.23018E-01
        -0.70746E-02
         0.52123E-01
         0.46538E-01
        -0.33481E-01
         0.45212E-01
        -0.20411E-01
        -0.38730E-01
        -0.46916E-01
        -0.35463E-01
         0.90902E-02
         0.32043E-01
        -0.11247E-01
        -0.26135E-01
         0.25327E-01
         0.39013E-01
         0.51408E-01
        -0.12171E-01
        -0.32476E-01
        -0.48272E-01
        -0.55836E-01
        -0.45141E-01
        -0.26305E-01
         0.59041E-01
         0.50521E-01
         0.36838E-01
         0.18682E-01
        -0.31561E-02
        -0.24123E-01
        -0.42698E-01
        -0.51564E-01
        -0.36473E-01
         0.25191E-01
         0.99848E-03
         0.38952E-01
         0.48938E-01
         0.51044E-01
         0.31436E-01
         0.74044E-02
        -0.73049E-02
        -0.32493E-01
        -0.57279E-01
        -0.70295E-01
        -0.44827E-01
        -0.15466E-01
         0.57603E-03
         0.15523E-01
         0.38316E-01
         0.48087E-01
         0.48179E-01
         0.37888E-01
         0.17659E-01
        -0.94936E-02
        -0.35953E-01
        -0.59674E-01
        -0.68648E-01
        -0.46892E-01
        -0.24584E-01
        -0.11489E-01
        -0.25803E-01
        -0.12418E-01
         0.58473E-02
        -0.26861E-04
         0.18228E-01
        -0.21824E-01
        -0.57177E-02
        -0.79662E-02
         0.13854E-01
        -0.99289E-02
        -0.12699E-01
        -0.32110E-01
         0.47725E-02
        -0.53911E-03
        -0.18059E-01
         0.29731E-02
        -0.40457E-02
        -0.11297E-01
         0.12215E-01
        -0.10845E-01
         0.58860E-02
        -0.32571E-01
        -0.31613E-01
         0.24166E-01
        -0.33068E-01
         0.21101E-01
         0.25833E-01
         0.25361E-01
         0.21885E-01
        -0.22253E-02
        -0.19628E-01
         0.12683E-01
         0.23894E-01
        -0.13940E-01
        -0.25241E-01
        -0.40055E-01
         0.10765E-01
         0.20034E-01
         0.28326E-01
         0.34700E-01
         0.26896E-01
         0.16330E-01
        -0.42532E-01
        -0.33218E-01
        -0.20237E-01
        -0.84249E-02
         0.41523E-02
         0.19055E-01
         0.31784E-01
         0.38445E-01
         0.32422E-01
        -0.15448E-01
         0.18279E-03
        -0.26777E-01
        -0.51678E-01
        -0.46006E-01
        -0.24128E-01
        -0.15421E-01
         0.58070E-02
         0.33796E-01
         0.50861E-01
         0.55824E-01
         0.41569E-01
         0.17475E-01
        -0.47362E-02
        -0.19430E-01
        -0.33986E-01
        -0.51007E-01
        -0.36622E-01
        -0.18993E-01
        -0.87669E-02
         0.16194E-02
         0.22375E-01
         0.41881E-01
         0.45403E-01
         0.34013E-01
         0.18917E-01
         0.21063E-01
         0.39453E-01
         0.25164E-01
        -0.22713E-02
         0.10943E-01
        -0.15004E-01
         0.41080E-01
         0.18327E-01
         0.12464E-01
        -0.11270E-01
         0.31570E-01
         0.31756E-01
         0.46504E-01
         0.15067E-01
         0.21364E-01
         0.26568E-01
        -0.73734E-05
         0.29705E-02
         0.27680E-01
        -0.10461E-01
         0.29196E-01
        -0.40395E-02
         0.50121E-01
         0.49975E-01
        -0.40350E-01
         0.48832E-01
        -0.15782E-01
        -0.48521E-01
        -0.61045E-01
        -0.44510E-01
         0.10647E-01
         0.35378E-01
        -0.17165E-01
        -0.34051E-01
         0.26497E-01
         0.39325E-01
         0.49699E-01
        -0.30549E-03
        -0.32655E-01
        -0.57231E-01
        -0.56903E-01
        -0.46676E-01
        -0.28210E-01
         0.53281E-01
         0.45174E-01
         0.33656E-01
         0.20230E-01
        -0.35551E-02
        -0.29000E-01
        -0.48482E-01
        -0.56919E-01
        -0.41689E-01
         0.21669E-01
         0.19552E-02
         0.41569E-01
         0.51611E-01
         0.46833E-01
         0.27472E-01
         0.13735E-01
        -0.42573E-02
        -0.30553E-01
        -0.57366E-01
        -0.66938E-01
        -0.43724E-01
        -0.16383E-01
         0.63079E-02
         0.19187E-01
         0.38682E-01
         0.44175E-01
         0.41678E-01
         0.30776E-01
         0.15023E-01
        -0.90076E-02
        -0.38300E-01
        -0.58401E-01
        -0.70336E-01
        -0.56627E-01
        -0.27644E-01
        -0.81158E-02
        -0.12648E-01
        -0.10813E-01
         0.10882E-02
        -0.31781E-02
         0.13282E-01
        -0.16219E-02
         0.10651E-02
        -0.63432E-02
         0.12110E-01
         0.11737E-01
         0.19815E-01
         0.58246E-02
         0.76307E-02
         0.62336E-02
        -0.13369E-01
        -0.53216E-04
        -0.92412E-02
         0.23989E-02
         0.68120E-02
         0.76311E-02
         0.35803E-02
         0.24679E-02
        -0.30545E-02
         0.15304E-01
        -0.13103E-01
         0.72702E-02
         0.75913E-02
        -0.41593E-03
         0.40287E-02
        -0.96414E-02
        -0.14089E-01
         0.68484E-02
         0.24117E-01
        -0.27637E-02
        -0.51906E-02
        -0.81580E-02
        -0.78671E-02
        -0.84533E-02
        -0.42872E-02
        -0.32632E-02
        -0.68143E-02
        -0.40580E-02
        -0.51624E-02
        -0.33497E-02
        -0.24429E-03
        -0.49251E-02
         0.10740E-02
         0.13090E-01
         0.21211E-01
         0.25130E-01
         0.27092E-01
         0.80928E-02
         0.74398E-02
         0.32979E-02
        -0.13335E-01
         0.42146E-02
         0.15567E-01
        -0.42871E-02
        -0.37810E-02
         0.11227E-01
         0.17332E-01
         0.21816E-01
         0.21042E-01
         0.99072E-02
         0.55779E-03
        -0.33034E-02
        -0.53471E-02
        -0.19671E-01
        -0.25532E-02
         0.94009E-02
         0.37060E-02
         0.58951E-02
         0.97178E-02
         0.75654E-02
         0.13211E-01
         0.13723E-01
         0.13454E-01
         0.46860E-01
         0.81252E-01
         0.66008E-01
        -0.10667E-01
         0.15683E-01
        -0.38050E-01
         0.40934E-01
         0.15369E-01
         0.14377E-01
        -0.51162E-01
         0.28590E-01
         0.22997E-01
         0.38369E-01
         0.13881E-01
         0.24691E-01
         0.73481E-01
        -0.17244E-01
         0.41698E-01
         0.40520E-01
        -0.20749E-01
         0.38258E-01
         0.21378E-02
         0.31120E-01
         0.50868E-01
        -0.88564E-01
         0.60456E-01
        -0.43724E-01
        -0.78058E-01
        -0.65538E-01
        -0.63159E-01
         0.36931E-01
         0.63088E-01
        -0.29743E-01
        -0.78603E-01
         0.42752E-01
         0.64704E-01
         0.79167E-01
        -0.78327E-02
        -0.33557E-01
        -0.35798E-01
        -0.30853E-01
        -0.38619E-01
        -0.24269E-01
         0.35276E-01
         0.52769E-01
         0.46970E-01
         0.40672E-01
         0.13476E-02
        -0.50074E-01
        -0.80504E-01
        -0.70282E-01
        -0.69684E-01
         0.23132E-01
        -0.38694E-02
         0.11895E-01
         0.50618E-01
         0.43700E-01
         0.25794E-01
         0.13250E-01
         0.13842E-01
        -0.29173E-01
        -0.32698E-01
        -0.58187E-02
        -0.26874E-01
        -0.16780E-01
         0.24969E-02
         0.28893E-01
         0.38241E-01
         0.53643E-01
         0.26975E-01
         0.13342E-01
         0.21736E-01
         0.98847E-02
        -0.37820E-01
        -0.80040E-01
        -0.43485E-01
        -0.48495E-01
        -0.42164E-01
         0.41566E-02
         0.82189E-02
         0.12349E-01
        -0.28710E-01
         0.12058E-02
        -0.21930E-01
        -0.97802E-02
         0.29776E-02
        -0.77298E-03
        -0.26682E-02
        -0.11590E-01
         0.12202E-01
         0.29281E-01
         0.41729E-02
         0.63448E-02
         0.92258E-02
        -0.11813E-01
        -0.16306E-01
        -0.20525E-02
        -0.18183E-02
         0.64063E-02
         0.24752E-02
         0.17414E-01
        -0.33034E-02
        -0.18836E-01
         0.25473E-02
        -0.15160E-03
        -0.25066E-02
         0.18372E-01
         0.10377E-01
         0.87224E-02
         0.15979E-01
        -0.33425E-01
        -0.57112E-01
         0.20389E-01
         0.43866E-01
         0.45755E-01
         0.26668E-02
        -0.28579E-03
         0.41490E-02
         0.29286E-02
         0.21202E-01
         0.15727E-01
         0.16476E-01
         0.16201E-01
         0.21511E-01
         0.11238E-01
        -0.14099E-01
        -0.39893E-01
        -0.53196E-01
        -0.55257E-01
        -0.48113E-01
         0.10157E-01
        -0.20009E-01
         0.63975E-01
         0.43605E-01
         0.29464E-01
         0.32437E-01
         0.21542E-01
        -0.40598E-02
        -0.13045E-01
        -0.54018E-01
        -0.57699E-01
        -0.12335E-01
        -0.10629E-01
        -0.91868E-03
         0.19305E-01
         0.41474E-01
         0.54427E-01
         0.52138E-01
         0.43746E-01
         0.16788E-01
        -0.20253E-01
        -0.39992E-01
        -0.55790E-01
        -0.56586E-01
        -0.54464E-01
        -0.32791E-01
         0.11373E+00
         0.90145E-01
        -0.83417E-01
         0.28417E-01
        -0.10083E-01
         0.15913E-01
         0.34593E+00
         0.18293E+00
        -0.17557E-01
        -0.12026E+00
         0.28533E+00
         0.26649E+00
         0.31543E+00
         0.13713E+00
         0.10203E+00
         0.74166E-01
        -0.42536E-01
        -0.87589E-01
         0.26957E+00
         0.57426E-01
         0.23550E+00
         0.67139E-02
         0.35692E+00
         0.42365E+00
        -0.16774E+00
         0.28472E+00
        -0.13521E+00
        -0.28389E+00
        -0.36953E+00
        -0.19623E+00
        -0.33401E-01
         0.18979E-01
        -0.15739E-01
        -0.65761E-01
        -0.44829E-01
        -0.17823E-01
         0.83384E-01
        -0.79942E-01
        -0.26766E+00
        -0.38420E+00
        -0.39910E+00
        -0.36006E+00
        -0.24353E+00
         0.24154E+00
         0.56021E-01
        -0.48711E-03
        -0.50921E-01
        -0.40432E-01
        -0.57821E-01
        -0.14200E+00
        -0.19973E+00
        -0.12146E+00
         0.25774E-02
        -0.15303E-01
         0.16232E+00
         0.45046E-02
         0.10144E+00
         0.14296E+00
         0.90690E-01
        -0.60356E-02
        -0.52051E-01
        -0.15275E+00
        -0.13893E+00
         0.19649E+00
         0.27521E-01
         0.51774E-01
         0.89720E-01
         0.52145E-01
        -0.65415E-01
         0.70365E-01
         0.11940E+00
        -0.13438E-01
        -0.11583E+00
        -0.12245E+00
        -0.13596E+00
        -0.17383E+00
        -0.10459E+00
         0.15717E-01
  
SCALARS                      strain_eq  double 1
LOOKUP_TABLE default
         0.19528E+01
         0.17460E+01
         0.17605E+01
         0.19561E+01
         0.33874E-08
         0.35830E-08
         0.34036E-08
         0.37745E-08
         0.15148E+01
         0.15790E+01
         0.26258E-08
         0.30333E-08
         0.15338E+01
         0.15755E+01
         0.34505E-08
         0.30156E-08
         0.21178E+01
         0.17462E+01
         0.34609E-08
         0.29414E-08
         0.14596E+01
         0.14393E+01
         0.14923E+01
         0.29322E-08
         0.25099E-08
         0.30333E-08
         0.15509E+01
         0.16239E+01
         0.31025E-08
         0.25878E-08
         0.19658E+01
         0.19121E+01
         0.21718E+01
         0.33853E-08
         0.31299E-08
         0.39120E-08
         0.17037E+01
         0.17489E+01
         0.27111E-08
         0.28169E-08
         0.16014E+01
         0.17030E+01
         0.23652E-08
         0.20122E-08
         0.15147E+01
         0.16434E+01
         0.25413E-08
         0.30206E-08
         0.17428E+01
         0.28158E-08
         0.16588E+01
         0.28509E-08
         0.16249E+01
         0.28071E-08
         0.15878E+01
         0.25738E-08
         0.15760E+01
         0.16777E+01
         0.20892E-08
         0.26331E-08
         0.18238E+01
         0.16482E+01
         0.31764E-08
         0.25322E-08
         0.18952E+01
         0.33535E-08
         0.17897E+01
         0.31367E-08
         0.13703E+01
         0.15063E+01
         0.24182E-08
         0.32252E-08
         0.15844E+01
         0.31575E-08
         0.16720E+01
         0.21276E-08
         0.15790E+01
         0.17730E-08
         0.14310E+01
         0.17257E-08
         0.13791E+01
         0.15760E+01
         0.18400E-08
         0.18506E-08
         0.16930E+01
         0.18074E-08
         0.14773E+01
         0.28194E-08
         0.13817E+01
         0.26173E-08
         0.13172E+01
         0.14753E+01
         0.25507E-08
         0.24047E-08
         0.15546E+01
         0.25579E-08
         0.15251E+01
         0.25236E-08
         0.14252E+01
         0.26689E-08
         0.14006E+01
         0.15496E+01
         0.32391E-08
         0.29212E-08
         0.10926E+01
         0.10938E+01
         0.17962E-08
         0.18686E-08
         0.99687E+00
         0.22444E-08
         0.11966E+01
         0.22511E-08
         0.11029E+01
         0.23802E-08
         0.98817E+00
         0.18524E-08
         0.11388E+01
         0.15285E-08
         0.10531E+01
         0.12957E-08
         0.10399E+01
         0.12991E-08
         0.10136E+01
         0.14362E-08
         0.11214E+01
         0.12738E-08
         0.12587E+01
         0.14975E-08
         0.11863E+01
         0.11508E-08
         0.11221E+01
         0.11070E-08
         0.10831E+01
         0.13788E-08
         0.11531E+01
         0.16977E-08
         0.12100E+01
         0.18712E-08
         0.98890E+00
         0.19646E-08
         0.10879E+01
         0.17572E-08
         0.12163E+01
         0.22079E-08
         0.10595E+01
         0.15374E-08
         0.10664E+01
         0.17188E-08
         0.10726E+01
         0.22085E-08
         0.11788E+01
         0.19614E-08
         0.12207E+01
         0.25242E-08
         0.11205E+01
         0.17050E-08
         0.18168E+01
         0.13980E+01
         0.13643E+01
         0.17308E+01
         0.10389E+01
         0.11181E+01
         0.11794E+01
         0.14114E+01
         0.20336E+01
         0.16682E+01
         0.10598E+01
         0.92841E+00
         0.10139E+01
         0.11831E+01
         0.10345E+01
         0.18125E+01
         0.18260E+01
         0.21003E+01
         0.14860E+01
         0.15057E+01
         0.11509E+01
         0.12123E+01
         0.10933E+01
         0.13091E+01
         0.16526E+01
         0.13349E+01
         0.13105E+01
         0.12970E+01
         0.11737E+01
         0.14101E+01
         0.15199E+01
         0.12232E+01
         0.16437E+01
         0.14600E+01
         0.91871E+00
         0.10324E+01
         0.11217E+01
         0.10741E+01
         0.10352E+01
         0.90482E+00
         0.83677E+00
         0.10526E+01
         0.11728E+01
         0.10636E+01
         0.94473E+00
         0.86156E+00
         0.99252E+00
         0.10695E+01
         0.10890E+01
         0.10370E+01
         0.99744E+00
         0.11368E+01
         0.72739E+00
         0.71779E+00
         0.74189E+00
         0.87743E+00
         0.70810E+00
         0.58339E+00
         0.75152E+00
         0.70817E+00
         0.65314E+00
         0.64814E+00
         0.68190E+00
         0.88181E+00
         0.81383E+00
         0.73429E+00
         0.69116E+00
         0.77341E+00
         0.88057E+00
         0.69351E+00
         0.74372E+00
         0.78054E+00
         0.70412E+00
         0.77025E+00
         0.74635E+00
         0.81081E+00
         0.88716E+00
         0.75580E+00
         0.16212E+01
         0.13259E+01
         0.12832E+01
         0.15776E+01
         0.10250E+01
         0.10917E+01
         0.11833E+01
         0.13877E+01
         0.17018E+01
         0.15610E+01
         0.10806E+01
         0.92759E+00
         0.98082E+00
         0.11855E+01
         0.99909E+00
         0.16114E+01
         0.16247E+01
         0.17992E+01
         0.14078E+01
         0.14422E+01
         0.11442E+01
         0.11685E+01
         0.11102E+01
         0.12729E+01
         0.15469E+01
         0.12818E+01
         0.12881E+01
         0.12662E+01
         0.11456E+01
         0.13593E+01
         0.14467E+01
         0.11887E+01
         0.15182E+01
         0.13659E+01
         0.89487E+00
         0.98271E+00
         0.10581E+01
         0.10221E+01
         0.98514E+00
         0.88128E+00
         0.83943E+00
         0.10057E+01
         0.11168E+01
         0.10514E+01
         0.91597E+00
         0.84691E+00
         0.97807E+00
         0.10960E+01
         0.10951E+01
         0.99806E+00
         0.95682E+00
         0.10819E+01
         0.75414E+00
         0.76106E+00
         0.83013E+00
         0.81454E+00
         0.71458E+00
         0.68285E+00
         0.70348E+00
         0.74021E+00
         0.70512E+00
         0.71878E+00
         0.69812E+00
         0.80775E+00
         0.75369E+00
         0.72077E+00
         0.70371E+00
         0.74255E+00
         0.82332E+00
         0.72422E+00
         0.76964E+00
         0.81584E+00
         0.74849E+00
         0.77111E+00
         0.79110E+00
         0.81881E+00
         0.86472E+00
         0.79864E+00
         0.12330E+01
         0.91244E+00
         0.87228E+00
         0.11748E+01
         0.69584E+00
         0.75478E+00
         0.78620E+00
         0.97225E+00
         0.13568E+01
         0.11511E+01
         0.71081E+00
         0.66058E+00
         0.68297E+00
         0.78206E+00
         0.68006E+00
         0.11959E+01
         0.12664E+01
         0.14145E+01
         0.99282E+00
         0.10431E+01
         0.78051E+00
         0.81195E+00
         0.74893E+00
         0.86827E+00
         0.11476E+01
         0.87189E+00
         0.87468E+00
         0.87232E+00
         0.77426E+00
         0.96381E+00
         0.10341E+01
         0.79324E+00
         0.11193E+01
         0.97099E+00
         0.63727E+00
         0.66659E+00
         0.70639E+00
         0.68668E+00
         0.66638E+00
         0.60152E+00
         0.57459E+00
         0.67083E+00
         0.77378E+00
         0.70383E+00
         0.61648E+00
         0.61550E+00
         0.68402E+00
         0.75212E+00
         0.74154E+00
         0.68053E+00
         0.67336E+00
         0.75508E+00
         0.72391E+00
         0.75305E+00
         0.82589E+00
         0.73985E+00
         0.75033E+00
         0.76732E+00
         0.72611E+00
         0.73408E+00
         0.72596E+00
         0.77457E+00
         0.72834E+00
         0.77086E+00
         0.75953E+00
         0.73049E+00
         0.71800E+00
         0.75075E+00
         0.78432E+00
         0.77250E+00
         0.72305E+00
         0.78611E+00
         0.75694E+00
         0.70234E+00
         0.74098E+00
         0.73009E+00
         0.81676E+00
         0.77335E+00
         0.10656E+01
         0.88745E+00
         0.84045E+00
         0.10492E+01
         0.75306E+00
         0.79020E+00
         0.85294E+00
         0.95203E+00
         0.10260E+01
         0.10388E+01
         0.82919E+00
         0.78402E+00
         0.78142E+00
         0.86372E+00
         0.77157E+00
         0.10343E+01
         0.10581E+01
         0.11122E+01
         0.94729E+00
         0.99219E+00
         0.80700E+00
         0.83217E+00
         0.80704E+00
         0.86390E+00
         0.10377E+01
         0.85895E+00
         0.90207E+00
         0.88146E+00
         0.82032E+00
         0.93465E+00
         0.96921E+00
         0.79303E+00
         0.10164E+01
         0.90780E+00
         0.74999E+00
         0.75523E+00
         0.77321E+00
         0.78561E+00
         0.78909E+00
         0.78612E+00
         0.79956E+00
         0.78190E+00
         0.81662E+00
         0.78290E+00
         0.74347E+00
         0.77262E+00
         0.77818E+00
         0.82831E+00
         0.80294E+00
         0.76572E+00
         0.78651E+00
         0.79547E+00
         0.90244E+00
         0.95041E+00
         0.10285E+01
         0.94154E+00
         0.97902E+00
         0.94071E+00
         0.81594E+00
         0.84842E+00
         0.91146E+00
         0.95883E+00
         0.87993E+00
         0.94536E+00
         0.92923E+00
         0.88691E+00
         0.93366E+00
         0.98781E+00
         0.99478E+00
         0.10608E+01
         0.92189E+00
         0.96152E+00
         0.10092E+01
         0.96268E+00
         0.10264E+01
         0.93077E+00
         0.98016E+00
         0.99144E+00
         0.38469E+00
         0.44444E+00
         0.46985E+00
         0.49066E+00
         0.60191E+00
         0.58848E+00
         0.48309E+00
         0.38656E+00
         0.34480E+00
         0.37323E+00
         0.53541E+00
         0.66662E+00
         0.63558E+00
         0.48108E+00
         0.63153E+00
         0.42182E+00
         0.39928E+00
         0.44122E+00
         0.47605E+00
         0.48835E+00
         0.57352E+00
         0.57044E+00
         0.60553E+00
         0.50195E+00
         0.41980E+00
         0.47976E+00
         0.45636E+00
         0.46355E+00
         0.50110E+00
         0.48145E+00
         0.49110E+00
         0.51033E+00
         0.50667E+00
         0.51529E+00
         0.67655E+00
         0.62196E+00
         0.61068E+00
         0.60258E+00
         0.59696E+00
         0.64492E+00
         0.71958E+00
         0.61500E+00
         0.58476E+00
         0.62727E+00
         0.69075E+00
         0.77194E+00
         0.66704E+00
         0.61923E+00
         0.58911E+00
         0.62515E+00
         0.69375E+00
         0.62089E+00
         0.96388E+00
         0.10409E+01
         0.10660E+01
         0.10184E+01
         0.10195E+01
         0.95957E+00
         0.86665E+00
         0.88035E+00
         0.96685E+00
         0.11011E+01
         0.10385E+01
         0.10330E+01
         0.95031E+00
         0.94750E+00
         0.99090E+00
         0.10680E+01
         0.10970E+01
         0.11793E+01
         0.10193E+01
         0.10376E+01
         0.10832E+01
         0.10103E+01
         0.10585E+01
         0.94458E+00
         0.99775E+00
         0.10311E+01
         0.48287E+00
         0.45845E+00
         0.46642E+00
         0.46509E+00
         0.57690E+00
         0.54671E+00
         0.49584E+00
         0.47926E+00
         0.49746E+00
         0.45904E+00
         0.52578E+00
         0.61785E+00
         0.60493E+00
         0.48776E+00
         0.57463E+00
         0.47675E+00
         0.46527E+00
         0.48618E+00
         0.46185E+00
         0.43740E+00
         0.54812E+00
         0.53512E+00
         0.57210E+00
         0.49224E+00
         0.42642E+00
         0.47712E+00
         0.45305E+00
         0.46187E+00
         0.51717E+00
         0.44641E+00
         0.44152E+00
         0.47901E+00
         0.45602E+00
         0.48693E+00
         0.64486E+00
         0.59070E+00
         0.57549E+00
         0.56285E+00
         0.58950E+00
         0.66761E+00
         0.74180E+00
         0.62300E+00
         0.55423E+00
         0.58605E+00
         0.64226E+00
         0.72171E+00
         0.61336E+00
         0.56163E+00
         0.56387E+00
         0.62452E+00
         0.69047E+00
         0.59418E+00
         0.86503E+00
         0.94351E+00
         0.94745E+00
         0.98125E+00
         0.10078E+01
         0.97107E+00
         0.94929E+00
         0.92905E+00
         0.97123E+00
         0.10281E+01
         0.97818E+00
         0.99636E+00
         0.93963E+00
         0.93822E+00
         0.97731E+00
         0.10123E+01
         0.10392E+01
         0.10876E+01
         0.95495E+00
         0.97741E+00
         0.10413E+01
         0.10184E+01
         0.10233E+01
         0.91937E+00
         0.95191E+00
         0.94935E+00
         0.58063E-01
         0.17412E+00
         0.21621E+00
         0.88058E-01
         0.42803E+00
         0.36947E+00
         0.20455E+00
         0.69095E-01
         0.83635E-01
         0.84023E-01
         0.25420E+00
         0.48053E+00
         0.47546E+00
         0.17011E+00
         0.42816E+00
         0.54159E-01
         0.11088E+00
         0.13710E+00
         0.10286E+00
         0.69081E-01
         0.40148E+00
         0.36884E+00
         0.46210E+00
         0.23051E+00
         0.98434E-01
         0.20413E+00
         0.12013E+00
         0.16744E+00
         0.28821E+00
         0.13227E+00
         0.98460E-01
         0.27457E+00
         0.10529E+00
         0.18760E+00
         0.55119E+00
         0.48300E+00
         0.46446E+00
         0.42179E+00
         0.45218E+00
         0.54661E+00
         0.66595E+00
         0.50960E+00
         0.40437E+00
         0.50454E+00
         0.60070E+00
         0.71117E+00
         0.51627E+00
         0.38042E+00
         0.38423E+00
         0.48228E+00
         0.59053E+00
         0.44493E+00
         0.89188E+00
         0.88944E+00
         0.93232E+00
         0.95438E+00
         0.97069E+00
         0.96312E+00
         0.96627E+00
         0.93888E+00
         0.95926E+00
         0.10392E+01
         0.10240E+01
         0.10139E+01
         0.95462E+00
         0.93659E+00
         0.96987E+00
         0.99441E+00
         0.10266E+01
         0.11001E+01
         0.10366E+01
         0.98544E+00
         0.95368E+00
         0.94674E+00
         0.10036E+01
         0.95579E+00
         0.91762E+00
         0.86609E+00
         0.33613E+00
         0.34279E+00
         0.35220E+00
         0.30736E+00
         0.38319E+00
         0.35919E+00
         0.37932E+00
         0.36937E+00
         0.27911E+00
         0.29212E+00
         0.39422E+00
         0.41096E+00
         0.40131E+00
         0.37679E+00
         0.39559E+00
         0.33030E+00
         0.27906E+00
         0.28833E+00
         0.34404E+00
         0.30845E+00
         0.40080E+00
         0.37965E+00
         0.39361E+00
         0.38454E+00
         0.28836E+00
         0.37293E+00
         0.34842E+00
         0.35497E+00
         0.39688E+00
         0.33375E+00
         0.32837E+00
         0.36112E+00
         0.31696E+00
         0.33559E+00
         0.42853E+00
         0.40191E+00
         0.38398E+00
         0.40682E+00
         0.42553E+00
         0.45966E+00
         0.49776E+00
         0.44083E+00
         0.39464E+00
         0.37684E+00
         0.41890E+00
         0.48290E+00
         0.41449E+00
         0.36467E+00
         0.38447E+00
         0.42998E+00
         0.47697E+00
         0.41138E+00
         0.54250E+00
         0.54093E+00
         0.56085E+00
         0.60154E+00
         0.60506E+00
         0.60376E+00
         0.61857E+00
         0.60238E+00
         0.60932E+00
         0.59125E+00
         0.57070E+00
         0.57262E+00
         0.57723E+00
         0.55690E+00
         0.57417E+00
         0.58171E+00
         0.59122E+00
         0.62058E+00
         0.61635E+00
         0.60849E+00
         0.61124E+00
         0.61979E+00
         0.62714E+00
         0.61393E+00
         0.59404E+00
         0.56293E+00
         0.84827E-01
         0.10449E+00
         0.81949E-01
         0.91308E-01
         0.18592E+00
         0.14895E+00
         0.12007E+00
         0.68200E-01
         0.12345E+00
         0.10439E+00
         0.12691E+00
         0.21638E+00
         0.22348E+00
         0.84950E-01
         0.18845E+00
         0.86496E-01
         0.10582E+00
         0.11338E+00
         0.61505E-01
         0.67097E-01
         0.16878E+00
         0.15347E+00
         0.21116E+00
         0.10290E+00
         0.10120E+00
         0.91079E-01
         0.66523E-01
         0.10119E+00
         0.14771E+00
         0.92401E-01
         0.47973E-01
         0.10911E+00
         0.64522E-01
         0.79956E-01
         0.25173E+00
         0.22322E+00
         0.21686E+00
         0.19298E+00
         0.21574E+00
         0.26440E+00
         0.32034E+00
         0.24224E+00
         0.18342E+00
         0.23312E+00
         0.26899E+00
         0.32979E+00
         0.22141E+00
         0.15814E+00
         0.16023E+00
         0.20094E+00
         0.25615E+00
         0.18575E+00
         0.42988E+00
         0.42528E+00
         0.46531E+00
         0.48823E+00
         0.46964E+00
         0.46444E+00
         0.51407E+00
         0.49712E+00
         0.51997E+00
         0.54507E+00
         0.54172E+00
         0.52460E+00
         0.48075E+00
         0.44735E+00
         0.46747E+00
         0.49115E+00
         0.52644E+00
         0.55147E+00
         0.54956E+00
         0.52456E+00
         0.47324E+00
         0.45681E+00
         0.47401E+00
         0.46436E+00
         0.45350E+00
         0.43435E+00
         0.30188E+00
         0.27940E+00
         0.27732E+00
         0.27028E+00
         0.22962E+00
         0.21591E+00
         0.28946E+00
         0.31371E+00
         0.29049E+00
         0.28989E+00
         0.28041E+00
         0.23550E+00
         0.23598E+00
         0.29007E+00
         0.24777E+00
         0.31409E+00
         0.29055E+00
         0.29492E+00
         0.28861E+00
         0.27684E+00
         0.25255E+00
         0.25682E+00
         0.22853E+00
         0.29518E+00
         0.28681E+00
         0.29185E+00
         0.29158E+00
         0.29271E+00
         0.29256E+00
         0.28359E+00
         0.29221E+00
         0.26038E+00
         0.29020E+00
         0.26417E+00
         0.23014E+00
         0.23936E+00
         0.23106E+00
         0.26276E+00
         0.27046E+00
         0.27623E+00
         0.28600E+00
         0.27593E+00
         0.26621E+00
         0.21400E+00
         0.22262E+00
         0.23195E+00
         0.22349E+00
         0.20971E+00
         0.22801E+00
         0.23969E+00
         0.24673E+00
         0.24130E+00
         0.22366E+00
         0.21744E+00
         0.23433E+00
         0.27100E+00
         0.25056E+00
         0.24524E+00
         0.30669E+00
         0.28002E+00
         0.27325E+00
         0.25967E+00
         0.25275E+00
         0.25828E+00
         0.26292E+00
         0.25442E+00
         0.26065E+00
         0.23648E+00
         0.25074E+00
         0.23554E+00
         0.24180E+00
         0.26001E+00
         0.25629E+00
         0.26046E+00
         0.24160E+00
         0.23681E+00
         0.22767E+00
         0.23244E+00
         0.92548E-01
         0.98998E-01
         0.68689E-01
         0.97638E-01
         0.93463E-01
         0.85886E-01
         0.10427E+00
         0.75853E-01
         0.81873E-01
         0.99873E-01
         0.10589E+00
         0.13897E+00
         0.14248E+00
         0.97045E-01
         0.12496E+00
         0.73204E-01
         0.80121E-01
         0.93259E-01
         0.88237E-01
         0.10674E+00
         0.11728E+00
         0.10986E+00
         0.14325E+00
         0.88198E-01
         0.11477E+00
         0.85396E-01
         0.99903E-01
         0.11430E+00
         0.12220E+00
         0.12298E+00
         0.58480E-01
         0.90712E-01
         0.52831E-01
         0.76906E-01
         0.10981E+00
         0.11526E+00
         0.12835E+00
         0.11100E+00
         0.11773E+00
         0.13040E+00
         0.13104E+00
         0.12843E+00
         0.11709E+00
         0.15277E+00
         0.12929E+00
         0.12258E+00
         0.10981E+00
         0.10325E+00
         0.88471E-01
         0.94789E-01
         0.98708E-01
         0.86458E-01
         0.15668E+00
         0.15022E+00
         0.16515E+00
         0.17903E+00
         0.17000E+00
         0.16380E+00
         0.18209E+00
         0.17525E+00
         0.19919E+00
         0.19957E+00
         0.19372E+00
         0.18852E+00
         0.16759E+00
         0.14711E+00
         0.15463E+00
         0.17236E+00
         0.19670E+00
         0.18424E+00
         0.17549E+00
         0.17950E+00
         0.16557E+00
         0.15458E+00
         0.15275E+00
         0.15056E+00
         0.15375E+00
         0.15390E+00
         0.28722E+00
         0.26063E+00
         0.24258E+00
         0.25451E+00
         0.17738E+00
         0.18036E+00
         0.26377E+00
         0.28881E+00
         0.31192E+00
         0.28681E+00
         0.24035E+00
         0.17956E+00
         0.19866E+00
         0.25317E+00
         0.18414E+00
         0.30116E+00
         0.29410E+00
         0.29009E+00
         0.26746E+00
         0.25271E+00
         0.19566E+00
         0.19587E+00
         0.18583E+00
         0.26713E+00
         0.26954E+00
         0.26746E+00
         0.25717E+00
         0.25148E+00
         0.24306E+00
         0.24431E+00
         0.26683E+00
         0.22825E+00
         0.27011E+00
         0.23957E+00
         0.15740E+00
         0.18356E+00
         0.19679E+00
         0.19961E+00
         0.20558E+00
         0.21330E+00
         0.21604E+00
         0.21315E+00
         0.20157E+00
         0.18269E+00
         0.17674E+00
         0.15390E+00
         0.16093E+00
         0.16714E+00
         0.18952E+00
         0.18956E+00
         0.17988E+00
         0.18968E+00
         0.11281E+00
         0.12117E+00
         0.12670E+00
         0.16563E+00
         0.16829E+00
         0.15031E+00
         0.16177E+00
         0.14560E+00
         0.15816E+00
         0.15721E+00
         0.15698E+00
         0.14941E+00
         0.13862E+00
         0.13222E+00
         0.14452E+00
         0.14301E+00
         0.16495E+00
         0.14212E+00
         0.11506E+00
         0.12395E+00
         0.13308E+00
         0.14175E+00
         0.13746E+00
         0.13485E+00
         0.13102E+00
         0.13096E+00
         0.11594E+00
         0.11132E+00
         0.83300E-01
         0.11573E+00
         0.84455E-01
         0.87218E-01
         0.10798E+00
         0.91169E-01
         0.75623E-01
         0.10883E+00
         0.11076E+00
         0.14934E+00
         0.15062E+00
         0.10587E+00
         0.12950E+00
         0.85386E-01
         0.87147E-01
         0.10051E+00
         0.10074E+00
         0.11911E+00
         0.12504E+00
         0.11682E+00
         0.14828E+00
         0.94820E-01
         0.12599E+00
         0.97027E-01
         0.11318E+00
         0.12812E+00
         0.12993E+00
         0.13758E+00
         0.69451E-01
         0.93158E-01
         0.66231E-01
         0.81541E-01
         0.88978E-01
         0.10275E+00
         0.12854E+00
         0.11083E+00
         0.11000E+00
         0.10530E+00
         0.94492E-01
         0.11265E+00
         0.11643E+00
         0.15639E+00
         0.11754E+00
         0.92657E-01
         0.96461E-01
         0.10019E+00
         0.83106E-01
         0.82560E-01
         0.80601E-01
         0.80207E-01
         0.99907E-01
         0.85346E-01
         0.91681E-01
         0.93767E-01
         0.99578E-01
         0.97129E-01
         0.95211E-01
         0.91836E-01
         0.10417E+00
         0.12035E+00
         0.12398E+00
         0.11051E+00
         0.95867E-01
         0.87854E-01
         0.87325E-01
         0.98728E-01
         0.99796E-01
         0.97533E-01
         0.10035E+00
         0.86434E-01
         0.73696E-01
         0.73516E-01
         0.90485E-01
         0.10361E+00
         0.86419E-01
         0.79708E-01
         0.26540E+00
         0.25019E+00
         0.22505E+00
         0.23675E+00
         0.16154E+00
         0.16842E+00
         0.25445E+00
         0.27208E+00
         0.26941E+00
         0.25503E+00
         0.22216E+00
         0.15223E+00
         0.17703E+00
         0.23111E+00
         0.15182E+00
         0.26764E+00
         0.25727E+00
         0.25647E+00
         0.24772E+00
         0.23138E+00
         0.17302E+00
         0.16771E+00
         0.16657E+00
         0.24964E+00
         0.24020E+00
         0.24947E+00
         0.22942E+00
         0.22480E+00
         0.21719E+00
         0.21860E+00
         0.24441E+00
         0.21506E+00
         0.24632E+00
         0.22321E+00
         0.13773E+00
         0.16552E+00
         0.18184E+00
         0.16516E+00
         0.17701E+00
         0.19230E+00
         0.18767E+00
         0.18042E+00
         0.16946E+00
         0.16202E+00
         0.16036E+00
         0.14143E+00
         0.15062E+00
         0.15569E+00
         0.17548E+00
         0.17537E+00
         0.16439E+00
         0.17446E+00
         0.97189E-01
         0.11246E+00
         0.12108E+00
         0.15504E+00
         0.15309E+00
         0.13055E+00
         0.13983E+00
         0.11774E+00
         0.13488E+00
         0.13904E+00
         0.13386E+00
         0.12397E+00
         0.11559E+00
         0.10885E+00
         0.12557E+00
         0.13159E+00
         0.15905E+00
         0.13118E+00
         0.93912E-01
         0.10807E+00
         0.11735E+00
         0.12829E+00
         0.13720E+00
         0.12273E+00
         0.12718E+00
         0.11812E+00
         0.13634E+00
         0.13302E+00
         0.10639E+00
         0.13307E+00
         0.86693E-01
         0.88315E-01
         0.12263E+00
         0.10893E+00
         0.10444E+00
         0.12353E+00
         0.12778E+00
         0.16693E+00
         0.16717E+00
         0.12080E+00
         0.14673E+00
         0.10942E+00
         0.10227E+00
         0.12517E+00
         0.11328E+00
         0.12627E+00
         0.12971E+00
         0.12697E+00
         0.15542E+00
         0.10956E+00
         0.13418E+00
         0.12032E+00
         0.12806E+00
         0.14769E+00
         0.15503E+00
         0.15220E+00
         0.10031E+00
         0.11790E+00
         0.93252E-01
         0.94621E-01
         0.95694E-01
         0.11786E+00
         0.14595E+00
         0.13035E+00
         0.13233E+00
         0.12476E+00
         0.10449E+00
         0.13030E+00
         0.13256E+00
         0.16977E+00
         0.13098E+00
         0.98534E-01
         0.10776E+00
         0.11370E+00
         0.93628E-01
         0.91600E-01
         0.88382E-01
         0.83233E-01
         0.88401E-01
         0.66695E-01
         0.79364E-01
         0.84477E-01
         0.97214E-01
         0.85311E-01
         0.66277E-01
         0.70907E-01
         0.73398E-01
         0.97941E-01
         0.11589E+00
         0.85201E-01
         0.61820E-01
         0.70936E-01
         0.67676E-01
         0.79757E-01
         0.75749E-01
         0.82249E-01
         0.86554E-01
         0.62786E-01
         0.56555E-01
         0.71244E-01
         0.89061E-01
         0.11127E+00
         0.81584E-01
         0.66791E-01
         0.23011E+00
         0.23558E+00
         0.21571E+00
         0.21082E+00
         0.16309E+00
         0.17154E+00
         0.24712E+00
         0.25571E+00
         0.20025E+00
         0.21844E+00
         0.21809E+00
         0.14281E+00
         0.16212E+00
         0.22770E+00
         0.14193E+00
         0.23513E+00
         0.20347E+00
         0.20202E+00
         0.23117E+00
         0.21122E+00
         0.16781E+00
         0.15863E+00
         0.15936E+00
         0.24325E+00
         0.20784E+00
         0.24042E+00
         0.22286E+00
         0.21014E+00
         0.19798E+00
         0.20097E+00
         0.22688E+00
         0.20182E+00
         0.22389E+00
         0.20955E+00
         0.13454E+00
         0.15579E+00
         0.16737E+00
         0.15180E+00
         0.15976E+00
         0.16989E+00
         0.16501E+00
         0.16059E+00
         0.15580E+00
         0.15011E+00
         0.14818E+00
         0.13236E+00
         0.14011E+00
         0.14843E+00
         0.17198E+00
         0.17211E+00
         0.16292E+00
         0.17525E+00
         0.95066E-01
         0.11296E+00
         0.12151E+00
         0.14166E+00
         0.13420E+00
         0.12939E+00
         0.14710E+00
         0.10371E+00
         0.10967E+00
         0.11396E+00
         0.10674E+00
         0.10682E+00
         0.10422E+00
         0.10038E+00
         0.12971E+00
         0.13691E+00
         0.16428E+00
         0.13694E+00
         0.89398E-01
         0.11780E+00
         0.12161E+00
         0.12982E+00
         0.14017E+00
         0.11645E+00
         0.12080E+00
         0.11448E+00
         0.14698E+00
         0.14244E+00
         0.11584E+00
         0.14178E+00
         0.96877E-01
         0.94925E-01
         0.14431E+00
         0.13043E+00
         0.12008E+00
         0.13822E+00
         0.16079E+00
         0.19752E+00
         0.18065E+00
         0.14935E+00
         0.18029E+00
         0.13085E+00
         0.11308E+00
         0.13813E+00
         0.13773E+00
         0.13648E+00
         0.14933E+00
         0.13535E+00
         0.18004E+00
         0.13862E+00
         0.14038E+00
         0.14286E+00
         0.14203E+00
         0.15390E+00
         0.16340E+00
         0.15691E+00
         0.11607E+00
         0.13168E+00
         0.11375E+00
         0.11504E+00
         0.11092E+00
         0.13243E+00
         0.15271E+00
         0.14765E+00
         0.13654E+00
         0.13555E+00
         0.11718E+00
         0.13940E+00
         0.13655E+00
         0.18776E+00
         0.14345E+00
         0.10978E+00
         0.11997E+00
         0.13001E+00
         0.11517E+00
         0.11287E+00
         0.10245E+00
         0.93379E-01
         0.91013E-01
         0.59175E-01
         0.76476E-01
         0.69804E-01
         0.85136E-01
         0.74648E-01
         0.41771E-01
         0.61584E-01
         0.57379E-01
         0.75065E-01
         0.10237E+00
         0.61238E-01
         0.42683E-01
         0.61549E-01
         0.54512E-01
         0.77117E-01
         0.66808E-01
         0.72665E-01
         0.94857E-01
         0.59388E-01
         0.60312E-01
         0.75012E-01
         0.90116E-01
         0.11809E+00
         0.85206E-01
         0.64180E-01
         0.20009E+00
         0.23075E+00
         0.21486E+00
         0.17668E+00
         0.16631E+00
         0.16485E+00
         0.25338E+00
         0.24624E+00
         0.15890E+00
         0.17954E+00
         0.23060E+00
         0.15645E+00
         0.17019E+00
         0.23353E+00
         0.15826E+00
         0.21433E+00
         0.15596E+00
         0.16545E+00
         0.21844E+00
         0.18106E+00
         0.17313E+00
         0.15954E+00
         0.16686E+00
         0.25011E+00
         0.16746E+00
         0.24561E+00
         0.21170E+00
         0.19452E+00
         0.19391E+00
         0.18051E+00
         0.21116E+00
         0.20356E+00
         0.19749E+00
         0.19026E+00
         0.14130E+00
         0.16687E+00
         0.17791E+00
         0.16530E+00
         0.16640E+00
         0.17287E+00
         0.16889E+00
         0.16812E+00
         0.16140E+00
         0.15576E+00
         0.15691E+00
         0.13730E+00
         0.13847E+00
         0.13643E+00
         0.16008E+00
         0.16802E+00
         0.16458E+00
         0.17345E+00
         0.86113E-01
         0.11631E+00
         0.12406E+00
         0.16588E+00
         0.15969E+00
         0.17031E+00
         0.20219E+00
         0.12770E+00
         0.12041E+00
         0.11579E+00
         0.88219E-01
         0.12256E+00
         0.12336E+00
         0.11785E+00
         0.15990E+00
         0.15143E+00
         0.17842E+00
         0.15081E+00
         0.87088E-01
         0.12205E+00
         0.13061E+00
         0.13730E+00
         0.14387E+00
         0.11058E+00
         0.12057E+00
         0.12129E+00
         0.18239E+00
         0.19687E+00
         0.17187E+00
         0.17739E+00
         0.15839E+00
         0.16018E+00
         0.19852E+00
         0.17145E+00
         0.14529E+00
         0.17594E+00
         0.21852E+00
         0.25025E+00
         0.23547E+00
         0.20658E+00
         0.23886E+00
         0.16997E+00
         0.13774E+00
         0.15792E+00
         0.19941E+00
         0.19465E+00
         0.21459E+00
         0.19949E+00
         0.23137E+00
         0.19775E+00
         0.19226E+00
         0.19801E+00
         0.20239E+00
         0.22114E+00
         0.22994E+00
         0.22037E+00
         0.15641E+00
         0.18886E+00
         0.14691E+00
         0.16926E+00
         0.16955E+00
         0.19433E+00
         0.21393E+00
         0.20961E+00
         0.19961E+00
         0.19465E+00
         0.16608E+00
         0.19889E+00
         0.19836E+00
         0.23555E+00
         0.19717E+00
         0.16784E+00
         0.18121E+00
         0.18496E+00
         0.17290E+00
         0.18266E+00
         0.17682E+00
         0.16604E+00
         0.12603E+00
         0.93414E-01
         0.11792E+00
         0.10644E+00
         0.10754E+00
         0.85587E-01
         0.41639E-01
         0.82138E-01
         0.65306E-01
         0.79077E-01
         0.11880E+00
         0.63992E-01
         0.54421E-01
         0.85906E-01
         0.67228E-01
         0.91872E-01
         0.77069E-01
         0.92623E-01
         0.13622E+00
         0.10934E+00
         0.11331E+00
         0.12479E+00
         0.13181E+00
         0.17715E+00
         0.14124E+00
         0.10668E+00
         0.16512E+00
         0.24257E+00
         0.23892E+00
         0.18106E+00
         0.18640E+00
         0.18368E+00
         0.25291E+00
         0.20555E+00
         0.98966E-01
         0.13096E+00
         0.22951E+00
         0.18157E+00
         0.20531E+00
         0.21134E+00
         0.17037E+00
         0.17133E+00
         0.94934E-01
         0.13083E+00
         0.19058E+00
         0.14559E+00
         0.17746E+00
         0.17087E+00
         0.18030E+00
         0.24382E+00
         0.12568E+00
         0.24516E+00
         0.19216E+00
         0.18959E+00
         0.19938E+00
         0.15093E+00
         0.22205E+00
         0.22976E+00
         0.20277E+00
         0.21124E+00
         0.16634E+00
         0.20358E+00
         0.21854E+00
         0.18995E+00
         0.21001E+00
         0.22728E+00
         0.23691E+00
         0.20722E+00
         0.18079E+00
         0.17657E+00
         0.18918E+00
         0.17414E+00
         0.17580E+00
         0.15994E+00
         0.16405E+00
         0.16382E+00
         0.16325E+00
         0.19372E+00
         0.97895E-01
         0.13106E+00
         0.15034E+00
         0.22595E+00
         0.23169E+00
         0.24093E+00
         0.26660E+00
         0.17089E+00
         0.18175E+00
         0.20356E+00
         0.15790E+00
         0.20979E+00
         0.18454E+00
         0.14988E+00
         0.19790E+00
         0.20086E+00
         0.23818E+00
         0.18919E+00
         0.11227E+00
         0.14531E+00
         0.16017E+00
         0.14339E+00
         0.11353E+00
         0.76227E-01
         0.12250E+00
         0.14032E+00
         0.33698E+00
         0.38393E+00
         0.36223E+00
         0.37918E+00
         0.33611E+00
         0.34873E+00
         0.33772E+00
         0.28928E+00
         0.23268E+00
         0.28455E+00
         0.30481E+00
         0.32504E+00
         0.35606E+00
         0.28310E+00
         0.30303E+00
         0.29554E+00
         0.22950E+00
         0.33444E+00
         0.28942E+00
         0.28883E+00
         0.30210E+00
         0.28377E+00
         0.33258E+00
         0.28859E+00
         0.29328E+00
         0.30107E+00
         0.29225E+00
         0.30607E+00
         0.29117E+00
         0.30432E+00
         0.31008E+00
         0.30736E+00
         0.31591E+00
         0.33509E+00
         0.32372E+00
         0.36003E+00
         0.38283E+00
         0.28701E+00
         0.28497E+00
         0.25890E+00
         0.22516E+00
         0.27955E+00
         0.29142E+00
         0.34971E+00
         0.30804E+00
         0.27574E+00
         0.31516E+00
         0.34816E+00
         0.33920E+00
         0.33408E+00
         0.31896E+00
         0.32511E+00
         0.27456E+00
         0.27848E+00
         0.25756E+00
         0.28768E+00
         0.30064E+00
         0.22899E+00
         0.14607E+00
         0.17848E+00
         0.18623E+00
         0.14405E+00
         0.11902E+00
         0.11135E+00
         0.16344E+00
         0.21894E+00
         0.20806E+00
         0.21705E+00
         0.21622E+00
         0.21454E+00
         0.23995E+00
         0.23285E+00
         0.26448E+00
         0.31698E+00
         0.33276E+00
         0.32334E+00
         0.29864E+00
         0.30143E+00
         0.14877E+00
         0.25304E+00
         0.31144E+00
         0.20021E+00
         0.32359E+00
         0.37437E+00
         0.24139E+00
         0.18417E+00
         0.56535E-01
         0.14580E+00
         0.25189E+00
         0.27844E+00
         0.33275E+00
         0.27262E+00
         0.28629E+00
         0.14074E+00
         0.11491E+00
         0.76492E-01
         0.24055E+00
         0.23249E+00
         0.33718E+00
         0.34569E+00
         0.31953E+00
         0.30522E+00
         0.17510E+00
         0.30133E+00
         0.30912E+00
         0.27112E+00
         0.25548E+00
         0.23674E+00
         0.31159E+00
         0.30790E+00
         0.32918E+00
         0.34003E+00
         0.21501E+00
         0.22794E+00
         0.30324E+00
         0.33527E+00
         0.34229E+00
         0.28968E+00
         0.27332E+00
         0.32959E+00
         0.35855E+00
         0.29904E+00
         0.26804E+00
         0.21262E+00
         0.25034E+00
         0.32013E+00
         0.39858E+00
         0.37889E+00
         0.33783E+00
         0.36681E+00
         0.19437E+00
         0.28470E+00
         0.24836E+00
         0.29746E+00
         0.28810E+00
         0.22336E+00
         0.28631E+00
         0.21882E+00
         0.20263E+00
         0.18517E+00
         0.13918E+00
         0.21732E+00
         0.21424E+00
         0.21603E+00
         0.23684E+00
         0.24017E+00
         0.24761E+00
         0.22067E+00
         0.14822E+00
         0.24515E+00
         0.30250E+00
         0.31159E+00
         0.24301E+00
         0.19125E+00
         0.27280E+00
         0.34023E+00
         0.82930E+00
         0.83749E+00
         0.64196E+00
         0.65608E+00
         0.82510E+00
         0.83567E+00
         0.11793E+01
         0.11677E+01
         0.56197E+00
         0.12499E+01
         0.13446E+01
         0.12350E+01
         0.10419E+01
         0.13562E+01
         0.12470E+01
         0.95027E+00
         0.10465E+01
         0.38161E+00
         0.13859E+01
         0.14999E+01
         0.13434E+01
         0.14299E+01
         0.11021E+01
         0.12299E+01
         0.15174E+01
         0.98667E+00
         0.14576E+01
         0.16126E+01
         0.14949E+01
         0.16466E+01
         0.68536E+00
         0.76017E+00
         0.67157E+00
         0.89172E+00
         0.98339E+00
         0.82904E+00
         0.78807E+00
         0.12518E+01
         0.12769E+01
         0.12308E+01
         0.10507E+01
         0.11001E+01
         0.13054E+01
         0.84165E+00
         0.78402E+00
         0.93567E+00
         0.86285E+00
         0.83599E+00
         0.92983E+00
         0.10489E+01
         0.10802E+01
         0.10088E+01
         0.12170E+01
         0.11402E+01
         0.10975E+01
         0.93369E+00
         0.88741E+00
         0.10104E+01
         0.10256E+01
         0.13415E+01
         0.12794E+01
         0.11186E+01
         0.95036E+00
         0.94788E+00
         0.12332E+01
         0.12590E+01
         0.11193E+01
         0.94985E+00
         0.88570E+00
         0.10231E+01
         0.12282E+01
         0.12326E+01
         0.12890E+01
         0.12565E+01
         0.13416E+01
         0.13168E+01
         0.11883E+01
         0.11021E+01
  
SCALARS                     nodal_mass  double 1
LOOKUP_TABLE default
         0.24608E-05
         0.19551E-05
         0.20945E-05
         0.35953E-05
         0.12304E-05
         0.97770E-06
         0.10472E-05
         0.17973E-05
         0.19315E-05
         0.24627E-05
         0.96570E-06
         0.12312E-05
         0.13823E-05
         0.16614E-05
         0.69133E-06
         0.83095E-06
         0.27274E-05
         0.20125E-05
         0.13635E-05
         0.10066E-05
         0.81737E-06
         0.15393E-05
         0.16929E-05
         0.40889E-06
         0.76975E-06
         0.84649E-06
         0.13859E-05
         0.17532E-05
         0.69345E-06
         0.87672E-06
         0.32470E-05
         0.25355E-05
         0.32225E-05
         0.16233E-05
         0.12675E-05
         0.16109E-05
         0.18980E-05
         0.21673E-05
         0.94902E-06
         0.10836E-05
         0.20482E-05
         0.22683E-05
         0.10242E-05
         0.11342E-05
         0.17426E-05
         0.10823E-05
         0.87140E-06
         0.54121E-06
         0.20598E-05
         0.10301E-05
         0.17103E-05
         0.85523E-06
         0.17977E-05
         0.89958E-06
         0.18362E-05
         0.91859E-06
         0.15911E-05
         0.19369E-05
         0.79575E-06
         0.96860E-06
         0.24553E-05
         0.17361E-05
         0.12277E-05
         0.86816E-06
         0.27409E-05
         0.13702E-05
         0.23792E-05
         0.11891E-05
         0.10821E-05
         0.16705E-05
         0.54106E-06
         0.83538E-06
         0.18955E-05
         0.94787E-06
         0.20026E-05
         0.10014E-05
         0.19316E-05
         0.96578E-06
         0.15181E-05
         0.75906E-06
         0.95443E-06
         0.15782E-05
         0.47723E-06
         0.78918E-06
         0.20886E-05
         0.10443E-05
         0.16867E-05
         0.84342E-06
         0.14838E-05
         0.74203E-06
         0.97224E-06
         0.16569E-05
         0.48620E-06
         0.82849E-06
         0.22482E-05
         0.11241E-05
         0.23568E-05
         0.11783E-05
         0.19018E-05
         0.95085E-06
         0.11709E-05
         0.20091E-05
         0.58544E-06
         0.10044E-05
         0.74681E-06
         0.94889E-06
         0.37348E-06
         0.47447E-06
         0.88885E-06
         0.44455E-06
         0.10466E-05
         0.52333E-06
         0.10205E-05
         0.51021E-06
         0.99108E-06
         0.49550E-06
         0.10560E-05
         0.52791E-06
         0.11142E-05
         0.55694E-06
         0.10497E-05
         0.52469E-06
         0.82085E-06
         0.41039E-06
         0.66950E-06
         0.33475E-06
         0.86397E-06
         0.43199E-06
         0.11504E-05
         0.57519E-06
         0.12637E-05
         0.63182E-06
         0.12132E-05
         0.60658E-06
         0.10948E-05
         0.54745E-06
         0.99429E-06
         0.49718E-06
         0.80759E-06
         0.40382E-06
         0.67982E-06
         0.33995E-06
         0.88797E-06
         0.44401E-06
         0.11753E-05
         0.58766E-06
         0.12140E-05
         0.60702E-06
         0.98236E-06
         0.49125E-06
         0.79766E-06
         0.39889E-06
         0.97540E-06
         0.48769E-06
         0.11548E-05
         0.57743E-06
         0.24609E-05
         0.19547E-05
         0.20946E-05
         0.35969E-05
         0.19318E-05
         0.24634E-05
         0.13815E-05
         0.16603E-05
         0.27283E-05
         0.20111E-05
         0.81658E-06
         0.15390E-05
         0.16927E-05
         0.13839E-05
         0.17528E-05
         0.32479E-05
         0.25367E-05
         0.32241E-05
         0.18980E-05
         0.21675E-05
         0.20481E-05
         0.22684E-05
         0.17424E-05
         0.10822E-05
         0.20589E-05
         0.17102E-05
         0.17950E-05
         0.18344E-05
         0.15904E-05
         0.19365E-05
         0.24555E-05
         0.17359E-05
         0.27423E-05
         0.23814E-05
         0.10820E-05
         0.16702E-05
         0.18953E-05
         0.20025E-05
         0.19317E-05
         0.15181E-05
         0.95442E-06
         0.15780E-05
         0.20884E-05
         0.16864E-05
         0.14835E-05
         0.97197E-06
         0.16567E-05
         0.22482E-05
         0.23571E-05
         0.19022E-05
         0.11709E-05
         0.20101E-05
         0.74658E-06
         0.94886E-06
         0.88841E-06
         0.10467E-05
         0.10207E-05
         0.99128E-06
         0.10565E-05
         0.11150E-05
         0.10503E-05
         0.82102E-06
         0.66954E-06
         0.86398E-06
         0.11506E-05
         0.12640E-05
         0.12133E-05
         0.10948E-05
         0.99421E-06
         0.80751E-06
         0.67970E-06
         0.88789E-06
         0.11752E-05
         0.12140E-05
         0.98215E-06
         0.79747E-06
         0.97551E-06
         0.11548E-05
         0.24611E-05
         0.19543E-05
         0.20949E-05
         0.35987E-05
         0.19321E-05
         0.24642E-05
         0.13808E-05
         0.16594E-05
         0.27293E-05
         0.20098E-05
         0.81582E-06
         0.15388E-05
         0.16927E-05
         0.13821E-05
         0.17525E-05
         0.32489E-05
         0.25379E-05
         0.32257E-05
         0.18982E-05
         0.21678E-05
         0.20480E-05
         0.22685E-05
         0.17423E-05
         0.10821E-05
         0.20580E-05
         0.17101E-05
         0.17924E-05
         0.18326E-05
         0.15898E-05
         0.19361E-05
         0.24558E-05
         0.17357E-05
         0.27438E-05
         0.23836E-05
         0.10821E-05
         0.16699E-05
         0.18951E-05
         0.20024E-05
         0.19318E-05
         0.15183E-05
         0.95445E-06
         0.15778E-05
         0.20884E-05
         0.16862E-05
         0.14831E-05
         0.97174E-06
         0.16566E-05
         0.22483E-05
         0.23575E-05
         0.19026E-05
         0.11709E-05
         0.20112E-05
         0.74636E-06
         0.94886E-06
         0.88800E-06
         0.10467E-05
         0.10210E-05
         0.99152E-06
         0.10570E-05
         0.11159E-05
         0.10509E-05
         0.82122E-06
         0.66961E-06
         0.86402E-06
         0.11507E-05
         0.12643E-05
         0.12135E-05
         0.10948E-05
         0.99417E-06
         0.80747E-06
         0.67961E-06
         0.88784E-06
         0.11752E-05
         0.12140E-05
         0.98197E-06
         0.79731E-06
         0.97565E-06
         0.11548E-05
         0.24612E-05
         0.19539E-05
         0.20950E-05
         0.36004E-05
         0.19324E-05
         0.24650E-05
         0.13801E-05
         0.16584E-05
         0.27303E-05
         0.20085E-05
         0.81504E-06
         0.15385E-05
         0.16925E-05
         0.13801E-05
         0.17521E-05
         0.32498E-05
         0.25390E-05
         0.32274E-05
         0.18982E-05
         0.21681E-05
         0.20479E-05
         0.22686E-05
         0.17421E-05
         0.10820E-05
         0.20571E-05
         0.17099E-05
         0.17897E-05
         0.18308E-05
         0.15891E-05
         0.19356E-05
         0.24561E-05
         0.17355E-05
         0.27453E-05
         0.23857E-05
         0.10820E-05
         0.16696E-05
         0.18948E-05
         0.20022E-05
         0.19320E-05
         0.15183E-05
         0.95445E-06
         0.15776E-05
         0.20883E-05
         0.16859E-05
         0.14828E-05
         0.97149E-06
         0.16564E-05
         0.22483E-05
         0.23578E-05
         0.19030E-05
         0.11710E-05
         0.20122E-05
         0.74613E-06
         0.94884E-06
         0.88756E-06
         0.10467E-05
         0.10212E-05
         0.99173E-06
         0.10574E-05
         0.11167E-05
         0.10515E-05
         0.82140E-06
         0.66966E-06
         0.86404E-06
         0.11509E-05
         0.12646E-05
         0.12136E-05
         0.10947E-05
         0.99410E-06
         0.80740E-06
         0.67950E-06
         0.88777E-06
         0.11752E-05
         0.12140E-05
         0.98177E-06
         0.79713E-06
         0.97576E-06
         0.11547E-05
         0.24613E-05
         0.19535E-05
         0.20952E-05
         0.36022E-05
         0.19327E-05
         0.24657E-05
         0.13794E-05
         0.16574E-05
         0.27313E-05
         0.20072E-05
         0.81426E-06
         0.15382E-05
         0.16924E-05
         0.13782E-05
         0.17517E-05
         0.32508E-05
         0.25402E-05
         0.32290E-05
         0.18983E-05
         0.21684E-05
         0.20479E-05
         0.22687E-05
         0.17420E-05
         0.10819E-05
         0.20563E-05
         0.17098E-05
         0.17870E-05
         0.18290E-05
         0.15884E-05
         0.19352E-05
         0.24563E-05
         0.17353E-05
         0.27467E-05
         0.23879E-05
         0.10820E-05
         0.16693E-05
         0.18946E-05
         0.20021E-05
         0.19321E-05
         0.15184E-05
         0.95445E-06
         0.15773E-05
         0.20882E-05
         0.16857E-05
         0.14824E-05
         0.97124E-06
         0.16563E-05
         0.22484E-05
         0.23582E-05
         0.19034E-05
         0.11710E-05
         0.20132E-05
         0.74590E-06
         0.94883E-06
         0.88713E-06
         0.10468E-05
         0.10215E-05
         0.99194E-06
         0.10579E-05
         0.11175E-05
         0.10521E-05
         0.82159E-06
         0.66972E-06
         0.86406E-06
         0.11510E-05
         0.12649E-05
         0.12138E-05
         0.10947E-05
         0.99404E-06
         0.80734E-06
         0.67940E-06
         0.88771E-06
         0.11752E-05
         0.12140E-05
         0.98157E-06
         0.79696E-06
         0.97588E-06
         0.11547E-05
         0.24615E-05
         0.19531E-05
         0.20954E-05
         0.36039E-05
         0.19331E-05
         0.24665E-05
         0.13787E-05
         0.16564E-05
         0.27322E-05
         0.20059E-05
         0.81349E-06
         0.15380E-05
         0.16923E-05
         0.13763E-05
         0.17514E-05
         0.32518E-05
         0.25414E-05
         0.32306E-05
         0.18984E-05
         0.21687E-05
         0.20478E-05
         0.22688E-05
         0.17418E-05
         0.10818E-05
         0.20554E-05
         0.17096E-05
         0.17843E-05
         0.18272E-05
         0.15878E-05
         0.19347E-05
         0.24566E-05
         0.17351E-05
         0.27482E-05
         0.23901E-05
         0.10820E-05
         0.16690E-05
         0.18943E-05
         0.20019E-05
         0.19322E-05
         0.15185E-05
         0.95446E-06
         0.15771E-05
         0.20881E-05
         0.16855E-05
         0.14821E-05
         0.97100E-06
         0.16562E-05
         0.22484E-05
         0.23586E-05
         0.19038E-05
         0.11710E-05
         0.20142E-05
         0.74568E-06
         0.94882E-06
         0.88671E-06
         0.10468E-05
         0.10217E-05
         0.99216E-06
         0.10583E-05
         0.11183E-05
         0.10528E-05
         0.82178E-06
         0.66977E-06
         0.86408E-06
         0.11512E-05
         0.12652E-05
         0.12139E-05
         0.10947E-05
         0.99398E-06
         0.80728E-06
         0.67930E-06
         0.88766E-06
         0.11752E-05
         0.12140E-05
         0.98138E-06
         0.79679E-06
         0.97601E-06
         0.11547E-05
         0.24616E-05
         0.19527E-05
         0.20956E-05
         0.36056E-05
         0.19334E-05
         0.24672E-05
         0.13779E-05
         0.16554E-05
         0.27332E-05
         0.20046E-05
         0.81271E-06
         0.15377E-05
         0.16922E-05
         0.13744E-05
         0.17510E-05
         0.32527E-05
         0.25425E-05
         0.32322E-05
         0.18984E-05
         0.21689E-05
         0.20477E-05
         0.22689E-05
         0.17416E-05
         0.10816E-05
         0.20545E-05
         0.17095E-05
         0.17817E-05
         0.18254E-05
         0.15871E-05
         0.19343E-05
         0.24568E-05
         0.17349E-05
         0.27496E-05
         0.23922E-05
         0.10820E-05
         0.16686E-05
         0.18941E-05
         0.20018E-05
         0.19324E-05
         0.15186E-05
         0.95446E-06
         0.15769E-05
         0.20880E-05
         0.16852E-05
         0.14817E-05
         0.97074E-06
         0.16560E-05
         0.22484E-05
         0.23589E-05
         0.19042E-05
         0.11710E-05
         0.20152E-05
         0.74544E-06
         0.94880E-06
         0.88627E-06
         0.10469E-05
         0.10219E-05
         0.99237E-06
         0.10588E-05
         0.11191E-05
         0.10534E-05
         0.82196E-06
         0.66982E-06
         0.86410E-06
         0.11513E-05
         0.12654E-05
         0.12140E-05
         0.10947E-05
         0.99391E-06
         0.80721E-06
         0.67919E-06
         0.88759E-06
         0.11751E-05
         0.12140E-05
         0.98118E-06
         0.79661E-06
         0.97612E-06
         0.11546E-05
         0.24618E-05
         0.19523E-05
         0.20957E-05
         0.36073E-05
         0.19337E-05
         0.24680E-05
         0.13772E-05
         0.16545E-05
         0.27341E-05
         0.20033E-05
         0.81194E-06
         0.15374E-05
         0.16921E-05
         0.13725E-05
         0.17506E-05
         0.32537E-05
         0.25437E-05
         0.32339E-05
         0.18985E-05
         0.21692E-05
         0.20476E-05
         0.22690E-05
         0.17414E-05
         0.10815E-05
         0.20536E-05
         0.17093E-05
         0.17790E-05
         0.18236E-05
         0.15864E-05
         0.19339E-05
         0.24571E-05
         0.17347E-05
         0.27511E-05
         0.23944E-05
         0.10820E-05
         0.16683E-05
         0.18938E-05
         0.20016E-05
         0.19325E-05
         0.15186E-05
         0.95446E-06
         0.15767E-05
         0.20878E-05
         0.16850E-05
         0.14814E-05
         0.97050E-06
         0.16559E-05
         0.22484E-05
         0.23593E-05
         0.19046E-05
         0.11711E-05
         0.20162E-05
         0.74522E-06
         0.94878E-06
         0.88584E-06
         0.10469E-05
         0.10222E-05
         0.99258E-06
         0.10593E-05
         0.11199E-05
         0.10540E-05
         0.82215E-06
         0.66988E-06
         0.86413E-06
         0.11515E-05
         0.12657E-05
         0.12142E-05
         0.10946E-05
         0.99385E-06
         0.80715E-06
         0.67909E-06
         0.88752E-06
         0.11751E-05
         0.12140E-05
         0.98098E-06
         0.79643E-06
         0.97624E-06
         0.11546E-05
         0.24619E-05
         0.19519E-05
         0.20959E-05
         0.36091E-05
         0.19340E-05
         0.24688E-05
         0.13765E-05
         0.16535E-05
         0.27351E-05
         0.20020E-05
         0.81117E-06
         0.15372E-05
         0.16920E-05
         0.13706E-05
         0.17503E-05
         0.32546E-05
         0.25448E-05
         0.32355E-05
         0.18986E-05
         0.21695E-05
         0.20475E-05
         0.22691E-05
         0.17413E-05
         0.10814E-05
         0.20527E-05
         0.17092E-05
         0.17763E-05
         0.18219E-05
         0.15858E-05
         0.19334E-05
         0.24573E-05
         0.17345E-05
         0.27525E-05
         0.23966E-05
         0.10820E-05
         0.16680E-05
         0.18936E-05
         0.20015E-05
         0.19326E-05
         0.15187E-05
         0.95447E-06
         0.15765E-05
         0.20878E-05
         0.16848E-05
         0.14810E-05
         0.97025E-06
         0.16557E-05
         0.22485E-05
         0.23597E-05
         0.19050E-05
         0.11711E-05
         0.20172E-05
         0.74499E-06
         0.94877E-06
         0.88541E-06
         0.10469E-05
         0.10224E-05
         0.99280E-06
         0.10597E-05
         0.11207E-05
         0.10546E-05
         0.82234E-06
         0.66994E-06
         0.86415E-06
         0.11517E-05
         0.12660E-05
         0.12143E-05
         0.10946E-05
         0.99379E-06
         0.80709E-06
         0.67898E-06
         0.88746E-06
         0.11751E-05
         0.12140E-05
         0.98079E-06
         0.79626E-06
         0.97636E-06
         0.11546E-05
         0.24621E-05
         0.19515E-05
         0.20961E-05
         0.36108E-05
         0.19343E-05
         0.24695E-05
         0.13758E-05
         0.16525E-05
         0.27361E-05
         0.20006E-05
         0.81039E-06
         0.15369E-05
         0.16919E-05
         0.13686E-05
         0.17499E-05
         0.32556E-05
         0.25460E-05
         0.32371E-05
         0.18986E-05
         0.21697E-05
         0.20474E-05
         0.22692E-05
         0.17411E-05
         0.10813E-05
         0.20519E-05
         0.17091E-05
         0.17736E-05
         0.18201E-05
         0.15851E-05
         0.19330E-05
         0.24575E-05
         0.17342E-05
         0.27540E-05
         0.23987E-05
         0.10820E-05
         0.16677E-05
         0.18933E-05
         0.20014E-05
         0.19328E-05
         0.15188E-05
         0.95448E-06
         0.15763E-05
         0.20876E-05
         0.16845E-05
         0.14807E-05
         0.97000E-06
         0.16556E-05
         0.22485E-05
         0.23600E-05
         0.19053E-05
         0.11711E-05
         0.20182E-05
         0.74476E-06
         0.94875E-06
         0.88498E-06
         0.10470E-05
         0.10227E-05
         0.99301E-06
         0.10602E-05
         0.11215E-05
         0.10553E-05
         0.82252E-06
         0.66999E-06
         0.86417E-06
         0.11518E-05
         0.12663E-05
         0.12145E-05
         0.10946E-05
         0.99373E-06
         0.80702E-06
         0.67888E-06
         0.88740E-06
         0.11751E-05
         0.12140E-05
         0.98058E-06
         0.79608E-06
         0.97648E-06
         0.11546E-05
         0.24622E-05
         0.19511E-05
         0.20963E-05
         0.36125E-05
         0.19346E-05
         0.24703E-05
         0.13751E-05
         0.16515E-05
         0.27370E-05
         0.19993E-05
         0.80962E-06
         0.15366E-05
         0.16917E-05
         0.13667E-05
         0.17495E-05
         0.32565E-05
         0.25471E-05
         0.32388E-05
         0.18987E-05
         0.21700E-05
         0.20473E-05
         0.22693E-05
         0.17409E-05
         0.10812E-05
         0.20510E-05
         0.17089E-05
         0.17710E-05
         0.18183E-05
         0.15844E-05
         0.19325E-05
         0.24578E-05
         0.17340E-05
         0.27554E-05
         0.24009E-05
         0.10820E-05
         0.16674E-05
         0.18931E-05
         0.20012E-05
         0.19329E-05
         0.15189E-05
         0.95448E-06
         0.15760E-05
         0.20875E-05
         0.16843E-05
         0.14803E-05
         0.96975E-06
         0.16555E-05
         0.22485E-05
         0.23604E-05
         0.19057E-05
         0.11712E-05
         0.20192E-05
         0.74453E-06
         0.94874E-06
         0.88455E-06
         0.10470E-05
         0.10229E-05
         0.99322E-06
         0.10606E-05
         0.11223E-05
         0.10559E-05
         0.82270E-06
         0.67004E-06
         0.86419E-06
         0.11520E-05
         0.12666E-05
         0.12146E-05
         0.10945E-05
         0.99366E-06
         0.80696E-06
         0.67877E-06
         0.88733E-06
         0.11751E-05
         0.12140E-05
         0.98038E-06
         0.79590E-06
         0.97660E-06
         0.11545E-05
         0.24623E-05
         0.19507E-05
         0.20964E-05
         0.36142E-05
         0.19349E-05
         0.24710E-05
         0.13743E-05
         0.16505E-05
         0.27380E-05
         0.19980E-05
         0.80885E-06
         0.15364E-05
         0.16916E-05
         0.13648E-05
         0.17492E-05
         0.32575E-05
         0.25483E-05
         0.32404E-05
         0.18988E-05
         0.21703E-05
         0.20473E-05
         0.22694E-05
         0.17407E-05
         0.10811E-05
         0.20501E-05
         0.17088E-05
         0.17683E-05
         0.18165E-05
         0.15837E-05
         0.19321E-05
         0.24580E-05
         0.17338E-05
         0.27569E-05
         0.24031E-05
         0.10820E-05
         0.16670E-05
         0.18928E-05
         0.20011E-05
         0.19330E-05
         0.15189E-05
         0.95448E-06
         0.15758E-05
         0.20874E-05
         0.16840E-05
         0.14800E-05
         0.96950E-06
         0.16553E-05
         0.22485E-05
         0.23608E-05
         0.19061E-05
         0.11712E-05
         0.20202E-05
         0.74430E-06
         0.94872E-06
         0.88412E-06
         0.10470E-05
         0.10231E-05
         0.99344E-06
         0.10611E-05
         0.11231E-05
         0.10565E-05
         0.82289E-06
         0.67009E-06
         0.86422E-06
         0.11521E-05
         0.12669E-05
         0.12147E-05
         0.10945E-05
         0.99360E-06
         0.80690E-06
         0.67867E-06
         0.88727E-06
         0.11750E-05
         0.12140E-05
         0.98019E-06
         0.79573E-06
         0.97672E-06
         0.11545E-05
         0.24625E-05
         0.19503E-05
         0.20966E-05
         0.36160E-05
         0.19352E-05
         0.24718E-05
         0.13736E-05
         0.16496E-05
         0.27389E-05
         0.19967E-05
         0.80807E-06
         0.15361E-05
         0.16915E-05
         0.13629E-05
         0.17488E-05
         0.32584E-05
         0.25495E-05
         0.32420E-05
         0.18988E-05
         0.21705E-05
         0.20472E-05
         0.22695E-05
         0.17406E-05
         0.10810E-05
         0.20492E-05
         0.17086E-05
         0.17656E-05
         0.18147E-05
         0.15831E-05
         0.19317E-05
         0.24583E-05
         0.17336E-05
         0.27583E-05
         0.24053E-05
         0.10820E-05
         0.16667E-05
         0.18926E-05
         0.20009E-05
         0.19331E-05
         0.15190E-05
         0.95449E-06
         0.15756E-05
         0.20873E-05
         0.16838E-05
         0.14796E-05
         0.96925E-06
         0.16552E-05
         0.22486E-05
         0.23611E-05
         0.19065E-05
         0.11712E-05
         0.20212E-05
         0.74407E-06
         0.94870E-06
         0.88368E-06
         0.10471E-05
         0.10234E-05
         0.99365E-06
         0.10616E-05
         0.11239E-05
         0.10571E-05
         0.82307E-06
         0.67014E-06
         0.86424E-06
         0.11523E-05
         0.12672E-05
         0.12149E-05
         0.10945E-05
         0.99354E-06
         0.80683E-06
         0.67856E-06
         0.88721E-06
         0.11750E-05
         0.12140E-05
         0.97999E-06
         0.79555E-06
         0.97684E-06
         0.11545E-05
         0.24626E-05
         0.19499E-05
         0.20968E-05
         0.36177E-05
         0.19355E-05
         0.24725E-05
         0.13729E-05
         0.16486E-05
         0.27399E-05
         0.19954E-05
         0.80730E-06
         0.15358E-05
         0.16914E-05
         0.13610E-05
         0.17484E-05
         0.32594E-05
         0.25506E-05
         0.32437E-05
         0.18989E-05
         0.21708E-05
         0.20471E-05
         0.22696E-05
         0.17404E-05
         0.10808E-05
         0.20483E-05
         0.17085E-05
         0.17629E-05
         0.18129E-05
         0.15824E-05
         0.19312E-05
         0.24585E-05
         0.17334E-05
         0.27598E-05
         0.24074E-05
         0.10820E-05
         0.16664E-05
         0.18923E-05
         0.20008E-05
         0.19333E-05
         0.15191E-05
         0.95449E-06
         0.15754E-05
         0.20872E-05
         0.16835E-05
         0.14793E-05
         0.96901E-06
         0.16550E-05
         0.22486E-05
         0.23615E-05
         0.19069E-05
         0.11713E-05
         0.20222E-05
         0.74384E-06
         0.94869E-06
         0.88325E-06
         0.10471E-05
         0.10236E-05
         0.99386E-06
         0.10620E-05
         0.11247E-05
         0.10577E-05
         0.82326E-06
         0.67020E-06
         0.86426E-06
         0.11524E-05
         0.12674E-05
         0.12150E-05
         0.10944E-05
         0.99348E-06
         0.80677E-06
         0.67846E-06
         0.88714E-06
         0.11750E-05
         0.12140E-05
         0.97979E-06
         0.79538E-06
         0.97696E-06
         0.11544E-05
         0.24628E-05
         0.19495E-05
         0.20970E-05
         0.36194E-05
         0.19358E-05
         0.24733E-05
         0.13722E-05
         0.16476E-05
         0.27409E-05
         0.19941E-05
         0.80652E-06
         0.15355E-05
         0.16913E-05
         0.13591E-05
         0.17481E-05
         0.32604E-05
         0.25518E-05
         0.32453E-05
         0.18990E-05
         0.21711E-05
         0.20470E-05
         0.22697E-05
         0.17402E-05
         0.10807E-05
         0.20474E-05
         0.17084E-05
         0.17603E-05
         0.18111E-05
         0.15817E-05
         0.19308E-05
         0.24588E-05
         0.17332E-05
         0.27613E-05
         0.24096E-05
         0.10819E-05
         0.16661E-05
         0.18921E-05
         0.20006E-05
         0.19334E-05
         0.15192E-05
         0.95450E-06
         0.15752E-05
         0.20871E-05
         0.16833E-05
         0.14789E-05
         0.96876E-06
         0.16549E-05
         0.22486E-05
         0.23619E-05
         0.19073E-05
         0.11713E-05
         0.20232E-05
         0.74362E-06
         0.94868E-06
         0.88282E-06
         0.10472E-05
         0.10238E-05
         0.99408E-06
         0.10625E-05
         0.11255E-05
         0.10584E-05
         0.82345E-06
         0.67025E-06
         0.86428E-06
         0.11526E-05
         0.12677E-05
         0.12152E-05
         0.10944E-05
         0.99342E-06
         0.80671E-06
         0.67836E-06
         0.88709E-06
         0.11750E-05
         0.12140E-05
         0.97959E-06
         0.79521E-06
         0.97708E-06
         0.11544E-05
         0.24629E-05
         0.19491E-05
         0.20972E-05
         0.36212E-05
         0.19361E-05
         0.24741E-05
         0.13715E-05
         0.16466E-05
         0.27418E-05
         0.19928E-05
         0.80575E-06
         0.15353E-05
         0.16912E-05
         0.13572E-05
         0.17477E-05
         0.32613E-05
         0.25529E-05
         0.32469E-05
         0.18990E-05
         0.21714E-05
         0.20469E-05
         0.22698E-05
         0.17400E-05
         0.10806E-05
         0.20466E-05
         0.17082E-05
         0.17576E-05
         0.18093E-05
         0.15810E-05
         0.19303E-05
         0.24590E-05
         0.17330E-05
         0.27627E-05
         0.24118E-05
         0.10819E-05
         0.16658E-05
         0.18919E-05
         0.20005E-05
         0.19335E-05
         0.15192E-05
         0.95450E-06
         0.15750E-05
         0.20870E-05
         0.16831E-05
         0.14786E-05
         0.96851E-06
         0.16548E-05
         0.22487E-05
         0.23622E-05
         0.19077E-05
         0.11713E-05
         0.20242E-05
         0.74339E-06
         0.94866E-06
         0.88239E-06
         0.10472E-05
         0.10241E-05
         0.99429E-06
         0.10630E-05
         0.11263E-05
         0.10590E-05
         0.82363E-06
         0.67030E-06
         0.86430E-06
         0.11527E-05
         0.12680E-05
         0.12153E-05
         0.10944E-05
         0.99335E-06
         0.80665E-06
         0.67825E-06
         0.88702E-06
         0.11749E-05
         0.12140E-05
         0.97939E-06
         0.79503E-06
         0.97720E-06
         0.11544E-05
         0.24631E-05
         0.19487E-05
         0.20973E-05
         0.36229E-05
         0.19364E-05
         0.24748E-05
         0.13707E-05
         0.16456E-05
         0.27428E-05
         0.19915E-05
         0.80498E-06
         0.15350E-05
         0.16911E-05
         0.13553E-05
         0.17473E-05
         0.32623E-05
         0.25541E-05
         0.32486E-05
         0.18991E-05
         0.21716E-05
         0.20468E-05
         0.22699E-05
         0.17399E-05
         0.10805E-05
         0.20457E-05
         0.17081E-05
         0.17549E-05
         0.18075E-05
         0.15804E-05
         0.19299E-05
         0.24592E-05
         0.17328E-05
         0.27642E-05
         0.24140E-05
         0.10819E-05
         0.16654E-05
         0.18916E-05
         0.20003E-05
         0.19337E-05
         0.15193E-05
         0.95450E-06
         0.15748E-05
         0.20869E-05
         0.16828E-05
         0.14782E-05
         0.96826E-06
         0.16546E-05
         0.22487E-05
         0.23626E-05
         0.19081E-05
         0.11714E-05
         0.20253E-05
         0.74316E-06
         0.94864E-06
         0.88196E-06
         0.10472E-05
         0.10243E-05
         0.99450E-06
         0.10634E-05
         0.11271E-05
         0.10596E-05
         0.82381E-06
         0.67036E-06
         0.86432E-06
         0.11529E-05
         0.12683E-05
         0.12154E-05
         0.10943E-05
         0.99329E-06
         0.80658E-06
         0.67815E-06
         0.88696E-06
         0.11749E-05
         0.12140E-05
         0.97919E-06
         0.79485E-06
         0.97732E-06
         0.11544E-05
         0.24632E-05
         0.19483E-05
         0.20975E-05
         0.36246E-05
         0.19368E-05
         0.24756E-05
         0.13700E-05
         0.16447E-05
         0.27437E-05
         0.19902E-05
         0.80421E-06
         0.15347E-05
         0.16910E-05
         0.13534E-05
         0.17470E-05
         0.32632E-05
         0.25552E-05
         0.32502E-05
         0.18992E-05
         0.21719E-05
         0.20467E-05
         0.22700E-05
         0.17397E-05
         0.10804E-05
         0.20448E-05
         0.17079E-05
         0.17523E-05
         0.18057E-05
         0.15797E-05
         0.19295E-05
         0.24595E-05
         0.17326E-05
         0.27656E-05
         0.24161E-05
         0.10819E-05
         0.16651E-05
         0.18914E-05
         0.20002E-05
         0.19338E-05
         0.15194E-05
         0.95451E-06
         0.15745E-05
         0.20868E-05
         0.16826E-05
         0.14779E-05
         0.96801E-06
         0.16545E-05
         0.22487E-05
         0.23630E-05
         0.19085E-05
         0.11714E-05
         0.20263E-05
         0.74293E-06
         0.94863E-06
         0.88153E-06
         0.10473E-05
         0.10245E-05
         0.99472E-06
         0.10639E-05
         0.11279E-05
         0.10602E-05
         0.82400E-06
         0.67041E-06
         0.86435E-06
         0.11530E-05
         0.12686E-05
         0.12156E-05
         0.10943E-05
         0.99323E-06
         0.80652E-06
         0.67804E-06
         0.88690E-06
         0.11749E-05
         0.12140E-05
         0.97900E-06
         0.79468E-06
         0.97744E-06
         0.11543E-05
         0.24633E-05
         0.19479E-05
         0.20977E-05
         0.36264E-05
         0.19371E-05
         0.24763E-05
         0.13693E-05
         0.16437E-05
         0.27447E-05
         0.19888E-05
         0.80343E-06
         0.15345E-05
         0.16908E-05
         0.13515E-05
         0.17466E-05
         0.32642E-05
         0.25564E-05
         0.32518E-05
         0.18992E-05
         0.21722E-05
         0.20466E-05
         0.22701E-05
         0.17395E-05
         0.10803E-05
         0.20439E-05
         0.17078E-05
         0.17496E-05
         0.18039E-05
         0.15790E-05
         0.19290E-05
         0.24597E-05
         0.17323E-05
         0.27671E-05
         0.24183E-05
         0.10819E-05
         0.16648E-05
         0.18911E-05
         0.20001E-05
         0.19339E-05
         0.15195E-05
         0.95452E-06
         0.15743E-05
         0.20867E-05
         0.16823E-05
         0.14775E-05
         0.96776E-06
         0.16543E-05
         0.22487E-05
         0.23633E-05
         0.19089E-05
         0.11714E-05
         0.20273E-05
         0.74270E-06
         0.94861E-06
         0.88109E-06
         0.10473E-05
         0.10248E-05
         0.99493E-06
         0.10643E-05
         0.11287E-05
         0.10609E-05
         0.82418E-06
         0.67046E-06
         0.86437E-06
         0.11532E-05
         0.12689E-05
         0.12157E-05
         0.10943E-05
         0.99316E-06
         0.80646E-06
         0.67794E-06
         0.88683E-06
         0.11749E-05
         0.12140E-05
         0.97879E-06
         0.79450E-06
         0.97755E-06
         0.11543E-05
         0.24635E-05
         0.19475E-05
         0.20979E-05
         0.36281E-05
         0.19374E-05
         0.24771E-05
         0.13686E-05
         0.16427E-05
         0.27456E-05
         0.19875E-05
         0.80266E-06
         0.15342E-05
         0.16907E-05
         0.13496E-05
         0.17463E-05
         0.32651E-05
         0.25575E-05
         0.32534E-05
         0.18993E-05
         0.21724E-05
         0.20466E-05
         0.22702E-05
         0.17393E-05
         0.10802E-05
         0.20430E-05
         0.17076E-05
         0.17469E-05
         0.18021E-05
         0.15784E-05
         0.19286E-05
         0.24600E-05
         0.17321E-05
         0.27685E-05
         0.24205E-05
         0.10819E-05
         0.16645E-05
         0.18909E-05
         0.19999E-05
         0.19341E-05
         0.15195E-05
         0.95452E-06
         0.15741E-05
         0.20866E-05
         0.16821E-05
         0.14772E-05
         0.96751E-06
         0.16542E-05
         0.22488E-05
         0.23637E-05
         0.19092E-05
         0.11715E-05
         0.20283E-05
         0.74247E-06
         0.94860E-06
         0.88066E-06
         0.10473E-05
         0.10250E-05
         0.99514E-06
         0.10648E-05
         0.11295E-05
         0.10615E-05
         0.82437E-06
         0.67052E-06
         0.86439E-06
         0.11533E-05
         0.12691E-05
         0.12159E-05
         0.10942E-05
         0.99310E-06
         0.80639E-06
         0.67783E-06
         0.88676E-06
         0.11748E-05
         0.12140E-05
         0.97859E-06
         0.79433E-06
         0.97767E-06
         0.11543E-05
         0.24636E-05
         0.19471E-05
         0.20980E-05
         0.36298E-05
         0.19377E-05
         0.24779E-05
         0.13679E-05
         0.16417E-05
         0.27466E-05
         0.19862E-05
         0.80189E-06
         0.15339E-05
         0.16906E-05
         0.13477E-05
         0.17459E-05
         0.32661E-05
         0.25587E-05
         0.32551E-05
         0.18994E-05
         0.21727E-05
         0.20465E-05
         0.22703E-05
         0.17392E-05
         0.10800E-05
         0.20421E-05
         0.17075E-05
         0.17443E-05
         0.18003E-05
         0.15777E-05
         0.19281E-05
         0.24602E-05
         0.17319E-05
         0.27700E-05
         0.24227E-05
         0.10819E-05
         0.16642E-05
         0.18906E-05
         0.19998E-05
         0.19342E-05
         0.15196E-05
         0.95453E-06
         0.15739E-05
         0.20865E-05
         0.16819E-05
         0.14768E-05
         0.96727E-06
         0.16541E-05
         0.22488E-05
         0.23640E-05
         0.19096E-05
         0.11715E-05
         0.20293E-05
         0.74225E-06
         0.94859E-06
         0.88023E-06
         0.10474E-05
         0.10253E-05
         0.99535E-06
         0.10653E-05
         0.11303E-05
         0.10621E-05
         0.82456E-06
         0.67057E-06
         0.86441E-06
         0.11535E-05
         0.12694E-05
         0.12160E-05
         0.10942E-05
         0.99304E-06
         0.80633E-06
         0.67773E-06
         0.88671E-06
         0.11748E-05
         0.12140E-05
         0.97840E-06
         0.79415E-06
         0.97780E-06
         0.11542E-05
         0.24637E-05
         0.19466E-05
         0.20982E-05
         0.36315E-05
         0.19380E-05
         0.24786E-05
         0.13671E-05
         0.16407E-05
         0.27475E-05
         0.19849E-05
         0.80110E-06
         0.15336E-05
         0.16905E-05
         0.13457E-05
         0.17455E-05
         0.32669E-05
         0.25598E-05
         0.32567E-05
         0.18994E-05
         0.21729E-05
         0.20464E-05
         0.22703E-05
         0.17390E-05
         0.10799E-05
         0.20412E-05
         0.17073E-05
         0.17416E-05
         0.17985E-05
         0.15770E-05
         0.19277E-05
         0.24604E-05
         0.17317E-05
         0.27714E-05
         0.24248E-05
         0.10819E-05
         0.16638E-05
         0.18903E-05
         0.19996E-05
         0.19343E-05
         0.15196E-05
         0.95451E-06
         0.15737E-05
         0.20864E-05
         0.16816E-05
         0.14765E-05
         0.96700E-06
         0.16539E-05
         0.22488E-05
         0.23644E-05
         0.19100E-05
         0.11715E-05
         0.20303E-05
         0.74200E-06
         0.94855E-06
         0.87978E-06
         0.10474E-05
         0.10255E-05
         0.99555E-06
         0.10657E-05
         0.11311E-05
         0.10627E-05
         0.82472E-06
         0.67061E-06
         0.86442E-06
         0.11536E-05
         0.12697E-05
         0.12161E-05
         0.10941E-05
         0.99295E-06
         0.80625E-06
         0.67761E-06
         0.88662E-06
         0.11748E-05
         0.12140E-05
         0.97818E-06
         0.79396E-06
         0.97790E-06
         0.11542E-05
         0.24639E-05
         0.19463E-05
         0.20984E-05
         0.36333E-05
         0.19383E-05
         0.24794E-05
         0.13664E-05
         0.16398E-05
         0.27485E-05
         0.19836E-05
         0.80034E-06
         0.15334E-05
         0.16904E-05
         0.13439E-05
         0.17452E-05
         0.32679E-05
         0.25610E-05
         0.32583E-05
         0.18995E-05
         0.21732E-05
         0.20463E-05
         0.22704E-05
         0.17388E-05
         0.10798E-05
         0.20404E-05
         0.17072E-05
         0.17389E-05
         0.17967E-05
         0.15763E-05
         0.19272E-05
         0.24607E-05
         0.17315E-05
         0.27729E-05
         0.24270E-05
         0.10819E-05
         0.16635E-05
         0.18901E-05
         0.19995E-05
         0.19345E-05
         0.15197E-05
         0.95453E-06
         0.15735E-05
         0.20863E-05
         0.16814E-05
         0.14761E-05
         0.96677E-06
         0.16538E-05
         0.22488E-05
         0.23647E-05
         0.19104E-05
         0.11716E-05
         0.20313E-05
         0.74179E-06
         0.94855E-06
         0.87936E-06
         0.10475E-05
         0.10257E-05
         0.99577E-06
         0.10662E-05
         0.11319E-05
         0.10633E-05
         0.82492E-06
         0.67068E-06
         0.86446E-06
         0.11538E-05
         0.12700E-05
         0.12163E-05
         0.10941E-05
         0.99291E-06
         0.80620E-06
         0.67752E-06
         0.88657E-06
         0.11748E-05
         0.12140E-05
         0.97800E-06
         0.79380E-06
         0.97803E-06
         0.11542E-05
         0.12320E-05
         0.97306E-06
         0.10493E-05
         0.18171E-05
         0.96926E-06
         0.12399E-05
         0.68306E-06
         0.81967E-06
         0.13745E-05
         0.99152E-06
         0.39999E-06
         0.76665E-06
         0.84519E-06
         0.67148E-06
         0.87252E-06
         0.16343E-05
         0.12808E-05
         0.16296E-05
         0.94981E-06
         0.10867E-05
         0.10232E-05
         0.11353E-05
         0.86940E-06
         0.53990E-06
         0.10200E-05
         0.85360E-06
         0.86884E-06
         0.89793E-06
         0.78802E-06
         0.96354E-06
         0.12305E-05
         0.86572E-06
         0.13869E-05
         0.12141E-05
         0.54095E-06
         0.83170E-06
         0.94503E-06
         0.99975E-06
         0.96729E-06
         0.75992E-06
         0.47728E-06
         0.78670E-06
         0.10432E-05
         0.84065E-06
         0.73800E-06
         0.48334E-06
         0.82688E-06
         0.11245E-05
         0.11825E-05
         0.95534E-06
         0.58581E-06
         0.10159E-05
         0.37085E-06
         0.47429E-06
         0.43959E-06
         0.52375E-06
         0.51294E-06
         0.49796E-06
         0.53322E-06
         0.56619E-06
         0.53185E-06
         0.41252E-06
         0.33536E-06
         0.43225E-06
         0.57696E-06
         0.63509E-06
         0.60820E-06
         0.54708E-06
         0.49646E-06
         0.40310E-06
         0.33875E-06
         0.44329E-06
         0.58740E-06
         0.60700E-06
         0.48897E-06
         0.39687E-06
         0.48906E-06
         0.57710E-06
  
SCALARS                 Poissons_ratio  double 1
LOOKUP_TABLE default
         0.30000E+00
         0.30000E+00
         0.30000E+00
         0.30000E+00
         0.30000E+00
         0.30000E+00
         0.30000E+00
         0.30000E+00
         0.30000E+00
         0.30000E+00
         0.30000E+00
         0.30000E+00
         0.30000E+00
         0.30000E+00
         0.30000E+00
         0.30000E+00
         0.30000E+00
         0.30000E+00
         0.30000E+00
         0.30000E+00
         0.30000E+00
         0.30000E+00
         0.30000E+00
         0.30000E+00
         0.30000E+00
         0.30000E+00
         0.30000E+00
         0.30000E+00
         0.30000E+00
         0.30000E+00
         0.30000E+00
         0.30000E+00
         0.30000E+00
         0.30000E+00
         0.30000E+00
         0.30000E+00
         0.30000E+00
         0.30000E+00
         0.30000E+00
         0.30000E+00
         0.30000E+00
         0.30000E+00
         0.30000E+00
         0.30000E+00
         0.30000E+00
         0.30000E+00
         0.30000E+00
         0.30000E+00
         0.30000E+00
         0.30000E+00
         0.30000E+00
         0.30000E+00
         0.30000E+00
         0.30000E+00
         0.30000E+00
         0.30000E+00
         0.30000E+00
         0.30000E+00
         0.30000E+00
         0.30000E+00
         0.30000E+00
         0.30000E+00
         0.30000E+00
         0.30000E+00
         0.30000E+00
         0.30000E+00
         0.30000E+00
         0.30000E+00
         0.30000E+00
         0.30000E+00
         0.30000E+00
         0.30000E+00
         0.30000E+00
         0.30000E+00
         0.30000E+00
         0.30000E+00
         0.30000E+00
         0.30000E+00
         0.30000E+00
         0.30000E+00
         0.30000E+00
         0.30000E+00
         0.30000E+00
         0.30000E+00
         0.30000E+00
         0.30000E+00
         0.30000E+00
         0.30000E+00
         0.30000E+00
         0.30000E+00
         0.30000E+00
         0.30000E+00
         0.30000E+00
         0.30000E+00
         0.30000E+00
         0.30000E+00
         0.30000E+00
         0.30000E+00
         0.30000E+00
         0.30000E+00
         0.30000E+00
         0.30000E+00
         0.30000E+00
         0.30000E+00
         0.30000E+00
         0.30000E+00
         0.30000E+00
         0.30000E+00
         0.30000E+00
         0.30000E+00
         0.30000E+00
         0.30000E+00
         0.30000E+00
         0.30000E+00
         0.30000E+00
         0.30000E+00
         0.30000E+00
         0.30000E+00
         0.30000E+00
         0.30000E+00
         0.30000E+00
         0.30000E+00
         0.30000E+00
         0.30000E+00
         0.30000E+00
         0.30000E+00
         0.30000E+00
         0.30000E+00
         0.30000E+00
         0.30000E+00
         0.30000E+00
         0.30000E+00
         0.30000E+00
         0.30000E+00
         0.30000E+00
         0.30000E+00
         0.30000E+00
         0.30000E+00
         0.30000E+00
         0.30000E+00
         0.30000E+00
         0.30000E+00
         0.30000E+00
         0.30000E+00
         0.30000E+00
         0.30000E+00
         0.30000E+00
         0.30000E+00
         0.30000E+00
         0.30000E+00
         0.30000E+00
         0.30000E+00
         0.30000E+00
         0.30000E+00
         0.30000E+00
         0.30000E+00
         0.30000E+00
         0.30000E+00
         0.30000E+00
         0.30000E+00
         0.30000E+00
         0.30000E+00
         0.30000E+00
         0.30000E+00
         0.30000E+00
         0.30000E+00
         0.30000E+00
         0.30000E+00
         0.30000E+00
         0.30000E+00
         0.30000E+00
         0.30000E+00
         0.30000E+00
         0.30000E+00
         0.30000E+00
         0.30000E+00
         0.30000E+00
         0.30000E+00
         0.30000E+00
         0.30000E+00
         0.30000E+00
         0.30000E+00
         0.30000E+00
         0.30000E+00
         0.30000E+00
         0.30000E+00
         0.30000E+00
         0.30000E+00
         0.30000E+00
         0.30000E+00
         0.30000E+00
         0.30000E+00
         0.30000E+00
         0.30000E+00
         0.30000E+00
         0.30000E+00
         0.30000E+00
         0.30000E+00
         0.30000E+00
         0.30000E+00
         0.30000E+00
         0.30000E+00
         0.30000E+00
         0.30000E+00
         0.30000E+00
         0.30000E+00
         0.30000E+00
         0.30000E+00
         0.30000E+00
         0.30000E+00
         0.30000E+00
         0.30000E+00
         0.30000E+00
         0.30000E+00
         0.30000E+00
         0.30000E+00
         0.30000E+00
         0.30000E+00
         0.30000E+00
         0.30000E+00
         0.30000E+00
         0.30000E+00
         0.30000E+00
         0.30000E+00
         0.30000E+00
         0.30000E+00
         0.30000E+00
         0.30000E+00
         0.30000E+00
         0.30000E+00
         0.30000E+00
         0.30000E+00
         0.30000E+00
         0.30000E+00
         0.30000E+00
         0.30000E+00
         0.30000E+00
         0.30000E+00
         0.30000E+00
         0.30000E+00
         0.30000E+00
         0.30000E+00
         0.30000E+00
         0.30000E+00
         0.30000E+00
         0.30000E+00
         0.30000E+00
         0.30000E+00
         0.30000E+00
         0.30000E+00
         0.30000E+00
         0.30000E+00
         0.30000E+00
         0.30000E+00
         0.30000E+00
         0.30000E+00
         0.30000E+00
         0.30000E+00
         0.30000E+00
         0.30000E+00
         0.30000E+00
         0.30000E+00
         0.30000E+00
         0.30000E+00
         0.30000E+00
         0.30000E+00
         0.30000E+00
         0.30000E+00
         0.30000E+00
         0.30000E+00
         0.30000E+00
         0.30000E+00
         0.30000E+00
         0.30000E+00
         0.30000E+00
         0.30000E+00
         0.30000E+00
         0.30000E+00
         0.30000E+00
         0.30000E+00
         0.30000E+00
         0.30000E+00
         0.30000E+00
         0.30000E+00
         0.30000E+00
         0.30000E+00
         0.30000E+00
         0.30000E+00
         0.30000E+00
         0.30000E+00
         0.30000E+00
         0.30000E+00
         0.30000E+00
         0.30000E+00
         0.30000E+00
         0.30000E+00
         0.30000E+00
         0.30000E+00
         0.30000E+00
         0.30000E+00
         0.30000E+00
         0.30000E+00
         0.30000E+00
         0.30000E+00
         0.30000E+00
         0.30000E+00
         0.30000E+00
         0.30000E+00
         0.30000E+00
         0.30000E+00
         0.30000E+00
         0.30000E+00
         0.30000E+00
         0.30000E+00
         0.30000E+00
         0.30000E+00
         0.30000E+00
         0.30000E+00
         0.30000E+00
         0.30000E+00
         0.30000E+00
         0.30000E+00
         0.30000E+00
         0.30000E+00
         0.30000E+00
         0.30000E+00
         0.30000E+00
         0.30000E+00
         0.30000E+00
         0.30000E+00
         0.30000E+00
         0.30000E+00
         0.30000E+00
         0.30000E+00
         0.30000E+00
         0.30000E+00
         0.30000E+00
         0.30000E+00
         0.30000E+00
         0.30000E+00
         0.30000E+00
         0.30000E+00
         0.30000E+00
         0.30000E+00
         0.30000E+00
         0.30000E+00
         0.30000E+00
         0.30000E+00
         0.30000E+00
         0.30000E+00
         0.30000E+00
         0.30000E+00
         0.30000E+00
         0.30000E+00
         0.30000E+00
         0.30000E+00
         0.30000E+00
         0.30000E+00
         0.30000E+00
         0.30000E+00
         0.30000E+00
         0.30000E+00
         0.30000E+00
         0.30000E+00
         0.30000E+00
         0.30000E+00
         0.30000E+00
         0.30000E+00
         0.30000E+00
         0.30000E+00
         0.30000E+00
         0.30000E+00
         0.30000E+00
         0.30000E+00
         0.30000E+00
         0.30000E+00
         0.30000E+00
         0.30000E+00
         0.30000E+00
         0.30000E+00
         0.30000E+00
         0.30000E+00
         0.30000E+00
         0.30000E+00
         0.30000E+00
         0.30000E+00
         0.30000E+00
         0.30000E+00
         0.30000E+00
         0.30000E+00
         0.30000E+00
         0.30000E+00
         0.30000E+00
         0.30000E+00
         0.30000E+00
         0.30000E+00
         0.30000E+00
         0.30000E+00
         0.30000E+00
         0.30000E+00
         0.30000E+00
         0.30000E+00
         0.30000E+00
         0.30000E+00
         0.30000E+00
         0.30000E+00
         0.30000E+00
         0.30000E+00
         0.30000E+00
         0.30000E+00
         0.30000E+00
         0.30000E+00
         0.30000E+00
         0.30000E+00
         0.30000E+00
         0.30000E+00
         0.30000E+00
         0.30000E+00
         0.30000E+00
         0.30000E+00
         0.30000E+00
         0.30000E+00
         0.30000E+00
         0.30000E+00
         0.30000E+00
         0.30000E+00
         0.30000E+00
         0.30000E+00
         0.30000E+00
         0.30000E+00
         0.30000E+00
         0.30000E+00
         0.30000E+00
         0.30000E+00
         0.30000E+00
         0.30000E+00
         0.30000E+00
         0.30000E+00
         0.30000E+00
         0.30000E+00
         0.30000E+00
         0.30000E+00
         0.30000E+00
         0.30000E+00
         0.30000E+00
         0.30000E+00
         0.30000E+00
         0.30000E+00
         0.30000E+00
         0.30000E+00
         0.30000E+00
         0.30000E+00
         0.30000E+00
         0.30000E+00
         0.30000E+00
         0.30000E+00
         0.30000E+00
         0.30000E+00
         0.30000E+00
         0.30000E+00
         0.30000E+00
         0.30000E+00
         0.30000E+00
         0.30000E+00
         0.30000E+00
         0.30000E+00
         0.30000E+00
         0.30000E+00
         0.30000E+00
         0.30000E+00
         0.30000E+00
         0.30000E+00
         0.30000E+00
         0.30000E+00
         0.30000E+00
         0.30000E+00
         0.30000E+00
         0.30000E+00
         0.30000E+00
         0.30000E+00
         0.30000E+00
         0.30000E+00
         0.30000E+00
         0.30000E+00
         0.30000E+00
         0.30000E+00
         0.30000E+00
         0.30000E+00
         0.30000E+00
         0.30000E+00
         0.30000E+00
         0.30000E+00
         0.30000E+00
         0.30000E+00
         0.30000E+00
         0.30000E+00
         0.30000E+00
         0.30000E+00
         0.30000E+00
         0.30000E+00
         0.30000E+00
         0.30000E+00
         0.30000E+00
         0.30000E+00
         0.30000E+00
         0.30000E+00
         0.30000E+00
         0.30000E+00
         0.30000E+00
         0.30000E+00
         0.30000E+00
         0.30000E+00
         0.30000E+00
         0.30000E+00
         0.30000E+00
         0.30000E+00
         0.30000E+00
         0.30000E+00
         0.30000E+00
         0.30000E+00
         0.30000E+00
         0.30000E+00
         0.30000E+00
         0.30000E+00
         0.30000E+00
         0.30000E+00
         0.30000E+00
         0.30000E+00
         0.30000E+00
         0.30000E+00
         0.30000E+00
         0.30000E+00
         0.30000E+00
         0.30000E+00
         0.30000E+00
         0.30000E+00
         0.30000E+00
         0.30000E+00
         0.30000E+00
         0.30000E+00
         0.30000E+00
         0.30000E+00
         0.30000E+00
         0.30000E+00
         0.30000E+00
         0.30000E+00
         0.30000E+00
         0.30000E+00
         0.30000E+00
         0.30000E+00
         0.30000E+00
         0.30000E+00
         0.30000E+00
         0.30000E+00
         0.30000E+00
         0.30000E+00
         0.30000E+00
         0.30000E+00
         0.30000E+00
         0.30000E+00
         0.30000E+00
         0.30000E+00
         0.30000E+00
         0.30000E+00
         0.30000E+00
         0.30000E+00
         0.30000E+00
         0.30000E+00
         0.30000E+00
         0.30000E+00
         0.30000E+00
         0.30000E+00
         0.30000E+00
         0.30000E+00
         0.30000E+00
         0.30000E+00
         0.30000E+00
         0.30000E+00
         0.30000E+00
         0.30000E+00
         0.30000E+00
         0.30000E+00
         0.30000E+00
         0.30000E+00
         0.30000E+00
         0.30000E+00
         0.30000E+00
         0.30000E+00
         0.30000E+00
         0.30000E+00
         0.30000E+00
         0.30000E+00
         0.30000E+00
         0.30000E+00
         0.30000E+00
         0.30000E+00
         0.30000E+00
         0.30000E+00
         0.30000E+00
         0.30000E+00
         0.30000E+00
         0.30000E+00
         0.30000E+00
         0.30000E+00
         0.30000E+00
         0.30000E+00
         0.30000E+00
         0.30000E+00
         0.30000E+00
         0.30000E+00
         0.30000E+00
         0.30000E+00
         0.30000E+00
         0.30000E+00
         0.30000E+00
         0.30000E+00
         0.30000E+00
         0.30000E+00
         0.30000E+00
         0.30000E+00
         0.30000E+00
         0.30000E+00
         0.30000E+00
         0.30000E+00
         0.30000E+00
         0.30000E+00
         0.30000E+00
         0.30000E+00
         0.30000E+00
         0.30000E+00
         0.30000E+00
         0.30000E+00
         0.30000E+00
         0.30000E+00
         0.30000E+00
         0.30000E+00
         0.30000E+00
         0.30000E+00
         0.30000E+00
         0.30000E+00
         0.30000E+00
         0.30000E+00
         0.30000E+00
         0.30000E+00
         0.30000E+00
         0.30000E+00
         0.30000E+00
         0.30000E+00
         0.30000E+00
         0.30000E+00
         0.30000E+00
         0.30000E+00
         0.30000E+00
         0.30000E+00
         0.30000E+00
         0.30000E+00
         0.30000E+00
         0.30000E+00
         0.30000E+00
         0.30000E+00
         0.30000E+00
         0.30000E+00
         0.30000E+00
         0.30000E+00
         0.30000E+00
         0.30000E+00
         0.30000E+00
         0.30000E+00
         0.30000E+00
         0.30000E+00
         0.30000E+00
         0.30000E+00
         0.30000E+00
         0.30000E+00
         0.30000E+00
         0.30000E+00
         0.30000E+00
         0.30000E+00
         0.30000E+00
         0.30000E+00
         0.30000E+00
         0.30000E+00
         0.30000E+00
         0.30000E+00
         0.30000E+00
         0.30000E+00
         0.30000E+00
         0.30000E+00
         0.30000E+00
         0.30000E+00
         0.30000E+00
         0.30000E+00
         0.30000E+00
         0.30000E+00
         0.30000E+00
         0.30000E+00
         0.30000E+00
         0.30000E+00
         0.30000E+00
         0.30000E+00
         0.30000E+00
         0.30000E+00
         0.30000E+00
         0.30000E+00
         0.30000E+00
         0.30000E+00
         0.30000E+00
         0.30000E+00
         0.30000E+00
         0.30000E+00
         0.30000E+00
         0.30000E+00
         0.30000E+00
         0.30000E+00
         0.30000E+00
         0.30000E+00
         0.30000E+00
         0.30000E+00
         0.30000E+00
         0.30000E+00
         0.30000E+00
         0.30000E+00
         0.30000E+00
         0.30000E+00
         0.30000E+00
         0.30000E+00
         0.30000E+00
         0.30000E+00
         0.30000E+00
         0.30000E+00
         0.30000E+00
         0.30000E+00
         0.30000E+00
         0.30000E+00
         0.30000E+00
         0.30000E+00
         0.30000E+00
         0.30000E+00
         0.30000E+00
         0.30000E+00
         0.30000E+00
         0.30000E+00
         0.30000E+00
         0.30000E+00
         0.30000E+00
         0.30000E+00
         0.30000E+00
         0.30000E+00
         0.30000E+00
         0.30000E+00
         0.30000E+00
         0.30000E+00
         0.30000E+00
         0.30000E+00
         0.30000E+00
         0.30000E+00
         0.30000E+00
         0.30000E+00
         0.30000E+00
         0.30000E+00
         0.30000E+00
         0.30000E+00
         0.30000E+00
         0.30000E+00
         0.30000E+00
         0.30000E+00
         0.30000E+00
         0.30000E+00
         0.30000E+00
         0.30000E+00
         0.30000E+00
         0.30000E+00
         0.30000E+00
         0.30000E+00
         0.30000E+00
         0.30000E+00
         0.30000E+00
         0.30000E+00
         0.30000E+00
         0.30000E+00
         0.30000E+00
         0.30000E+00
         0.30000E+00
         0.30000E+00
         0.30000E+00
         0.30000E+00
         0.30000E+00
         0.30000E+00
         0.30000E+00
         0.30000E+00
         0.30000E+00
         0.30000E+00
         0.30000E+00
         0.30000E+00
         0.30000E+00
         0.30000E+00
         0.30000E+00
         0.30000E+00
         0.30000E+00
         0.30000E+00
         0.30000E+00
         0.30000E+00
         0.30000E+00
         0.30000E+00
         0.30000E+00
         0.30000E+00
         0.30000E+00
         0.30000E+00
         0.30000E+00
         0.30000E+00
         0.30000E+00
         0.30000E+00
         0.30000E+00
         0.30000E+00
         0.30000E+00
         0.30000E+00
         0.30000E+00
         0.30000E+00
         0.30000E+00
         0.30000E+00
         0.30000E+00
         0.30000E+00
         0.30000E+00
         0.30000E+00
         0.30000E+00
         0.30000E+00
         0.30000E+00
         0.30000E+00
         0.30000E+00
         0.30000E+00
         0.30000E+00
         0.30000E+00
         0.30000E+00
         0.30000E+00
         0.30000E+00
         0.30000E+00
         0.30000E+00
         0.30000E+00
         0.30000E+00
         0.30000E+00
         0.30000E+00
         0.30000E+00
         0.30000E+00
         0.30000E+00
         0.30000E+00
         0.30000E+00
         0.30000E+00
         0.30000E+00
         0.30000E+00
         0.30000E+00
         0.30000E+00
         0.30000E+00
         0.30000E+00
         0.30000E+00
         0.30000E+00
         0.30000E+00
         0.30000E+00
         0.30000E+00
         0.30000E+00
         0.30000E+00
         0.30000E+00
         0.30000E+00
         0.30000E+00
         0.30000E+00
         0.30000E+00
         0.30000E+00
         0.30000E+00
         0.30000E+00
         0.30000E+00
         0.30000E+00
         0.30000E+00
         0.30000E+00
         0.30000E+00
         0.30000E+00
         0.30000E+00
         0.30000E+00
         0.30000E+00
         0.30000E+00
         0.30000E+00
         0.30000E+00
         0.30000E+00
         0.30000E+00
         0.30000E+00
         0.30000E+00
         0.30000E+00
         0.30000E+00
         0.30000E+00
         0.30000E+00
         0.30000E+00
         0.30000E+00
         0.30000E+00
         0.30000E+00
         0.30000E+00
         0.30000E+00
         0.30000E+00
         0.30000E+00
         0.30000E+00
         0.30000E+00
         0.30000E+00
         0.30000E+00
         0.30000E+00
         0.30000E+00
         0.30000E+00
         0.30000E+00
         0.30000E+00
         0.30000E+00
         0.30000E+00
         0.30000E+00
         0.30000E+00
         0.30000E+00
         0.30000E+00
         0.30000E+00
         0.30000E+00
         0.30000E+00
         0.30000E+00
         0.30000E+00
         0.30000E+00
         0.30000E+00
         0.30000E+00
         0.30000E+00
         0.30000E+00
         0.30000E+00
         0.30000E+00
         0.30000E+00
         0.30000E+00
         0.30000E+00
         0.30000E+00
         0.30000E+00
         0.30000E+00
         0.30000E+00
         0.30000E+00
         0.30000E+00
         0.30000E+00
         0.30000E+00
         0.30000E+00
         0.30000E+00
         0.30000E+00
         0.30000E+00
         0.30000E+00
         0.30000E+00
         0.30000E+00
         0.30000E+00
         0.30000E+00
         0.30000E+00
         0.30000E+00
         0.30000E+00
         0.30000E+00
         0.30000E+00
         0.30000E+00
         0.30000E+00
         0.30000E+00
         0.30000E+00
         0.30000E+00
         0.30000E+00
         0.30000E+00
         0.30000E+00
         0.30000E+00
         0.30000E+00
         0.30000E+00
         0.30000E+00
         0.30000E+00
         0.30000E+00
         0.30000E+00
         0.30000E+00
         0.30000E+00
         0.30000E+00
         0.30000E+00
         0.30000E+00
         0.30000E+00
         0.30000E+00
         0.30000E+00
         0.30000E+00
         0.30000E+00
         0.30000E+00
         0.30000E+00
         0.30000E+00
         0.30000E+00
         0.30000E+00
         0.30000E+00
         0.30000E+00
         0.30000E+00
         0.30000E+00
         0.30000E+00
         0.30000E+00
         0.30000E+00
         0.30000E+00
         0.30000E+00
         0.30000E+00
         0.30000E+00
         0.30000E+00
         0.30000E+00
         0.30000E+00
         0.30000E+00
         0.30000E+00
         0.30000E+00
         0.30000E+00
         0.30000E+00
         0.30000E+00
         0.30000E+00
         0.30000E+00
         0.30000E+00
         0.30000E+00
         0.30000E+00
         0.30000E+00
         0.30000E+00
         0.30000E+00
         0.30000E+00
         0.30000E+00
         0.30000E+00
         0.30000E+00
         0.30000E+00
         0.30000E+00
         0.30000E+00
         0.30000E+00
         0.30000E+00
         0.30000E+00
         0.30000E+00
         0.30000E+00
         0.30000E+00
         0.30000E+00
         0.30000E+00
         0.30000E+00
         0.30000E+00
         0.30000E+00
         0.30000E+00
         0.30000E+00
         0.30000E+00
         0.30000E+00
         0.30000E+00
         0.30000E+00
         0.30000E+00
         0.30000E+00
         0.30000E+00
         0.30000E+00
         0.30000E+00
         0.30000E+00
         0.30000E+00
         0.30000E+00
         0.30000E+00
         0.30000E+00
         0.30000E+00
         0.30000E+00
         0.30000E+00
         0.30000E+00
         0.30000E+00
         0.30000E+00
         0.30000E+00
         0.30000E+00
         0.30000E+00
         0.30000E+00
         0.30000E+00
         0.30000E+00
         0.30000E+00
         0.30000E+00
         0.30000E+00
         0.30000E+00
         0.30000E+00
         0.30000E+00
         0.30000E+00
         0.30000E+00
         0.30000E+00
         0.30000E+00
         0.30000E+00
         0.30000E+00
         0.30000E+00
         0.30000E+00
         0.30000E+00
         0.30000E+00
         0.30000E+00
         0.30000E+00
         0.30000E+00
         0.30000E+00
         0.30000E+00
         0.30000E+00
         0.30000E+00
         0.30000E+00
         0.30000E+00
         0.30000E+00
         0.30000E+00
         0.30000E+00
         0.30000E+00
         0.30000E+00
         0.30000E+00
         0.30000E+00
         0.30000E+00
         0.30000E+00
         0.30000E+00
         0.30000E+00
         0.30000E+00
         0.30000E+00
         0.30000E+00
         0.30000E+00
         0.30000E+00
         0.30000E+00
         0.30000E+00
         0.30000E+00
         0.30000E+00
         0.30000E+00
         0.30000E+00
         0.30000E+00
         0.30000E+00
         0.30000E+00
         0.30000E+00
         0.30000E+00
         0.30000E+00
         0.30000E+00
         0.30000E+00
         0.30000E+00
         0.30000E+00
         0.30000E+00
         0.30000E+00
         0.30000E+00
         0.30000E+00
         0.30000E+00
         0.30000E+00
         0.30000E+00
         0.30000E+00
         0.30000E+00
         0.30000E+00
         0.30000E+00
         0.30000E+00
         0.30000E+00
         0.30000E+00
         0.30000E+00
         0.30000E+00
         0.30000E+00
         0.30000E+00
         0.30000E+00
         0.30000E+00
         0.30000E+00
         0.30000E+00
         0.30000E+00
         0.30000E+00
         0.30000E+00
         0.30000E+00
         0.30000E+00
         0.30000E+00
         0.30000E+00
         0.30000E+00
         0.30000E+00
         0.30000E+00
         0.30000E+00
         0.30000E+00
         0.30000E+00
         0.30000E+00
         0.30000E+00
         0.30000E+00
         0.30000E+00
         0.30000E+00
         0.30000E+00
         0.30000E+00
         0.30000E+00
         0.30000E+00
         0.30000E+00
         0.30000E+00
         0.30000E+00
         0.30000E+00
         0.30000E+00
         0.30000E+00
         0.30000E+00
         0.30000E+00
         0.30000E+00
         0.30000E+00
         0.30000E+00
         0.30000E+00
         0.30000E+00
         0.30000E+00
         0.30000E+00
         0.30000E+00
         0.30000E+00
         0.30000E+00
         0.30000E+00
         0.30000E+00
         0.30000E+00
         0.30000E+00
         0.30000E+00
         0.30000E+00
         0.30000E+00
         0.30000E+00
         0.30000E+00
         0.30000E+00
         0.30000E+00
         0.30000E+00
         0.30000E+00
         0.30000E+00
         0.30000E+00
         0.30000E+00
         0.30000E+00
         0.30000E+00
         0.30000E+00
         0.30000E+00
         0.30000E+00
         0.30000E+00
         0.30000E+00
         0.30000E+00
         0.30000E+00
         0.30000E+00
         0.30000E+00
         0.30000E+00
         0.30000E+00
         0.30000E+00
         0.30000E+00
         0.30000E+00
         0.30000E+00
         0.30000E+00
         0.30000E+00
         0.30000E+00
         0.30000E+00
         0.30000E+00
         0.30000E+00
         0.30000E+00
         0.30000E+00
         0.30000E+00
         0.30000E+00
         0.30000E+00
         0.30000E+00
         0.30000E+00
         0.30000E+00
         0.30000E+00
         0.30000E+00
         0.30000E+00
         0.30000E+00
         0.30000E+00
         0.30000E+00
         0.30000E+00
         0.30000E+00
         0.30000E+00
         0.30000E+00
         0.30000E+00
         0.30000E+00
         0.30000E+00
         0.30000E+00
         0.30000E+00
         0.30000E+00
         0.30000E+00
         0.30000E+00
         0.30000E+00
         0.30000E+00
         0.30000E+00
         0.30000E+00
         0.30000E+00
         0.30000E+00
         0.30000E+00
         0.30000E+00
         0.30000E+00
         0.30000E+00
         0.30000E+00
         0.30000E+00
         0.30000E+00
         0.30000E+00
         0.30000E+00
         0.30000E+00
         0.30000E+00
         0.30000E+00
         0.30000E+00
         0.30000E+00
         0.30000E+00
         0.30000E+00
         0.30000E+00
         0.30000E+00
         0.30000E+00
         0.30000E+00
         0.30000E+00
         0.30000E+00
         0.30000E+00
         0.30000E+00
         0.30000E+00
         0.30000E+00
         0.30000E+00
         0.30000E+00
         0.30000E+00
         0.30000E+00
         0.30000E+00
         0.30000E+00
         0.30000E+00
         0.30000E+00
         0.30000E+00
         0.30000E+00
         0.30000E+00
         0.30000E+00
         0.30000E+00
         0.30000E+00
         0.30000E+00
         0.30000E+00
         0.30000E+00
         0.30000E+00
         0.30000E+00
         0.30000E+00
         0.30000E+00
         0.30000E+00
         0.30000E+00
         0.30000E+00
         0.30000E+00
         0.30000E+00
         0.30000E+00
         0.30000E+00
         0.30000E+00
         0.30000E+00
         0.30000E+00
         0.30000E+00
         0.30000E+00
         0.30000E+00
         0.30000E+00
         0.30000E+00
         0.30000E+00
         0.30000E+00
         0.30000E+00
         0.30000E+00
         0.30000E+00
         0.30000E+00
         0.30000E+00
         0.30000E+00
         0.30000E+00
         0.30000E+00
         0.30000E+00
         0.30000E+00
         0.30000E+00
         0.30000E+00
         0.30000E+00
         0.30000E+00
         0.30000E+00
         0.30000E+00
         0.30000E+00
         0.30000E+00
         0.30000E+00
         0.30000E+00
         0.30000E+00
         0.30000E+00
         0.30000E+00
         0.30000E+00
         0.30000E+00
         0.30000E+00
         0.30000E+00
         0.30000E+00
         0.30000E+00
         0.30000E+00
         0.30000E+00
         0.30000E+00
         0.30000E+00
         0.30000E+00
         0.30000E+00
         0.30000E+00
         0.30000E+00
         0.30000E+00
         0.30000E+00
         0.30000E+00
         0.30000E+00
         0.30000E+00
         0.30000E+00
         0.30000E+00
         0.30000E+00
         0.30000E+00
         0.30000E+00
         0.30000E+00
         0.30000E+00
         0.30000E+00
         0.30000E+00
         0.30000E+00
         0.30000E+00
         0.30000E+00
         0.30000E+00
         0.30000E+00
         0.30000E+00
         0.30000E+00
         0.30000E+00
         0.30000E+00
         0.30000E+00
         0.30000E+00
         0.30000E+00
         0.30000E+00
         0.30000E+00
         0.30000E+00
         0.30000E+00
         0.30000E+00
         0.30000E+00
         0.30000E+00
         0.30000E+00
         0.30000E+00
         0.30000E+00
         0.30000E+00
         0.30000E+00
         0.30000E+00
         0.30000E+00
         0.30000E+00
         0.30000E+00
         0.30000E+00
         0.30000E+00
         0.30000E+00
         0.30000E+00
         0.30000E+00
         0.30000E+00
         0.30000E+00
         0.30000E+00
         0.30000E+00
         0.30000E+00
         0.30000E+00
         0.30000E+00
         0.30000E+00
         0.30000E+00
         0.30000E+00
         0.30000E+00
         0.30000E+00
         0.30000E+00
         0.30000E+00
         0.30000E+00
         0.30000E+00
         0.30000E+00
         0.30000E+00
         0.30000E+00
         0.30000E+00
         0.30000E+00
         0.30000E+00
         0.30000E+00
         0.30000E+00
         0.30000E+00
         0.30000E+00
         0.30000E+00
         0.30000E+00
         0.30000E+00
         0.30000E+00
         0.30000E+00
         0.30000E+00
         0.30000E+00
         0.30000E+00
         0.30000E+00
         0.30000E+00
         0.30000E+00
         0.30000E+00
         0.30000E+00
         0.30000E+00
         0.30000E+00
         0.30000E+00
         0.30000E+00
         0.30000E+00
         0.30000E+00
         0.30000E+00
         0.30000E+00
         0.30000E+00
         0.30000E+00
         0.30000E+00
         0.30000E+00
         0.30000E+00
         0.30000E+00
         0.30000E+00
         0.30000E+00
         0.30000E+00
         0.30000E+00
         0.30000E+00
         0.30000E+00
         0.30000E+00
         0.30000E+00
         0.30000E+00
         0.30000E+00
         0.30000E+00
         0.30000E+00
         0.30000E+00
         0.30000E+00
         0.30000E+00
         0.30000E+00
         0.30000E+00
         0.30000E+00
         0.30000E+00
         0.30000E+00
         0.30000E+00
         0.30000E+00
         0.30000E+00
         0.30000E+00
         0.30000E+00
         0.30000E+00
         0.30000E+00
         0.30000E+00
         0.30000E+00
         0.30000E+00
         0.30000E+00
         0.30000E+00
         0.30000E+00
         0.30000E+00
         0.30000E+00
         0.30000E+00
         0.30000E+00
         0.30000E+00
         0.30000E+00
         0.30000E+00
         0.30000E+00
         0.30000E+00
         0.30000E+00
         0.30000E+00
         0.30000E+00
         0.30000E+00
         0.30000E+00
         0.30000E+00
         0.30000E+00
         0.30000E+00
         0.30000E+00
         0.30000E+00
         0.30000E+00
         0.30000E+00
         0.30000E+00
         0.30000E+00
         0.30000E+00
         0.30000E+00
         0.30000E+00
         0.30000E+00
         0.30000E+00
         0.30000E+00
         0.30000E+00
         0.30000E+00
         0.30000E+00
         0.30000E+00
         0.30000E+00
         0.30000E+00
         0.30000E+00
         0.30000E+00
         0.30000E+00
         0.30000E+00
         0.30000E+00
         0.30000E+00
         0.30000E+00
         0.30000E+00
         0.30000E+00
         0.30000E+00
         0.30000E+00
         0.30000E+00
         0.30000E+00
         0.30000E+00
         0.30000E+00
         0.30000E+00
         0.30000E+00
         0.30000E+00
         0.30000E+00
         0.30000E+00
         0.30000E+00
         0.30000E+00
         0.30000E+00
         0.30000E+00
         0.30000E+00
         0.30000E+00
         0.30000E+00
         0.30000E+00
         0.30000E+00
         0.30000E+00
         0.30000E+00
         0.30000E+00
         0.30000E+00
         0.30000E+00
         0.30000E+00
         0.30000E+00
         0.30000E+00
         0.30000E+00
         0.30000E+00
         0.30000E+00
         0.30000E+00
         0.30000E+00
         0.30000E+00
         0.30000E+00
         0.30000E+00
         0.30000E+00
         0.30000E+00
         0.30000E+00
         0.30000E+00
         0.30000E+00
         0.30000E+00
         0.30000E+00
         0.30000E+00
         0.30000E+00
         0.30000E+00
         0.30000E+00
         0.30000E+00
         0.30000E+00
         0.30000E+00
         0.30000E+00
         0.30000E+00
         0.30000E+00
         0.30000E+00
         0.30000E+00
         0.30000E+00
         0.30000E+00
         0.30000E+00
         0.30000E+00
         0.30000E+00
         0.30000E+00
         0.30000E+00
         0.30000E+00
         0.30000E+00
         0.30000E+00
         0.30000E+00
         0.30000E+00
         0.30000E+00
         0.30000E+00
         0.30000E+00
         0.30000E+00
         0.30000E+00
         0.30000E+00
         0.30000E+00
         0.30000E+00
         0.30000E+00
         0.30000E+00
         0.30000E+00
         0.30000E+00
         0.30000E+00
         0.30000E+00
         0.30000E+00
         0.30000E+00
         0.30000E+00
         0.30000E+00
         0.30000E+00
         0.30000E+00
         0.30000E+00
         0.30000E+00
         0.30000E+00
         0.30000E+00
         0.30000E+00
         0.30000E+00
         0.30000E+00
         0.30000E+00
         0.30000E+00
         0.30000E+00
         0.30000E+00
         0.30000E+00
         0.30000E+00
         0.30000E+00
         0.30000E+00
         0.30000E+00
         0.30000E+00
         0.30000E+00
         0.30000E+00
         0.30000E+00
         0.30000E+00
         0.30000E+00
         0.30000E+00
         0.30000E+00
         0.30000E+00
         0.30000E+00
         0.30000E+00
         0.30000E+00
         0.30000E+00
         0.30000E+00
         0.30000E+00
         0.30000E+00
         0.30000E+00
         0.30000E+00
         0.30000E+00
         0.30000E+00
         0.30000E+00
         0.30000E+00
         0.30000E+00
         0.30000E+00
         0.30000E+00
         0.30000E+00
         0.30000E+00
         0.30000E+00
         0.30000E+00
         0.30000E+00
         0.30000E+00
         0.30000E+00
         0.30000E+00
         0.30000E+00
         0.30000E+00
         0.30000E+00
         0.30000E+00
         0.30000E+00
         0.30000E+00
         0.30000E+00
         0.30000E+00
         0.30000E+00
         0.30000E+00
         0.30000E+00
         0.30000E+00
         0.30000E+00
         0.30000E+00
         0.30000E+00
         0.30000E+00
         0.30000E+00
         0.30000E+00
         0.30000E+00
         0.30000E+00
         0.30000E+00
         0.30000E+00
         0.30000E+00
         0.30000E+00
         0.30000E+00
         0.30000E+00
         0.30000E+00
         0.30000E+00
         0.30000E+00
         0.30000E+00
         0.30000E+00
         0.30000E+00
         0.30000E+00
         0.30000E+00
         0.30000E+00
         0.30000E+00
         0.30000E+00
         0.30000E+00
         0.30000E+00
         0.30000E+00
         0.30000E+00
         0.30000E+00
         0.30000E+00
         0.30000E+00
         0.30000E+00
         0.30000E+00
         0.30000E+00
         0.30000E+00
         0.30000E+00
         0.30000E+00
         0.30000E+00
         0.30000E+00
         0.30000E+00
         0.30000E+00
         0.30000E+00
         0.30000E+00
         0.30000E+00
         0.30000E+00
         0.30000E+00
         0.30000E+00
         0.30000E+00
         0.30000E+00
         0.30000E+00
         0.30000E+00
         0.30000E+00
         0.30000E+00
         0.30000E+00
         0.30000E+00
         0.30000E+00
         0.30000E+00
         0.30000E+00
         0.30000E+00
         0.30000E+00
         0.30000E+00
         0.30000E+00
         0.30000E+00
         0.30000E+00
         0.30000E+00
         0.30000E+00
         0.30000E+00
         0.30000E+00
         0.30000E+00
         0.30000E+00
         0.30000E+00
         0.30000E+00
         0.30000E+00
         0.30000E+00
         0.30000E+00
         0.30000E+00
         0.30000E+00
         0.30000E+00
         0.30000E+00
         0.30000E+00
         0.30000E+00
         0.30000E+00
         0.30000E+00
         0.30000E+00
         0.30000E+00
         0.30000E+00
         0.30000E+00
         0.30000E+00
         0.30000E+00
         0.30000E+00
         0.30000E+00
         0.30000E+00
         0.30000E+00
         0.30000E+00
         0.30000E+00
         0.30000E+00
         0.30000E+00
         0.30000E+00
         0.30000E+00
         0.30000E+00
         0.30000E+00
         0.30000E+00
         0.30000E+00
         0.30000E+00
         0.30000E+00
         0.30000E+00
         0.30000E+00
         0.30000E+00
         0.30000E+00
         0.30000E+00
         0.30000E+00
         0.30000E+00
         0.30000E+00
         0.30000E+00
         0.30000E+00
         0.30000E+00
         0.30000E+00
         0.30000E+00
         0.30000E+00
         0.30000E+00
         0.30000E+00
         0.30000E+00
         0.30000E+00
         0.30000E+00
         0.30000E+00
         0.30000E+00
         0.30000E+00
         0.30000E+00
         0.30000E+00
         0.30000E+00
         0.30000E+00
         0.30000E+00
         0.30000E+00
         0.30000E+00
         0.30000E+00
         0.30000E+00
         0.30000E+00
         0.30000E+00
         0.30000E+00
         0.30000E+00
         0.30000E+00
         0.30000E+00
         0.30000E+00
         0.30000E+00
         0.30000E+00
         0.30000E+00
         0.30000E+00
         0.30000E+00
         0.30000E+00
         0.30000E+00
         0.30000E+00
         0.30000E+00
         0.30000E+00
         0.30000E+00
         0.30000E+00
         0.30000E+00
         0.30000E+00
         0.30000E+00
         0.30000E+00
         0.30000E+00
         0.30000E+00
         0.30000E+00
         0.30000E+00
         0.30000E+00
         0.30000E+00
         0.30000E+00
         0.30000E+00
         0.30000E+00
         0.30000E+00
         0.30000E+00
         0.30000E+00
         0.30000E+00
         0.30000E+00
         0.30000E+00
         0.30000E+00
         0.30000E+00
         0.30000E+00
         0.30000E+00
         0.30000E+00
         0.30000E+00
         0.30000E+00
         0.30000E+00
         0.30000E+00
         0.30000E+00
         0.30000E+00
         0.30000E+00
         0.30000E+00
         0.30000E+00
         0.30000E+00
         0.30000E+00
         0.30000E+00
         0.30000E+00
         0.30000E+00
         0.30000E+00
         0.30000E+00
         0.30000E+00
         0.30000E+00
         0.30000E+00
         0.30000E+00
         0.30000E+00
         0.30000E+00
         0.30000E+00
         0.30000E+00
         0.30000E+00
         0.30000E+00
         0.30000E+00
         0.30000E+00
         0.30000E+00
         0.30000E+00
         0.30000E+00
         0.30000E+00
         0.30000E+00
         0.30000E+00
         0.30000E+00
         0.30000E+00
         0.30000E+00
         0.30000E+00
         0.30000E+00
         0.30000E+00
         0.30000E+00
         0.30000E+00
         0.30000E+00
         0.30000E+00
         0.30000E+00
         0.30000E+00
         0.30000E+00
         0.30000E+00
         0.30000E+00
         0.30000E+00
         0.30000E+00
         0.30000E+00
         0.30000E+00
         0.30000E+00
         0.30000E+00
         0.30000E+00
         0.30000E+00
         0.30000E+00
         0.30000E+00
         0.30000E+00
         0.30000E+00
         0.30000E+00
         0.30000E+00
         0.30000E+00
         0.30000E+00
         0.30000E+00
         0.30000E+00
         0.30000E+00
         0.30000E+00
         0.30000E+00
         0.30000E+00
         0.30000E+00
         0.30000E+00
         0.30000E+00
         0.30000E+00
         0.30000E+00
         0.30000E+00
         0.30000E+00
         0.30000E+00
         0.30000E+00
         0.30000E+00
         0.30000E+00
         0.30000E+00
         0.30000E+00
         0.30000E+00
         0.30000E+00
         0.30000E+00
         0.30000E+00
         0.30000E+00
         0.30000E+00
         0.30000E+00
         0.30000E+00
         0.30000E+00
         0.30000E+00
         0.30000E+00
         0.30000E+00
         0.30000E+00
         0.30000E+00
         0.30000E+00
         0.30000E+00
         0.30000E+00
         0.30000E+00
  
SCALARS                 Youngs_modulus  double 1
LOOKUP_TABLE default
         0.78200E+11
         0.78200E+11
         0.78200E+11
         0.78200E+11
         0.78200E+11
         0.78200E+11
         0.78200E+11
         0.78200E+11
         0.78200E+11
         0.78200E+11
         0.78200E+11
         0.78200E+11
         0.78200E+11
         0.78200E+11
         0.78200E+11
         0.78200E+11
         0.78200E+11
         0.78200E+11
         0.78200E+11
         0.78200E+11
         0.78200E+11
         0.78200E+11
         0.78200E+11
         0.78200E+11
         0.78200E+11
         0.78200E+11
         0.78200E+11
         0.78200E+11
         0.78200E+11
         0.78200E+11
         0.78200E+11
         0.78200E+11
         0.78200E+11
         0.78200E+11
         0.78200E+11
         0.78200E+11
         0.78200E+11
         0.78200E+11
         0.78200E+11
         0.78200E+11
         0.78200E+11
         0.78200E+11
         0.78200E+11
         0.78200E+11
         0.78200E+11
         0.78200E+11
         0.78200E+11
         0.78200E+11
         0.78200E+11
         0.78200E+11
         0.78200E+11
         0.78200E+11
         0.78200E+11
         0.78200E+11
         0.78200E+11
         0.78200E+11
         0.78200E+11
         0.78200E+11
         0.78200E+11
         0.78200E+11
         0.78200E+11
         0.78200E+11
         0.78200E+11
         0.78200E+11
         0.78200E+11
         0.78200E+11
         0.78200E+11
         0.78200E+11
         0.78200E+11
         0.78200E+11
         0.78200E+11
         0.78200E+11
         0.78200E+11
         0.78200E+11
         0.78200E+11
         0.78200E+11
         0.78200E+11
         0.78200E+11
         0.78200E+11
         0.78200E+11
         0.78200E+11
         0.78200E+11
         0.78200E+11
         0.78200E+11
         0.78200E+11
         0.78200E+11
         0.78200E+11
         0.78200E+11
         0.78200E+11
         0.78200E+11
         0.78200E+11
         0.78200E+11
         0.78200E+11
         0.78200E+11
         0.78200E+11
         0.78200E+11
         0.78200E+11
         0.78200E+11
         0.78200E+11
         0.78200E+11
         0.78200E+11
         0.78200E+11
         0.78200E+11
         0.78200E+11
         0.78200E+11
         0.78200E+11
         0.78200E+11
         0.78200E+11
         0.78200E+11
         0.78200E+11
         0.78200E+11
         0.78200E+11
         0.78200E+11
         0.78200E+11
         0.78200E+11
         0.78200E+11
         0.78200E+11
         0.78200E+11
         0.78200E+11
         0.78200E+11
         0.78200E+11
         0.78200E+11
         0.78200E+11
         0.78200E+11
         0.78200E+11
         0.78200E+11
         0.78200E+11
         0.78200E+11
         0.78200E+11
         0.78200E+11
         0.78200E+11
         0.78200E+11
         0.78200E+11
         0.78200E+11
         0.78200E+11
         0.78200E+11
         0.78200E+11
         0.78200E+11
         0.78200E+11
         0.78200E+11
         0.78200E+11
         0.78200E+11
         0.78200E+11
         0.78200E+11
         0.78200E+11
         0.78200E+11
         0.78200E+11
         0.78200E+11
         0.78200E+11
         0.78200E+11
         0.78200E+11
         0.78200E+11
         0.78200E+11
         0.78200E+11
         0.78200E+11
         0.78200E+11
         0.78200E+11
         0.78200E+11
         0.78200E+11
         0.78200E+11
         0.78200E+11
         0.78200E+11
         0.78200E+11
         0.78200E+11
         0.78200E+11
         0.78200E+11
         0.78200E+11
         0.78200E+11
         0.78200E+11
         0.78200E+11
         0.78200E+11
         0.78200E+11
         0.78200E+11
         0.78200E+11
         0.78200E+11
         0.78200E+11
         0.78200E+11
         0.78200E+11
         0.78200E+11
         0.78200E+11
         0.78200E+11
         0.78200E+11
         0.78200E+11
         0.78200E+11
         0.78200E+11
         0.78200E+11
         0.78200E+11
         0.78200E+11
         0.78200E+11
         0.78200E+11
         0.78200E+11
         0.78200E+11
         0.78200E+11
         0.78200E+11
         0.78200E+11
         0.78200E+11
         0.78200E+11
         0.78200E+11
         0.78200E+11
         0.78200E+11
         0.78200E+11
         0.78200E+11
         0.78200E+11
         0.78200E+11
         0.78200E+11
         0.78200E+11
         0.78200E+11
         0.78200E+11
         0.78200E+11
         0.78200E+11
         0.78200E+11
         0.78200E+11
         0.78200E+11
         0.78200E+11
         0.78200E+11
         0.78200E+11
         0.78200E+11
         0.78200E+11
         0.78200E+11
         0.78200E+11
         0.78200E+11
         0.78200E+11
         0.78200E+11
         0.78200E+11
         0.78200E+11
         0.78200E+11
         0.78200E+11
         0.78200E+11
         0.78200E+11
         0.78200E+11
         0.78200E+11
         0.78200E+11
         0.78200E+11
         0.78200E+11
         0.78200E+11
         0.78200E+11
         0.78200E+11
         0.78200E+11
         0.78200E+11
         0.78200E+11
         0.78200E+11
         0.78200E+11
         0.78200E+11
         0.78200E+11
         0.78200E+11
         0.78200E+11
         0.78200E+11
         0.78200E+11
         0.78200E+11
         0.78200E+11
         0.78200E+11
         0.78200E+11
         0.78200E+11
         0.78200E+11
         0.78200E+11
         0.78200E+11
         0.78200E+11
         0.78200E+11
         0.78200E+11
         0.78200E+11
         0.78200E+11
         0.78200E+11
         0.78200E+11
         0.78200E+11
         0.78200E+11
         0.78200E+11
         0.78200E+11
         0.78200E+11
         0.78200E+11
         0.78200E+11
         0.78200E+11
         0.78200E+11
         0.78200E+11
         0.78200E+11
         0.78200E+11
         0.78200E+11
         0.78200E+11
         0.78200E+11
         0.78200E+11
         0.78200E+11
         0.78200E+11
         0.78200E+11
         0.78200E+11
         0.78200E+11
         0.78200E+11
         0.78200E+11
         0.78200E+11
         0.78200E+11
         0.78200E+11
         0.78200E+11
         0.78200E+11
         0.78200E+11
         0.78200E+11
         0.78200E+11
         0.78200E+11
         0.78200E+11
         0.78200E+11
         0.78200E+11
         0.78200E+11
         0.78200E+11
         0.78200E+11
         0.78200E+11
         0.78200E+11
         0.78200E+11
         0.78200E+11
         0.78200E+11
         0.78200E+11
         0.78200E+11
         0.78200E+11
         0.78200E+11
         0.78200E+11
         0.78200E+11
         0.78200E+11
         0.78200E+11
         0.78200E+11
         0.78200E+11
         0.78200E+11
         0.78200E+11
         0.78200E+11
         0.78200E+11
         0.78200E+11
         0.78200E+11
         0.78200E+11
         0.78200E+11
         0.78200E+11
         0.78200E+11
         0.78200E+11
         0.78200E+11
         0.78200E+11
         0.78200E+11
         0.78200E+11
         0.78200E+11
         0.78200E+11
         0.78200E+11
         0.78200E+11
         0.78200E+11
         0.78200E+11
         0.78200E+11
         0.78200E+11
         0.78200E+11
         0.78200E+11
         0.78200E+11
         0.78200E+11
         0.78200E+11
         0.78200E+11
         0.78200E+11
         0.78200E+11
         0.78200E+11
         0.78200E+11
         0.78200E+11
         0.78200E+11
         0.78200E+11
         0.78200E+11
         0.78200E+11
         0.78200E+11
         0.78200E+11
         0.78200E+11
         0.78200E+11
         0.78200E+11
         0.78200E+11
         0.78200E+11
         0.78200E+11
         0.78200E+11
         0.78200E+11
         0.78200E+11
         0.78200E+11
         0.78200E+11
         0.78200E+11
         0.78200E+11
         0.78200E+11
         0.78200E+11
         0.78200E+11
         0.78200E+11
         0.78200E+11
         0.78200E+11
         0.78200E+11
         0.78200E+11
         0.78200E+11
         0.78200E+11
         0.78200E+11
         0.78200E+11
         0.78200E+11
         0.78200E+11
         0.78200E+11
         0.78200E+11
         0.78200E+11
         0.78200E+11
         0.78200E+11
         0.78200E+11
         0.78200E+11
         0.78200E+11
         0.78200E+11
         0.78200E+11
         0.78200E+11
         0.78200E+11
         0.78200E+11
         0.78200E+11
         0.78200E+11
         0.78200E+11
         0.78200E+11
         0.78200E+11
         0.78200E+11
         0.78200E+11
         0.78200E+11
         0.78200E+11
         0.78200E+11
         0.78200E+11
         0.78200E+11
         0.78200E+11
         0.78200E+11
         0.78200E+11
         0.78200E+11
         0.78200E+11
         0.78200E+11
         0.78200E+11
         0.78200E+11
         0.78200E+11
         0.78200E+11
         0.78200E+11
         0.78200E+11
         0.78200E+11
         0.78200E+11
         0.78200E+11
         0.78200E+11
         0.78200E+11
         0.78200E+11
         0.78200E+11
         0.78200E+11
         0.78200E+11
         0.78200E+11
         0.78200E+11
         0.78200E+11
         0.78200E+11
         0.78200E+11
         0.78200E+11
         0.78200E+11
         0.78200E+11
         0.78200E+11
         0.78200E+11
         0.78200E+11
         0.78200E+11
         0.78200E+11
         0.78200E+11
         0.78200E+11
         0.78200E+11
         0.78200E+11
         0.78200E+11
         0.78200E+11
         0.78200E+11
         0.78200E+11
         0.78200E+11
         0.78200E+11
         0.78200E+11
         0.78200E+11
         0.78200E+11
         0.78200E+11
         0.78200E+11
         0.78200E+11
         0.78200E+11
         0.78200E+11
         0.78200E+11
         0.78200E+11
         0.78200E+11
         0.78200E+11
         0.78200E+11
         0.78200E+11
         0.78200E+11
         0.78200E+11
         0.78200E+11
         0.78200E+11
         0.78200E+11
         0.78200E+11
         0.78200E+11
         0.78200E+11
         0.78200E+11
         0.78200E+11
         0.78200E+11
         0.78200E+11
         0.78200E+11
         0.78200E+11
         0.78200E+11
         0.78200E+11
         0.78200E+11
         0.78200E+11
         0.78200E+11
         0.78200E+11
         0.78200E+11
         0.78200E+11
         0.78200E+11
         0.78200E+11
         0.78200E+11
         0.78200E+11
         0.78200E+11
         0.78200E+11
         0.78200E+11
         0.78200E+11
         0.78200E+11
         0.78200E+11
         0.78200E+11
         0.78200E+11
         0.78200E+11
         0.78200E+11
         0.78200E+11
         0.78200E+11
         0.78200E+11
         0.78200E+11
         0.78200E+11
         0.78200E+11
         0.78200E+11
         0.78200E+11
         0.78200E+11
         0.78200E+11
         0.78200E+11
         0.78200E+11
         0.78200E+11
         0.78200E+11
         0.78200E+11
         0.78200E+11
         0.78200E+11
         0.78200E+11
         0.78200E+11
         0.78200E+11
         0.78200E+11
         0.78200E+11
         0.78200E+11
         0.78200E+11
         0.78200E+11
         0.78200E+11
         0.78200E+11
         0.78200E+11
         0.78200E+11
         0.78200E+11
         0.78200E+11
         0.78200E+11
         0.78200E+11
         0.78200E+11
         0.78200E+11
         0.78200E+11
         0.78200E+11
         0.78200E+11
         0.78200E+11
         0.78200E+11
         0.78200E+11
         0.78200E+11
         0.78200E+11
         0.78200E+11
         0.78200E+11
         0.78200E+11
         0.78200E+11
         0.78200E+11
         0.78200E+11
         0.78200E+11
         0.78200E+11
         0.78200E+11
         0.78200E+11
         0.78200E+11
         0.78200E+11
         0.78200E+11
         0.78200E+11
         0.78200E+11
         0.78200E+11
         0.78200E+11
         0.78200E+11
         0.78200E+11
         0.78200E+11
         0.78200E+11
         0.78200E+11
         0.78200E+11
         0.78200E+11
         0.78200E+11
         0.78200E+11
         0.78200E+11
         0.78200E+11
         0.78200E+11
         0.78200E+11
         0.78200E+11
         0.78200E+11
         0.78200E+11
         0.78200E+11
         0.78200E+11
         0.78200E+11
         0.78200E+11
         0.78200E+11
         0.78200E+11
         0.78200E+11
         0.78200E+11
         0.78200E+11
         0.78200E+11
         0.78200E+11
         0.78200E+11
         0.78200E+11
         0.78200E+11
         0.78200E+11
         0.78200E+11
         0.78200E+11
         0.78200E+11
         0.78200E+11
         0.78200E+11
         0.78200E+11
         0.78200E+11
         0.78200E+11
         0.78200E+11
         0.78200E+11
         0.78200E+11
         0.78200E+11
         0.78200E+11
         0.78200E+11
         0.78200E+11
         0.78200E+11
         0.78200E+11
         0.78200E+11
         0.78200E+11
         0.78200E+11
         0.78200E+11
         0.78200E+11
         0.78200E+11
         0.78200E+11
         0.78200E+11
         0.78200E+11
         0.78200E+11
         0.78200E+11
         0.78200E+11
         0.78200E+11
         0.78200E+11
         0.78200E+11
         0.78200E+11
         0.78200E+11
         0.78200E+11
         0.78200E+11
         0.78200E+11
         0.78200E+11
         0.78200E+11
         0.78200E+11
         0.78200E+11
         0.78200E+11
         0.78200E+11
         0.78200E+11
         0.78200E+11
         0.78200E+11
         0.78200E+11
         0.78200E+11
         0.78200E+11
         0.78200E+11
         0.78200E+11
         0.78200E+11
         0.78200E+11
         0.78200E+11
         0.78200E+11
         0.78200E+11
         0.78200E+11
         0.78200E+11
         0.78200E+11
         0.78200E+11
         0.78200E+11
         0.78200E+11
         0.78200E+11
         0.78200E+11
         0.78200E+11
         0.78200E+11
         0.78200E+11
         0.78200E+11
         0.78200E+11
         0.78200E+11
         0.78200E+11
         0.78200E+11
         0.78200E+11
         0.78200E+11
         0.78200E+11
         0.78200E+11
         0.78200E+11
         0.78200E+11
         0.78200E+11
         0.78200E+11
         0.78200E+11
         0.78200E+11
         0.78200E+11
         0.78200E+11
         0.78200E+11
         0.78200E+11
         0.78200E+11
         0.78200E+11
         0.78200E+11
         0.78200E+11
         0.78200E+11
         0.78200E+11
         0.78200E+11
         0.78200E+11
         0.78200E+11
         0.78200E+11
         0.78200E+11
         0.78200E+11
         0.78200E+11
         0.78200E+11
         0.78200E+11
         0.78200E+11
         0.78200E+11
         0.78200E+11
         0.78200E+11
         0.78200E+11
         0.78200E+11
         0.78200E+11
         0.78200E+11
         0.78200E+11
         0.78200E+11
         0.78200E+11
         0.78200E+11
         0.78200E+11
         0.78200E+11
         0.78200E+11
         0.78200E+11
         0.78200E+11
         0.78200E+11
         0.78200E+11
         0.78200E+11
         0.78200E+11
         0.78200E+11
         0.78200E+11
         0.78200E+11
         0.78200E+11
         0.78200E+11
         0.78200E+11
         0.78200E+11
         0.78200E+11
         0.78200E+11
         0.78200E+11
         0.78200E+11
         0.78200E+11
         0.78200E+11
         0.78200E+11
         0.78200E+11
         0.78200E+11
         0.78200E+11
         0.78200E+11
         0.78200E+11
         0.78200E+11
         0.78200E+11
         0.78200E+11
         0.78200E+11
         0.78200E+11
         0.78200E+11
         0.78200E+11
         0.78200E+11
         0.78200E+11
         0.78200E+11
         0.78200E+11
         0.78200E+11
         0.78200E+11
         0.78200E+11
         0.78200E+11
         0.78200E+11
         0.78200E+11
         0.78200E+11
         0.78200E+11
         0.78200E+11
         0.78200E+11
         0.78200E+11
         0.78200E+11
         0.78200E+11
         0.78200E+11
         0.78200E+11
         0.78200E+11
         0.78200E+11
         0.78200E+11
         0.78200E+11
         0.78200E+11
         0.78200E+11
         0.78200E+11
         0.78200E+11
         0.78200E+11
         0.78200E+11
         0.78200E+11
         0.78200E+11
         0.78200E+11
         0.78200E+11
         0.78200E+11
         0.78200E+11
         0.78200E+11
         0.78200E+11
         0.78200E+11
         0.78200E+11
         0.78200E+11
         0.78200E+11
         0.78200E+11
         0.78200E+11
         0.78200E+11
         0.78200E+11
         0.78200E+11
         0.78200E+11
         0.78200E+11
         0.78200E+11
         0.78200E+11
         0.78200E+11
         0.78200E+11
         0.78200E+11
         0.78200E+11
         0.78200E+11
         0.78200E+11
         0.78200E+11
         0.78200E+11
         0.78200E+11
         0.78200E+11
         0.78200E+11
         0.78200E+11
         0.78200E+11
         0.78200E+11
         0.78200E+11
         0.78200E+11
         0.78200E+11
         0.78200E+11
         0.78200E+11
         0.78200E+11
         0.78200E+11
         0.78200E+11
         0.78200E+11
         0.78200E+11
         0.78200E+11
         0.78200E+11
         0.78200E+11
         0.78200E+11
         0.78200E+11
         0.78200E+11
         0.78200E+11
         0.78200E+11
         0.78200E+11
         0.78200E+11
         0.78200E+11
         0.78200E+11
         0.78200E+11
         0.78200E+11
         0.78200E+11
         0.78200E+11
         0.78200E+11
         0.78200E+11
         0.78200E+11
         0.78200E+11
         0.78200E+11
         0.78200E+11
         0.78200E+11
         0.78200E+11
         0.78200E+11
         0.78200E+11
         0.78200E+11
         0.78200E+11
         0.78200E+11
         0.78200E+11
         0.78200E+11
         0.78200E+11
         0.78200E+11
         0.78200E+11
         0.78200E+11
         0.78200E+11
         0.78200E+11
         0.78200E+11
         0.78200E+11
         0.78200E+11
         0.78200E+11
         0.78200E+11
         0.78200E+11
         0.78200E+11
         0.78200E+11
         0.78200E+11
         0.78200E+11
         0.78200E+11
         0.78200E+11
         0.78200E+11
         0.78200E+11
         0.78200E+11
         0.78200E+11
         0.78200E+11
         0.78200E+11
         0.78200E+11
         0.78200E+11
         0.78200E+11
         0.78200E+11
         0.78200E+11
         0.78200E+11
         0.78200E+11
         0.78200E+11
         0.78200E+11
         0.78200E+11
         0.78200E+11
         0.78200E+11
         0.78200E+11
         0.78200E+11
         0.78200E+11
         0.78200E+11
         0.78200E+11
         0.78200E+11
         0.78200E+11
         0.78200E+11
         0.78200E+11
         0.78200E+11
         0.78200E+11
         0.78200E+11
         0.78200E+11
         0.78200E+11
         0.78200E+11
         0.78200E+11
         0.78200E+11
         0.78200E+11
         0.78200E+11
         0.78200E+11
         0.78200E+11
         0.78200E+11
         0.78200E+11
         0.78200E+11
         0.78200E+11
         0.78200E+11
         0.78200E+11
         0.78200E+11
         0.78200E+11
         0.78200E+11
         0.78200E+11
         0.78200E+11
         0.78200E+11
         0.78200E+11
         0.78200E+11
         0.78200E+11
         0.78200E+11
         0.78200E+11
         0.78200E+11
         0.78200E+11
         0.78200E+11
         0.78200E+11
         0.78200E+11
         0.78200E+11
         0.78200E+11
         0.78200E+11
         0.78200E+11
         0.78200E+11
         0.78200E+11
         0.78200E+11
         0.78200E+11
         0.78200E+11
         0.78200E+11
         0.78200E+11
         0.78200E+11
         0.78200E+11
         0.78200E+11
         0.78200E+11
         0.78200E+11
         0.78200E+11
         0.78200E+11
         0.78200E+11
         0.78200E+11
         0.78200E+11
         0.78200E+11
         0.78200E+11
         0.78200E+11
         0.78200E+11
         0.78200E+11
         0.78200E+11
         0.78200E+11
         0.78200E+11
         0.78200E+11
         0.78200E+11
         0.78200E+11
         0.78200E+11
         0.78200E+11
         0.78200E+11
         0.78200E+11
         0.78200E+11
         0.78200E+11
         0.78200E+11
         0.78200E+11
         0.78200E+11
         0.78200E+11
         0.78200E+11
         0.78200E+11
         0.78200E+11
         0.78200E+11
         0.78200E+11
         0.78200E+11
         0.78200E+11
         0.78200E+11
         0.78200E+11
         0.78200E+11
         0.78200E+11
         0.78200E+11
         0.78200E+11
         0.78200E+11
         0.78200E+11
         0.78200E+11
         0.78200E+11
         0.78200E+11
         0.78200E+11
         0.78200E+11
         0.78200E+11
         0.78200E+11
         0.78200E+11
         0.78200E+11
         0.78200E+11
         0.78200E+11
         0.78200E+11
         0.78200E+11
         0.78200E+11
         0.78200E+11
         0.78200E+11
         0.78200E+11
         0.78200E+11
         0.78200E+11
         0.78200E+11
         0.78200E+11
         0.78200E+11
         0.78200E+11
         0.78200E+11
         0.78200E+11
         0.78200E+11
         0.78200E+11
         0.78200E+11
         0.78200E+11
         0.78200E+11
         0.78200E+11
         0.78200E+11
         0.78200E+11
         0.78200E+11
         0.78200E+11
         0.78200E+11
         0.78200E+11
         0.78200E+11
         0.78200E+11
         0.78200E+11
         0.78200E+11
         0.78200E+11
         0.78200E+11
         0.78200E+11
         0.78200E+11
         0.78200E+11
         0.78200E+11
         0.78200E+11
         0.78200E+11
         0.78200E+11
         0.78200E+11
         0.78200E+11
         0.78200E+11
         0.78200E+11
         0.78200E+11
         0.78200E+11
         0.78200E+11
         0.78200E+11
         0.78200E+11
         0.78200E+11
         0.78200E+11
         0.78200E+11
         0.78200E+11
         0.78200E+11
         0.78200E+11
         0.78200E+11
         0.78200E+11
         0.78200E+11
         0.78200E+11
         0.78200E+11
         0.78200E+11
         0.78200E+11
         0.78200E+11
         0.78200E+11
         0.78200E+11
         0.78200E+11
         0.78200E+11
         0.78200E+11
         0.78200E+11
         0.78200E+11
         0.78200E+11
         0.78200E+11
         0.78200E+11
         0.78200E+11
         0.78200E+11
         0.78200E+11
         0.78200E+11
         0.78200E+11
         0.78200E+11
         0.78200E+11
         0.78200E+11
         0.78200E+11
         0.78200E+11
         0.78200E+11
         0.78200E+11
         0.78200E+11
         0.78200E+11
         0.78200E+11
         0.78200E+11
         0.78200E+11
         0.78200E+11
         0.78200E+11
         0.78200E+11
         0.78200E+11
         0.78200E+11
         0.78200E+11
         0.78200E+11
         0.78200E+11
         0.78200E+11
         0.78200E+11
         0.78200E+11
         0.78200E+11
         0.78200E+11
         0.78200E+11
         0.78200E+11
         0.78200E+11
         0.78200E+11
         0.78200E+11
         0.78200E+11
         0.78200E+11
         0.78200E+11
         0.78200E+11
         0.78200E+11
         0.78200E+11
         0.78200E+11
         0.78200E+11
         0.78200E+11
         0.78200E+11
         0.78200E+11
         0.78200E+11
         0.78200E+11
         0.78200E+11
         0.78200E+11
         0.78200E+11
         0.78200E+11
         0.78200E+11
         0.78200E+11
         0.78200E+11
         0.78200E+11
         0.78200E+11
         0.78200E+11
         0.78200E+11
         0.78200E+11
         0.78200E+11
         0.78200E+11
         0.78200E+11
         0.78200E+11
         0.78200E+11
         0.78200E+11
         0.78200E+11
         0.78200E+11
         0.78200E+11
         0.78200E+11
         0.78200E+11
         0.78200E+11
         0.78200E+11
         0.78200E+11
         0.78200E+11
         0.78200E+11
         0.78200E+11
         0.78200E+11
         0.78200E+11
         0.78200E+11
         0.78200E+11
         0.78200E+11
         0.78200E+11
         0.78200E+11
         0.78200E+11
         0.78200E+11
         0.78200E+11
         0.78200E+11
         0.78200E+11
         0.78200E+11
         0.78200E+11
         0.78200E+11
         0.78200E+11
         0.78200E+11
         0.78200E+11
         0.78200E+11
         0.78200E+11
         0.78200E+11
         0.78200E+11
         0.78200E+11
         0.78200E+11
         0.78200E+11
         0.78200E+11
         0.78200E+11
         0.78200E+11
         0.78200E+11
         0.78200E+11
         0.78200E+11
         0.78200E+11
         0.78200E+11
         0.78200E+11
         0.78200E+11
         0.78200E+11
         0.78200E+11
         0.78200E+11
         0.78200E+11
         0.78200E+11
         0.78200E+11
         0.78200E+11
         0.78200E+11
         0.78200E+11
         0.78200E+11
         0.78200E+11
         0.78200E+11
         0.78200E+11
         0.78200E+11
         0.78200E+11
         0.78200E+11
         0.78200E+11
         0.78200E+11
         0.78200E+11
         0.78200E+11
         0.78200E+11
         0.78200E+11
         0.78200E+11
         0.78200E+11
         0.78200E+11
         0.78200E+11
         0.78200E+11
         0.78200E+11
         0.78200E+11
         0.78200E+11
         0.78200E+11
         0.78200E+11
         0.78200E+11
         0.78200E+11
         0.78200E+11
         0.78200E+11
         0.78200E+11
         0.78200E+11
         0.78200E+11
         0.78200E+11
         0.78200E+11
         0.78200E+11
         0.78200E+11
         0.78200E+11
         0.78200E+11
         0.78200E+11
         0.78200E+11
         0.78200E+11
         0.78200E+11
         0.78200E+11
         0.78200E+11
         0.78200E+11
         0.78200E+11
         0.78200E+11
         0.78200E+11
         0.78200E+11
         0.78200E+11
         0.78200E+11
         0.78200E+11
         0.78200E+11
         0.78200E+11
         0.78200E+11
         0.78200E+11
         0.78200E+11
         0.78200E+11
         0.78200E+11
         0.78200E+11
         0.78200E+11
         0.78200E+11
         0.78200E+11
         0.78200E+11
         0.78200E+11
         0.78200E+11
         0.78200E+11
         0.78200E+11
         0.78200E+11
         0.78200E+11
         0.78200E+11
         0.78200E+11
         0.78200E+11
         0.78200E+11
         0.78200E+11
         0.78200E+11
         0.78200E+11
         0.78200E+11
         0.78200E+11
         0.78200E+11
         0.78200E+11
         0.78200E+11
         0.78200E+11
         0.78200E+11
         0.78200E+11
         0.78200E+11
         0.78200E+11
         0.78200E+11
         0.78200E+11
         0.78200E+11
         0.78200E+11
         0.78200E+11
         0.78200E+11
         0.78200E+11
         0.78200E+11
         0.78200E+11
         0.78200E+11
         0.78200E+11
         0.78200E+11
         0.78200E+11
         0.78200E+11
         0.78200E+11
         0.78200E+11
         0.78200E+11
         0.78200E+11
         0.78200E+11
         0.78200E+11
         0.78200E+11
         0.78200E+11
         0.78200E+11
         0.78200E+11
         0.78200E+11
         0.78200E+11
         0.78200E+11
         0.78200E+11
         0.78200E+11
         0.78200E+11
         0.78200E+11
         0.78200E+11
         0.78200E+11
         0.78200E+11
         0.78200E+11
         0.78200E+11
         0.78200E+11
         0.78200E+11
         0.78200E+11
         0.78200E+11
         0.78200E+11
         0.78200E+11
         0.78200E+11
         0.78200E+11
         0.78200E+11
         0.78200E+11
         0.78200E+11
         0.78200E+11
         0.78200E+11
         0.78200E+11
         0.78200E+11
         0.78200E+11
         0.78200E+11
         0.78200E+11
         0.78200E+11
         0.78200E+11
         0.78200E+11
         0.78200E+11
         0.78200E+11
         0.78200E+11
         0.78200E+11
         0.78200E+11
         0.78200E+11
         0.78200E+11
         0.78200E+11
         0.78200E+11
         0.78200E+11
         0.78200E+11
         0.78200E+11
         0.78200E+11
         0.78200E+11
         0.78200E+11
         0.78200E+11
         0.78200E+11
         0.78200E+11
         0.78200E+11
         0.78200E+11
         0.78200E+11
         0.78200E+11
         0.78200E+11
         0.78200E+11
         0.78200E+11
         0.78200E+11
         0.78200E+11
         0.78200E+11
         0.78200E+11
         0.78200E+11
         0.78200E+11
         0.78200E+11
         0.78200E+11
         0.78200E+11
         0.78200E+11
         0.78200E+11
         0.78200E+11
         0.78200E+11
         0.78200E+11
         0.78200E+11
         0.78200E+11
         0.78200E+11
         0.78200E+11
         0.78200E+11
         0.78200E+11
         0.78200E+11
         0.78200E+11
         0.78200E+11
         0.78200E+11
         0.78200E+11
         0.78200E+11
         0.78200E+11
         0.78200E+11
         0.78200E+11
         0.78200E+11
         0.78200E+11
         0.78200E+11
         0.78200E+11
         0.78200E+11
         0.78200E+11
         0.78200E+11
         0.78200E+11
         0.78200E+11
         0.78200E+11
         0.78200E+11
         0.78200E+11
         0.78200E+11
         0.78200E+11
         0.78200E+11
         0.78200E+11
         0.78200E+11
         0.78200E+11
         0.78200E+11
         0.78200E+11
         0.78200E+11
         0.78200E+11
         0.78200E+11
         0.78200E+11
         0.78200E+11
         0.78200E+11
         0.78200E+11
         0.78200E+11
         0.78200E+11
         0.78200E+11
         0.78200E+11
         0.78200E+11
         0.78200E+11
         0.78200E+11
         0.78200E+11
         0.78200E+11
         0.78200E+11
         0.78200E+11
         0.78200E+11
         0.78200E+11
         0.78200E+11
         0.78200E+11
         0.78200E+11
         0.78200E+11
         0.78200E+11
         0.78200E+11
         0.78200E+11
         0.78200E+11
         0.78200E+11
         0.78200E+11
         0.78200E+11
         0.78200E+11
         0.78200E+11
         0.78200E+11
         0.78200E+11
         0.78200E+11
         0.78200E+11
         0.78200E+11
         0.78200E+11
         0.78200E+11
         0.78200E+11
         0.78200E+11
         0.78200E+11
         0.78200E+11
         0.78200E+11
         0.78200E+11
         0.78200E+11
         0.78200E+11
         0.78200E+11
         0.78200E+11
         0.78200E+11
         0.78200E+11
         0.78200E+11
         0.78200E+11
         0.78200E+11
         0.78200E+11
         0.78200E+11
         0.78200E+11
         0.78200E+11
         0.78200E+11
         0.78200E+11
         0.78200E+11
         0.78200E+11
         0.78200E+11
         0.78200E+11
         0.78200E+11
         0.78200E+11
         0.78200E+11
         0.78200E+11
         0.78200E+11
         0.78200E+11
         0.78200E+11
         0.78200E+11
         0.78200E+11
         0.78200E+11
         0.78200E+11
         0.78200E+11
         0.78200E+11
         0.78200E+11
         0.78200E+11
         0.78200E+11
         0.78200E+11
         0.78200E+11
         0.78200E+11
         0.78200E+11
         0.78200E+11
         0.78200E+11
         0.78200E+11
         0.78200E+11
         0.78200E+11
         0.78200E+11
         0.78200E+11
         0.78200E+11
         0.78200E+11
         0.78200E+11
         0.78200E+11
         0.78200E+11
         0.78200E+11
         0.78200E+11
         0.78200E+11
         0.78200E+11
         0.78200E+11
         0.78200E+11
         0.78200E+11
         0.78200E+11
         0.78200E+11
         0.78200E+11
         0.78200E+11
         0.78200E+11
         0.78200E+11
         0.78200E+11
         0.78200E+11
         0.78200E+11
         0.78200E+11
         0.78200E+11
         0.78200E+11
         0.78200E+11
         0.78200E+11
         0.78200E+11
         0.78200E+11
         0.78200E+11
         0.78200E+11
         0.78200E+11
         0.78200E+11
         0.78200E+11
         0.78200E+11
         0.78200E+11
         0.78200E+11
         0.78200E+11
         0.78200E+11
         0.78200E+11
         0.78200E+11
         0.78200E+11
         0.78200E+11
         0.78200E+11
         0.78200E+11
         0.78200E+11
         0.78200E+11
         0.78200E+11
         0.78200E+11
         0.78200E+11
         0.78200E+11
         0.78200E+11
         0.78200E+11
         0.78200E+11
         0.78200E+11
         0.78200E+11
         0.78200E+11
         0.78200E+11
         0.78200E+11
         0.78200E+11
         0.78200E+11
         0.78200E+11
         0.78200E+11
         0.78200E+11
         0.78200E+11
         0.78200E+11
         0.78200E+11
         0.78200E+11
         0.78200E+11
         0.78200E+11
         0.78200E+11
         0.78200E+11
         0.78200E+11
         0.78200E+11
         0.78200E+11
         0.78200E+11
         0.78200E+11
         0.78200E+11
         0.78200E+11
         0.78200E+11
         0.78200E+11
         0.78200E+11
         0.78200E+11
         0.78200E+11
         0.78200E+11
         0.78200E+11
         0.78200E+11
         0.78200E+11
         0.78200E+11
         0.78200E+11
         0.78200E+11
         0.78200E+11
         0.78200E+11
         0.78200E+11
         0.78200E+11
         0.78200E+11
         0.78200E+11
         0.78200E+11
         0.78200E+11
         0.78200E+11
         0.78200E+11
         0.78200E+11
         0.78200E+11
         0.78200E+11
         0.78200E+11
         0.78200E+11
         0.78200E+11
         0.78200E+11
         0.78200E+11
         0.78200E+11
         0.78200E+11
         0.78200E+11
         0.78200E+11
         0.78200E+11
         0.78200E+11
         0.78200E+11
         0.78200E+11
         0.78200E+11
         0.78200E+11
         0.78200E+11
         0.78200E+11
         0.78200E+11
         0.78200E+11
         0.78200E+11
         0.78200E+11
         0.78200E+11
         0.78200E+11
         0.78200E+11
         0.78200E+11
         0.78200E+11
         0.78200E+11
         0.78200E+11
         0.78200E+11
         0.78200E+11
         0.78200E+11
         0.78200E+11
         0.78200E+11
         0.78200E+11
         0.78200E+11
         0.78200E+11
         0.78200E+11
         0.78200E+11
         0.78200E+11
         0.78200E+11
         0.78200E+11
         0.78200E+11
         0.78200E+11
         0.78200E+11
         0.78200E+11
         0.78200E+11
         0.78200E+11
         0.78200E+11
         0.78200E+11
         0.78200E+11
         0.78200E+11
         0.78200E+11
         0.78200E+11
         0.78200E+11
         0.78200E+11
         0.78200E+11
         0.78200E+11
         0.78200E+11
         0.78200E+11
         0.78200E+11
         0.78200E+11
         0.78200E+11
         0.78200E+11
         0.78200E+11
         0.78200E+11
         0.78200E+11
         0.78200E+11
         0.78200E+11
         0.78200E+11
         0.78200E+11
         0.78200E+11
         0.78200E+11
         0.78200E+11
         0.78200E+11
         0.78200E+11
         0.78200E+11
         0.78200E+11
         0.78200E+11
         0.78200E+11
         0.78200E+11
         0.78200E+11
         0.78200E+11
         0.78200E+11
         0.78200E+11
         0.78200E+11
         0.78200E+11
         0.78200E+11
         0.78200E+11
         0.78200E+11
         0.78200E+11
         0.78200E+11
         0.78200E+11
         0.78200E+11
         0.78200E+11
         0.78200E+11
         0.78200E+11
         0.78200E+11
         0.78200E+11
         0.78200E+11
         0.78200E+11
         0.78200E+11
         0.78200E+11
         0.78200E+11
         0.78200E+11
         0.78200E+11
         0.78200E+11
         0.78200E+11
         0.78200E+11
         0.78200E+11
         0.78200E+11
         0.78200E+11
         0.78200E+11
         0.78200E+11
         0.78200E+11
         0.78200E+11
         0.78200E+11
         0.78200E+11
         0.78200E+11
         0.78200E+11
         0.78200E+11
         0.78200E+11
         0.78200E+11
         0.78200E+11
         0.78200E+11
         0.78200E+11
         0.78200E+11
         0.78200E+11
         0.78200E+11
         0.78200E+11
         0.78200E+11
         0.78200E+11
         0.78200E+11
         0.78200E+11
         0.78200E+11
         0.78200E+11
         0.78200E+11
         0.78200E+11
         0.78200E+11
         0.78200E+11
         0.78200E+11
         0.78200E+11
         0.78200E+11
         0.78200E+11
         0.78200E+11
         0.78200E+11
         0.78200E+11
         0.78200E+11
         0.78200E+11
         0.78200E+11
         0.78200E+11
         0.78200E+11
         0.78200E+11
         0.78200E+11
         0.78200E+11
         0.78200E+11
         0.78200E+11
         0.78200E+11
         0.78200E+11
         0.78200E+11
         0.78200E+11
         0.78200E+11
         0.78200E+11
         0.78200E+11
         0.78200E+11
         0.78200E+11
         0.78200E+11
         0.78200E+11
         0.78200E+11
         0.78200E+11
         0.78200E+11
         0.78200E+11
         0.78200E+11
         0.78200E+11
         0.78200E+11
         0.78200E+11
         0.78200E+11
         0.78200E+11
         0.78200E+11
         0.78200E+11
         0.78200E+11
         0.78200E+11
         0.78200E+11
         0.78200E+11
         0.78200E+11
         0.78200E+11
         0.78200E+11
         0.78200E+11
         0.78200E+11
         0.78200E+11
         0.78200E+11
         0.78200E+11
         0.78200E+11
         0.78200E+11
         0.78200E+11
         0.78200E+11
         0.78200E+11
         0.78200E+11
         0.78200E+11
         0.78200E+11
         0.78200E+11
         0.78200E+11
         0.78200E+11
         0.78200E+11
         0.78200E+11
         0.78200E+11
         0.78200E+11
         0.78200E+11
         0.78200E+11
         0.78200E+11
         0.78200E+11
         0.78200E+11
         0.78200E+11
         0.78200E+11
         0.78200E+11
         0.78200E+11
         0.78200E+11
         0.78200E+11
         0.78200E+11
         0.78200E+11
         0.78200E+11
         0.78200E+11
         0.78200E+11
         0.78200E+11
         0.78200E+11
         0.78200E+11
         0.78200E+11
         0.78200E+11
         0.78200E+11
         0.78200E+11
         0.78200E+11
         0.78200E+11
         0.78200E+11
         0.78200E+11
         0.78200E+11
         0.78200E+11
         0.78200E+11
         0.78200E+11
         0.78200E+11
         0.78200E+11
         0.78200E+11
         0.78200E+11
         0.78200E+11
         0.78200E+11
         0.78200E+11
         0.78200E+11
         0.78200E+11
         0.78200E+11
         0.78200E+11
         0.78200E+11
         0.78200E+11
         0.78200E+11
         0.78200E+11
         0.78200E+11
         0.78200E+11
         0.78200E+11
         0.78200E+11
         0.78200E+11
         0.78200E+11
         0.78200E+11
         0.78200E+11
         0.78200E+11
         0.78200E+11
         0.78200E+11
         0.78200E+11
         0.78200E+11
         0.78200E+11
         0.78200E+11
         0.78200E+11
         0.78200E+11
         0.78200E+11
         0.78200E+11
         0.78200E+11
         0.78200E+11
         0.78200E+11
         0.78200E+11
         0.78200E+11
         0.78200E+11
         0.78200E+11
         0.78200E+11
         0.78200E+11
         0.78200E+11
         0.78200E+11
         0.78200E+11
         0.78200E+11
         0.78200E+11
         0.78200E+11
         0.78200E+11
         0.78200E+11
         0.78200E+11
         0.78200E+11
         0.78200E+11
         0.78200E+11
         0.78200E+11
         0.78200E+11
         0.78200E+11
         0.78200E+11
         0.78200E+11
         0.78200E+11
         0.78200E+11
         0.78200E+11
         0.78200E+11
         0.78200E+11
         0.78200E+11
         0.78200E+11
         0.78200E+11
         0.78200E+11
         0.78200E+11
         0.78200E+11
         0.78200E+11
         0.78200E+11
         0.78200E+11
         0.78200E+11
         0.78200E+11
         0.78200E+11
         0.78200E+11
         0.78200E+11
         0.78200E+11
         0.78200E+11
         0.78200E+11
         0.78200E+11
         0.78200E+11
         0.78200E+11
         0.78200E+11
         0.78200E+11
         0.78200E+11
         0.78200E+11
         0.78200E+11
         0.78200E+11
         0.78200E+11
         0.78200E+11
         0.78200E+11
         0.78200E+11
         0.78200E+11
         0.78200E+11
         0.78200E+11
         0.78200E+11
         0.78200E+11
         0.78200E+11
         0.78200E+11
         0.78200E+11
         0.78200E+11
         0.78200E+11
         0.78200E+11
         0.78200E+11
         0.78200E+11
         0.78200E+11
         0.78200E+11
         0.78200E+11
         0.78200E+11
         0.78200E+11
         0.78200E+11
         0.78200E+11
         0.78200E+11
  
SCALARS                        density  double 1
LOOKUP_TABLE default
         0.27000E+04
         0.27000E+04
         0.27000E+04
         0.27000E+04
         0.27000E+04
         0.27000E+04
         0.27000E+04
         0.27000E+04
         0.27000E+04
         0.27000E+04
         0.27000E+04
         0.27000E+04
         0.27000E+04
         0.27000E+04
         0.27000E+04
         0.27000E+04
         0.27000E+04
         0.27000E+04
         0.27000E+04
         0.27000E+04
         0.27000E+04
         0.27000E+04
         0.27000E+04
         0.27000E+04
         0.27000E+04
         0.27000E+04
         0.27000E+04
         0.27000E+04
         0.27000E+04
         0.27000E+04
         0.27000E+04
         0.27000E+04
         0.27000E+04
         0.27000E+04
         0.27000E+04
         0.27000E+04
         0.27000E+04
         0.27000E+04
         0.27000E+04
         0.27000E+04
         0.27000E+04
         0.27000E+04
         0.27000E+04
         0.27000E+04
         0.27000E+04
         0.27000E+04
         0.27000E+04
         0.27000E+04
         0.27000E+04
         0.27000E+04
         0.27000E+04
         0.27000E+04
         0.27000E+04
         0.27000E+04
         0.27000E+04
         0.27000E+04
         0.27000E+04
         0.27000E+04
         0.27000E+04
         0.27000E+04
         0.27000E+04
         0.27000E+04
         0.27000E+04
         0.27000E+04
         0.27000E+04
         0.27000E+04
         0.27000E+04
         0.27000E+04
         0.27000E+04
         0.27000E+04
         0.27000E+04
         0.27000E+04
         0.27000E+04
         0.27000E+04
         0.27000E+04
         0.27000E+04
         0.27000E+04
         0.27000E+04
         0.27000E+04
         0.27000E+04
         0.27000E+04
         0.27000E+04
         0.27000E+04
         0.27000E+04
         0.27000E+04
         0.27000E+04
         0.27000E+04
         0.27000E+04
         0.27000E+04
         0.27000E+04
         0.27000E+04
         0.27000E+04
         0.27000E+04
         0.27000E+04
         0.27000E+04
         0.27000E+04
         0.27000E+04
         0.27000E+04
         0.27000E+04
         0.27000E+04
         0.27000E+04
         0.27000E+04
         0.27000E+04
         0.27000E+04
         0.27000E+04
         0.27000E+04
         0.27000E+04
         0.27000E+04
         0.27000E+04
         0.27000E+04
         0.27000E+04
         0.27000E+04
         0.27000E+04
         0.27000E+04
         0.27000E+04
         0.27000E+04
         0.27000E+04
         0.27000E+04
         0.27000E+04
         0.27000E+04
         0.27000E+04
         0.27000E+04
         0.27000E+04
         0.27000E+04
         0.27000E+04
         0.27000E+04
         0.27000E+04
         0.27000E+04
         0.27000E+04
         0.27000E+04
         0.27000E+04
         0.27000E+04
         0.27000E+04
         0.27000E+04
         0.27000E+04
         0.27000E+04
         0.27000E+04
         0.27000E+04
         0.27000E+04
         0.27000E+04
         0.27000E+04
         0.27000E+04
         0.27000E+04
         0.27000E+04
         0.27000E+04
         0.27000E+04
         0.27000E+04
         0.27000E+04
         0.27000E+04
         0.27000E+04
         0.27000E+04
         0.27000E+04
         0.27000E+04
         0.27000E+04
         0.27000E+04
         0.27000E+04
         0.27000E+04
         0.27000E+04
         0.27000E+04
         0.27000E+04
         0.27000E+04
         0.27000E+04
         0.27000E+04
         0.27000E+04
         0.27000E+04
         0.27000E+04
         0.27000E+04
         0.27000E+04
         0.27000E+04
         0.27000E+04
         0.27000E+04
         0.27000E+04
         0.27000E+04
         0.27000E+04
         0.27000E+04
         0.27000E+04
         0.27000E+04
         0.27000E+04
         0.27000E+04
         0.27000E+04
         0.27000E+04
         0.27000E+04
         0.27000E+04
         0.27000E+04
         0.27000E+04
         0.27000E+04
         0.27000E+04
         0.27000E+04
         0.27000E+04
         0.27000E+04
         0.27000E+04
         0.27000E+04
         0.27000E+04
         0.27000E+04
         0.27000E+04
         0.27000E+04
         0.27000E+04
         0.27000E+04
         0.27000E+04
         0.27000E+04
         0.27000E+04
         0.27000E+04
         0.27000E+04
         0.27000E+04
         0.27000E+04
         0.27000E+04
         0.27000E+04
         0.27000E+04
         0.27000E+04
         0.27000E+04
         0.27000E+04
         0.27000E+04
         0.27000E+04
         0.27000E+04
         0.27000E+04
         0.27000E+04
         0.27000E+04
         0.27000E+04
         0.27000E+04
         0.27000E+04
         0.27000E+04
         0.27000E+04
         0.27000E+04
         0.27000E+04
         0.27000E+04
         0.27000E+04
         0.27000E+04
         0.27000E+04
         0.27000E+04
         0.27000E+04
         0.27000E+04
         0.27000E+04
         0.27000E+04
         0.27000E+04
         0.27000E+04
         0.27000E+04
         0.27000E+04
         0.27000E+04
         0.27000E+04
         0.27000E+04
         0.27000E+04
         0.27000E+04
         0.27000E+04
         0.27000E+04
         0.27000E+04
         0.27000E+04
         0.27000E+04
         0.27000E+04
         0.27000E+04
         0.27000E+04
         0.27000E+04
         0.27000E+04
         0.27000E+04
         0.27000E+04
         0.27000E+04
         0.27000E+04
         0.27000E+04
         0.27000E+04
         0.27000E+04
         0.27000E+04
         0.27000E+04
         0.27000E+04
         0.27000E+04
         0.27000E+04
         0.27000E+04
         0.27000E+04
         0.27000E+04
         0.27000E+04
         0.27000E+04
         0.27000E+04
         0.27000E+04
         0.27000E+04
         0.27000E+04
         0.27000E+04
         0.27000E+04
         0.27000E+04
         0.27000E+04
         0.27000E+04
         0.27000E+04
         0.27000E+04
         0.27000E+04
         0.27000E+04
         0.27000E+04
         0.27000E+04
         0.27000E+04
         0.27000E+04
         0.27000E+04
         0.27000E+04
         0.27000E+04
         0.27000E+04
         0.27000E+04
         0.27000E+04
         0.27000E+04
         0.27000E+04
         0.27000E+04
         0.27000E+04
         0.27000E+04
         0.27000E+04
         0.27000E+04
         0.27000E+04
         0.27000E+04
         0.27000E+04
         0.27000E+04
         0.27000E+04
         0.27000E+04
         0.27000E+04
         0.27000E+04
         0.27000E+04
         0.27000E+04
         0.27000E+04
         0.27000E+04
         0.27000E+04
         0.27000E+04
         0.27000E+04
         0.27000E+04
         0.27000E+04
         0.27000E+04
         0.27000E+04
         0.27000E+04
         0.27000E+04
         0.27000E+04
         0.27000E+04
         0.27000E+04
         0.27000E+04
         0.27000E+04
         0.27000E+04
         0.27000E+04
         0.27000E+04
         0.27000E+04
         0.27000E+04
         0.27000E+04
         0.27000E+04
         0.27000E+04
         0.27000E+04
         0.27000E+04
         0.27000E+04
         0.27000E+04
         0.27000E+04
         0.27000E+04
         0.27000E+04
         0.27000E+04
         0.27000E+04
         0.27000E+04
         0.27000E+04
         0.27000E+04
         0.27000E+04
         0.27000E+04
         0.27000E+04
         0.27000E+04
         0.27000E+04
         0.27000E+04
         0.27000E+04
         0.27000E+04
         0.27000E+04
         0.27000E+04
         0.27000E+04
         0.27000E+04
         0.27000E+04
         0.27000E+04
         0.27000E+04
         0.27000E+04
         0.27000E+04
         0.27000E+04
         0.27000E+04
         0.27000E+04
         0.27000E+04
         0.27000E+04
         0.27000E+04
         0.27000E+04
         0.27000E+04
         0.27000E+04
         0.27000E+04
         0.27000E+04
         0.27000E+04
         0.27000E+04
         0.27000E+04
         0.27000E+04
         0.27000E+04
         0.27000E+04
         0.27000E+04
         0.27000E+04
         0.27000E+04
         0.27000E+04
         0.27000E+04
         0.27000E+04
         0.27000E+04
         0.27000E+04
         0.27000E+04
         0.27000E+04
         0.27000E+04
         0.27000E+04
         0.27000E+04
         0.27000E+04
         0.27000E+04
         0.27000E+04
         0.27000E+04
         0.27000E+04
         0.27000E+04
         0.27000E+04
         0.27000E+04
         0.27000E+04
         0.27000E+04
         0.27000E+04
         0.27000E+04
         0.27000E+04
         0.27000E+04
         0.27000E+04
         0.27000E+04
         0.27000E+04
         0.27000E+04
         0.27000E+04
         0.27000E+04
         0.27000E+04
         0.27000E+04
         0.27000E+04
         0.27000E+04
         0.27000E+04
         0.27000E+04
         0.27000E+04
         0.27000E+04
         0.27000E+04
         0.27000E+04
         0.27000E+04
         0.27000E+04
         0.27000E+04
         0.27000E+04
         0.27000E+04
         0.27000E+04
         0.27000E+04
         0.27000E+04
         0.27000E+04
         0.27000E+04
         0.27000E+04
         0.27000E+04
         0.27000E+04
         0.27000E+04
         0.27000E+04
         0.27000E+04
         0.27000E+04
         0.27000E+04
         0.27000E+04
         0.27000E+04
         0.27000E+04
         0.27000E+04
         0.27000E+04
         0.27000E+04
         0.27000E+04
         0.27000E+04
         0.27000E+04
         0.27000E+04
         0.27000E+04
         0.27000E+04
         0.27000E+04
         0.27000E+04
         0.27000E+04
         0.27000E+04
         0.27000E+04
         0.27000E+04
         0.27000E+04
         0.27000E+04
         0.27000E+04
         0.27000E+04
         0.27000E+04
         0.27000E+04
         0.27000E+04
         0.27000E+04
         0.27000E+04
         0.27000E+04
         0.27000E+04
         0.27000E+04
         0.27000E+04
         0.27000E+04
         0.27000E+04
         0.27000E+04
         0.27000E+04
         0.27000E+04
         0.27000E+04
         0.27000E+04
         0.27000E+04
         0.27000E+04
         0.27000E+04
         0.27000E+04
         0.27000E+04
         0.27000E+04
         0.27000E+04
         0.27000E+04
         0.27000E+04
         0.27000E+04
         0.27000E+04
         0.27000E+04
         0.27000E+04
         0.27000E+04
         0.27000E+04
         0.27000E+04
         0.27000E+04
         0.27000E+04
         0.27000E+04
         0.27000E+04
         0.27000E+04
         0.27000E+04
         0.27000E+04
         0.27000E+04
         0.27000E+04
         0.27000E+04
         0.27000E+04
         0.27000E+04
         0.27000E+04
         0.27000E+04
         0.27000E+04
         0.27000E+04
         0.27000E+04
         0.27000E+04
         0.27000E+04
         0.27000E+04
         0.27000E+04
         0.27000E+04
         0.27000E+04
         0.27000E+04
         0.27000E+04
         0.27000E+04
         0.27000E+04
         0.27000E+04
         0.27000E+04
         0.27000E+04
         0.27000E+04
         0.27000E+04
         0.27000E+04
         0.27000E+04
         0.27000E+04
         0.27000E+04
         0.27000E+04
         0.27000E+04
         0.27000E+04
         0.27000E+04
         0.27000E+04
         0.27000E+04
         0.27000E+04
         0.27000E+04
         0.27000E+04
         0.27000E+04
         0.27000E+04
         0.27000E+04
         0.27000E+04
         0.27000E+04
         0.27000E+04
         0.27000E+04
         0.27000E+04
         0.27000E+04
         0.27000E+04
         0.27000E+04
         0.27000E+04
         0.27000E+04
         0.27000E+04
         0.27000E+04
         0.27000E+04
         0.27000E+04
         0.27000E+04
         0.27000E+04
         0.27000E+04
         0.27000E+04
         0.27000E+04
         0.27000E+04
         0.27000E+04
         0.27000E+04
         0.27000E+04
         0.27000E+04
         0.27000E+04
         0.27000E+04
         0.27000E+04
         0.27000E+04
         0.27000E+04
         0.27000E+04
         0.27000E+04
         0.27000E+04
         0.27000E+04
         0.27000E+04
         0.27000E+04
         0.27000E+04
         0.27000E+04
         0.27000E+04
         0.27000E+04
         0.27000E+04
         0.27000E+04
         0.27000E+04
         0.27000E+04
         0.27000E+04
         0.27000E+04
         0.27000E+04
         0.27000E+04
         0.27000E+04
         0.27000E+04
         0.27000E+04
         0.27000E+04
         0.27000E+04
         0.27000E+04
         0.27000E+04
         0.27000E+04
         0.27000E+04
         0.27000E+04
         0.27000E+04
         0.27000E+04
         0.27000E+04
         0.27000E+04
         0.27000E+04
         0.27000E+04
         0.27000E+04
         0.27000E+04
         0.27000E+04
         0.27000E+04
         0.27000E+04
         0.27000E+04
         0.27000E+04
         0.27000E+04
         0.27000E+04
         0.27000E+04
         0.27000E+04
         0.27000E+04
         0.27000E+04
         0.27000E+04
         0.27000E+04
         0.27000E+04
         0.27000E+04
         0.27000E+04
         0.27000E+04
         0.27000E+04
         0.27000E+04
         0.27000E+04
         0.27000E+04
         0.27000E+04
         0.27000E+04
         0.27000E+04
         0.27000E+04
         0.27000E+04
         0.27000E+04
         0.27000E+04
         0.27000E+04
         0.27000E+04
         0.27000E+04
         0.27000E+04
         0.27000E+04
         0.27000E+04
         0.27000E+04
         0.27000E+04
         0.27000E+04
         0.27000E+04
         0.27000E+04
         0.27000E+04
         0.27000E+04
         0.27000E+04
         0.27000E+04
         0.27000E+04
         0.27000E+04
         0.27000E+04
         0.27000E+04
         0.27000E+04
         0.27000E+04
         0.27000E+04
         0.27000E+04
         0.27000E+04
         0.27000E+04
         0.27000E+04
         0.27000E+04
         0.27000E+04
         0.27000E+04
         0.27000E+04
         0.27000E+04
         0.27000E+04
         0.27000E+04
         0.27000E+04
         0.27000E+04
         0.27000E+04
         0.27000E+04
         0.27000E+04
         0.27000E+04
         0.27000E+04
         0.27000E+04
         0.27000E+04
         0.27000E+04
         0.27000E+04
         0.27000E+04
         0.27000E+04
         0.27000E+04
         0.27000E+04
         0.27000E+04
         0.27000E+04
         0.27000E+04
         0.27000E+04
         0.27000E+04
         0.27000E+04
         0.27000E+04
         0.27000E+04
         0.27000E+04
         0.27000E+04
         0.27000E+04
         0.27000E+04
         0.27000E+04
         0.27000E+04
         0.27000E+04
         0.27000E+04
         0.27000E+04
         0.27000E+04
         0.27000E+04
         0.27000E+04
         0.27000E+04
         0.27000E+04
         0.27000E+04
         0.27000E+04
         0.27000E+04
         0.27000E+04
         0.27000E+04
         0.27000E+04
         0.27000E+04
         0.27000E+04
         0.27000E+04
         0.27000E+04
         0.27000E+04
         0.27000E+04
         0.27000E+04
         0.27000E+04
         0.27000E+04
         0.27000E+04
         0.27000E+04
         0.27000E+04
         0.27000E+04
         0.27000E+04
         0.27000E+04
         0.27000E+04
         0.27000E+04
         0.27000E+04
         0.27000E+04
         0.27000E+04
         0.27000E+04
         0.27000E+04
         0.27000E+04
         0.27000E+04
         0.27000E+04
         0.27000E+04
         0.27000E+04
         0.27000E+04
         0.27000E+04
         0.27000E+04
         0.27000E+04
         0.27000E+04
         0.27000E+04
         0.27000E+04
         0.27000E+04
         0.27000E+04
         0.27000E+04
         0.27000E+04
         0.27000E+04
         0.27000E+04
         0.27000E+04
         0.27000E+04
         0.27000E+04
         0.27000E+04
         0.27000E+04
         0.27000E+04
         0.27000E+04
         0.27000E+04
         0.27000E+04
         0.27000E+04
         0.27000E+04
         0.27000E+04
         0.27000E+04
         0.27000E+04
         0.27000E+04
         0.27000E+04
         0.27000E+04
         0.27000E+04
         0.27000E+04
         0.27000E+04
         0.27000E+04
         0.27000E+04
         0.27000E+04
         0.27000E+04
         0.27000E+04
         0.27000E+04
         0.27000E+04
         0.27000E+04
         0.27000E+04
         0.27000E+04
         0.27000E+04
         0.27000E+04
         0.27000E+04
         0.27000E+04
         0.27000E+04
         0.27000E+04
         0.27000E+04
         0.27000E+04
         0.27000E+04
         0.27000E+04
         0.27000E+04
         0.27000E+04
         0.27000E+04
         0.27000E+04
         0.27000E+04
         0.27000E+04
         0.27000E+04
         0.27000E+04
         0.27000E+04
         0.27000E+04
         0.27000E+04
         0.27000E+04
         0.27000E+04
         0.27000E+04
         0.27000E+04
         0.27000E+04
         0.27000E+04
         0.27000E+04
         0.27000E+04
         0.27000E+04
         0.27000E+04
         0.27000E+04
         0.27000E+04
         0.27000E+04
         0.27000E+04
         0.27000E+04
         0.27000E+04
         0.27000E+04
         0.27000E+04
         0.27000E+04
         0.27000E+04
         0.27000E+04
         0.27000E+04
         0.27000E+04
         0.27000E+04
         0.27000E+04
         0.27000E+04
         0.27000E+04
         0.27000E+04
         0.27000E+04
         0.27000E+04
         0.27000E+04
         0.27000E+04
         0.27000E+04
         0.27000E+04
         0.27000E+04
         0.27000E+04
         0.27000E+04
         0.27000E+04
         0.27000E+04
         0.27000E+04
         0.27000E+04
         0.27000E+04
         0.27000E+04
         0.27000E+04
         0.27000E+04
         0.27000E+04
         0.27000E+04
         0.27000E+04
         0.27000E+04
         0.27000E+04
         0.27000E+04
         0.27000E+04
         0.27000E+04
         0.27000E+04
         0.27000E+04
         0.27000E+04
         0.27000E+04
         0.27000E+04
         0.27000E+04
         0.27000E+04
         0.27000E+04
         0.27000E+04
         0.27000E+04
         0.27000E+04
         0.27000E+04
         0.27000E+04
         0.27000E+04
         0.27000E+04
         0.27000E+04
         0.27000E+04
         0.27000E+04
         0.27000E+04
         0.27000E+04
         0.27000E+04
         0.27000E+04
         0.27000E+04
         0.27000E+04
         0.27000E+04
         0.27000E+04
         0.27000E+04
         0.27000E+04
         0.27000E+04
         0.27000E+04
         0.27000E+04
         0.27000E+04
         0.27000E+04
         0.27000E+04
         0.27000E+04
         0.27000E+04
         0.27000E+04
         0.27000E+04
         0.27000E+04
         0.27000E+04
         0.27000E+04
         0.27000E+04
         0.27000E+04
         0.27000E+04
         0.27000E+04
         0.27000E+04
         0.27000E+04
         0.27000E+04
         0.27000E+04
         0.27000E+04
         0.27000E+04
         0.27000E+04
         0.27000E+04
         0.27000E+04
         0.27000E+04
         0.27000E+04
         0.27000E+04
         0.27000E+04
         0.27000E+04
         0.27000E+04
         0.27000E+04
         0.27000E+04
         0.27000E+04
         0.27000E+04
         0.27000E+04
         0.27000E+04
         0.27000E+04
         0.27000E+04
         0.27000E+04
         0.27000E+04
         0.27000E+04
         0.27000E+04
         0.27000E+04
         0.27000E+04
         0.27000E+04
         0.27000E+04
         0.27000E+04
         0.27000E+04
         0.27000E+04
         0.27000E+04
         0.27000E+04
         0.27000E+04
         0.27000E+04
         0.27000E+04
         0.27000E+04
         0.27000E+04
         0.27000E+04
         0.27000E+04
         0.27000E+04
         0.27000E+04
         0.27000E+04
         0.27000E+04
         0.27000E+04
         0.27000E+04
         0.27000E+04
         0.27000E+04
         0.27000E+04
         0.27000E+04
         0.27000E+04
         0.27000E+04
         0.27000E+04
         0.27000E+04
         0.27000E+04
         0.27000E+04
         0.27000E+04
         0.27000E+04
         0.27000E+04
         0.27000E+04
         0.27000E+04
         0.27000E+04
         0.27000E+04
         0.27000E+04
         0.27000E+04
         0.27000E+04
         0.27000E+04
         0.27000E+04
         0.27000E+04
         0.27000E+04
         0.27000E+04
         0.27000E+04
         0.27000E+04
         0.27000E+04
         0.27000E+04
         0.27000E+04
         0.27000E+04
         0.27000E+04
         0.27000E+04
         0.27000E+04
         0.27000E+04
         0.27000E+04
         0.27000E+04
         0.27000E+04
         0.27000E+04
         0.27000E+04
         0.27000E+04
         0.27000E+04
         0.27000E+04
         0.27000E+04
         0.27000E+04
         0.27000E+04
         0.27000E+04
         0.27000E+04
         0.27000E+04
         0.27000E+04
         0.27000E+04
         0.27000E+04
         0.27000E+04
         0.27000E+04
         0.27000E+04
         0.27000E+04
         0.27000E+04
         0.27000E+04
         0.27000E+04
         0.27000E+04
         0.27000E+04
         0.27000E+04
         0.27000E+04
         0.27000E+04
         0.27000E+04
         0.27000E+04
         0.27000E+04
         0.27000E+04
         0.27000E+04
         0.27000E+04
         0.27000E+04
         0.27000E+04
         0.27000E+04
         0.27000E+04
         0.27000E+04
         0.27000E+04
         0.27000E+04
         0.27000E+04
         0.27000E+04
         0.27000E+04
         0.27000E+04
         0.27000E+04
         0.27000E+04
         0.27000E+04
         0.27000E+04
         0.27000E+04
         0.27000E+04
         0.27000E+04
         0.27000E+04
         0.27000E+04
         0.27000E+04
         0.27000E+04
         0.27000E+04
         0.27000E+04
         0.27000E+04
         0.27000E+04
         0.27000E+04
         0.27000E+04
         0.27000E+04
         0.27000E+04
         0.27000E+04
         0.27000E+04
         0.27000E+04
         0.27000E+04
         0.27000E+04
         0.27000E+04
         0.27000E+04
         0.27000E+04
         0.27000E+04
         0.27000E+04
         0.27000E+04
         0.27000E+04
         0.27000E+04
         0.27000E+04
         0.27000E+04
         0.27000E+04
         0.27000E+04
         0.27000E+04
         0.27000E+04
         0.27000E+04
         0.27000E+04
         0.27000E+04
         0.27000E+04
         0.27000E+04
         0.27000E+04
         0.27000E+04
         0.27000E+04
         0.27000E+04
         0.27000E+04
         0.27000E+04
         0.27000E+04
         0.27000E+04
         0.27000E+04
         0.27000E+04
         0.27000E+04
         0.27000E+04
         0.27000E+04
         0.27000E+04
         0.27000E+04
         0.27000E+04
         0.27000E+04
         0.27000E+04
         0.27000E+04
         0.27000E+04
         0.27000E+04
         0.27000E+04
         0.27000E+04
         0.27000E+04
         0.27000E+04
         0.27000E+04
         0.27000E+04
         0.27000E+04
         0.27000E+04
         0.27000E+04
         0.27000E+04
         0.27000E+04
         0.27000E+04
         0.27000E+04
         0.27000E+04
         0.27000E+04
         0.27000E+04
         0.27000E+04
         0.27000E+04
         0.27000E+04
         0.27000E+04
         0.27000E+04
         0.27000E+04
         0.27000E+04
         0.27000E+04
         0.27000E+04
         0.27000E+04
         0.27000E+04
         0.27000E+04
         0.27000E+04
         0.27000E+04
         0.27000E+04
         0.27000E+04
         0.27000E+04
         0.27000E+04
         0.27000E+04
         0.27000E+04
         0.27000E+04
         0.27000E+04
         0.27000E+04
         0.27000E+04
         0.27000E+04
         0.27000E+04
         0.27000E+04
         0.27000E+04
         0.27000E+04
         0.27000E+04
         0.27000E+04
         0.27000E+04
         0.27000E+04
         0.27000E+04
         0.27000E+04
         0.27000E+04
         0.27000E+04
         0.27000E+04
         0.27000E+04
         0.27000E+04
         0.27000E+04
         0.27000E+04
         0.27000E+04
         0.27000E+04
         0.27000E+04
         0.27000E+04
         0.27000E+04
         0.27000E+04
         0.27000E+04
         0.27000E+04
         0.27000E+04
         0.27000E+04
         0.27000E+04
         0.27000E+04
         0.27000E+04
         0.27000E+04
         0.27000E+04
         0.27000E+04
         0.27000E+04
         0.27000E+04
         0.27000E+04
         0.27000E+04
         0.27000E+04
         0.27000E+04
         0.27000E+04
         0.27000E+04
         0.27000E+04
         0.27000E+04
         0.27000E+04
         0.27000E+04
         0.27000E+04
         0.27000E+04
         0.27000E+04
         0.27000E+04
         0.27000E+04
         0.27000E+04
         0.27000E+04
         0.27000E+04
         0.27000E+04
         0.27000E+04
         0.27000E+04
         0.27000E+04
         0.27000E+04
         0.27000E+04
         0.27000E+04
         0.27000E+04
         0.27000E+04
         0.27000E+04
         0.27000E+04
         0.27000E+04
         0.27000E+04
         0.27000E+04
         0.27000E+04
         0.27000E+04
         0.27000E+04
         0.27000E+04
         0.27000E+04
         0.27000E+04
         0.27000E+04
         0.27000E+04
         0.27000E+04
         0.27000E+04
         0.27000E+04
         0.27000E+04
         0.27000E+04
         0.27000E+04
         0.27000E+04
         0.27000E+04
         0.27000E+04
         0.27000E+04
         0.27000E+04
         0.27000E+04
         0.27000E+04
         0.27000E+04
         0.27000E+04
         0.27000E+04
         0.27000E+04
         0.27000E+04
         0.27000E+04
         0.27000E+04
         0.27000E+04
         0.27000E+04
         0.27000E+04
         0.27000E+04
         0.27000E+04
         0.27000E+04
         0.27000E+04
         0.27000E+04
         0.27000E+04
         0.27000E+04
         0.27000E+04
         0.27000E+04
         0.27000E+04
         0.27000E+04
         0.27000E+04
         0.27000E+04
         0.27000E+04
         0.27000E+04
         0.27000E+04
         0.27000E+04
         0.27000E+04
         0.27000E+04
         0.27000E+04
         0.27000E+04
         0.27000E+04
         0.27000E+04
         0.27000E+04
         0.27000E+04
         0.27000E+04
         0.27000E+04
         0.27000E+04
         0.27000E+04
         0.27000E+04
         0.27000E+04
         0.27000E+04
         0.27000E+04
         0.27000E+04
         0.27000E+04
         0.27000E+04
         0.27000E+04
         0.27000E+04
         0.27000E+04
         0.27000E+04
         0.27000E+04
         0.27000E+04
         0.27000E+04
         0.27000E+04
         0.27000E+04
         0.27000E+04
         0.27000E+04
         0.27000E+04
         0.27000E+04
         0.27000E+04
         0.27000E+04
         0.27000E+04
         0.27000E+04
         0.27000E+04
         0.27000E+04
         0.27000E+04
         0.27000E+04
         0.27000E+04
         0.27000E+04
         0.27000E+04
         0.27000E+04
         0.27000E+04
         0.27000E+04
         0.27000E+04
         0.27000E+04
         0.27000E+04
         0.27000E+04
         0.27000E+04
         0.27000E+04
         0.27000E+04
         0.27000E+04
         0.27000E+04
         0.27000E+04
         0.27000E+04
         0.27000E+04
         0.27000E+04
         0.27000E+04
         0.27000E+04
         0.27000E+04
         0.27000E+04
         0.27000E+04
         0.27000E+04
         0.27000E+04
         0.27000E+04
         0.27000E+04
         0.27000E+04
         0.27000E+04
         0.27000E+04
         0.27000E+04
         0.27000E+04
         0.27000E+04
         0.27000E+04
         0.27000E+04
         0.27000E+04
         0.27000E+04
         0.27000E+04
         0.27000E+04
         0.27000E+04
         0.27000E+04
         0.27000E+04
         0.27000E+04
         0.27000E+04
         0.27000E+04
         0.27000E+04
         0.27000E+04
         0.27000E+04
         0.27000E+04
         0.27000E+04
         0.27000E+04
         0.27000E+04
         0.27000E+04
         0.27000E+04
         0.27000E+04
         0.27000E+04
         0.27000E+04
         0.27000E+04
         0.27000E+04
         0.27000E+04
         0.27000E+04
         0.27000E+04
         0.27000E+04
         0.27000E+04
         0.27000E+04
         0.27000E+04
         0.27000E+04
         0.27000E+04
         0.27000E+04
         0.27000E+04
         0.27000E+04
         0.27000E+04
         0.27000E+04
         0.27000E+04
         0.27000E+04
         0.27000E+04
         0.27000E+04
         0.27000E+04
         0.27000E+04
         0.27000E+04
         0.27000E+04
         0.27000E+04
         0.27000E+04
         0.27000E+04
         0.27000E+04
         0.27000E+04
         0.27000E+04
         0.27000E+04
         0.27000E+04
         0.27000E+04
         0.27000E+04
         0.27000E+04
         0.27000E+04
         0.27000E+04
         0.27000E+04
         0.27000E+04
         0.27000E+04
         0.27000E+04
         0.27000E+04
         0.27000E+04
         0.27000E+04
         0.27000E+04
         0.27000E+04
         0.27000E+04
         0.27000E+04
         0.27000E+04
         0.27000E+04
         0.27000E+04
         0.27000E+04
         0.27000E+04
         0.27000E+04
         0.27000E+04
         0.27000E+04
         0.27000E+04
         0.27000E+04
         0.27000E+04
         0.27000E+04
         0.27000E+04
         0.27000E+04
         0.27000E+04
         0.27000E+04
         0.27000E+04
         0.27000E+04
         0.27000E+04
         0.27000E+04
         0.27000E+04
         0.27000E+04
         0.27000E+04
         0.27000E+04
         0.27000E+04
         0.27000E+04
         0.27000E+04
         0.27000E+04
         0.27000E+04
         0.27000E+04
         0.27000E+04
         0.27000E+04
         0.27000E+04
         0.27000E+04
         0.27000E+04
         0.27000E+04
         0.27000E+04
         0.27000E+04
         0.27000E+04
         0.27000E+04
         0.27000E+04
         0.27000E+04
         0.27000E+04
         0.27000E+04
         0.27000E+04
         0.27000E+04
         0.27000E+04
         0.27000E+04
         0.27000E+04
         0.27000E+04
         0.27000E+04
         0.27000E+04
         0.27000E+04
         0.27000E+04
         0.27000E+04
         0.27000E+04
         0.27000E+04
         0.27000E+04
         0.27000E+04
         0.27000E+04
         0.27000E+04
         0.27000E+04
         0.27000E+04
         0.27000E+04
         0.27000E+04
         0.27000E+04
         0.27000E+04
         0.27000E+04
         0.27000E+04
         0.27000E+04
         0.27000E+04
         0.27000E+04
         0.27000E+04
         0.27000E+04
         0.27000E+04
         0.27000E+04
         0.27000E+04
         0.27000E+04
         0.27000E+04
         0.27000E+04
         0.27000E+04
         0.27000E+04
         0.27000E+04
         0.27000E+04
         0.27000E+04
         0.27000E+04
         0.27000E+04
         0.27000E+04
         0.27000E+04
         0.27000E+04
         0.27000E+04
         0.27000E+04
         0.27000E+04
         0.27000E+04
         0.27000E+04
         0.27000E+04
         0.27000E+04
         0.27000E+04
         0.27000E+04
         0.27000E+04
         0.27000E+04
         0.27000E+04
         0.27000E+04
         0.27000E+04
         0.27000E+04
         0.27000E+04
         0.27000E+04
         0.27000E+04
         0.27000E+04
         0.27000E+04
         0.27000E+04
         0.27000E+04
         0.27000E+04
         0.27000E+04
         0.27000E+04
         0.27000E+04
         0.27000E+04
         0.27000E+04
         0.27000E+04
         0.27000E+04
         0.27000E+04
         0.27000E+04
         0.27000E+04
         0.27000E+04
         0.27000E+04
         0.27000E+04
         0.27000E+04
         0.27000E+04
         0.27000E+04
         0.27000E+04
         0.27000E+04
         0.27000E+04
         0.27000E+04
         0.27000E+04
         0.27000E+04
         0.27000E+04
         0.27000E+04
         0.27000E+04
         0.27000E+04
         0.27000E+04
         0.27000E+04
         0.27000E+04
         0.27000E+04
         0.27000E+04
         0.27000E+04
         0.27000E+04
         0.27000E+04
         0.27000E+04
         0.27000E+04
         0.27000E+04
         0.27000E+04
         0.27000E+04
         0.27000E+04
         0.27000E+04
         0.27000E+04
         0.27000E+04
         0.27000E+04
         0.27000E+04
         0.27000E+04
         0.27000E+04
         0.27000E+04
         0.27000E+04
         0.27000E+04
         0.27000E+04
         0.27000E+04
         0.27000E+04
         0.27000E+04
         0.27000E+04
         0.27000E+04
         0.27000E+04
         0.27000E+04
         0.27000E+04
         0.27000E+04
         0.27000E+04
         0.27000E+04
         0.27000E+04
         0.27000E+04
         0.27000E+04
         0.27000E+04
         0.27000E+04
         0.27000E+04
         0.27000E+04
         0.27000E+04
         0.27000E+04
         0.27000E+04
         0.27000E+04
         0.27000E+04
         0.27000E+04
         0.27000E+04
         0.27000E+04
         0.27000E+04
         0.27000E+04
         0.27000E+04
         0.27000E+04
         0.27000E+04
         0.27000E+04
         0.27000E+04
         0.27000E+04
         0.27000E+04
         0.27000E+04
         0.27000E+04
         0.27000E+04
         0.27000E+04
         0.27000E+04
         0.27000E+04
         0.27000E+04
         0.27000E+04
         0.27000E+04
         0.27000E+04
         0.27000E+04
         0.27000E+04
         0.27000E+04
         0.27000E+04
         0.27000E+04
         0.27000E+04
         0.27000E+04
         0.27000E+04
         0.27000E+04
         0.27000E+04
         0.27000E+04
         0.27000E+04
         0.27000E+04
         0.27000E+04
         0.27000E+04
         0.27000E+04
         0.27000E+04
         0.27000E+04
         0.27000E+04
         0.27000E+04
         0.27000E+04
         0.27000E+04
         0.27000E+04
         0.27000E+04
         0.27000E+04
         0.27000E+04
         0.27000E+04
         0.27000E+04
         0.27000E+04
         0.27000E+04
         0.27000E+04
         0.27000E+04
         0.27000E+04
         0.27000E+04
         0.27000E+04
         0.27000E+04
         0.27000E+04
         0.27000E+04
         0.27000E+04
         0.27000E+04
         0.27000E+04
         0.27000E+04
         0.27000E+04
         0.27000E+04
         0.27000E+04
         0.27000E+04
         0.27000E+04
         0.27000E+04
         0.27000E+04
         0.27000E+04
         0.27000E+04
         0.27000E+04
         0.27000E+04
         0.27000E+04
         0.27000E+04
         0.27000E+04
         0.27000E+04
         0.27000E+04
         0.27000E+04
         0.27000E+04
         0.27000E+04
         0.27000E+04
         0.27000E+04
         0.27000E+04
         0.27000E+04
         0.27000E+04
         0.27000E+04
         0.27000E+04
         0.27000E+04
         0.27000E+04
         0.27000E+04
         0.27000E+04
         0.27000E+04
         0.27000E+04
         0.27000E+04
         0.27000E+04
         0.27000E+04
         0.27000E+04
         0.27000E+04
         0.27000E+04
         0.27000E+04
         0.27000E+04
         0.27000E+04
         0.27000E+04
         0.27000E+04
         0.27000E+04
         0.27000E+04
         0.27000E+04
         0.27000E+04
         0.27000E+04
         0.27000E+04
         0.27000E+04
         0.27000E+04
         0.27000E+04
         0.27000E+04
         0.27000E+04
         0.27000E+04
         0.27000E+04
         0.27000E+04
         0.27000E+04
         0.27000E+04
         0.27000E+04
         0.27000E+04
         0.27000E+04
         0.27000E+04
         0.27000E+04
         0.27000E+04
         0.27000E+04
         0.27000E+04
         0.27000E+04
         0.27000E+04
         0.27000E+04
         0.27000E+04
         0.27000E+04
         0.27000E+04
         0.27000E+04
         0.27000E+04
         0.27000E+04
         0.27000E+04
         0.27000E+04
         0.27000E+04
         0.27000E+04
         0.27000E+04
         0.27000E+04
         0.27000E+04
         0.27000E+04
         0.27000E+04
         0.27000E+04
         0.27000E+04
         0.27000E+04
         0.27000E+04
         0.27000E+04
         0.27000E+04
         0.27000E+04
         0.27000E+04
         0.27000E+04
         0.27000E+04
         0.27000E+04
         0.27000E+04
         0.27000E+04
         0.27000E+04
         0.27000E+04
         0.27000E+04
         0.27000E+04
         0.27000E+04
         0.27000E+04
         0.27000E+04
         0.27000E+04
         0.27000E+04
         0.27000E+04
         0.27000E+04
         0.27000E+04
         0.27000E+04
         0.27000E+04
         0.27000E+04
         0.27000E+04
         0.27000E+04
         0.27000E+04
         0.27000E+04
         0.27000E+04
         0.27000E+04
         0.27000E+04
         0.27000E+04
         0.27000E+04
         0.27000E+04
         0.27000E+04
         0.27000E+04
         0.27000E+04
         0.27000E+04
         0.27000E+04
         0.27000E+04
         0.27000E+04
         0.27000E+04
         0.27000E+04
         0.27000E+04
         0.27000E+04
         0.27000E+04
         0.27000E+04
         0.27000E+04
         0.27000E+04
         0.27000E+04
         0.27000E+04
         0.27000E+04
         0.27000E+04
         0.27000E+04
         0.27000E+04
         0.27000E+04
         0.27000E+04
         0.27000E+04
         0.27000E+04
         0.27000E+04
         0.27000E+04
         0.27000E+04
         0.27000E+04
         0.27000E+04
         0.27000E+04
         0.27000E+04
         0.27000E+04
         0.27000E+04
         0.27000E+04
         0.27000E+04
         0.27000E+04
         0.27000E+04
         0.27000E+04
         0.27000E+04
         0.27000E+04
         0.27000E+04
         0.27000E+04
         0.27000E+04
         0.27000E+04
         0.27000E+04
         0.27000E+04
         0.27000E+04
         0.27000E+04
         0.27000E+04
         0.27000E+04
         0.27000E+04
         0.27000E+04
         0.27000E+04
         0.27000E+04
         0.27000E+04
         0.27000E+04
         0.27000E+04
         0.27000E+04
         0.27000E+04
         0.27000E+04
         0.27000E+04
         0.27000E+04
         0.27000E+04
         0.27000E+04
         0.27000E+04
         0.27000E+04
         0.27000E+04
         0.27000E+04
         0.27000E+04
         0.27000E+04
         0.27000E+04
         0.27000E+04
         0.27000E+04
         0.27000E+04
         0.27000E+04
         0.27000E+04
         0.27000E+04
         0.27000E+04
         0.27000E+04
         0.27000E+04
         0.27000E+04
         0.27000E+04
         0.27000E+04
         0.27000E+04
         0.27000E+04
         0.27000E+04
         0.27000E+04
         0.27000E+04
         0.27000E+04
         0.27000E+04
         0.27000E+04
         0.27000E+04
         0.27000E+04
         0.27000E+04
         0.27000E+04
         0.27000E+04
         0.27000E+04
         0.27000E+04
         0.27000E+04
         0.27000E+04
         0.27000E+04
         0.27000E+04
         0.27000E+04
         0.27000E+04
         0.27000E+04
         0.27000E+04
         0.27000E+04
         0.27000E+04
         0.27000E+04
         0.27000E+04
         0.27000E+04
         0.27000E+04
         0.27000E+04
         0.27000E+04
         0.27000E+04
         0.27000E+04
         0.27000E+04
         0.27000E+04
         0.27000E+04
         0.27000E+04
         0.27000E+04
         0.27000E+04
         0.27000E+04
         0.27000E+04
         0.27000E+04
         0.27000E+04
         0.27000E+04
         0.27000E+04
         0.27000E+04
         0.27000E+04
         0.27000E+04
         0.27000E+04
         0.27000E+04
         0.27000E+04
         0.27000E+04
         0.27000E+04
         0.27000E+04
         0.27000E+04
         0.27000E+04
         0.27000E+04
         0.27000E+04
         0.27000E+04
         0.27000E+04
         0.27000E+04
         0.27000E+04
         0.27000E+04
         0.27000E+04
         0.27000E+04
         0.27000E+04
         0.27000E+04
         0.27000E+04
         0.27000E+04
         0.27000E+04
         0.27000E+04
         0.27000E+04
         0.27000E+04
         0.27000E+04
         0.27000E+04
         0.27000E+04
         0.27000E+04
         0.27000E+04
         0.27000E+04
         0.27000E+04
         0.27000E+04
         0.27000E+04
         0.27000E+04
         0.27000E+04
         0.27000E+04
         0.27000E+04
         0.27000E+04
         0.27000E+04
         0.27000E+04
         0.27000E+04
         0.27000E+04
         0.27000E+04
         0.27000E+04
         0.27000E+04
         0.27000E+04
         0.27000E+04
